
BEGIN IONS
PEPMASS=866.6325
CHARGE=1
MSLEVEL=2
RT=0
SOURCE_INSTRUMENT=qTOF
FILENAME=CCMSLIB00000001570.ms
IONMODE=Positive
ORGANISM=Natural
NAME=Halovir A
PI=GNPS
DATACOLLECTOR=GNPS
SMILES=CCCCCCCCCCCCCC(=NC(C)(C)C(=O)N1C[C@H](CC1C(=N[C@@H](CC(C)C)C(=N[C@@H](C(C)C)C(=N[C@@H](CCC(=N)O)C(=N[C@@H](CC(C)C)CO)O)O)O)O)O)O
INCHI=InChI=1S/C45H83N7O9/c1-10-11-12-13-14-15-16-17-18-19-20-21-38(56)51-45(8,9)44(61)52-27-33(54)26-36(52)42(59)49-35(25-30(4)5)41(58)50-39(31(6)7)43(60)48-34(22-23-37(46)55)40(57)47-32(28-53)24-29(2)3/h29-36,39,53-54H,10-28H2,1-9H3,(H2,46,55)(H,47,57)(H,48,60)(H,49,59)(H,50,58)(H,51,56)/t32-,33-,34-,35-,36?,39-/m0/s1
FORMULA=C45H83N7O9
PUBMED=N/A
SUBMITUSER=BIOADREM
LIBRARYQUALITY=0
SPECTRUMID=CCMSLIB00000001570
SCANS=1
ID=CCMSLIB00000001570
101.0709388893 	 4.48
117.1022390177 	 4.2
128.1069900446 	 4.3
129.1148150767 	 1.69
130.0498690962 	 4.19
147.0764181977 	 17.45
148.0756899162 	 2.17
199.1441038324 	 82.96
201.1471778376 	 3.35
210.1574081729 	 20.2
211.1441038324 	 32.3
227.1390184545 	 100
228.1620996203 	 25.01
229.1573485934 	 10.65
246.1448321139 	 7.19
268.2621480159 	 2.12
296.257062638 	 12.7
297.2536542818 	 3.77
298.2125177486 	 1.93
310.2098376739 	 5.56
326.2074323707 	 30.2
327.2363867754 	 31.64
329.243483526 	 1.71
341.2196740787 	 2.06
343.2254281586 	 1.54
369.2020126418 	 1.99
403.2465575312 	 2.68
409.3087638575 	 31.96
410.3098860695 	 15.52
454.2574565685 	 7.63
472.2779172391 	 9.48
473.2857422712 	 6.38
522.3901477632 	 15.19
523.388076811 	 7.69
535.3575645436 	 1.89
553.3721519753 	 39.96
554.3700810231 	 23.44
555.3779060552 	 6.83
571.3827166616 	 17.38
572.3806457094 	 10.52
573.3983667258 	 3.22
621.454538934 	 9.05
848.6219386133 	 22.66
849.6297636454 	 23.43
866.6325032996 	 77.75
END IONS

BEGIN IONS
PEPMASS=850.6376
CHARGE=1
MSLEVEL=2
RT=0
SOURCE_INSTRUMENT=qTOF
FILENAME=CCMSLIB00000001598.ms
IONMODE=Positive
ORGANISM=Natural
NAME=Halovir C
PI=GNPS
DATACOLLECTOR=GNPS
SMILES=CCCCCCCCCCCCCC(=NC(C)(C)C(=O)N1CCCC1C(=N[C@@H](CC(C)C)C(=N[C@@H](C(C)C)C(=N[C@@H](CCC(=N)O)C(=N[C@@H](CC(C)C)CO)O)O)O)O)O
INCHI=InChI=1S/C45H83N7O8/c1-10-11-12-13-14-15-16-17-18-19-20-23-38(55)51-45(8,9)44(60)52-26-21-22-36(52)42(58)49-35(28-31(4)5)41(57)50-39(32(6)7)43(59)48-34(24-25-37(46)54)40(56)47-33(29-53)27-30(2)3/h30-36,39,53H,10-29H2,1-9H3,(H2,46,54)(H,47,56)(H,48,59)(H,49,58)(H,50,57)(H,51,55)/t33-,34-,35-,36?,39-/m0/s1
FORMULA=C45H83N7O8
PUBMED=N/A
SUBMITUSER=BIOADREM
LIBRARYQUALITY=0
SPECTRUMID=CCMSLIB00000001598
SCANS=2
ID=CCMSLIB00000001598
183.1478465396 	 2.19
211.1427611617 	 4.99
228.1693102632 	 1.45
229.153325848 	 1.32
246.1798749495 	 1.73
282.2162604558 	 0.28
296.257062638 	 0.39
310.2111750779 	 12.97
312.2155917538 	 0.3
327.2390668501 	 1.45
345.2496315364 	 1.53
393.30982649 	 5.25
410.2761806379 	 0.39
438.27109526 	 14.08
439.2717096492 	 3.75
440.2741692652 	 0.55
478.3962957736 	 0.28
506.3912103957 	 14.53
507.3945048596 	 4.95
508.3983071463 	 0.9
537.3758946825 	 2.28
538.3599102673 	 2.14
539.3605246565 	 0.62
555.3864593688 	 100
556.387073758 	 34.79
605.4623043866 	 36.68
606.467449344 	 16.09
607.4667210625 	 3.36
735.5252985739 	 0.3
832.6270239912 	 10.49
834.6188646081 	 3.03
835.6141135812 	 0.66
850.6375886775 	 24.67
END IONS

BEGIN IONS
PEPMASS=610.4165
CHARGE=1
MSLEVEL=2
RT=0
SOURCE_INSTRUMENT=qTOF
FILENAME=CCMSLIB00000001606.ms
IONMODE=Positive
ORGANISM=Natural
NAME=Emericellamide A
PI=GNPS
DATACOLLECTOR=GNPS
SMILES=CCCCCC[C@H](C)[C@@H]1[C@@H](C)C(=NCC(=N[C@@H](C(C)C)C(=N[C@@H](CC(C)C)C(=N[C@@H](C)C(=N[C@@H](C)C(=O)O1)O)O)O)O)O
INCHI=InChI=1S/C31H55N5O7/c1-10-11-12-13-14-19(6)26-20(7)27(38)32-16-24(37)36-25(18(4)5)30(41)35-23(15-17(2)3)29(40)33-21(8)28(39)34-22(9)31(42)43-26/h17-23,25-26H,10-16H2,1-9H3,(H,32,38)(H,33,40)(H,34,39)(H,35,41)(H,36,37)/t19-,20+,21-,22-,23-,25-,26+/m0/s1
FORMULA=C31H55N5O7
PUBMED=N/A
SUBMITUSER=BIOADREM
LIBRARYQUALITY=0
SPECTRUMID=CCMSLIB00000001606
SCANS=3
ID=CCMSLIB00000001606
126.0913399804 	 2.71
157.1335391461 	 3.6
185.1284537682 	 17.89
210.1852403656 	 3.12
213.1597538966 	 8.48
238.1801549877 	 11.81
256.190719674 	 12.99
284.1968676844 	 5.83
309.2536542818 	 13.15
337.2485689039 	 100
338.2523711906 	 23.79
351.2642189681 	 2.67
355.2591335902 	 28.56
356.2629358769 	 6.68
408.2856826917 	 3.86
426.296247378 	 6.64
427.3000496647 	 2.05
440.3118974422 	 2.89
450.3326328843 	 64.57
451.336435171 	 22.13
452.3357068895 	 4.75
466.3275475064 	 3.61
468.3431975706 	 26.73
469.3469998573 	 12.06
470.3462715758 	 2.45
497.3333611658 	 8.69
521.3697466721 	 25.37
522.3775717042 	 10.2
523.3728206773 	 2.03
539.3803113584 	 38.74
540.3881363905 	 15.35
541.3833853636 	 2.97
565.3959614226 	 7.28
566.4037864547 	 3.01
582.4225105241 	 18.17
592.4068604599 	 4.5
610.4174251462 	 45.56
END IONS

BEGIN IONS
PEPMASS=601.3571
CHARGE=1
MSLEVEL=2
RT=0
SOURCE_INSTRUMENT=qTOF
FILENAME=CCMSLIB00000001621.ms
IONMODE=Positive
ORGANISM=Natural
NAME=Desferrioxamine E
PI=GNPS
DATACOLLECTOR=GNPS
SMILES=C1CCN=C(CCC(=O)N(CCCCCN=C(CCC(=O)N(CCCCCN=C(CCC(=O)N(CC1)O)O)O)O)O)O
INCHI=InChI=1S/C27H48N6O9/c34-22-10-14-26(38)32(41)20-8-3-6-18-30-24(36)12-15-27(39)33(42)21-9-2-5-17-29-23(35)11-13-25(37)31(40)19-7-1-4-16-28-22/h40-42H,1-21H2,(H,28,34)(H,29,35)(H,30,36)
FORMULA=C27H48N6O9
PUBMED=N/A
SUBMITUSER=BIOADREM
LIBRARYQUALITY=0
SPECTRUMID=CCMSLIB00000001621
SCANS=4
ID=CCMSLIB00000001621
84.0807752941 	 5.67
86.0964253583 	 0.145
100.0393044099 	 1.6
102.0913399804 	 1.615
110.0964253583 	 0.115
112.0393044099 	 0.485
119.1178890819 	 0.145
122.0964253583 	 0.215
137.1073243956 	 0.405
138.0913399804 	 0.7
140.0706045383 	 0.2
154.0862546025 	 1.57
165.1022390177 	 2.025
166.0862546025 	 4.495
168.1019046667 	 0.535
183.112803704 	 4.575
194.0236543457 	 2.085
201.0896629587 	 10.76
201.1233683903 	 29.075
211.1441038324 	 0.3
213.0321480798 	 1.645
219.1015703157 	 1.335
219.1339330766 	 1.215
237.1233683903 	 0.16
254.1287881192 	 2.1
265.1182830124 	 0.29
283.0911195217 	 4.525
283.1288476987 	 4.875
283.1315277734 	 2.425
300.1553968002 	 0.175
301.1420924597 	 1.72
301.1825007114 	 3.18
319.2730470532 	 2.145
355.2353241429 	 0.2
357.1808832692 	 0.72
366.2036896635 	 0.365
367.0587567608 	 1.855
379.2730470532 	 0.92
383.230238765 	 1.145
383.2765149889 	 2.275
384.2340410517 	 0.295
384.2731066327 	 0.735
401.2408034513 	 100
401.2758462869 	 50
402.244605738 	 11.19
402.2737753347 	 2.87
411.1788718965 	 0.63
419.179934529 	 1.545
419.2513681376 	 2.235
463.140081087 	 1.41
463.2703669785 	 0.82
469.2683556058 	 0.655
483.244940089 	 2.8
483.271429611 	 2.115
484.36192164 	 0.635
498.257181797 	 1.45
501.2555047753 	 0.38
511.2762402174 	 0.815
527.2738349142 	 2.3
528.2690838873 	 1.23
536.2476797432 	 1.985
544.2765745684 	 0.66
573.3494051605 	 4.98
583.3449884846 	 0.82
601.3555531709 	 95.76
END IONS

BEGIN IONS
PEPMASS=410.2802
CHARGE=1
MSLEVEL=2
RT=0
SOURCE_INSTRUMENT=qTOF
FILENAME=CCMSLIB00000001623.ms
IONMODE=Positive
ORGANISM=Natural
NAME=Marineosin A
PI=GNPS
DATACOLLECTOR=GNPS
SMILES=C[C@H]1C[C@@H]2CCCCCCCc3ccc([C@H]2[C@]2([C@@H](C/C(=C/4\C=CC=N4)/N2)OC)O1)[nH]3
INCHI=InChI=1S/C25H35N3O2/c1-17-15-18-9-6-4-3-5-7-10-19-12-13-21(27-19)24(18)25(30-17)23(29-2)16-22(28-25)20-11-8-14-26-20/h8,11-14,17-18,23-24,27-28H,3-7,9-10,15-16H2,1-2H3/b22-20-/t17-,18-,23+,24-,25-/m0/s1
FORMULA=C25H35N3O2
PUBMED=N/A
SUBMITUSER=BIOADREM
LIBRARYQUALITY=0
SPECTRUMID=CCMSLIB00000001623
SCANS=5
ID=CCMSLIB00000001623
80.0494751657 	 2.93
94.0651252299 	 1.08
120.0807752941 	 1.04
134.0964253583 	 0.89
147.0552888251 	 0.49
148.1120754225 	 0.63
163.0865889535 	 1.65
188.1433755509 	 0.58
190.1590256151 	 3.18
200.1433755509 	 2.21
213.163776642 	 0.54
218.1903257435 	 0.51
228.138290173 	 13.44
230.1903257435 	 93.25
232.2059758077 	 8.21
242.1903257435 	 1.08
246.1852403656 	 1.85
248.2008904298 	 1.13
260.1645049235 	 5.81
270.1852403656 	 20.66
284.2008904298 	 0.48
286.216540494 	 2.59
302.2114551161 	 100
319.1804893387 	 0.97
334.2277738823 	 0.57
336.2070384402 	 3.75
360.2434239465 	 1.77
361.2274395313 	 12.58
362.2352645634 	 5.54
378.2539886328 	 53.28
379.2618136649 	 28.12
392.269638697 	 0.57
394.2614793139 	 0.49
410.2802033833 	 23.8
END IONS

BEGIN IONS
PEPMASS=879.4619
CHARGE=1
MSLEVEL=2
RT=0
SOURCE_INSTRUMENT=qTOF
FILENAME=CCMSLIB00000001631.ms
IONMODE=Positive
ORGANISM=Natural
NAME=Etamycin
PI=GNPS
DATACOLLECTOR=GNPS
SMILES=CC(C)CC1C(=O)N2CC(CC2C(=O)N(C)CC(=O)N(C)C(C(C)C(C)C)C(=NC(C)C(=O)N(C)C(c2ccccc2)C(=O)OC(C)C(C(=N1)O)N=C(c1c(cccn1)O)O)O)O
INCHI=InChI=1S/C44H62N8O11/c1-23(2)19-30-42(60)52-21-29(53)20-31(52)43(61)49(8)22-33(55)50(9)36(25(5)24(3)4)40(58)46-26(6)41(59)51(10)37(28-15-12-11-13-16-28)44(62)63-27(7)34(38(56)47-30)48-39(57)35-32(54)17-14-18-45-35/h11-18,23-27,29-31,34,36-37,53-54H,19-22H2,1-10H3,(H,46,58)(H,47,56)(H,48,57)
FORMULA=C44H62N8O11
PUBMED=N/A
SUBMITUSER=BIOADREM
LIBRARYQUALITY=0
SPECTRUMID=CCMSLIB00000001631
SCANS=6
ID=CCMSLIB00000001631
72.0443897878 	 20.45
86.060039852 	 19.58
100.0393044099 	 94.88
114.1277254867 	 70.99
120.0807752941 	 22.33
140.0706045383 	 4.98
142.1226401088 	 17.12
148.0756899162 	 3.33
154.1226401088 	 19.83
166.0862546025 	 16.22
170.1175547309 	 10.05
171.0764181977 	 3.8
177.0658535114 	 7.53
182.1175547309 	 33.45
185.0920682619 	 52.49
185.1648392745 	 36.34
205.0607681335 	 46.45
213.1597538966 	 42.16
223.0713328198 	 4.15
231.1703185829 	 4.66
237.1233683903 	 3.57
279.1339330766 	 3.11
284.1968676844 	 37.98
290.1499174918 	 15.73
318.1448321139 	 15.53
326.2074323707 	 48.25
397.2445461585 	 100
431.192510588 	 5.6
483.2238107164 	 4.41
544.3129600747 	 12.59
562.323524761 	 8.81
643.3449884846 	 2.88
808.4239670871 	 8.62
851.4661662528 	 9.02
879.4610808749 	 141.64
END IONS

BEGIN IONS
PEPMASS=656.3065
CHARGE=1
MSLEVEL=2
RT=0
SOURCE_INSTRUMENT=qTOF
FILENAME=CCMSLIB00000001635.ms
IONMODE=Positive
ORGANISM=Natural
NAME=Rifamycin W
PI=GNPS
DATACOLLECTOR=GNPS
SMILES=C[C@H]1C=CC=C(C)C(=NC2=CC(=O)c3c(C(=O)C(=C[C@H](CO)[C@@H]([C@@H](C)[C@H]([C@H](C)[C@@H]([C@H](C)[C@H]1O)O)O)O)C)c(c(C)c(c3C2=O)O)O)O
INCHI=InChI=1S/C35H45NO11/c1-14-9-8-10-15(2)35(47)36-22-12-23(38)24-25(32(44)20(7)33(45)26(24)34(22)46)28(40)16(3)11-21(13-37)31(43)19(6)30(42)18(5)29(41)17(4)27(14)39/h8-12,14,17-19,21,27,29-31,37,39,41-45H,13H2,1-7H3,(H,36,47)/b9-8+,15-10-,16-11+/t14-,17+,18+,19-,21+,27-,29+,30-,31+/m0/s1
FORMULA=C35H45NO11
PUBMED=N/A
SUBMITUSER=BIOADREM
LIBRARYQUALITY=0
SPECTRUMID=CCMSLIB00000001635
SCANS=7
ID=CCMSLIB00000001635
55.0542261926 	 10.11
57.0334907505 	 6.36
67.0542261926 	 18.61
69.0334907505 	 8.66
69.0698762568 	 10
77.0385761284 	 5.76
79.0542261926 	 7.93
81.0698762568 	 10.33
83.0491408147 	 4
83.085526321 	 4.72
91.0542261926 	 12.85
93.0698762568 	 20.3
95.085526321 	 82.12
97.0647908789 	 5.08
105.0698762568 	 16.71
107.085526321 	 22.76
109.0647908789 	 29.48
109.1011763852 	 17.89
111.0804409431 	 25.1
119.085526321 	 14.29
121.0647908789 	 13.79
121.1011763852 	 13.36
123.0804409431 	 46.06
131.085526321 	 3.29
133.0647908789 	 3.8
133.1011763852 	 11.53
135.0804409431 	 11.26
135.1168264494 	 6.34
137.0960910073 	 6.76
143.085526321 	 3.33
145.1011763852 	 13.4
147.1168264494 	 6.08
149.0960910073 	 5.32
151.0753555652 	 43.66
157.1011763852 	 3.69
159.1168264494 	 5.63
161.0960910073 	 10.86
163.1117410715 	 12.65
173.0960910073 	 6.03
175.1117410715 	 5.92
179.1066556936 	 5.4
191.1066556936 	 5.3
232.0604337825 	 7.11
246.0396983404 	 100
258.0760838467 	 5.8
272.0890538362 	 4.73
274.0709984688 	 10.43
602.2748432339 	 5.14
620.2854079202 	 4.14
656.3065372928 	 0.26
END IONS

BEGIN IONS
PEPMASS=396.274
CHARGE=1
MSLEVEL=2
RT=0
SOURCE_INSTRUMENT=qTOF
FILENAME=CCMSLIB00000001641.ms
IONMODE=Positive
ORGANISM=Natural
NAME=Saliniketal A
PI=GNPS
DATACOLLECTOR=GNPS
SMILES=C[C@@H](/C=C/C=C(/C)\C(=N)O)[C@@H]([C@@H](C)[C@H]([C@@H](C)[C@H]1[C@H](C)[C@H]2CC[C@@](C)(O2)O1)O)O
INCHI=InChI=1S/C22H37NO5/c1-12(8-7-9-13(2)21(23)26)18(24)15(4)19(25)16(5)20-14(3)17-10-11-22(6,27-17)28-20/h7-9,12,14-20,24-25H,10-11H2,1-6H3,(H2,23,26)/b8-7+,13-9-/t12-,14+,15+,16+,17+,18-,19+,20+,22-/m0/s1
FORMULA=C22H37NO5
PUBMED=N/A
SUBMITUSER=BIOADREM
LIBRARYQUALITY=0
SPECTRUMID=CCMSLIB00000001641
SCANS=8
ID=CCMSLIB00000001641
55.0542261926 	 43.29
57.0334907505 	 5.99
65.0385761284 	 5.93
67.0542261926 	 61.04
69.0334907505 	 14.29
69.0698762568 	 17.57
71.0491408147 	 18.29
77.0385761284 	 28.69
79.0542261926 	 36.3
81.0698762568 	 26.73
83.0491408147 	 13.34
85.0647908789 	 10.07
91.0542261926 	 60.82
93.0698762568 	 45.59
95.085526321 	 100
96.0443897878 	 8.7
99.0440554368 	 19.2
103.0542261926 	 5.41
105.0698762568 	 63.56
107.085526321 	 53.58
109.0647908789 	 19.55
115.0542261926 	 6.75
117.0698762568 	 11.61
119.085526321 	 21.9
121.0647908789 	 13.04
121.1011763852 	 17.79
123.0804409431 	 33
128.0620512247 	 6.36
129.0698762568 	 9.39
130.0777012889 	 16.44
131.085526321 	 8.58
133.0647908789 	 10.19
133.1011763852 	 14.64
135.0804409431 	 12.26
135.1168264494 	 19.75
138.0913399804 	 5.41
143.085526321 	 7.4
145.1011763852 	 30.7
147.0804409431 	 7.39
148.0882659752 	 12.77
149.0960910073 	 7.77
151.0753555652 	 9.18
161.0960910073 	 6.83
163.1117410715 	 90.42
173.0960910073 	 6.59
191.1066556936 	 15.33
208.1332047951 	 9.08
396.2744493034 	 0
END IONS

BEGIN IONS
PEPMASS=445.1111
CHARGE=1
MSLEVEL=2
RT=0
SOURCE_INSTRUMENT=qTOF
FILENAME=CCMSLIB00000001645.ms
IONMODE=Positive
ORGANISM=Natural
NAME=Enterocin
PI=GNPS
DATACOLLECTOR=GNPS
SMILES=COc1cc([C@@H]2[C@@]3(C[C@@H]4C([C@]2([C@H](C(=O)c2ccccc2)[C@]3(C(=O)O4)O)O)O)O)oc(=O)c1
INCHI=InChI=1S/C22H20O10/c1-30-11-7-12(31-14(23)8-11)16-20(27)9-13-18(25)21(16,28)17(22(20,29)19(26)32-13)15(24)10-5-3-2-4-6-10/h2-8,13,16-18,25,27-29H,9H2,1H3/t13-,16-,17+,18?,20-,21+,22-/m1/s1
FORMULA=C22H20O10
PUBMED=N/A
SUBMITUSER=BIOADREM
LIBRARYQUALITY=0
SPECTRUMID=CCMSLIB00000001645
SCANS=9
ID=CCMSLIB00000001645
51.0229260642 	 4.05
53.0385761284 	 1.95
55.0178406863 	 2.54
59.0127553084 	 4.36
67.0178406863 	 1.15
68.9971052442 	 9.79
69.0334907505 	 11.75
77.0385761284 	 65.14
79.0542261926 	 0.99
91.0542261926 	 1.55
93.0334907505 	 1.28
95.0127553084 	 1.26
95.0491408147 	 1.47
103.0542261926 	 1.46
105.0334907505 	 100
108.0205803405 	 1.22
109.0284053726 	 1.17
111.0440554368 	 2.17
115.0542261926 	 1.1
123.0440554368 	 1.93
125.0233199947 	 17.06
131.0491408147 	 1.25
133.0647908789 	 1.23
135.0440554368 	 1.08
137.0233199947 	 1.47
139.0389700589 	 2.74
147.0440554368 	 4.08
151.0389700589 	 1.77
161.059705501 	 2.68
167.033884681 	 10.35
175.0389700589 	 0.92
177.0546201231 	 2.34
179.0702701873 	 1.09
189.0546201231 	 2.09
193.0495347452 	 1.43
205.0495347452 	 1.59
207.0651848094 	 1.49
251.0550140536 	 1.76
445.112922863 	 1.13
END IONS

BEGIN IONS
PEPMASS=696.3015
CHARGE=1
MSLEVEL=2
RT=0
SOURCE_INSTRUMENT=qTOF
FILENAME=CCMSLIB00000001653.ms
IONMODE=Positive
ORGANISM=Natural
NAME=Rifamycin S
PI=GNPS
DATACOLLECTOR=GNPS
SMILES=C[C@H]1C=CC=C(C)C(=NC2=CC(=O)c3c(c(c(C)c4c3C(=O)[C@@](C)(OC=C[C@@H]([C@@H](C)[C@H]([C@H](C)[C@@H]([C@H](C)[C@H]1O)O)OC(=O)C)OC)O4)O)C2=O)O
INCHI=InChI=1S/C37H45NO12/c1-16-11-10-12-17(2)36(46)38-23-15-24(40)26-27(32(23)44)31(43)21(6)34-28(26)35(45)37(8,50-34)48-14-13-25(47-9)18(3)33(49-22(7)39)20(5)30(42)19(4)29(16)41/h10-16,18-20,25,29-30,33,41-43H,1-9H3,(H,38,46)/b11-10+,14-13+,17-12-/t16-,18+,19+,20+,25-,29-,30+,33+,37-/m0/s1
FORMULA=C37H45NO12
PUBMED=N/A
SUBMITUSER=BIOADREM
LIBRARYQUALITY=0
SPECTRUMID=CCMSLIB00000001653
SCANS=10
ID=CCMSLIB00000001653
105.0698762568 	 25.11
107.085526321 	 65.95
109.0647908789 	 48.2
109.1011763852 	 24.87
111.0804409431 	 26.05
117.0698762568 	 6.12
119.085526321 	 18.73
121.0647908789 	 22.63
121.1011763852 	 20.53
123.0804409431 	 100
125.0960910073 	 8.61
131.085526321 	 4.54
133.0647908789 	 9.34
133.1011763852 	 22.27
135.0804409431 	 26.17
137.0960910073 	 16.81
143.085526321 	 7.08
145.1011763852 	 25.4
147.1168264494 	 16.74
149.0960910073 	 8.34
151.0753555652 	 95.72
153.0910056294 	 11.07
161.0960910073 	 23.18
163.1117410715 	 45.72
173.0960910073 	 12.68
177.0910056294 	 6.69
191.1066556936 	 13.93
244.0604337825 	 5.55
272.0553484046 	 58.94
395.1336583051 	 8.71
480.1652927845 	 5.27
586.2435431055 	 8.23
587.2486880629 	 4.66
604.2541077918 	 7.14
605.2592527492 	 4.7
664.2752371644 	 9.15
696.3014519149 	 0
END IONS

BEGIN IONS
PEPMASS=467.2059
CHARGE=1
MSLEVEL=2
RT=0
SOURCE_INSTRUMENT=qTOF
FILENAME=CCMSLIB00000001655.ms
IONMODE=Positive
ORGANISM=Natural
NAME=Staurosporine
PI=GNPS
DATACOLLECTOR=GNPS
SMILES=C[C@]12[C@@H]([C@@H](CC(n3c4ccccc4c4c5c(CN=C5O)c5c6ccccc6n1c5c34)O2)NC)OC
INCHI=InChI=1S/C28H26N4O3/c1-28-26(34-3)17(29-2)12-20(35-28)31-18-10-6-4-8-14(18)22-23-16(13-30-27(23)33)21-15-9-5-7-11-19(15)32(28)25(21)24(22)31/h4-11,17,20,26,29H,12-13H2,1-3H3,(H,30,33)/t17-,20?,26-,28+/m1/s1
FORMULA=C28H26N4O3
PUBMED=N/A
SUBMITUSER=BIOADREM
LIBRARYQUALITY=0
SPECTRUMID=CCMSLIB00000001655
SCANS=11
ID=CCMSLIB00000001655
58.0287397236 	 1.01
58.0651252299 	 0.72
73.0522148199 	 3.64
88.0756899162 	 53.9
130.0862546025 	 61.81
131.085526321 	 5.41
235.0542261926 	 0.55
282.1039160394 	 0.55
295.1229744598 	 12.52
297.1273911357 	 0.51
338.1287881192 	 100
340.1332047951 	 5.98
341.1396871565 	 0.69
467.2077667217 	 0.79
END IONS

BEGIN IONS
PEPMASS=412.2694
CHARGE=1
MSLEVEL=2
RT=0
SOURCE_INSTRUMENT=qTOF
FILENAME=CCMSLIB00000001680.ms
IONMODE=Positive
ORGANISM=Natural
NAME=Saliniketal B
PI=GNPS
DATACOLLECTOR=GNPS
SMILES=C[C@@H](/C=C/C=C(/CO)\C(=N)O)[C@@H]([C@@H](C)[C@H]([C@@H](C)[C@H]1[C@H](C)[C@H]2CC[C@@](C)(O2)O1)O)O
INCHI=InChI=1S/C22H37NO6/c1-12(7-6-8-16(11-24)21(23)27)18(25)14(3)19(26)15(4)20-13(2)17-9-10-22(5,28-17)29-20/h6-8,12-15,17-20,24-26H,9-11H2,1-5H3,(H2,23,27)/b7-6+,16-8-/t12-,13+,14+,15+,17+,18-,19+,20+,22-/m0/s1
FORMULA=C22H37NO6
PUBMED=N/A
SUBMITUSER=BIOADREM
LIBRARYQUALITY=0
SPECTRUMID=CCMSLIB00000001680
SCANS=12
ID=CCMSLIB00000001680
103.0542261926 	 10.66
105.0698762568 	 100
107.085526321 	 40.41
109.0647908789 	 19.82
109.1011763852 	 8.88
111.0804409431 	 10.31
113.0960910073 	 12.76
115.0542261926 	 11.31
117.0698762568 	 23.24
119.085526321 	 24.33
121.0647908789 	 24.73
121.1011763852 	 37.29
123.0804409431 	 67.57
125.0960910073 	 3.51
128.0620512247 	 9.17
129.0698762568 	 8.74
130.0777012889 	 10.9
131.085526321 	 13.47
133.0647908789 	 4.82
133.1011763852 	 24.19
135.0804409431 	 6.2
135.1168264494 	 22.13
141.0910056294 	 15.35
143.085526321 	 10.18
145.1011763852 	 32.73
147.0804409431 	 4.76
149.0960910073 	 4.73
161.0960910073 	 25.95
163.1117410715 	 23.06
171.0804409431 	 5.46
179.1066556936 	 9.49
181.1223057578 	 19.63
182.1301307899 	 3.86
189.0910056294 	 6.46
199.1328704441 	 11.69
207.1015703157 	 4.88
412.2693639255 	 0
END IONS

BEGIN IONS
PEPMASS=325.035
CHARGE=1
MSLEVEL=2
RT=0
SOURCE_INSTRUMENT=qTOF
FILENAME=CCMSLIB00000004221.ms
IONMODE=Positive
ORGANISM=Natural
NAME=DorzolamideHCl
PI=GNPS
DATACOLLECTOR=GNPS
SMILES=CCN[C@H]1C[C@H](C)S(=O)(=O)c2c1cc(s2)S(=O)(=O)N
INCHI=InChI=1S/C10H16N2O4S3/c1-3-12-8-4-6(2)18(13,14)10-7(8)5-9(17-10)19(11,15)16/h5-6,8,12H,3-4H2,1-2H3,(H2,11,15,16)/t6-,8-/m0/s1
FORMULA=C10H16N2O4S3
PUBMED=N/A
SUBMITUSER=BIOADREM
LIBRARYQUALITY=0
SPECTRUMID=CCMSLIB00000004221
SCANS=13
ID=CCMSLIB00000004221
102.0464011605 	 0.535421025398754
121.0106468184 	 0.434185957571258
123.0262968826 	 3.06629772108614
126.9670674442 	 0.848124901577017
127.9748924763 	 0.458932307484646
134.0184718505 	 3.67595779622506
135.0262968826 	 40.1678252457762
136.0341219147 	 4.92902296911206
138.9670674442 	 0.420687948527592
139.0212115047 	 0.29020719443882
151.0212115047 	 16.8747609727565
152.0528459841 	 0.926863287665069
152.9463320021 	 0.22271714922049
152.9827175084 	 0.339699894265596
153.9905425405 	 0.389192594092371
154.9619820663 	 1.10683674158062
155.9698070984 	 2.32390722368451
170.9568966884 	 0.0742390497401633
198.004181232 	 0.17097478121977
198.9881968168 	 41.2319182920519
215.0069208862 	 0.506175339137477
216.0147459183 	 30.8294526557333
235.950431102 	 11.7162718499021
259.056945084 	 0.260961508177544
279.9766458525 	 14.4923623765495
325.0344950824 	 100
END IONS

BEGIN IONS
PEPMASS=375.2165
CHARGE=1
MSLEVEL=2
RT=0
SOURCE_INSTRUMENT=qTOF
FILENAME=CCMSLIB00000004248.ms
IONMODE=Positive
ORGANISM=Natural
NAME=Methylprednisolone
PI=GNPS
DATACOLLECTOR=GNPS
SMILES=C[C@H]1C[C@H]2[C@@H]3CC[C@](C(=O)CO)([C@@]3(C)C[C@@H]([C@@H]2[C@@]2(C)C=CC(=O)C=C12)O)O
INCHI=InChI=1S/C22H30O5/c1-12-8-14-15-5-7-22(27,18(26)11-23)21(15,3)10-17(25)19(14)20(2)6-4-13(24)9-16(12)20/h4,6,9,12,14-15,17,19,23,25,27H,5,7-8,10-11H2,1-3H3/t12-,14-,15-,17-,19+,20-,21-,22-/m0/s1
FORMULA=C22H30O5
PUBMED=N/A
SUBMITUSER=BIOADREM
LIBRARYQUALITY=0
SPECTRUMID=CCMSLIB00000004248
SCANS=16
ID=CCMSLIB00000004248
91.0542261926 	 2.73434568333625
105.0698762568 	 17.3692242263528
107.085526321 	 12.4183824081255
109.0647908789 	 1.94631376178921
109.1011763852 	 2.4241362919971
115.0542261926 	 5.96402571735922
117.0698762568 	 8.61081229830135
119.085526321 	 8.82095414404723
121.0647908789 	 40.1370925374628
123.0804409431 	 1.1532784629625
129.0698762568 	 2.69181697645911
131.085526321 	 11.7179095889726
133.1011763852 	 11.265103945163
135.0804409431 	 77.8300352738098
137.059705501 	 1.57356215445426
139.0753555652 	 1.32089160183124
142.0777012889 	 4.87579115903235
143.085526321 	 6.92717584369449
145.0647908789 	 14.2671303129612
145.1011763852 	 10.3745027893828
146.072615911 	 8.78342881444975
147.0804409431 	 13.4941085232532
149.0960910073 	 4.5580767017737
155.085526321 	 1.39594226102619
157.1011763852 	 4.53305981537538
158.072615911 	 7.97038000650439
159.0804409431 	 29.5024141295374
159.1168264494 	 0.985665324093763
160.0882659752 	 2.38160758511996
161.0960910073 	 100
165.0910056294 	 3.27220874090011
171.0804409431 	 11.3501613589173
171.1168264494 	 1.19330548119981
172.0882659752 	 10.6296750306457
173.0960910073 	 17.008981062217
175.1117410715 	 4.35043654466765
177.0910056294 	 1.12826157656418
178.0777012889 	 1.46098616566182
181.0647908789 	 3.75253295974783
181.1011763852 	 1.71365671828484
182.1090014173 	 1.50851824981863
183.0804409431 	 2.52170214895054
183.1015703157 	 1.48600305206014
184.0882659752 	 1.41095239286518
185.0960910073 	 74.3126610462062
187.1117410715 	 41.0677207114802
189.0910056294 	 4.92582493182898
193.1011763852 	 6.64198333875366
195.0804409431 	 6.55692592499937
196.0882659752 	 5.96402571735922
197.0960910073 	 7.33244940334726
198.1039160394 	 2.56673254446752
199.1117410715 	 9.04110274435244
201.1273911357 	 1.60608410677207
208.0882659752 	 2.60425787406499
209.0960910073 	 18.2973507117304
210.1039160394 	 3.04205338603557
211.1117410715 	 42.0208640832562
213.1273911357 	 13.3715257799014
222.1039160394 	 10.044279888925
223.1117410715 	 20.8690866334776
224.1195661036 	 13.4215595526981
225.1273911357 	 8.26307757736472
227.1430411999 	 2.66179671278113
231.137955822 	 3.7975633552648
235.1117410715 	 7.3124358942286
236.1195661036 	 6.65699347059265
237.1273911357 	 21.87476546669
238.1352161678 	 10.8823455832687
239.1430411999 	 6.19668276086358
241.1586912641 	 1.69114152052636
249.1273911357 	 9.46889150176369
250.1352161678 	 1.27836289495409
251.1430411999 	 26.1826733044805
253.1586912641 	 44.5300577890076
255.1743413283 	 4.12528456708278
261.1273911357 	 2.37910589648012
263.1430411999 	 5.9940459810372
265.1586912641 	 18.8402171465739
267.137955822 	 2.02886948690366
269.1536058862 	 0.988167012733595
275.1430411999 	 1.44097265654317
277.1586912641 	 7.79025842443649
279.137955822 	 5.89397843544392
279.1743413283 	 23.7535336352038
280.1821663604 	 14.6824106271733
281.1899913925 	 5.52623020538864
291.1743413283 	 3.30473069321792
293.1536058862 	 5.57626397818527
293.1899913925 	 10.3694994121032
295.1692559504 	 0.362744852775624
297.1485205083 	 3.38728641833237
297.1849060146 	 2.43164135791659
299.2005560788 	 0.262677307182348
303.1743413283 	 15.2778125234533
309.1849060146 	 5.82393115352863
311.1641705725 	 0.230155354864534
311.2005560788 	 2.1264353438571
315.1590851946 	 2.40412278287844
321.1849060146 	 28.0739499161934
327.1954707009 	 0.612913716758812
339.1954707009 	 41.5405398644085
340.203295733 	 3.11710404523053
357.2060353872 	 83.6114377204613
358.2138604193 	 4.94083506366798
375.2166000735 	 8.05043404297901
END IONS

BEGIN IONS
PEPMASS=325.1924
CHARGE=1
MSLEVEL=2
RT=0
SOURCE_INSTRUMENT=qTOF
FILENAME=CCMSLIB00000004258.ms
IONMODE=Positive
ORGANISM=Natural
NAME=QuinineHCl
PI=GNPS
DATACOLLECTOR=GNPS
SMILES=C=C[C@H]1CN2CC[C@H]1C[C@H]2[C@@H](c1ccnc2ccc(cc12)OC)O
INCHI=InChI=1S/C20H24N2O2/c1-3-13-12-22-9-7-14(13)10-19(22)20(23)16-6-8-21-18-5-4-15(24-2)11-17(16)18/h3-6,8,11,13-14,19-20,23H,1,7,9-10,12H2,2H3/t13-,14-,19-,20+/m0/s1
FORMULA=C20H24N2O2
PUBMED=N/A
SUBMITUSER=BIOADREM
LIBRARYQUALITY=0
SPECTRUMID=CCMSLIB00000004258
SCANS=19
ID=CCMSLIB00000004258
105.0698762568 	 0.826252955378999
106.0651252299 	 0.629923891158509
107.085526321 	 0.543037837205611
108.0807752941 	 3.89650534265688
110.0964253583 	 2.43448039633408
115.0542261926 	 1.14789844357001
117.0573001978 	 1.14873388639648
118.0651252299 	 0.49207582479093
120.0807752941 	 0.720987159243757
122.0964253583 	 1.62827806879036
131.072950262 	 0.29491131774397
134.0964253583 	 3.62582186688054
136.1120754225 	 2.91653090720737
138.1277254867 	 0.138683509194048
142.0651252299 	 0.451139126293892
143.072950262 	 1.30830346625229
145.0522148199 	 2.27073360234592
148.1120754225 	 0.0918987109117188
154.0651252299 	 1.23896171165526
155.072950262 	 2.45118925286348
158.060039852 	 1.47539203154632
159.0678648841 	 1.30830346625229
160.0756899162 	 25.1418164197933
162.0913399804 	 0.793670685146662
166.0651252299 	 0.874708639314269
166.1226401088 	 4.68516337084472
167.072950262 	 1.01840480546714
168.0807752941 	 0.131164523755817
169.0522148199 	 2.36012598477823
170.060039852 	 1.0894174457171
171.0678648841 	 0.39432901409392
172.0756899162 	 19.1458432542169
173.0835149483 	 2.92237900699266
174.0549544741 	 2.37683484130764
174.0913399804 	 3.91572052766569
182.060039852 	 0.466177097170355
183.0678648841 	 2.53723986398991
184.0756899162 	 12.027870372691
186.0913399804 	 11.048731380068
188.0706045383 	 1.11364528768474
189.0784295704 	 2.99004987593674
195.0678648841 	 0.296582203396911
196.0756899162 	 2.03764505376075
197.0835149483 	 1.85301218911084
198.0913399804 	 8.59420035589864
200.1069900446 	 0.116126552879354
202.0862546025 	 2.33172092867825
210.0913399804 	 2.50048037962522
212.1069900446 	 1.89561977326082
213.1022390177 	 0.525493537849737
214.0862546025 	 0.477873296740937
220.0756899162 	 0.411037870623324
223.0991650125 	 0.569772007652656
224.1069900446 	 2.08025263791072
225.1022390177 	 0.822075741246648
226.1226401088 	 1.8429868751932
227.1178890819 	 1.05934150396418
236.1069900446 	 0.460328997385064
238.1226401088 	 0.401012556705682
240.138290173 	 0.101088582002891
248.1069900446 	 0.324151816670426
250.1226401088 	 0.102759467655831
251.1178890819 	 4.32926472676842
253.1335391461 	 6.67101096936431
254.1539402372 	 0.135341737888168
262.1226401088 	 0.172101222252855
264.138290173 	 2.54058163529579
265.1335391461 	 0.445291026508601
266.1539402372 	 0.220556906188125
276.138290173 	 0.111113895920533
277.1335391461 	 0.470354311302706
278.1539402372 	 0.337518901893949
279.1491892103 	 3.5205560707453
282.1488548593 	 0.238936648370469
296.1645049235 	 0.122810095491115
297.1961394029 	 0.484556839352699
307.1804893387 	 17.8124765031705
325.191054025 	 100
END IONS

BEGIN IONS
PEPMASS=417.2391
CHARGE=1
MSLEVEL=2
RT=0
SOURCE_INSTRUMENT=qTOF
FILENAME=CCMSLIB00000004282.ms
IONMODE=Positive
ORGANISM=Natural
NAME=Ramipril
PI=GNPS
DATACOLLECTOR=GNPS
SMILES=CCOC(=O)[C@H](CCc1ccccc1)N[C@@H](C)C(=O)N1[C@H]2CCC[C@H]2C[C@H]1C(=O)O
INCHI=InChI=1S/C23H32N2O5/c1-3-30-23(29)18(13-12-16-8-5-4-6-9-16)24-15(2)21(26)25-19-11-7-10-17(19)14-20(25)22(27)28/h4-6,8-9,15,17-20,24H,3,7,10-14H2,1-2H3,(H,27,28)/t15-,17-,18-,19-,20-/m0/s1
FORMULA=C23H32N2O5
PUBMED=N/A
SUBMITUSER=BIOADREM
LIBRARYQUALITY=0
SPECTRUMID=CCMSLIB00000004282
SCANS=21
ID=CCMSLIB00000004282
91.0542261926 	 6.28284126564095
102.0549544741 	 13.1327259668091
110.0964253583 	 9.20500510339092
115.0542261926 	 0.370468377877745
117.0698762568 	 78.1688277322043
128.0620512247 	 0.166332741087967
130.0862546025 	 38.6307791176804
131.0491408147 	 1.88636449552036
134.0964253583 	 23.256341435754
135.0440554368 	 2.01111405133633
138.0913399804 	 3.24348845121536
143.0451180693 	 3.05825426227649
143.085526321 	 0.230597663781046
144.0807752941 	 0.464975617132272
145.0647908789 	 12.4484935546063
154.0862546025 	 0.0756057914036215
156.1019046667 	 17.2834839148679
160.1120754225 	 58.0085434544286
161.0556827556 	 4.35867387441878
173.059705501 	 4.86145238725286
175.0753555652 	 4.48342343023476
185.059705501 	 9.63973840396174
186.0635077877 	 7.75337390844139
188.1069900446 	 1.93550825993271
189.0546201231 	 2.72558878010056
190.0624451552 	 2.26439345253846
203.0702701873 	 3.0166710770045
204.0780952194 	 3.0166710770045
206.1175547309 	 1.39492685139682
206.1512601625 	 2.06025781574869
206.1539402372 	 0.158772161947605
219.0651848094 	 2.80875515064454
229.0495347452 	 10.981741201376
234.1461747846 	 37.8028957018108
234.1488548593 	 92.2201640645673
237.0546201231 	 1.92794768079235
247.0600994315 	 37.8028957018108
282.0886599057 	 7.33376176615129
283.0600994315 	 3.22836729293464
290.0897225382 	 2.43072619362643
297.0757494957 	 2.80875515064454
298.0835745278 	 4.40025705969077
309.1570738219 	 1.39114656182664
313.1070496241 	 9.51498884814577
320.1043099699 	 6.12028881412316
338.1148746562 	 2.05269723660832
343.2016187113 	 8.42248516236344
417.2383981481 	 100
END IONS

BEGIN IONS
PEPMASS=261.0321
CHARGE=1
MSLEVEL=2
RT=0
SOURCE_INSTRUMENT=qTOF
FILENAME=CCMSLIB00000004303.ms
IONMODE=Positive
ORGANISM=Natural
NAME=Ifosfamide
PI=GNPS
DATACOLLECTOR=GNPS
SMILES=C1CN(CCCl)P(=O)(NCCCl)OC1
INCHI=InChI=1S/C7H15Cl2N2O2P/c8-2-4-10-14(12)11(6-3-9)5-1-7-13-14/h1-7H2,(H,10,12)
FORMULA=C7H15Cl2N2O2P
PUBMED=N/A
SUBMITUSER=BIOADREM
LIBRARYQUALITY=0
SPECTRUMID=CCMSLIB00000004303
SCANS=23
ID=CCMSLIB00000004303
53.0026778115 	 0.216285730987315
78.0105028436 	 0.176341068958126
82.0413157826 	 0.254281872917519
92.0261529078 	 3.75284971064477
95.0258185568 	 0.249410572670057
97.9558804573 	 0.252333352818534
102.0338251015 	 0.18608366945305
106.0052408878 	 1.91636951735157
106.0054174657 	 1.02394731201652
115.9662685657 	 0.422828861479706
116.0497857772 	 0.473490384053312
117.0465539989 	 0.110091385592642
118.0054174657 	 3.0289744938719
118.0416263941 	 0.263050213362951
118.041802972 	 0.838837902612966
120.0572764583 	 2.30607353714854
120.0574530362 	 1.57537850002923
123.9713539436 	 1.34935016854699
123.9715305215 	 0.329299896728435
124.0523676583 	 0.181212369205588
125.9506185015 	 4.06071588628437
125.9507950794 	 1.80920091190741
127.9664451436 	 2.23202977338711
128.0261529078 	 1.31525106681475
131.9972580826 	 0.177315329007619
135.9715305215 	 0.426725901677676
136.015982152 	 0.349759357767775
141.9819186299 	 0.907036106077434
141.9820952078 	 1.20515968122211
143.9739358247 	 0.358527698213207
146.0365410162 	 0.832018082266518
146.0367175941 	 0.757974318505095
153.9820952078 	 38.9704019796964
167.094566824 	 0.275715594006352
168.0339542004 	 0.276689854055845
176.0472822804 	 0.369244558757624
177.0425312535 	 1.23925878295435
182.0132187583 	 4.95021531147094
182.0133953362 	 6.39017166462072
185.0242943735 	 0.10522008534518
199.0397678598 	 0.139319187077415
200.0239600225 	 1.14865259835155
225.055417924 	 1.93585471834142
233.0007955377 	 12.6517410027084
234.0086205698 	 0.467644823756357
245.0133715967 	 0.259153173164981
261.0320956661 	 100
END IONS

BEGIN IONS
PEPMASS=281.0706
CHARGE=1
MSLEVEL=2
RT=0
SOURCE_INSTRUMENT=qTOF
FILENAME=CCMSLIB00000004311.ms
IONMODE=Positive
ORGANISM=Natural
NAME=Sulfameter
PI=GNPS
DATACOLLECTOR=GNPS
SMILES=COc1cnc(nc1)NS(=O)(=O)c1ccc(cc1)N
INCHI=InChI=1S/C11H12N4O3S/c1-18-9-6-13-11(14-7-9)15-19(16,17)10-4-2-8(12)3-5-10/h2-7H,12H2,1H3,(H,13,14,15)
FORMULA=C11H12N4O3S
PUBMED=N/A
SUBMITUSER=BIOADREM
LIBRARYQUALITY=0
SPECTRUMID=CCMSLIB00000004311
SCANS=25
ID=CCMSLIB00000004311
44.9971052442 	 0.195135233254674
60.9742613121 	 0.0930295879469958
66.0100156542 	 0.213287347976039
73.9998448984 	 0.0884915592666546
92.0494751657 	 1.22753675803231
93.0573001978 	 0.577464149573425
94.0399731119 	 0.184924668723906
99.0552888251 	 0.311989471773462
108.0443897878 	 36.5481484842984
109.0270627019 	 0.10891268832819
109.0522148199 	 1.04374659647849
110.034887734 	 0.0930295879469958
110.0362304047 	 0.651207115628971
110.060039852 	 0.123661281539299
111.0427127661 	 1.80953893628608
111.0440554368 	 1.83336358685787
118.0525491709 	 0.0646669086948629
124.0505377982 	 1.27518605917589
125.0583628303 	 0.882646578326375
126.0661878624 	 19.1981303321837
126.0675305331 	 5.85859502632057
142.0247169782 	 0.0964331094572518
145.0634482082 	 0.0669359230350336
156.0113750999 	 34.0352151025594
157.0607681335 	 0.330141586494827
157.0634482082 	 0.115719731348702
172.0716671708 	 0.0646669086948629
172.0743472455 	 6.32941550190597
173.0709388893 	 0.136140860410238
174.0219397862 	 0.14294790343075
185.0583628303 	 0.216690869486295
185.0821722776 	 0.282492285351243
186.0661878624 	 0.0930295879469958
188.0124377324 	 6.63459793065892
190.0974879908 	 0.0714739517153748
200.0692618676 	 1.63142131058268
215.0927369639 	 13.8126247957887
217.1083870281 	 1.48393537847159
263.059722276 	 0.518469776728989
281.0702869623 	 100
END IONS

BEGIN IONS
PEPMASS=212.1216
CHARGE=1
MSLEVEL=2
RT=0
SOURCE_INSTRUMENT=qTOF
FILENAME=CCMSLIB00000004358.ms
IONMODE=Positive
ORGANISM=Natural
NAME=Mirapex
PI=GNPS
DATACOLLECTOR=GNPS
SMILES=CCCN[C@H]1CCc2c(C1)sc(=N)[nH]2
INCHI=InChI=1S/C10H17N3S/c1-2-5-12-7-3-4-8-9(6-7)14-10(11)13-8/h7,12H,2-6H2,1H3,(H2,11,13)/t7-/m0/s1
FORMULA=C10H17N3S
PUBMED=N/A
SUBMITUSER=BIOADREM
LIBRARYQUALITY=0
SPECTRUMID=CCMSLIB00000004358
SCANS=28
ID=CCMSLIB00000004358
101.0385761284 	 0.39
102.0338251015 	 1.28
103.0542261926 	 3.57
104.0494751657 	 100
113.0385761284 	 6.77
116.0494751657 	 73.09
117.0573001978 	 21.9
118.0651252299 	 12.58
128.0494751657 	 2.88
130.0651252299 	 11.93
140.0494751657 	 35.01
142.0525491709 	 66.79
143.060374203 	 48.19
157.0760242672 	 8.22
212.1215942513 	 0
END IONS

BEGIN IONS
PEPMASS=313.1487
CHARGE=1
MSLEVEL=2
RT=0
SOURCE_INSTRUMENT=qTOF
FILENAME=CCMSLIB00000004375.ms
IONMODE=Positive
ORGANISM=Natural
NAME=Olanzapine
PI=GNPS
DATACOLLECTOR=GNPS
SMILES=Cc1cc2=C(Nc3ccccc3N=c2s1)N1CCN(C)CC1
INCHI=InChI=1S/C17H20N4S/c1-12-11-13-16(21-9-7-20(2)8-10-21)18-14-5-3-4-6-15(14)19-17(13)22-12/h3-6,11,18H,7-10H2,1-2H3
FORMULA=C17H20N4S
PUBMED=N/A
SUBMITUSER=BIOADREM
LIBRARYQUALITY=0
SPECTRUMID=CCMSLIB00000004375
SCANS=29
ID=CCMSLIB00000004375
115.0542261926 	 0.823591923485654
116.0494751657 	 0.791710945802338
140.0494751657 	 0.472901168969182
142.0651252299 	 1.62061636556854
167.060374203 	 1.48246546227418
169.0760242672 	 24.0435706695005
179.060374203 	 5.62699256110521
180.0681992351 	 18.9744952178533
186.0371959199 	 12.3432518597237
193.0760242672 	 0.382571732199787
198.0246198609 	 53.8735387885229
201.0480949572 	 1.30180658873539
208.0869233045 	 0.844845908607864
212.0402699251 	 12.0775770456961
213.0480949572 	 35.451647183847
222.1025733687 	 8.70350690754517
227.0637450214 	 3.3740701381509
230.0746440587 	 2.09883103081828
239.0637450214 	 3.24654622741764
241.0668190266 	 3.23591923485654
248.1182234329 	 1.31774707757705
256.0902941229 	 100
282.1059441871 	 14.0754516471838
313.1481433528 	 42.2422954303932
END IONS

BEGIN IONS
PEPMASS=358.123
CHARGE=1
MSLEVEL=2
RT=0
SOURCE_INSTRUMENT=qTOF
FILENAME=CCMSLIB00000004379.ms
IONMODE=Positive
ORGANISM=Natural
NAME=Rosiglitazone
PI=GNPS
DATACOLLECTOR=GNPS
SMILES=CN(CCOc1ccc(cc1)CC1C(=NC(=O)S1)O)c1ccccn1
INCHI=InChI=1S/C18H19N3O3S/c1-21(16-4-2-3-9-19-16)10-11-24-14-7-5-13(6-8-14)12-15-17(22)20-18(23)25-15/h2-9,15H,10-12H2,1H3,(H,20,22,23)
FORMULA=C18H19N3O3S
PUBMED=N/A
SUBMITUSER=BIOADREM
LIBRARYQUALITY=0
SPECTRUMID=CCMSLIB00000004379
SCANS=31
ID=CCMSLIB00000004379
92.0494751657 	 0.0866666666666667
93.0573001978 	 0.526666666666667
94.0651252299 	 2.19
95.060374203 	 0.396666666666667
104.0494751657 	 0.116666666666667
106.0651252299 	 3.67
107.060374203 	 7.74
108.0681992351 	 4.38
109.0760242672 	 0.88
118.0651252299 	 1.02
119.060374203 	 12.8766666666667
120.0681992351 	 6.61
121.0760242672 	 4.98333333333333
135.0916743314 	 100
358.1219881818 	 44.78
END IONS

BEGIN IONS
PEPMASS=431.243
CHARGE=1
MSLEVEL=2
RT=0
SOURCE_INSTRUMENT=qTOF
FILENAME=CCMSLIB00000004380.ms
IONMODE=Positive
ORGANISM=Natural
NAME=Budesonide
PI=GNPS
DATACOLLECTOR=GNPS
SMILES=CCCC1O[C@@H]2C[C@H]3[C@@H]4CCC5=CC(=O)C=C[C@]5(C)[C@H]4[C@H](C[C@]3(C)[C@]2(C(=O)CO)O1)O
INCHI=InChI=1S/C25H34O6/c1-4-5-21-30-20-11-17-16-7-6-14-10-15(27)8-9-23(14,2)22(16)18(28)12-24(17,3)25(20,31-21)19(29)13-26/h8-10,16-18,20-22,26,28H,4-7,11-13H2,1-3H3/t16-,17-,18-,20+,21?,22+,23-,24-,25+/m0/s1
FORMULA=C25H34O6
PUBMED=N/A
SUBMITUSER=BIOADREM
LIBRARYQUALITY=0
SPECTRUMID=CCMSLIB00000004380
SCANS=32
ID=CCMSLIB00000004380
101.0233199947 	 1.33190744701536
105.0698762568 	 4.97439885929095
107.085526321 	 4.64061183485644
109.0647908789 	 2.26521485514291
115.0542261926 	 1.4582928251993
117.0698762568 	 2.94575150690259
119.085526321 	 8.45161708471061
121.0647908789 	 32.610668222179
123.0804409431 	 1.9411497828764
131.085526321 	 3.82072720202217
132.0569658468 	 1.83744895975112
133.0647908789 	 2.96843606196124
135.0804409431 	 14.2945103376758
137.059705501 	 1.8018018018018
143.085526321 	 3.41564586168903
145.0647908789 	 6.74055350314343
145.1011763852 	 4.9970834143496
147.0804409431 	 100
155.0702701873 	 2.96519541123858
155.085526321 	 3.04945233002787
157.1011763852 	 0.943029360295548
158.072615911 	 7.5798820403137
159.0804409431 	 14.563484347657
161.0960910073 	 9.58908548836606
163.0753555652 	 3.19852226327046
171.0804409431 	 39.7563030656556
173.0960910073 	 59.8256529911206
179.085526321 	 2.88093849244928
181.0859202515 	 1.51338388748461
183.0804409431 	 2.23604899863893
185.0960910073 	 8.95067729600104
187.1117410715 	 7.17804135070322
192.0933513531 	 3.23092877049712
193.1011763852 	 2.66057424330806
195.0804409431 	 4.56283621751248
196.0882659752 	 2.13882947695897
197.0960910073 	 9.78676518244863
198.1039160394 	 2.68001814764405
199.1117410715 	 5.29198263011213
207.1168264494 	 5.02948992157625
208.0882659752 	 2.79992222438266
209.0960910073 	 7.73867392572429
210.1039160394 	 5.47669972130404
211.1117410715 	 18.2967139801672
213.1273911357 	 5.0716183809709
219.1168264494 	 1.02404562836218
221.0960910073 	 5.04893382591224
221.1324765136 	 1.29950093978871
222.1039160394 	 5.15911595048286
223.1117410715 	 11.9547605159116
224.1195661036 	 1.0499708341435
225.1273911357 	 27.7302482338454
226.1352161678 	 6.73731285242077
227.1430411999 	 11.2418173569253
234.1039160394 	 3.2600946270011
235.1117410715 	 10.1140709054378
237.1273911357 	 13.1538012832977
239.1430411999 	 8.99280575539568
241.1586912641 	 3.11750599520384
243.137955822 	 0.200920344805237
247.1117410715 	 2.82260677944131
248.1195661036 	 5.01004601724026
249.1273911357 	 9.57288223475274
251.1430411999 	 4.10266381489403
253.1586912641 	 2.30734331453756
255.137955822 	 1.60088145699657
261.1273911357 	 4.57579882040314
262.1352161678 	 13.4292565947242
263.1430411999 	 7.59284464320436
264.150866232 	 1.54579039471126
265.1586912641 	 9.73167412016333
267.137955822 	 2.0156847494977
267.1743413283 	 3.46101497180634
269.1536058862 	 0.320824421543846
275.1430411999 	 1.89254002203643
277.1586912641 	 17.5124765052823
279.137955822 	 2.52446691295612
279.1743413283 	 1.82448635686046
281.1536058862 	 4.87393868688833
283.1692559504 	 4.3003435089766
287.1430411999 	 4.18368008296066
289.1586912641 	 2.46613519994815
293.1536058862 	 4.22904919307797
295.1692559504 	 10.5677620066109
305.1536058862 	 15.7236373063711
307.1692559504 	 5.36327694601076
311.1641705725 	 0.311102469375851
313.1798206367 	 2.07401646250567
321.1485205083 	 0.288417914317195
323.1641705725 	 30.5658176161773
325.1798206367 	 5.98548188476246
339.1590851946 	 0.670814699591678
341.1747352588 	 9.3071488754942
343.190385323 	 0.930066757404887
377.2111207651 	 0.453691101173116
395.2216854514 	 1.7369887873485
413.2322501377 	 64.8130144533022
431.242814824 	 5.92715017175449
END IONS

BEGIN IONS
PEPMASS=278.2106
CHARGE=1
MSLEVEL=2
RT=0
SOURCE_INSTRUMENT=qTOF
FILENAME=CCMSLIB00000004419.ms
IONMODE=Positive
ORGANISM=Natural
NAME=Venlafaxine
PI=GNPS
DATACOLLECTOR=GNPS
SMILES=CN(C)CC(c1ccc(cc1)OC)C1(CCCCC1)O
INCHI=InChI=1S/C17H27NO2/c1-18(2)13-16(17(19)11-5-4-6-12-17)14-7-9-15(20-3)10-8-14/h7-10,16,19H,4-6,11-13H2,1-3H3
FORMULA=C17H27NO2
PUBMED=N/A
SUBMITUSER=BIOADREM
LIBRARYQUALITY=0
SPECTRUMID=CCMSLIB00000004419
SCANS=35
ID=CCMSLIB00000004419
91.0542261926 	 3.09261116683383
103.0542261926 	 0.922211077677477
105.0698762568 	 1.93079237713139
106.0413157826 	 0.300902708124373
107.0491408147 	 2.29299008135518
107.085526321 	 4.06775883205171
109.0647908789 	 0.186671124484565
115.0542261926 	 2.84464504624986
116.0620512247 	 0.495932241167948
117.0698762568 	 3.08425275827482
119.0491408147 	 0.493146104981611
119.085526321 	 1.48222445113117
120.0569658468 	 0.091942494149114
121.0647908789 	 100
127.0542261926 	 0.275827482447342
128.0620512247 	 1.06709015936699
129.0698762568 	 1.76919647832386
130.0777012889 	 0.192243396857238
131.0491408147 	 1.31505627995096
132.0569658468 	 5.30201716259891
133.0647908789 	 0.562799509640031
135.0804409431 	 5.96233143876073
141.0698762568 	 2.07009918644823
143.0491408147 	 0.0835840855901036
143.085526321 	 0.495932241167948
144.0569658468 	 2.10631895687061
145.0647908789 	 1.49615513206286
145.1011763852 	 0.250752256770311
146.072615911 	 0.601805416248746
147.0804409431 	 43.4581522344812
155.085526321 	 0.537724283963
158.072615911 	 4.74200378914521
159.0804409431 	 11.7937144767636
161.0960910073 	 1.3178424161373
171.0804409431 	 0.454140198372896
172.0882659752 	 0.378914521341803
173.0960910073 	 14.2650172740444
187.1117410715 	 0.596233143876073
200.1195661036 	 0.0696534046584197
215.1430411999 	 30.5081912403878
233.1536058862 	 0.0891563579627772
260.2008904298 	 34.6901816560793
278.2114551161 	 59.9214309595453
END IONS

BEGIN IONS
PEPMASS=271.07
CHARGE=1
MSLEVEL=2
RT=0
SOURCE_INSTRUMENT=qTOF
FILENAME=CCMSLIB00000004456.ms
IONMODE=Positive
ORGANISM=Natural
NAME=Leflunomide
PI=GNPS
DATACOLLECTOR=GNPS
SMILES=Cc1c(cno1)C(=O)Nc1ccc(cc1)C(F)(F)F
INCHI=InChI=1S/C12H9F3N2O2/c1-7-10(6-16-19-7)11(18)17-9-4-2-8(3-5-9)12(13,14)15/h2-6H,1H3,(H,17,18)
FORMULA=C12H9F3N2O2
PUBMED=N/A
SUBMITUSER=BIOADREM
LIBRARYQUALITY=0
SPECTRUMID=CCMSLIB00000004456
SCANS=37
ID=CCMSLIB00000004456
93.0573001978 	 6.07
101.0197324642 	 3.07
107.0491408147 	 3.545
110.0236543457 	 100
113.0197324642 	 2.795
115.0353825284 	 0.225
134.0400533336 	 0.93
142.0462815657 	 21.755
144.0255461236 	 0.575
145.0259606963 	 20.57
146.0337857284 	 2.795
162.0525097978 	 23.07
164.0317743557 	 0.37
166.0536920251 	 6.685
173.034553383 	 4.64
198.0525097978 	 2.935
208.0368597336 	 1.07
211.0677452893 	 2.935
212.0317743557 	 2.72
271.0688881435 	 14.8
END IONS

BEGIN IONS
PEPMASS=461.1535
CHARGE=1
MSLEVEL=2
RT=0
SOURCE_INSTRUMENT=qTOF
FILENAME=CCMSLIB00000004457.ms
IONMODE=Positive
ORGANISM=Natural
NAME=Oxytetracycline
PI=GNPS
DATACOLLECTOR=GNPS
SMILES=C[C@]1(c2cccc(c2C(=C2[C@@H]1[C@@H]([C@H]1[C@@H](C(=O)C(=C([C@]1(C2=O)O)O)C(=N)O)N(C)C)O)O)O)O
INCHI=InChI=1S/C22H24N2O9/c1-21(32)7-5-4-6-8(25)9(7)15(26)10-12(21)17(28)13-14(24(2)3)16(27)11(20(23)31)19(30)22(13,33)18(10)29/h4-6,12-14,17,25-26,28,30,32-33H,1-3H3,(H2,23,31)/t12-,13-,14+,17+,21-,22+/m1/s1
FORMULA=C22H24N2O9
PUBMED=N/A
SUBMITUSER=BIOADREM
LIBRARYQUALITY=0
SPECTRUMID=CCMSLIB00000004457
SCANS=38
ID=CCMSLIB00000004457
102.0549544741 	 38.249902170314
103.0542261926 	 15.9266728876313
104.0706045383 	 42.6386923933656
152.0679244636 	 12.6275548598778
154.0471890215 	 2.86565726498299
180.0569658468 	 3.69946720447909
187.0713328198 	 2.36296318593661
210.073403772 	 14.873122422564
213.0546201231 	 16.7213509527106
247.0713328198 	 3.4706962463502
251.0702701873 	 9.12073688329671
253.0859202515 	 2.85963697661118
255.0651848094 	 16.1193221155293
267.0651848094 	 38.7435658168026
289.0495347452 	 2.93188043707294
291.0651848094 	 1.60440685108817
308.1214165971 	 4.47307426025707
323.0550140536 	 1.28834171156798
324.1230340393 	 12.1880738087354
340.0788830804 	 4.9065350230276
344.1492487898 	 2.10108064176274
370.125833273 	 0.951205562746456
388.126501975 	 4.77709882303362
388.139078034 	 2.30276030221848
397.1281789967 	 1.83618795340297
398.1319812834 	 2.82652539056621
398.1360040288 	 2.43821679058427
415.1499770713 	 8.22371391589657
418.1496427203 	 1.41476776737606
426.1183425919 	 28.7258059661058
444.1289072782 	 26.6427861894585
461.1554563797 	 100
END IONS

BEGIN IONS
PEPMASS=376.1678
CHARGE=1
MSLEVEL=2
RT=0
SOURCE_INSTRUMENT=qTOF
FILENAME=CCMSLIB00000004467.ms
IONMODE=Positive
ORGANISM=Natural
NAME=Gatifloxacin
PI=GNPS
DATACOLLECTOR=GNPS
SMILES=CC1CN(CCN1)c1c(cc2c(c1OC)n(cc(c2=O)C(=O)O)C1CC1)F
INCHI=InChI=1S/C19H22FN3O4/c1-10-8-22(6-5-21-10)16-14(20)7-12-15(18(16)27-2)23(11-3-4-11)9-13(17(12)24)19(25)26/h7,9-11,21H,3-6,8H2,1-2H3,(H,25,26)
FORMULA=C19H22FN3O4
PUBMED=N/A
SUBMITUSER=BIOADREM
LIBRARYQUALITY=0
SPECTRUMID=CCMSLIB00000004467
SCANS=41
ID=CCMSLIB00000004467
151.0427929878 	 0.235946996866624
164.0506180199 	 0.30956245988901
177.058443052 	 0.199139265355431
178.0298825778 	 0.889992072180905
178.0536920251 	 0.348257767375137
188.0494751657 	 0.348257767375137
190.0298825778 	 0.311450035863943
190.0651252299 	 0.272754728377817
191.0615170572 	 0.49832005738231
192.0417097131 	 0.302012155989279
192.045532642 	 2.38778360829023
192.0693420893 	 0.228396692966892
193.0448043605 	 0.450186870021518
202.0662680841 	 0.82392691305825
203.0365647557 	 0.654045075314281
203.0615170572 	 0.450186870021518
204.045532642 	 0.829589640983049
204.0693420893 	 0.225565329004492
205.0407816151 	 0.994752538789686
205.0733441925 	 0.278417456302616
205.0771671214 	 0.862622220544377
206.0611827062 	 0.0462456113858583
207.0564316793 	 0.442636566121786
215.0576941283 	 0.195364113405565
215.0615170572 	 0.394503378760995
216.0443897878 	 0.207633357242629
216.0693420893 	 0.628562799652686
217.0771671214 	 1.99799916946657
218.060039852 	 0.521914757068972
218.0611827062 	 0.352032919325003
218.0685931656 	 0.285023972214882
218.0811692246 	 0.487938389520178
218.0838492993 	 0.541734304805768
218.0849921535 	 0.370908679074333
219.0526087504 	 2.211295254634
219.0564316793 	 13.3045792593152
220.0642567114 	 2.49915059081128
221.0682588146 	 0.382234134923931
221.0720817435 	 1.51100456793386
229.0771671214 	 0.71916644644947
230.0611827062 	 1.28543923892937
230.0849921535 	 0.260485484540753
231.0564316793 	 1.30337121069123
231.0916743314 	 0.673864623051078
231.0928171856 	 2.60862999735739
232.0756899162 	 0.847521612744913
232.0768327704 	 0.741817358148665
233.0720817435 	 3.46558948997697
233.0761044889 	 1.49967911208426
233.1073243956 	 0.368077315111933
233.1084672498 	 0.526633697006305
234.071353462 	 0.926799803692098
234.0799067756 	 1.34112273018989
235.0791784941 	 0.926799803692098
235.0865889535 	 0.567216580467364
235.0877318077 	 2.25187813809506
243.0916743314 	 0.545509456755634
243.0928171856 	 0.89942995205557
244.0894088294 	 0.25576654460342
244.0994993635 	 1.38170561365095
245.0356962372 	 1.30809015062856
245.0682588146 	 2.29812374948092
245.0720817435 	 12.620332968402
245.1084672498 	 2.28113556570652
246.0435212693 	 0.771074785760127
246.0760838467 	 0.811657669221186
246.1162922819 	 0.21801502510476
247.0839088788 	 1.0872437615614
247.0877318077 	 3.79025255766545
248.0870035262 	 0.706897202612405
248.0955568398 	 0.724829174374269
249.0948285583 	 0.352032919325003
249.1033818719 	 0.58986749216656
257.0972338615 	 0.221790177054626
257.1084672498 	 0.644607195439617
259.0791784941 	 1.51289214390879
259.0865889535 	 1.78564687228661
259.0877318077 	 3.92143908792329
260.0955568398 	 1.90928309864472
261.0669963656 	 11.1102721884556
261.0908058129 	 9.43787987466495
261.1022390177 	 6.00060402431198
261.1033818719 	 19.6251274113783
273.0669963656 	 0.503982785307109
273.1033818719 	 1.02967269432595
274.1100640498 	 0.436030050209521
274.111206904 	 5.90811280154026
275.1077985478 	 1.28638302691683
275.1190319361 	 1.12499528106006
276.1104579803 	 0.565329004492431
279.0690077383 	 0.725772962361735
281.1522632155 	 0.0604024311978557
285.1033818719 	 0.160443957869304
287.1064558771 	 0.270867152402884
287.1190319361 	 0.308618671901544
289.123448612 	 6.51685605345615
289.1335391461 	 0.671977047076145
289.1346820003 	 10.8922571633508
297.1359444493 	 0.233115632904224
297.1471778376 	 0.167994261769036
300.0904714619 	 0.133074106232776
301.1584914476 	 0.169881837743969
305.0846578025 	 0.471893993733248
305.0932111161 	 0.285967760202348
312.1706529339 	 0.282192608252482
315.1139465582 	 1.96307901393031
315.1265226172 	 0.977764355015289
317.1534060697 	 0.660651591226547
318.1499977135 	 0.333157159575673
330.1499977135 	 0.302955943976745
330.1612311018 	 0.40394125863566
332.1656477777 	 3.93559590773529
332.176881166 	 26.4940163841595
333.1245112445 	 1.04005436218808
338.1499174918 	 0.547397032730567
358.1561457239 	 12.7552946506097
376.1667104102 	 100
END IONS

BEGIN IONS
PEPMASS=415.2114
CHARGE=1
MSLEVEL=2
RT=0
SOURCE_INSTRUMENT=qTOF
FILENAME=CCMSLIB00000004469.ms
IONMODE=Positive
ORGANISM=Natural
NAME=Eplerenone
PI=GNPS
DATACOLLECTOR=GNPS
SMILES=C[C@]12CCC(=O)C=C1C[C@H]([C@H]1[C@@H]3CC[C@@]4(CCC(=O)O4)[C@@]3(C)C[C@@H]3[C@]21O3)C(=O)OC
INCHI=InChI=1S/C24H30O6/c1-21-7-4-14(25)10-13(21)11-15(20(27)28-3)19-16-5-8-23(9-6-18(26)30-23)22(16,2)12-17-24(19,21)29-17/h10,15-17,19H,4-9,11-12H2,1-3H3/t15-,16+,17-,19+,21+,22+,23-,24-/m1/s1
FORMULA=C24H30O6
PUBMED=N/A
SUBMITUSER=BIOADREM
LIBRARYQUALITY=0
SPECTRUMID=CCMSLIB00000004469
SCANS=43
ID=CCMSLIB00000004469
105.0698762568 	 5.06666666666667
107.0491408147 	 3.34
107.085526321 	 2.39666666666667
111.0440554368 	 6.67666666666667
117.0698762568 	 3.38666666666667
119.085526321 	 5.19
121.0647908789 	 35.5133333333333
123.0804409431 	 1.69333333333333
129.0698762568 	 1.43666666666667
131.0491408147 	 2.14666666666667
131.085526321 	 3.16
133.0647908789 	 2.36333333333333
133.1011763852 	 3.75
135.0804409431 	 5.06666666666667
143.085526321 	 6.27
145.0647908789 	 2.64333333333333
145.1011763852 	 1.03333333333333
147.0804409431 	 4.33333333333333
147.1168264494 	 1.42
155.085526321 	 1.49333333333333
157.1011763852 	 4.23333333333333
159.0804409431 	 3.99
159.1168264494 	 1.17
161.0960910073 	 8.2
163.0753555652 	 100
169.1011763852 	 2.00666666666667
171.0804409431 	 5.83333333333333
173.0960910073 	 1.36666666666667
175.1117410715 	 4.55
179.0702701873 	 0.38
181.1011763852 	 2.16333333333333
183.1168264494 	 1.24
185.0960910073 	 3.66
189.0910056294 	 3.92333333333333
195.1015703157 	 1.39666666666667
195.1168264494 	 3.38
197.0960910073 	 1.48666666666667
197.1324765136 	 1.69333333333333
199.1117410715 	 1.51666666666667
203.1066556936 	 4.48666666666667
207.1168264494 	 1.23666666666667
209.0960910073 	 1.63666666666667
209.1324765136 	 1.21
211.1117410715 	 1.63
215.1066556936 	 1.30666666666667
221.1172203799 	 5.04666666666667
223.1117410715 	 1.86333333333333
233.1324765136 	 2.74666666666667
235.1117410715 	 1.03
237.1273911357 	 1.64666666666667
239.1430411999 	 3.29
255.137955822 	 1.11
259.1481265778 	 1.28333333333333
263.1430411999 	 1.13333333333333
265.1586912641 	 0.156666666666667
267.137955822 	 0.606666666666667
275.1430411999 	 0.343333333333333
277.1586912641 	 4.30333333333333
279.137955822 	 0.376666666666667
291.1743413283 	 2.22333333333333
295.1692559504 	 1.85666666666667
297.1485205083 	 0.556666666666667
299.1641705725 	 1.8
301.1586912641 	 1.76333333333333
305.1536058862 	 0.57
309.1849060146 	 0.956666666666667
311.1641705725 	 0.316666666666667
319.1692559504 	 6.39333333333333
323.1641705725 	 0.99
329.1536058862 	 0.616666666666667
337.1798206367 	 14.1933333333333
347.1641705725 	 2.68
351.1954707009 	 0.643333333333333
355.190385323 	 6.62333333333333
357.1696498809 	 1.06333333333333
361.1798206367 	 0.26
365.1747352588 	 3.91333333333333
369.2060353872 	 1.32333333333333
371.1852999451 	 0.346666666666667
379.190385323 	 3.2
383.1852999451 	 5.16
397.2009500093 	 9.63333333333333
415.2115146956 	 58.6066666666667
END IONS

BEGIN IONS
PEPMASS=361.2011
CHARGE=1
MSLEVEL=2
RT=0
SOURCE_INSTRUMENT=qTOF
FILENAME=CCMSLIB00000004490.ms
IONMODE=Positive
ORGANISM=Natural
NAME=Prednisolone
PI=GNPS
DATACOLLECTOR=GNPS
SMILES=C[C@]12C=CC(=O)C=C1CC[C@H]1[C@@H]3CC[C@](C(=O)CO)([C@@]3(C)C[C@@H]([C@H]21)O)O
INCHI=InChI=1S/C21H28O5/c1-19-7-5-13(23)9-12(19)3-4-14-15-6-8-21(26,17(25)11-22)20(15,2)10-16(24)18(14)19/h5,7,9,14-16,18,22,24,26H,3-4,6,8,10-11H2,1-2H3/t14-,15-,16-,18+,19-,20-,21-/m0/s1
FORMULA=C21H28O5
PUBMED=N/A
SUBMITUSER=BIOADREM
LIBRARYQUALITY=0
SPECTRUMID=CCMSLIB00000004490
SCANS=46
ID=CCMSLIB00000004490
105.0698762568 	 9.71615720524018
107.085526321 	 9.05761374841527
109.0647908789 	 2.90533878010987
109.1011763852 	 1.19735173968165
111.0804409431 	 1.2607409494295
115.0542261926 	 1.28891393153965
117.0698762568 	 3.81039583039865
119.085526321 	 12.8750528243415
121.0647908789 	 46.2072122834202
123.0804409431 	 1.35230314128751
129.0698762568 	 1.83476545992393
131.085526321 	 5.49020988871672
132.0569658468 	 3.41949570362023
133.0647908789 	 3.38075785321876
133.1011763852 	 3.77870122552472
135.0804409431 	 16.5586702352444
137.059705501 	 0.866319199887308
139.0753555652 	 1.07057332018594
142.0777012889 	 1.54247077053106
143.085526321 	 2.25031694604874
145.0647908789 	 4.37385547260178
145.1011763852 	 5.05705028877307
147.0804409431 	 100
149.0960910073 	 1.6762924355543
151.0753555652 	 0.327510917030568
155.085526321 	 3.468798422313
157.1011763852 	 0.968446260036625
158.072615911 	 4.54641498802648
159.0804409431 	 10.36061417101
161.0960910073 	 9.34990843780814
163.0753555652 	 2.2890547964502
165.0698762568 	 1.15509226651641
165.0910056294 	 1.40864910550782
169.0859202515 	 0.348640653613185
169.1011763852 	 1.35934638681504
171.0804409431 	 46.7953232849697
173.0960910073 	 44.3865333145514
178.0777012889 	 1.00014086491055
179.085526321 	 1.43682208761797
182.072615911 	 1.46147344696436
185.0960910073 	 7.25454289336526
187.1117410715 	 4.14847161572053
189.0910056294 	 0.85223270883223
190.0777012889 	 1.07761656571348
193.1011763852 	 1.47908156078321
195.1168264494 	 1.27834906324834
196.0882659752 	 1.75376813635723
197.0960910073 	 7.08902662346809
199.1117410715 	 5.45851528384279
205.1011763852 	 1.71503028595577
208.0882659752 	 2.25031694604874
209.0960910073 	 3.60614171010001
211.1117410715 	 7.69122411607269
213.1273911357 	 2.90886040287364
221.0960910073 	 1.52838427947598
223.1117410715 	 21.531201577687
224.1195661036 	 1.04944358360332
225.1273911357 	 5.64163966755881
227.1430411999 	 1.02831384702071
235.1117410715 	 1.711508663192
237.1273911357 	 8.94844344273841
239.1430411999 	 12.882096069869
241.1586912641 	 3.34906324834484
247.1117410715 	 2.41935483870968
248.1195661036 	 1.37695450063389
249.1273911357 	 6.30722636991126
249.163776642 	 1.78546274123116
251.1430411999 	 5.56064234399211
261.1273911357 	 1.81715734610509
263.1430411999 	 7.86026200873363
264.150866232 	 1.21848147626426
265.1586912641 	 16.0656430483167
266.1665162962 	 7.7123538526553
267.1743413283 	 8.16664318918157
274.1352161678 	 4.10973376531906
277.1586912641 	 6.76151570643753
279.137955822 	 1.02831384702071
279.1743413283 	 14.7802507395408
281.1536058862 	 0.295816312156642
283.1692559504 	 2.2080574728835
285.1849060146 	 4.4407663051134
289.1586912641 	 20.7036202282012
295.1692559504 	 4.88449077334836
297.1849060146 	 2.54965488096915
307.1692559504 	 36.5474010424003
313.1798206367 	 0.683194816171292
325.1798206367 	 37.2763769545006
326.1876456688 	 3.42653894914777
343.190385323 	 85.131708691365
344.1982103551 	 6.36709395689534
361.2009500093 	 10.085927595436
END IONS

BEGIN IONS
PEPMASS=273.128
CHARGE=1
MSLEVEL=2
RT=0
SOURCE_INSTRUMENT=qTOF
FILENAME=CCMSLIB00000004500.ms
IONMODE=Positive
ORGANISM=Natural
NAME=Sotalol
PI=GNPS
DATACOLLECTOR=GNPS
SMILES=CC(C)NCC(c1ccc(cc1)NS(=O)(=O)C)O
INCHI=InChI=1S/C12H20N2O3S/c1-9(2)13-8-12(15)10-4-6-11(7-5-10)14-18(3,16)17/h4-7,9,12-15H,8H2,1-3H3
FORMULA=C12H20N2O3S
PUBMED=N/A
SUBMITUSER=BIOADREM
LIBRARYQUALITY=0
SPECTRUMID=CCMSLIB00000004500
SCANS=49
ID=CCMSLIB00000004500
106.0651252299 	 28.0152114236784
107.0702701873 	 9.93527589593775
107.072950262 	 6.12486463343995
116.0494751657 	 3.19339159342181
117.0573001978 	 2.1709018560959
118.0651252299 	 1.96942604578538
131.0637450214 	 4.47528143652253
132.0655191604 	 3.69456267156924
132.0681992351 	 1.85357745485683
133.0760242672 	 97.0609716170952
133.0793950856 	 1.62691716825749
134.0838492993 	 10.2954139068678
144.0807752941 	 0.0982194575263808
150.0787639214 	 0.219104943712695
175.1229744598 	 0.0679980859798021
176.1281194172 	 5.90324124209837
176.1307994919 	 5.8176140227164
181.0733441925 	 0.881456670108545
194.9899113763 	 11.7964086936812
213.0692243298 	 57.5414914246858
255.1161745224 	 100
273.1267392087 	 7.33623794293198
END IONS

BEGIN IONS
PEPMASS=393.2173
CHARGE=1
MSLEVEL=2
RT=0
SOURCE_INSTRUMENT=qTOF
FILENAME=CCMSLIB00000004518.ms
IONMODE=Positive
ORGANISM=Natural
NAME=Naftopidil
PI=GNPS
DATACOLLECTOR=GNPS
SMILES=COc1ccccc1N1CCN(CC1)CC(COc1cccc2ccccc12)O
INCHI=InChI=1S/C24H28N2O3/c1-28-24-11-5-4-10-22(24)26-15-13-25(14-16-26)17-20(27)18-29-23-12-6-8-19-7-2-3-9-21(19)23/h2-12,20,27H,13-18H2,1H3
FORMULA=C24H28N2O3
PUBMED=N/A
SUBMITUSER=BIOADREM
LIBRARYQUALITY=0
SPECTRUMID=CCMSLIB00000004518
SCANS=54
ID=CCMSLIB00000004518
100.0756899162 	 1.70721011221463
103.0542261926 	 0.045401779956146
106.0651252299 	 0.860054172578357
107.0491408147 	 0.39468592802786
108.0807752941 	 0.0820327615116729
114.0913399804 	 5.75415968012382
115.0542261926 	 0.246098284535019
118.0651252299 	 2.20301818650845
119.072950262 	 0.602605443054302
120.0443897878 	 5.35947375209596
121.0522148199 	 2.49245453372888
122.060039852 	 0.256932800206372
122.0964253583 	 0.0531407197213982
126.0913399804 	 0.0505610731329808
127.0542261926 	 0.0969947117244938
129.0698762568 	 1.15464981297562
131.060374203 	 0.0479814265445634
132.0807752941 	 0.138269057139172
133.0522148199 	 0.251773507029537
134.060039852 	 5.62827292660906
135.0678648841 	 1.63859151296272
135.0804409431 	 0.045401779956146
136.0756899162 	 14.7633174255127
141.0698762568 	 0.10834515671353
143.0491408147 	 0.0598478008512834
144.0807752941 	 0.0722301044756868
146.060039852 	 0.322971752869857
146.0838492993 	 0.326583258093641
147.0678648841 	 0.278601831549078
148.0756899162 	 2.43673416741906
149.0835149483 	 3.23848832709919
150.0913399804 	 13.625177350703
153.0698762568 	 0.682058557977557
155.085526321 	 3.51089900683606
157.0647908789 	 2.83606345930608
160.0756899162 	 0.0804849735586225
162.0913399804 	 7.42267509351219
164.1069900446 	 0.861086031213724
165.0698762568 	 1.15929317683477
174.0913399804 	 0.281697407455179
175.0865889535 	 1.31510383077518
175.1229744598 	 0.329678833999742
176.0944139856 	 0.144976138269057
176.1069900446 	 0.0433380626854121
177.1022390177 	 1.70514639494389
178.1100640498 	 0.408616019605314
183.0804409431 	 5.50548174900039
189.1022390177 	 1.81349155165742
190.1100640498 	 23.1033148458661
191.1178890819 	 1.03908164581452
193.1335391461 	 0.868309041661292
203.1178890819 	 1.7954340255385
204.125714114 	 0.10834515671353
205.1335391461 	 19.0919644008771
216.125714114 	 0.297691216303366
217.1335391461 	 0.185734554366052
219.112803704 	 0.129498258738553
219.1491892103 	 0.498387720882239
226.1226401088 	 0.0515929317683477
231.1491892103 	 2.22055978330969
235.1441038324 	 4.87037275893203
244.1332047951 	 3.12343608925577
249.1597538966 	 7.32310073519928
270.1488548593 	 0.0583000128982329
375.2067040892 	 0.520572681542629
393.2172687755 	 100
END IONS

BEGIN IONS
PEPMASS=366.068
CHARGE=1
MSLEVEL=2
RT=0
SOURCE_INSTRUMENT=qTOF
FILENAME=CCMSLIB00000004528.ms
IONMODE=Positive
ORGANISM=Natural
NAME=Metolazone
PI=GNPS
DATACOLLECTOR=GNPS
SMILES=Cc1ccccc1N1C(C)Nc2cc(c(cc2C1=O)S(=O)(=O)N)Cl
INCHI=InChI=1S/C16H16ClN3O3S/c1-9-5-3-4-6-14(9)20-10(2)19-13-8-12(17)15(24(18,22)23)7-11(13)16(20)21/h3-8,10,19H,1-2H3,(H2,18,22,23)
FORMULA=C16H16ClN3O3S
PUBMED=N/A
SUBMITUSER=BIOADREM
LIBRARYQUALITY=0
SPECTRUMID=CCMSLIB00000004528
SCANS=56
ID=CCMSLIB00000004528
103.0416501336 	 0.256620053555489
104.0494751657 	 1.44302290984826
105.0546201231 	 0.386789645938709
108.0807752941 	 0.405385301993454
109.9917787742 	 0.371913121094912
111.9710433321 	 0.208271347813151
116.0494751657 	 0.67688188039274
117.0573001978 	 2.1124665278191
119.0365647557 	 0.386789645938709
120.0443897878 	 0.353317465040167
122.9996038063 	 1.38351681047307
123.0314793778 	 0.624814043439452
126.0105028436 	 0.371913121094912
132.0443897878 	 1.55087771496578
132.0681992351 	 1.35376376078548
133.0522148199 	 3.19101457899435
134.0964253583 	 0.386789645938709
137.9866933963 	 0.747545373400774
140.0234728331 	 0.331002677774472
140.0261529078 	 0.208271347813151
142.0054174657 	 0.334721808985421
142.0287397236 	 0.438857482891996
144.0443897878 	 6.02871169294853
145.0481920745 	 0.769860160666468
147.0552888251 	 0.301249628086879
148.0393044099 	 1.43558464742636
150.0105028436 	 7.44570068432014
151.0183278757 	 24.5499851234752
153.013539311 	 2.48437964891401
154.0054174657 	 1.4690568283249
160.0631138572 	 8.07423385897054
161.047129442 	 1.35004462957453
167.0132424978 	 0.572746206486165
168.0210675299 	 0.275215709610235
169.0084539331 	 0.368193989883963
175.0542261926 	 0.215709610235049
178.0054174657 	 22.6867003867896
179.0132424978 	 51.9785778042249
180.0170447845 	 3.86417732817614
180.0192376698 	 0.952097590002975
181.0084539331 	 3.42903897649509
181.0106468184 	 0.926063671526332
182.0151010321 	 0.275215709610235
182.0162789652 	 1.66245165129426
183.0029746247 	 0.316126152930675
194.0003320878 	 1.16408806902708
194.0032157168 	 0.494644451056233
195.0241039973 	 0.446295745313895
196.015982152 	 5.53406724189229
197.0033685552 	 0.438857482891996
197.0238071841 	 0.494644451056233
198.0120438019 	 0.658286224337995
211.003071742 	 14.0583159773877
211.0057518167 	 2.15709610235049
212.0038844188 	 0.234305266289795
213.000963252 	 4.18402261231776
214.0054174657 	 0.208271347813151
223.0190186194 	 0.743826242189824
232.9808965119 	 0.450014876524844
232.9822391826 	 0.717792323713181
237.9690319594 	 0.241743528711693
249.1056098361 	 0.323564415352574
258.9938665014 	 100
259.9983207151 	 4.79024099970247
260.9935696882 	 13.7198750371913
261.9962122251 	 0.959535852424873
268.0761771056 	 0.401666170782505
277.0084539331 	 0.46489140136864
279.0081571199 	 0.554150550431419
348.0568011092 	 1.2645046117227
366.0673657955 	 20.540761678072
END IONS

BEGIN IONS
PEPMASS=396.0431
CHARGE=1
MSLEVEL=2
RT=0
SOURCE_INSTRUMENT=qTOF
FILENAME=CCMSLIB00000004544.ms
IONMODE=Positive
ORGANISM=Natural
NAME=Cefdinir
PI=GNPS
DATACOLLECTOR=GNPS
SMILES=C=CC1=C(C(=O)O)N2C(=O)[C@H]([C@H]2SC1)N=C(/C(=N\O)/c1csc(=N)[nH]1)O
INCHI=InChI=1S/C14H13N5O5S2/c1-2-5-3-25-12-8(11(21)19(12)9(5)13(22)23)17-10(20)7(18-24)6-4-26-14(15)16-6/h2,4,8,12,24H,1,3H2,(H2,15,16)(H,17,20)(H,22,23)/b18-7-/t8-,12-/m1/s1
FORMULA=C14H13N5O5S2
PUBMED=N/A
SUBMITUSER=BIOADREM
LIBRARYQUALITY=0
SPECTRUMID=CCMSLIB00000004544
SCANS=57
ID=CCMSLIB00000004544
102.0008104136 	 2.69628624724436
104.0494751657 	 1.23791758521282
105.0573001978 	 1.0005087332542
106.0287397236 	 1.40749533661184
107.060374203 	 0.435249561924142
108.0443897878 	 1.10225538409361
109.0106468184 	 0.61613249674976
111.0011447646 	 0.378723644791137
111.0262968826 	 1.0796450172404
113.0167948288 	 1.11921315923351
117.0447241388 	 0.667005822169465
120.0443897878 	 1.35096941947883
121.0760242672 	 0.316545135944831
123.0137208236 	 0.536996212763552
124.0215458557 	 4.57859928777344
124.0505377982 	 7.66491436323554
124.0518804689 	 1.61098863829066
125.0055614405 	 9.34373410208581
126.0120438019 	 70.1317053869199
126.0133864726 	 73.2632411960884
126.9960593867 	 0.565259171330055
127.0178406863 	 1.49228421231134
133.0396387609 	 0.559606579616754
135.0552888251 	 0.633090271889661
136.0215458557 	 6.52309083714883
138.0371959199 	 2.96761064948279
138.9960593867 	 0.740489514442372
139.0212115047 	 0.384376236504437
142.0083010947 	 3.56113277937935
147.0552888251 	 0.390028828217738
152.0164604778 	 58.62302865864
153.0209146915 	 1.08529760895371
153.0480949572 	 0.146967384545814
154.0083010947 	 0.627437680176361
154.0287397236 	 0.582216946469956
154.032110542 	 1.99536487479509
156.0226084882 	 0.82527839014188
156.0239511589 	 0.655700638742864
157.9841144919 	 0.548301396190153
164.0164604778 	 5.83912723983947
166.032110542 	 15.4485331524504
167.9810404867 	 0.452207337064044
170.0270251641 	 40.5008196257984
171.0314793778 	 1.59403086315075
180.0226084882 	 8.89717935673506
180.0239511589 	 3.046746933469
181.0178574613 	 0.254366627098525
181.019200132 	 0.983550958114295
181.0430095793 	 0.406986603357639
182.0270251641 	 10.8190605392572
183.0335075255 	 4.60686224633995
183.0348501962 	 19.3657792097677
183.9997645561 	 0.435249561924142
193.0178574613 	 1.17008648465321
195.9759551088 	 0.582216946469956
198.0028385613 	 0.729184331015771
199.0284221476 	 3.97942456616359
199.0297648183 	 9.3267763269459
207.0222741372 	 1.0061613249675
209.0127720834 	 4.54468373749364
209.0141147541 	 21.0332937651913
210.0219397862 	 10.9377649652366
211.0284221476 	 3.56113277937935
211.0297648183 	 13.5549149284947
211.9946791782 	 0.536996212763552
213.0025042103 	 5.37561471934882
213.003846881 	 15.3072183596179
225.9977531834 	 0.989203549827596
227.0233367697 	 56.5259171330055
227.0246794404 	 100
243.0004928376 	 3.0976202588887
243.0018355083 	 16.2398959923125
252.9848427734 	 0.152619976259115
252.9861854441 	 3.84941495675767
253.0277534456 	 0.429596970210842
270.9954074597 	 6.33655531060992
270.9967501304 	 17.2008365835736
291.0368783439 	 0.423944378497541
319.031792966 	 0.248714035385224
335.0267075881 	 1.93883895766209
350.0376066254 	 0.378723644791137
363.0216222102 	 1.0570346503872
368.0481713117 	 0.440902153637443
378.0325212475 	 0.226103668532022
396.0430859338 	 79.1758521282008
END IONS

BEGIN IONS
PEPMASS=221.1651
CHARGE=1
MSLEVEL=2
RT=0
SOURCE_INSTRUMENT=qTOF
FILENAME=CCMSLIB00000004551.ms
IONMODE=Positive
ORGANISM=Natural
NAME=Prilocaine
PI=GNPS
DATACOLLECTOR=GNPS
SMILES=CCCNC(C)C(=Nc1ccccc1C)O
INCHI=InChI=1S/C13H20N2O/c1-4-9-14-11(3)13(16)15-12-8-6-5-7-10(12)2/h5-8,11,14H,4,9H2,1-3H3,(H,15,16)
FORMULA=C13H20N2O
PUBMED=N/A
SUBMITUSER=BIOADREM
LIBRARYQUALITY=0
SPECTRUMID=CCMSLIB00000004551
SCANS=60
ID=CCMSLIB00000004551
106.0651252299 	 14.2542349538631
107.0491408147 	 3.95262360556397
108.0807752941 	 75.1411651287702
109.0647908789 	 18.0966808979479
118.0651252299 	 60.2671808290869
119.072950262 	 22.4900151494285
119.085526321 	 6.57622916953588
134.0964253583 	 33.569756231924
136.0756899162 	 100
162.0913399804 	 1.29458752237984
221.1648392745 	 1.26015700316761
END IONS

BEGIN IONS
PEPMASS=251.164
CHARGE=1
MSLEVEL=2
RT=0
SOURCE_INSTRUMENT=qTOF
FILENAME=CCMSLIB00000004572.ms
IONMODE=Positive
ORGANISM=Natural
NAME=Gemfibrozil
PI=GNPS
DATACOLLECTOR=GNPS
SMILES=Cc1ccc(C)c(c1)OCCCC(C)(C)C(=O)O
INCHI=InChI=1S/C15H22O3/c1-11-6-7-12(2)13(10-11)18-9-5-8-15(3,4)14(16)17/h6-7,10H,5,8-9H2,1-4H3,(H,16,17)
FORMULA=C15H22O3
PUBMED=N/A
SUBMITUSER=BIOADREM
LIBRARYQUALITY=0
SPECTRUMID=CCMSLIB00000004572
SCANS=62
ID=CCMSLIB00000004572
101.0960910073 	 3.925
107.0491408147 	 9.67
107.085526321 	 0.26
108.0569658468 	 51.26
111.0804409431 	 1.08
123.0804409431 	 64.58
129.0910056294 	 100
133.1011763852 	 0.34
135.0804409431 	 0.365
146.072615911 	 0.49
161.0960910073 	 0.935
205.1586912641 	 3.03
233.1536058862 	 1.955
251.1641705725 	 0
END IONS

BEGIN IONS
PEPMASS=249.0907
CHARGE=1
MSLEVEL=2
RT=0
SOURCE_INSTRUMENT=qTOF
FILENAME=CCMSLIB00000004580.ms
IONMODE=Positive
ORGANISM=Natural
NAME=Pyrimethamine
PI=GNPS
DATACOLLECTOR=GNPS
SMILES=CCc1c(c2ccc(cc2)Cl)c(N)[nH]c(=N)n1
INCHI=InChI=1S/C12H13ClN4/c1-2-9-10(11(14)17-12(15)16-9)7-3-5-8(13)6-4-7/h3-6H,2H2,1H3,(H4,14,15,16,17)
FORMULA=C12H13ClN4
PUBMED=N/A
SUBMITUSER=BIOADREM
LIBRARYQUALITY=0
SPECTRUMID=CCMSLIB00000004580
SCANS=65
ID=CCMSLIB00000004580
101.0385761284 	 0.0181670260578343
102.0464011605 	 0.0505517246826695
103.0542261926 	 0.251178882017014
110.9996038063 	 1.51971122327275
114.0338251015 	 0.035544181417502
115.0542261926 	 0.495248927750527
117.0573001978 	 1.12082652069856
122.9996038063 	 0.0853060354020047
125.0152538705 	 0.698245697179372
127.0542261926 	 2.57181899323081
128.0620512247 	 6.03066278050283
130.0651252299 	 0.210895476410512
130.0777012889 	 0.0710883628350039
137.0152538705 	 0.0387036642101688
138.0105028436 	 0.0900452595910049
140.0494751657 	 0.588453670134199
142.0525491709 	 0.165082975916842
143.072950262 	 0.0766174577221709
145.0886003262 	 0.17772090708751
149.0152538705 	 0.292252158321683
150.0105028436 	 0.612939661777367
152.0243230477 	 0.286723063434516
152.0261529078 	 0.803298500035544
153.0573001978 	 0.215634700599512
154.0651252299 	 2.31827049911929
155.072950262 	 1.32382329012741
156.0681992351 	 0.668230610649037
157.0760242672 	 0.0979439665726721
161.0026778115 	 0.379927805818188
163.0309039347 	 4.8118922932316
169.0760242672 	 0.0924148716855051
171.0916743314 	 0.0892553888928382
172.0994993635 	 0.352282331382353
174.0105028436 	 0.11769073402684
177.0214018809 	 24.7190034991272
179.060374203 	 0.198257545239844
180.0556231761 	 0.148495691255341
180.0574530362 	 0.150075432651675
181.0634482082 	 0.201417028032511
188.0261529078 	 0.11769073402684
189.0214018809 	 0.23301185595918
190.041802972 	 1.7985355797256
196.0869233045 	 1.61054635356192
198.0899973097 	 8.40738371128646
207.0683520735 	 2.19505067020529
213.113472406 	 0.856219836812714
215.0370519451 	 0.110581897743339
216.0323009182 	 0.631896558533368
217.0401259503 	 0.225903019675679
232.0636010466 	 0.570286644076365
233.0588500197 	 31.5948279266684
249.0901501481 	 100
END IONS

BEGIN IONS
PEPMASS=285.1585
CHARGE=1
MSLEVEL=2
RT=0
SOURCE_INSTRUMENT=qTOF
FILENAME=CCMSLIB00000004601.ms
IONMODE=Positive
ORGANISM=Natural
NAME=Tropisetron
PI=GNPS
DATACOLLECTOR=GNPS
SMILES=CN1[C@H]2CC[C@@H]1CC(C2)OC(=O)c1c[nH]c2ccccc12
INCHI=InChI=1S/C17H20N2O2/c1-19-11-6-7-12(19)9-13(8-11)21-17(20)15-10-18-16-5-3-2-4-14(15)16/h2-5,10-13,18H,6-9H2,1H3/t11-,12+,13?
FORMULA=C17H20N2O2
PUBMED=N/A
SUBMITUSER=BIOADREM
LIBRARYQUALITY=0
SPECTRUMID=CCMSLIB00000004601
SCANS=66
ID=CCMSLIB00000004601
107.085526321 	 0.66
108.0807752941 	 1.8
109.0886003262 	 3.48
116.0494751657 	 4.66
124.1120754225 	 100
142.1226401088 	 6.16
144.0443897878 	 34.64
285.1597538966 	 0.26
END IONS

BEGIN IONS
PEPMASS=434.2184
CHARGE=1
MSLEVEL=2
RT=0
SOURCE_INSTRUMENT=qTOF
FILENAME=CCMSLIB00000004630.ms
IONMODE=Positive
ORGANISM=Natural
NAME=MycophenolateMofetil
PI=GNPS
DATACOLLECTOR=GNPS
SMILES=C/C(=C\Cc1c(c2c(COC2=O)c(C)c1OC)O)/CCC(=O)OCCN1CCOCC1
INCHI=InChI=1S/C23H31NO7/c1-15(5-7-19(25)30-13-10-24-8-11-29-12-9-24)4-6-17-21(26)20-18(14-31-23(20)27)16(2)22(17)28-3/h4,26H,5-14H2,1-3H3/b15-4+
FORMULA=C23H31NO7
PUBMED=N/A
SUBMITUSER=BIOADREM
LIBRARYQUALITY=0
SPECTRUMID=CCMSLIB00000004630
SCANS=67
ID=CCMSLIB00000004630
97.0647908789 	 0.24
103.0542261926 	 0.173333333333333
109.0647908789 	 0.95
114.0913399804 	 100
131.0491408147 	 0.186666666666667
132.1019046667 	 7.24
135.0804409431 	 0.103333333333333
139.0753555652 	 0.503333333333333
141.0910056294 	 0.41
147.0440554368 	 0.143333333333333
149.059705501 	 0.8
159.0440554368 	 7.67333333333333
161.059705501 	 0.76
174.1039160394 	 0.13
175.0753555652 	 0.11
177.0546201231 	 2.25666666666667
179.0702701873 	 0.413333333333333
187.0389700589 	 0.2
189.1273911357 	 0.0833333333333333
193.0495347452 	 0.656666666666667
195.0651848094 	 33.73
202.0988306615 	 0.606666666666667
207.0651848094 	 27.36
217.0495347452 	 0.12
217.1223057578 	 0.47
219.0651848094 	 0.456666666666667
230.0937452836 	 0.116666666666667
233.0808348736 	 0.176666666666667
239.1066556936 	 0.21
241.1223057578 	 0.296666666666667
243.1015703157 	 0.24
257.1172203799 	 0.186666666666667
261.112135002 	 1.87333333333333
267.1015703157 	 0.113333333333333
270.0886599057 	 0.09
275.1277850662 	 0.343333333333333
285.112135002 	 14.01
287.1152090072 	 0.28
303.1226996883 	 1.36666666666667
347.1489144388 	 2.27333333333333
434.217328355 	 84.5133333333333
END IONS

BEGIN IONS
PEPMASS=373.2856
CHARGE=1
MSLEVEL=2
RT=0
SOURCE_INSTRUMENT=qTOF
FILENAME=CCMSLIB00000004640.ms
IONMODE=Positive
ORGANISM=Natural
NAME=Finasteride
PI=GNPS
DATACOLLECTOR=GNPS
SMILES=CC(C)(C)N=C([C@H]1CC[C@H]2[C@@H]3CC[C@@H]4[C@](C)(C=CC(=N4)O)[C@H]3CC[C@]12C)O
INCHI=InChI=1S/C23H36N2O2/c1-21(2,3)25-20(27)17-8-7-15-14-6-9-18-23(5,13-11-19(26)24-18)16(14)10-12-22(15,17)4/h11,13-18H,6-10,12H2,1-5H3,(H,24,26)(H,25,27)/t14-,15-,16-,17+,18+,22-,23+/m0/s1
FORMULA=C23H36N2O2
PUBMED=N/A
SUBMITUSER=BIOADREM
LIBRARYQUALITY=0
SPECTRUMID=CCMSLIB00000004640
SCANS=69
ID=CCMSLIB00000004640
91.0542261926 	 0.32
95.085526321 	 0.573333333333333
105.0698762568 	 4.21666666666667
107.085526321 	 7.46333333333333
108.0443897878 	 4.78666666666667
109.1011763852 	 2.42333333333333
110.060039852 	 6.87666666666667
119.085526321 	 4.83
121.1011763852 	 4.80333333333333
122.060039852 	 5.28333333333333
124.0756899162 	 1.84
126.0913399804 	 1.34333333333333
131.085526321 	 2.51666666666667
133.1011763852 	 4.84
134.060039852 	 3.19333333333333
135.1168264494 	 3.18
136.0756899162 	 3.89333333333333
138.0913399804 	 1.62
143.085526321 	 1.98666666666667
145.1011763852 	 4.35333333333333
147.1168264494 	 5.05
148.0756899162 	 3.55333333333333
149.1324765136 	 1.29
150.0913399804 	 3.86
157.1011763852 	 1.83666666666667
159.1168264494 	 3.58333333333333
161.0960910073 	 1.39333333333333
161.1324765136 	 3.44
162.0913399804 	 0.966666666666667
171.1168264494 	 1.51666666666667
173.1324765136 	 7.71
175.1117410715 	 1.11666666666667
175.1481265778 	 5.76666666666667
176.1069900446 	 3.82666666666667
177.163776642 	 0.133333333333333
178.1226401088 	 0.95
178.1590256151 	 1.79
185.1324765136 	 4.15666666666667
187.1481265778 	 4.95
188.1069900446 	 0.153333333333333
189.1273911357 	 1.36666666666667
189.163776642 	 3.4
190.1226401088 	 0.466666666666667
197.1324765136 	 1.71666666666667
202.1226401088 	 1.08666666666667
203.1430411999 	 1.93333333333333
213.163776642 	 1.80666666666667
215.1430411999 	 2.85
216.138290173 	 2.23333333333333
220.1695903014 	 1.88
227.1794267062 	 1.56333333333333
232.1695903014 	 3.67666666666667
237.163776642 	 2.56666666666667
239.1794267062 	 0.156666666666667
241.1586912641 	 0.146666666666667
246.1852403656 	 12.03
249.1961394029 	 2.61666666666667
255.1743413283 	 2.22333333333333
256.1695903014 	 1.23333333333333
258.1852403656 	 0.626666666666667
265.1586912641 	 0.126666666666667
272.2008904298 	 4.77333333333333
274.216540494 	 0.16
282.1852403656 	 7.82
299.2117894671 	 0.14
300.1958050519 	 8.18
305.2587396597 	 48.71
317.2223541534 	 100
355.2743897239 	 1.31
357.2536542818 	 0.19
373.2849544102 	 95.3833333333333
END IONS

BEGIN IONS
PEPMASS=247.145
CHARGE=1
MSLEVEL=2
RT=0
SOURCE_INSTRUMENT=qTOF
FILENAME=CCMSLIB00000004652.ms
IONMODE=Positive
ORGANISM=Natural
NAME=Nefiracetam
PI=GNPS
DATACOLLECTOR=GNPS
SMILES=Cc1cccc(C)c1N=C(CN1CCCC1=O)O
INCHI=InChI=1S/C14H18N2O2/c1-10-5-3-6-11(2)14(10)15-12(17)9-16-8-4-7-13(16)18/h3,5-6H,4,7-9H2,1-2H3,(H,15,17)
FORMULA=C14H18N2O2
PUBMED=N/A
SUBMITUSER=BIOADREM
LIBRARYQUALITY=0
SPECTRUMID=CCMSLIB00000004652
SCANS=70
ID=CCMSLIB00000004652
98.060039852 	 30.5124181591905
101.0709388893 	 0.432877008819869
103.0542261926 	 12.9322006384936
105.0658535114 	 13.2839132081597
105.0698762568 	 1.11465829771116
107.072950262 	 6.30377144093934
107.085526321 	 8.10562199015205
125.0021906221 	 11.698501163357
125.1073243956 	 1.22287754991613
126.0549544741 	 100
134.0964253583 	 35.3444077701423
159.1042503904 	 5.44342838590985
247.1441038324 	 6.91521021589741
END IONS

BEGIN IONS
PEPMASS=393.2077
CHARGE=1
MSLEVEL=2
RT=0
SOURCE_INSTRUMENT=qTOF
FILENAME=CCMSLIB00000004677.ms
IONMODE=Positive
ORGANISM=Natural
NAME=Dexamethazone
PI=GNPS
DATACOLLECTOR=GNPS
SMILES=C[C@@H]1C[C@H]2[C@@H]3CCC4=CC(=O)C=C[C@]4(C)[C@]3([C@H](C[C@]2(C)[C@]1(C(=O)CO)O)O)F
INCHI=InChI=1S/C22H29FO5/c1-12-8-16-15-5-4-13-9-14(25)6-7-19(13,2)21(15,23)17(26)10-20(16,3)22(12,28)18(27)11-24/h6-7,9,12,15-17,24,26,28H,4-5,8,10-11H2,1-3H3/t12-,15+,16+,17+,19+,20+,21+,22+/m1/s1
FORMULA=C22H29FO5
PUBMED=N/A
SUBMITUSER=BIOADREM
LIBRARYQUALITY=0
SPECTRUMID=CCMSLIB00000004677
SCANS=71
ID=CCMSLIB00000004677
105.0698762568 	 13.0642741027885
107.085526321 	 23.8964611729399
117.0698762568 	 5.14255345754658
119.085526321 	 20.9422283356259
119.0866691752 	 0.690884081530574
121.0647908789 	 42.7597849193448
121.0659337331 	 0.984744279104664
121.1011763852 	 3.66387395273228
123.0804409431 	 6.15855945979742
125.059705501 	 7.03076153557584
128.0620512247 	 6.21483056146055
129.0698762568 	 6.40240090033763
131.085526321 	 14.7242716018507
132.0569658468 	 3.60447667875453
133.0647908789 	 6.11166687507815
133.1023192394 	 2.58534450418907
135.0804409431 	 29.1796923846442
137.0960910073 	 4.19844941853195
141.0698762568 	 7.34337876703764
141.0910056294 	 2.44466675003126
142.0777012889 	 3.03238714517944
143.085526321 	 10.2163311241716
145.0647908789 	 10.0506439914968
145.1011763852 	 4.87995498311867
146.072615911 	 2.04764286607478
147.0804409431 	 100
147.0815837973 	 5.58334375390772
149.0960910073 	 9.77866700012505
149.0972338615 	 3.00112542203326
151.0753555652 	 0.503313742653495
153.0910056294 	 5.84281605602101
155.085526321 	 2.96361135425785
158.072615911 	 8.45004376641241
159.0804409431 	 31.0491434287858
159.0815837973 	 0.725271976991372
161.0960910073 	 12.6422408403151
161.0972338615 	 10.9947480305114
167.085526321 	 2.44466675003126
167.1066556936 	 3.32937351506815
171.0804409431 	 54.2234587970489
173.0960910073 	 31.3680130048768
173.0972338615 	 2.0695260722771
177.0910056294 	 9.58171814430411
177.0921484836 	 2.63536326122296
179.085526321 	 6.3273727647868
183.0804409431 	 6.76503688883331
183.0815837973 	 2.72289608603226
185.0960910073 	 28.1199199699888
187.0753555652 	 4.33912717268976
187.0764984194 	 0.844066524946855
187.1117410715 	 1.12854820557709
187.1128839257 	 3.11679379767413
192.0933513531 	 1.97261473052395
193.1011763852 	 7.37464049018382
194.0737587652 	 2.22896086032262
195.0804409431 	 3.01675628360635
195.1015703157 	 1.40052519694886
196.0882659752 	 8.82831061648118
197.0960910073 	 11.9200950356384
199.1117410715 	 7.97486557459047
204.0933513531 	 3.21995748405652
204.0944942073 	 2.11641865699637
205.1011763852 	 2.18832062023259
207.1168264494 	 2.02263348755783
208.0882659752 	 9.84431661873202
209.0960910073 	 8.52819807427785
209.0972338615 	 4.84244091534325
209.1336193678 	 2.58847067650369
210.1039160394 	 7.39652369638615
211.1117410715 	 24.8999624859322
212.1195661036 	 2.27897961735651
213.1273911357 	 9.72239589846192
213.1285339899 	 3.90458922095786
215.1066556936 	 2.72289608603226
215.1077985478 	 0.512692259597349
219.1168264494 	 5.40827810428911
219.1179693036 	 4.25784669250969
221.0960910073 	 8.78767037639115
221.0972338615 	 3.71701888208078
222.1039160394 	 14.7242716018507
222.1050588936 	 5.52394647992997
223.1117410715 	 23.9402275853445
223.1128839257 	 8.14993122420908
224.1195661036 	 3.63261222958609
225.1273911357 	 15.5370764036514
227.1430411999 	 2.19769913717644
227.1441840541 	 0.553332499687383
235.1117410715 	 12.7078904589221
235.1128839257 	 12.4890583968988
237.1273911357 	 64.1990746529949
237.1285339899 	 6.16793797674128
239.1066556936 	 3.10741528073027
239.1430411999 	 15.7840440165062
239.1441840541 	 11.3355008128048
241.1223057578 	 3.69200950356384
241.123448612 	 3.46692509691134
247.1117410715 	 3.92647242716019
248.1195661036 	 6.84319119669876
248.1207089578 	 2.81355508315618
249.1273911357 	 7.12142053269976
251.1430411999 	 4.63611354257847
253.1223057578 	 3.99212204576716
253.123448612 	 4.7111416781293
253.1586912641 	 3.17306489933725
255.137955822 	 5.58646992622233
255.1390986762 	 1.44429160935351
261.1273911357 	 6.09916218581968
261.1285339899 	 2.1039139677379
262.1352161678 	 7.43716393647618
263.1430411999 	 19.9574840565212
263.1441840541 	 4.54232837313993
265.1586912641 	 2.66349881205452
267.137955822 	 4.70176316118544
267.1390986762 	 4.02338376891334
267.1743413283 	 1.78191821933225
275.1430411999 	 6.63373765161936
275.1441840541 	 2.61035388270601
276.150866232 	 2.51969488558209
276.1520090862 	 2.54470426409904
277.1586912641 	 28.7420282605977
278.1676591504 	 3.70451419282231
279.1743413283 	 32.4371639364762
281.1899913925 	 3.64199074652995
289.1586912641 	 7.54970613980243
291.1743413283 	 21.5236963861448
291.1754841825 	 7.29023383768913
293.1536058862 	 0.553332499687383
295.1328704441 	 0.606477429035889
295.1692559504 	 9.74427910466425
297.1849060146 	 3.81705639614856
301.1586912641 	 9.80992872327123
301.1598341183 	 3.86082280855321
307.1692559504 	 14.3772664749281
309.1849060146 	 16.865699637364
309.1860488688 	 7.14955608353132
319.1692559504 	 22.5678379392272
319.1703988046 	 12.8110541453045
325.1798206367 	 9.69426034763036
327.1954707009 	 2.51344254095286
337.1798206367 	 29.5204451669376
337.1809634909 	 16.0622733525072
355.190385323 	 80.1206702513443
373.2009500093 	 49.2184569213455
393.2071782414 	 10.9916218581968
END IONS

BEGIN IONS
PEPMASS=666.3116
CHARGE=1
MSLEVEL=2
RT=0
SOURCE_INSTRUMENT=qTOF
FILENAME=CCMSLIB00000004692.ms
IONMODE=Positive
ORGANISM=Natural
NAME=Natamycin
PI=GNPS
DATACOLLECTOR=GNPS
SMILES=C[C@@H]1CC=CC=CC=CC=C[C@@H](C[C@H]2[C@@H]([C@H](C[C@](C[C@H](C[C@@H]3[C@@H](C=CC(=O)O1)O3)O)(O)O2)O)C(=O)O)O[C@H]1[C@H]([C@H]([C@@H]([C@@H](C)O1)O)N)O
INCHI=InChI=1S/C33H47NO13/c1-18-10-8-6-4-3-5-7-9-11-21(45-32-30(39)28(34)29(38)19(2)44-32)15-25-27(31(40)41)22(36)17-33(42,47-25)16-20(35)14-24-23(46-24)12-13-26(37)43-18/h3-9,11-13,18-25,27-30,32,35-36,38-39,42H,10,14-17,34H2,1-2H3,(H,40,41)/t18-,19-,20+,21+,22+,23-,24-,25+,27-,28+,29-,30+,32+,33-/m1/s1
FORMULA=C33H47NO13
PUBMED=N/A
SUBMITUSER=BIOADREM
LIBRARYQUALITY=0
SPECTRUMID=CCMSLIB00000004692
SCANS=74
ID=CCMSLIB00000004692
104.0706045383 	 8.46265969304639
107.085526321 	 27.7115664923262
111.0440554368 	 49.7727857326588
117.0698762568 	 61.939466689531
119.085526321 	 80.288090542742
122.0447837183 	 9.37151676241104
129.0573001978 	 23.9646746120209
133.0647908789 	 64.1944611163509
137.0233199947 	 35.3168138557832
137.059705501 	 24.2990654205608
139.0389700589 	 56.5034725199348
146.0811692246 	 21.7096801852011
153.0546201231 	 65.6091914601732
155.0788235009 	 28.5089599588442
157.0522148199 	 25.4565720655063
157.0647908789 	 29.006259110006
163.0753555652 	 8.85706936465746
164.0917339109 	 6.8592986367144
167.085526321 	 8.00823115836406
173.1324765136 	 8.41121495327103
175.1117410715 	 13.221298122267
179.0913995599 	 25.0107176541199
183.0804409431 	 34.8109405813256
183.1168264494 	 3.39535282517363
185.1324765136 	 2.22927205693218
197.0808348736 	 36.8858784189317
199.0812288041 	 7.5880991168653
199.1050382514 	 23.3902083511961
203.1430411999 	 24.0504158449798
207.1168264494 	 4.81865729229186
213.1273911357 	 26.9570436422876
217.1070496241 	 37.7175683786333
219.0804409431 	 32.8474663465661
225.1206883156 	 6.32770299236903
225.163776642 	 40.6584926691246
227.1363383798 	 54.3599416959616
229.0859202515 	 5.0244362513933
233.0808348736 	 58.7756151933465
235.0753555652 	 41.987481779988
235.1117410715 	 40.5213066963903
243.1312530019 	 2.33216153648289
243.137955822 	 27.6686958758467
243.1743413283 	 3.09525850981737
249.1206883156 	 6.70496441738832
249.1273911357 	 32.4787790448427
249.163776642 	 34.8966818142845
251.0913995599 	 27.0170625053588
251.1430411999 	 57.0179199176884
253.1223057578 	 71.1309268627283
253.1586912641 	 8.42836319986282
275.1363383798 	 29.6836148503815
277.0639612977 	 7.69098859641602
277.0706641178 	 85.2096373145846
293.1536058862 	 38.2663122695704
301.151988444 	 26.6312269570436
309.1485205083 	 35.4368515819258
311.0999528735 	 23.1158364057275
311.1574677524 	 21.7696990482723
313.1434351304 	 9.16573780330961
318.1520480235 	 8.08539826802709
329.1680324387 	 10.7090799965704
337.2095033229 	 38.2663122695704
339.1590851946 	 5.43599416959616
345.1696498809 	 30.2666552345023
345.1755231198 	 6.54205607476636
355.1109114903 	 1.38900797393467
357.1755231198 	 8.36834433679156
363.1649584335 	 12.3553116693818
365.1442229914 	 5.60747663551402
365.1747352588 	 5.29880819686187
367.1176143104 	 4.79293492240418
405.2060353872 	 3.18957386607219
405.2119086261 	 5.41884592300437
423.2098972534 	 8.37691846008746
431.1997264976 	 7.55380262368173
441.2271647598 	 20.2177827317157
449.1891618113 	 10.9663036954471
449.1958646314 	 30.5753236731544
449.2102911839 	 8.2054359941696
467.2064293177 	 100
485.2102911839 	 40.8728457515219
485.216994004 	 67.4869244619738
503.2275586903 	 85.74123295893
605.2466766902 	 1.86915887850467
630.2908872286 	 4.90439852525079
648.3014519149 	 55.0287233130412
666.3120166012 	 18.7859041413016
END IONS

BEGIN IONS
PEPMASS=427.2024
CHARGE=1
MSLEVEL=2
RT=0
SOURCE_INSTRUMENT=qTOF
FILENAME=CCMSLIB00000004706.ms
IONMODE=Positive
ORGANISM=Natural
NAME=Iloperidone
PI=GNPS
DATACOLLECTOR=GNPS
SMILES=CC(=O)c1ccc(c(c1)OC)OCCCN1CCC(CC1)c1c2ccc(cc2on1)F
INCHI=InChI=1S/C24H27FN2O4/c1-16(28)18-4-7-21(23(14-18)29-2)30-13-3-10-27-11-8-17(9-12-27)24-20-6-5-19(25)15-22(20)31-26-24/h4-7,14-15,17H,3,8-13H2,1-2H3
FORMULA=C24H27FN2O4
PUBMED=N/A
SUBMITUSER=BIOADREM
LIBRARYQUALITY=0
SPECTRUMID=CCMSLIB00000004706
SCANS=77
ID=CCMSLIB00000004706
96.0807752941 	 3.38
98.0964253583 	 0.71
105.0698762568 	 0.395
106.0651252299 	 0.565
107.072950262 	 0.935
108.0807752941 	 11.015
109.0647908789 	 0.46
109.0886003262 	 0.325
110.0964253583 	 2.495
120.0807752941 	 0.38
121.0886003262 	 0.245
122.0964253583 	 2.305
124.1120754225 	 24.86
133.0647908789 	 0.38
135.0604544247 	 0.39
135.1042503904 	 0.93
136.1120754225 	 0.81
137.059705501 	 3.275
138.0349679557 	 1.915
150.0349679557 	 0.39
151.0427929878 	 0.265
151.0753555652 	 1.18
162.0475440147 	 1.605
162.071353462 	 0.565
163.0553690468 	 1.49
164.0506180199 	 4.245
174.071353462 	 0.25
176.0506180199 	 0.665
177.058443052 	 4.035
178.0662680841 	 3.615
179.0702701873 	 1.795
188.0506180199 	 0.405
189.058443052 	 0.225
190.0662680841 	 63.465
202.0662680841 	 0.795
203.0740931162 	 0.74
204.0819181483 	 4.775
206.0975682125 	 0.395
216.0819181483 	 0.95
218.0975682125 	 0.395
219.0928171856 	 6.165
220.1006422177 	 1.045
221.1084672498 	 0.465
233.1084672498 	 100
234.112469353 	 8.26
244.1132182767 	 0.91
246.1488548593 	 0.455
247.124117314 	 0.58
261.1397673782 	 68.965
262.1437694814 	 7.385
274.1437694814 	 0.925
290.1750696098 	 0.52
300.1594195456 	 0.445
412.1792864692 	 0.3
427.2027615655 	 58.68
END IONS

BEGIN IONS
PEPMASS=237.102
CHARGE=1
MSLEVEL=2
RT=0
SOURCE_INSTRUMENT=qTOF
FILENAME=CCMSLIB00000004715.ms
IONMODE=Positive
ORGANISM=Natural
NAME=Carbamazepine
PI=GNPS
DATACOLLECTOR=GNPS
SMILES=c1ccc2c(c1)C=Cc1ccccc1N2C(=N)O
INCHI=InChI=1S/C15H12N2O/c16-15(18)17-13-7-3-1-5-11(13)9-10-12-6-2-4-8-14(12)17/h1-10H,(H2,16,18)
FORMULA=C15H12N2O
PUBMED=N/A
SUBMITUSER=BIOADREM
LIBRARYQUALITY=0
SPECTRUMID=CCMSLIB00000004715
SCANS=78
ID=CCMSLIB00000004715
115.0542261926 	 0.229570111452586
116.0494751657 	 2.0179953345429
117.0573001978 	 1.58107157403636
139.0542261926 	 0.581330766097678
141.0698762568 	 0.281408523716074
150.0464011605 	 0.211056392787055
151.0542261926 	 1.46628651831007
152.0596817615 	 1.66993742363091
152.0620512247 	 5.1690302514163
153.0573001978 	 0.244381086385011
164.0620512247 	 0.322138704780242
165.0675067936 	 6.14655459695635
165.0698762568 	 20.391009738216
168.0784058309 	 0.555411559965935
176.0596817615 	 0.85533380234754
176.0620512247 	 0.955307883141408
177.0573001978 	 0.248083830118118
179.0705807988 	 8.97545080904951
179.072950262 	 24.1048617025216
191.072950262 	 10.0085163105861
192.0784058309 	 17.810197356241
192.0807752941 	 36.2202391972452
193.086230863 	 20.8057170363239
193.0886003262 	 37.0274373310623
194.0940558951 	 37.0274373310623
194.0964253583 	 100
220.0756899162 	 1.64772096123227
237.0998695545 	 0.251786573851224
237.1022390177 	 60.9027289221313
END IONS

BEGIN IONS
PEPMASS=240.16
CHARGE=1
MSLEVEL=2
RT=0
SOURCE_INSTRUMENT=qTOF
FILENAME=CCMSLIB00000004729.ms
IONMODE=Positive
ORGANISM=Natural
NAME=SalbutamolSulfate
PI=GNPS
DATACOLLECTOR=GNPS
SMILES=CC(C)(C)NCC(c1ccc(c(c1)CO)O)O
INCHI=InChI=1S/C13H21NO3/c1-13(2,3)14-7-12(17)9-4-5-11(16)10(6-9)8-15/h4-6,12,14-17H,7-8H2,1-3H3
FORMULA=C13H21NO3
PUBMED=N/A
SUBMITUSER=BIOADREM
LIBRARYQUALITY=0
SPECTRUMID=CCMSLIB00000004729
SCANS=79
ID=CCMSLIB00000004729
102.0464011605 	 0.31
103.0542261926 	 26.42
105.0573001978 	 5.265
106.0651252299 	 6.2
107.0491408147 	 2.79
108.0807752941 	 0.18
109.0647908789 	 0.19
117.0546201231 	 4.185
118.0624451552 	 0.245
118.0651252299 	 14.255
120.0780952194 	 19.535
120.0807752941 	 4.49
121.0647908789 	 57.19
130.0624451552 	 30.7
130.0651252299 	 5.98
131.0491408147 	 0.14
132.0443897878 	 1.375
133.0522148199 	 4.575
136.0756899162 	 1.075
148.0756899162 	 100
166.0862546025 	 40.275
222.1488548593 	 33.415
240.1594195456 	 22.15
END IONS

BEGIN IONS
PEPMASS=701.3378
CHARGE=1
MSLEVEL=2
RT=0
SOURCE_INSTRUMENT=qTOF
FILENAME=CCMSLIB00000004733.ms
IONMODE=Positive
ORGANISM=Natural
NAME=Posaconazole
PI=GNPS
DATACOLLECTOR=GNPS
SMILES=CC[C@@H]([C@H](C)O)n1c(=O)n(cn1)c1ccc(cc1)N1CCN(CC1)c1ccc(cc1)OC[C@H]1C[C@](Cn2cncn2)(c2ccc(cc2F)F)OC1
INCHI=InChI=1S/C37H42F2N8O4/c1-3-35(26(2)48)47-36(49)46(25-42-47)31-7-5-29(6-8-31)43-14-16-44(17-15-43)30-9-11-32(12-10-30)50-20-27-19-37(51-21-27,22-45-24-40-23-41-45)33-13-4-28(38)18-34(33)39/h4-13,18,23-27,35,48H,3,14-17,19-22H2,1-2H3/t26-,27+,35-,37-/m0/s1
FORMULA=C37H42F2N8O4
PUBMED=N/A
SUBMITUSER=BIOADREM
LIBRARYQUALITY=0
SPECTRUMID=CCMSLIB00000004733
SCANS=81
ID=CCMSLIB00000004733
127.0353825284 	 2.63477028734825
146.060039852 	 0.70720093953049
148.0756899162 	 0.810600354877006
153.0510325926 	 0.201692686725302
172.0743472455 	 0.783793099046428
174.0913399804 	 0.783793099046428
179.0666826568 	 1.21653880031147
181.082332721 	 0.931871274110574
191.0666826568 	 0.405938445434469
203.0927369639 	 1.38376501525461
209.0772473431 	 2.33989047321189
229.1083870281 	 0.634438387990349
248.0993797687 	 0.473594853006881
271.1553372207 	 1.42078455902064
278.109944455 	 3.05219755671011
297.1709872849 	 0.851449506618839
322.1675789287 	 0.611460740135568
326.1337539023 	 0.607631132159771
326.135096573 	 0.268072558305781
344.1443185886 	 4.05427831037696
344.1456612593 	 1.89693248401139
345.1458351669 	 1.00846343362651
350.1624935508 	 0.737837803336865
370.1599686528 	 3.35473658679807
370.1613113235 	 1.33270357557731
371.1614852311 	 1.37993540727881
399.1563998532 	 0.500402108837459
405.213681245 	 0.684223291675709
405.2159261048 	 2.73178702273511
421.1847864198 	 0.185097718830182
423.2242459313 	 0.675287539732183
423.2264907911 	 0.730178587385271
425.1770157005 	 0.787622707022225
516.2219002076 	 0.191480398789844
528.2219002076 	 0.331899357902396
544.2168148297 	 0.241265302475203
545.2219545204 	 0.542527796571224
546.2311222232 	 6.22438949666186
546.2324648939 	 2.80837918225104
547.2326388015 	 2.72412780678351
572.2467722874 	 0.756985843215849
572.2481149581 	 0.264242950329985
578.2725931074 	 0.234882622515542
584.281815123 	 1.0237818655297
596.2779921941 	 1.61609456578628
596.2831577937 	 0.739114339328797
597.2532546488 	 0.273178702273511
597.2658307078 	 0.791452314998021
599.2325192067 	 1.90714477194685
614.2923798093 	 9.75018190637885
614.29372248 	 6.64054023003179
615.2638193351 	 2.47137368038092
615.2916515278 	 5.12018586364043
616.2842204262 	 1.70800515720541
632.3029444956 	 1.93012241980163
632.3042871663 	 1.27398291994843
633.3022162141 	 0.905064018279995
641.2794693993 	 0.181268110854386
665.3158549056 	 2.71263898285612
683.3264195919 	 25.5307198386459
684.334244624 	 5.65505444426006
701.3369842782 	 100
END IONS

BEGIN IONS
PEPMASS=403.2104
CHARGE=1
MSLEVEL=2
RT=0
SOURCE_INSTRUMENT=qTOF
FILENAME=CCMSLIB00000004749.ms
IONMODE=Positive
ORGANISM=Natural
NAME=PrednisoloneAcetate
PI=GNPS
DATACOLLECTOR=GNPS
SMILES=CC(=O)OCC(=O)[C@]1(CC[C@H]2[C@@H]3CCC4=CC(=O)C=C[C@]4(C)[C@H]3[C@H](C[C@]12C)O)O
INCHI=InChI=1S/C23H30O6/c1-13(24)29-12-19(27)23(28)9-7-17-16-5-4-14-10-15(25)6-8-21(14,2)20(16)18(26)11-22(17,23)3/h6,8,10,16-18,20,26,28H,4-5,7,9,11-12H2,1-3H3/t16-,17-,18-,20+,21-,22-,23-/m0/s1
FORMULA=C23H30O6
PUBMED=N/A
SUBMITUSER=BIOADREM
LIBRARYQUALITY=0
SPECTRUMID=CCMSLIB00000004749
SCANS=82
ID=CCMSLIB00000004749
101.0233199947 	 1.71976087134551
105.0698762568 	 6.51871263614773
107.0491408147 	 1.09464144350722
107.085526321 	 4.16837277864221
115.0542261926 	 2.93451259793083
117.0698762568 	 1.21202194742445
119.085526321 	 11.3668004258455
121.0647908789 	 37.9439303360358
121.1011763852 	 0.316654382660443
128.0620512247 	 1.85079027106707
129.0698762568 	 1.69792263805858
130.0777012889 	 0.933584473016133
131.085526321 	 3.85990773346436
133.0647908789 	 6.0737586329266
133.1011763852 	 1.66789506728906
135.0804409431 	 16.2558349029564
143.085526321 	 4.23661725766386
145.0647908789 	 2.87991701471351
145.1011763852 	 2.44588212813583
147.0804409431 	 100
149.0960910073 	 0.191084541260612
155.085526321 	 2.14287664127972
157.1011763852 	 0.731580815112057
158.072615911 	 6.45319793628695
159.0804409431 	 9.88180056233451
161.0960910073 	 10.8153850353506
163.0753555652 	 0.505009144760189
167.085526321 	 2.14560642044059
171.0804409431 	 44.189665056097
173.0960910073 	 30.185897960855
175.0753555652 	 0.434034886577676
179.085526321 	 1.5204869926023
185.0960910073 	 5.33671825949281
187.1117410715 	 5.44590942592744
193.1011763852 	 1.12193923511588
195.0804409431 	 5.78440204187481
195.1168264494 	 1.36761935959381
196.0882659752 	 4.3130510741681
197.0960910073 	 13.7744656457293
199.1117410715 	 6.63063358174324
207.1015703157 	 0.221112112030137
208.0882659752 	 5.45955832173177
209.0960910073 	 3.09283978926105
210.1039160394 	 2.65061556520077
211.1117410715 	 5.08557857669314
213.0910056294 	 0.242950345317064
213.1273911357 	 1.32121311385909
221.0960910073 	 5.71888734201403
222.1039160394 	 5.6970491087271
223.1117410715 	 28.0375617612535
224.1195661036 	 6.4259001446783
225.1273911357 	 7.26940190538585
227.1430411999 	 1.54232522588923
234.1039160394 	 1.37853847623727
235.1117410715 	 4.97638741025851
237.1273911357 	 18.461496464936
239.1066556936 	 0.202003657904076
239.1430411999 	 24.6335271476538
247.1117410715 	 1.84260093358447
248.1195661036 	 2.73796849834848
249.1273911357 	 8.16476947014986
251.1430411999 	 7.83446619168509
259.1117410715 	 2.12922774547539
261.1273911357 	 2.74888761499195
261.163776642 	 0.182895203778014
263.1430411999 	 8.60153413588841
265.1586912641 	 20.4323970190812
266.1665162962 	 1.32940245134169
267.1743413283 	 0.526847378047116
271.1481265778 	 1.12739879343761
274.1352161678 	 4.02642426227718
277.1586912641 	 0.788906177490241
279.137955822 	 1.33759178882428
279.1743413283 	 15.9200720661698
283.1692559504 	 2.85261922310485
289.1586912641 	 30.7946387137281
297.1849060146 	 2.30666339093167
307.1692559504 	 46.0131575355554
325.1798206367 	 23.1266890508558
349.1798206367 	 5.10195725165834
367.190385323 	 11.5578849671062
385.2009500093 	 64.6739278792346
403.2115146956 	 5.02006387683236
END IONS

BEGIN IONS
PEPMASS=294.172
CHARGE=1
MSLEVEL=2
RT=0
SOURCE_INSTRUMENT=qTOF
FILENAME=CCMSLIB00000004760.ms
IONMODE=Positive
ORGANISM=Natural
NAME=Anastrozole
PI=GNPS
DATACOLLECTOR=GNPS
SMILES=CC(C)(C#N)c1cc(cc(c1)C(C)(C)C#N)Cn1cncn1
INCHI=InChI=1S/C17H19N5/c1-16(2,9-18)14-5-13(8-22-12-20-11-21-22)6-15(7-14)17(3,4)10-19/h5-7,11-12H,8H2,1-4H3
FORMULA=C17H19N5
PUBMED=N/A
SUBMITUSER=BIOADREM
LIBRARYQUALITY=0
SPECTRUMID=CCMSLIB00000004760
SCANS=85
ID=CCMSLIB00000004760
103.0542261926 	 0.7
105.0698762568 	 0.42
115.0542261926 	 6.475
117.0573001978 	 0.74
117.0698762568 	 1.17
126.0464011605 	 0.4
129.0698762568 	 8.81
130.0777012889 	 12.205
131.085526321 	 5.835
140.0494751657 	 0.995
140.0620512247 	 0.325
141.0698762568 	 1.4
142.0651252299 	 17.495
145.1011763852 	 0.635
153.0573001978 	 0.705
155.072950262 	 1.42
157.0886003262 	 11.175
158.0964253583 	 1.75
167.072950262 	 0.995
168.0807752941 	 7.855
170.0964253583 	 2.72
171.1168264494 	 1.295
183.1042503904 	 5.195
194.0838492993 	 0.335
195.0916743314 	 11.82
197.1073243956 	 0.25
198.1277254867 	 3.88
209.1073243956 	 8.545
210.1151494277 	 33.77
225.138624524 	 100
294.1713216359 	 58.155
END IONS

BEGIN IONS
PEPMASS=384.0766
CHARGE=1
MSLEVEL=2
RT=0
SOURCE_INSTRUMENT=qTOF
FILENAME=CCMSLIB00000004773.ms
IONMODE=Positive
ORGANISM=Natural
NAME=Felodipine
PI=GNPS
DATACOLLECTOR=GNPS
SMILES=CCOC(=O)C1=C(C)NC(=C(C1c1cccc(c1Cl)Cl)C(=O)OC)C
INCHI=InChI=1S/C18H19Cl2NO4/c1-5-25-18(23)14-10(3)21-9(2)13(17(22)24-4)15(14)11-7-6-8-12(19)16(11)20/h6-8,15,21H,5H2,1-4H3
FORMULA=C18H19Cl2NO4
PUBMED=N/A
SUBMITUSER=BIOADREM
LIBRARYQUALITY=0
SPECTRUMID=CCMSLIB00000004773
SCANS=86
ID=CCMSLIB00000004773
105.0573001978 	 1.08966973886329
106.0651252299 	 1.20967741935484
107.072950262 	 1.08006912442396
110.0236543457 	 0.95526113671275
134.060039852 	 1.51209677419355
140.0706045383 	 2.63536866359447
150.0549544741 	 1.84571812596006
151.0627795062 	 1.31048387096774
160.0393044099 	 0.252016129032258
162.0230789026 	 1.38248847926267
166.0862546025 	 2.57056451612903
170.9762815484 	 1.03926651305684
172.9555461063 	 0.278417818740399
174.0230789026 	 0.984062980030722
178.0498690962 	 0.312019969278034
180.0807752941 	 2.47695852534562
192.0655191604 	 0.216013824884793
194.9762815484 	 1.61530337941628
196.9919316126 	 1.19527649769585
202.0179935247 	 4.00585637480799
207.0678648841 	 1.03206605222734
208.9919316126 	 9.545410906298
210.0760838467 	 2.71457373271889
214.041802972 	 2.23694316436252
215.0496280041 	 4.77870583717358
222.9711961705 	 5.38594470046083
228.0210675299 	 0.223214285714286
236.9868462347 	 2.41455453149002
238.1073839751 	 1.39928955453149
239.997745272 	 1.80491551459293
242.0367175941 	 10.4526689708141
243.0445426262 	 23.3726958525346
244.0523676583 	 0.880856374807988
245.0449365567 	 0.554435483870968
246.0316322162 	 1.02966589861751
250.0184807141 	 8.94777265745008
252.010321331 	 0.254416282642089
252.0341307783 	 1.68250768049155
253.0733441925 	 0.28081797235023
254.0811692246 	 1.30808371735791
260.0472822804 	 2.76017665130568
262.0184807141 	 1.8793202764977
263.0263057462 	 1.57930107526882
263.997745272 	 3.8906490015361
265.0055703041 	 1.75931259600614
268.0968192888 	 0.576036866359447
270.0316322162 	 11.4223310291859
272.0261529078 	 0.216013824884793
272.0836677867 	 0.235215053763441
275.997745272 	 1.15687403993856
278.0133953362 	 36.8903609831029
280.0137892667 	 2.89938556067588
280.0290454004 	 2.37375192012289
281.0130609852 	 0.520833333333333
288.0421969025 	 20.8357334869432
290.0367175941 	 0.799251152073733
291.0445426262 	 0.273617511520737
294.0083099583 	 0.136808755760369
296.0239600225 	 1.57930107526882
302.0578469667 	 15.5529953917051
303.9926598941 	 1.37768817204301
306.0083099583 	 22.5974462365591
308.0028306499 	 1.62490399385561
308.0603455288 	 0.218413978494624
310.0396100867 	 0.16321044546851
316.0734970309 	 1.83131720430108
320.068411653 	 0.472830261136713
322.0032245804 	 1.93932411674347
324.0188746446 	 27.4457565284178
326.0133953362 	 3.70823732718894
327.0185402936 	 0.974462365591398
336.0188746446 	 1.09447004608295
338.0345247088 	 100
341.0341903578 	 3.37461597542243
342.0294393309 	 1.19767665130568
348.0997117814 	 0.835253456221198
352.050174773 	 66.0354262672811
355.049840422 	 3.20900537634409
356.0450893951 	 0.492031490015361
384.0763895235 	 8.89256912442396
END IONS

BEGIN IONS
PEPMASS=514.3351
CHARGE=1
MSLEVEL=2
RT=0
SOURCE_INSTRUMENT=qTOF
FILENAME=CCMSLIB00000004789.ms
IONMODE=Positive
ORGANISM=Natural
NAME=Maraviroc
PI=GNPS
DATACOLLECTOR=GNPS
SMILES=CC(C)c1nnc(C)n1C1C[C@@H]2CC[C@H](C1)N2CC[C@@H](c1ccccc1)N=C(C1CCC(CC1)(F)F)O
INCHI=InChI=1S/C29H41F2N5O/c1-19(2)27-34-33-20(3)36(27)25-17-23-9-10-24(18-25)35(23)16-13-26(21-7-5-4-6-8-21)32-28(37)22-11-14-29(30,31)15-12-22/h4-8,19,22-26H,9-18H2,1-3H3,(H,32,37)/t23-,24+,25?,26-/m0/s1
FORMULA=C29H41F2N5O
PUBMED=N/A
SUBMITUSER=BIOADREM
LIBRARYQUALITY=0
SPECTRUMID=CCMSLIB00000004789
SCANS=89
ID=CCMSLIB00000004789
106.0651252299 	 27.51
110.0964253583 	 0.29
117.0698762568 	 40.29
124.1120754225 	 2.48
134.0964253583 	 0.25
252.1194465088 	 1.8
260.1445184051 	 4.7
280.1494039665 	 21.05
280.1507466372 	 100
388.2558804107 	 100
389.2398959955 	 7.07
390.2463783569 	 4.57
514.3351933642 	 17.59
END IONS

BEGIN IONS
PEPMASS=278.125
CHARGE=1
MSLEVEL=2
RT=0
SOURCE_INSTRUMENT=qTOF
FILENAME=CCMSLIB00000004799.ms
IONMODE=Positive
ORGANISM=Natural
NAME=EntecavirHydrate
PI=GNPS
DATACOLLECTOR=GNPS
SMILES=C=C1[C@H](CO)[C@H](C[C@@H]1n1cnc2c1[nH]c(=N)nc2O)O
INCHI=InChI=1S/C12H15N5O3/c1-5-6(3-18)8(19)2-7(5)17-4-14-9-10(17)15-12(13)16-11(9)20/h4,6-8,18-19H,1-3H2,(H3,13,15,16,20)/t6-,7-,8-/m0/s1
FORMULA=C12H15N5O3
PUBMED=N/A
SUBMITUSER=BIOADREM
LIBRARYQUALITY=0
SPECTRUMID=CCMSLIB00000004799
SCANS=91
ID=CCMSLIB00000004799
107.035222085 	 2.01
109.0508721492 	 3.97
110.034887734 	 34.9
134.0461211223 	 2.8
135.0301367071 	 100
152.0566858086 	 69.44
278.1247653738 	 0
END IONS

BEGIN IONS
PEPMASS=317.096
CHARGE=1
MSLEVEL=2
RT=0
SOURCE_INSTRUMENT=qTOF
FILENAME=CCMSLIB00000004824.ms
IONMODE=Positive
ORGANISM=Natural
NAME=Febuxostat
PI=GNPS
DATACOLLECTOR=GNPS
SMILES=CC(C)COc1ccc(cc1C#N)c1nc(C)c(C(=O)O)s1
INCHI=InChI=1S/C16H16N2O3S/c1-9(2)8-21-13-5-4-11(6-12(13)7-17)15-18-10(3)14(22-15)16(19)20/h4-6,9H,8H2,1-3H3,(H,19,20)
FORMULA=C16H16N2O3S
PUBMED=N/A
SUBMITUSER=BIOADREM
LIBRARYQUALITY=0
SPECTRUMID=CCMSLIB00000004824
SCANS=92
ID=CCMSLIB00000004824
117.0447241388 	 0.47
118.0287397236 	 0.395
121.0106468184 	 0.32
145.0396387609 	 29.525
148.0215458557 	 0.15
162.0008104136 	 5.435
162.0371959199 	 2.525
187.032444893 	 0.365
189.0480949572 	 1.68
190.032110542 	 0.57
199.0052646273 	 0.215
206.0270251641 	 1.285
215.0273595151 	 5.43
216.0318137288 	 0.435
217.0430095793 	 56.35
218.047463793 	 1
233.0379242014 	 0.635
243.0222741372 	 2.705
261.0328388235 	 100
262.0372930372 	 7.44
317.0954390803 	 21.6
END IONS

BEGIN IONS
PEPMASS=292.2065
CHARGE=1
MSLEVEL=2
RT=0
SOURCE_INSTRUMENT=qTOF
FILENAME=CCMSLIB00000004833.ms
IONMODE=Positive
ORGANISM=Natural
NAME=Terbinafine
PI=GNPS
DATACOLLECTOR=GNPS
SMILES=CC(C)(C)C#C/C=C/CN(C)Cc1cccc2ccccc12
INCHI=InChI=1S/C21H25N/c1-21(2,3)15-8-5-9-16-22(4)17-19-13-10-12-18-11-6-7-14-20(18)19/h5-7,9-14H,16-17H2,1-4H3/b9-5+
FORMULA=C21H25N
PUBMED=N/A
SUBMITUSER=BIOADREM
LIBRARYQUALITY=0
SPECTRUMID=CCMSLIB00000004833
SCANS=93
ID=CCMSLIB00000004833
91.0542261926 	 0.752887130734384
93.0698762568 	 1.28884068142666
103.0542261926 	 0.204172781216104
105.0698762568 	 0.906016716646462
115.0542261926 	 3.62406686658585
119.085526321 	 0.350921967715179
121.1011763852 	 1.83755503094494
139.0542261926 	 0.491290754801251
141.0698762568 	 63.8039941300325
150.1277254867 	 2.34160658457219
165.0698762568 	 0.414725961845212
167.085526321 	 0.159509985325081
170.0964253583 	 3.66872966247687
179.085526321 	 1.02086390608052
190.0777012889 	 0.25521597652013
191.085526321 	 0.599757544822306
193.1011763852 	 0.574235947170293
203.085526321 	 0.338161168889173
205.1011763852 	 3.75805525425892
207.1168264494 	 0.382823964780195
219.1168264494 	 0.446627958910228
233.1324765136 	 0.127607988260065
235.1481265778 	 0.542333950105277
236.1433755509 	 0.829451923690423
249.163776642 	 0.516812352453264
261.163776642 	 2.27142219102916
292.2059758077 	 100
END IONS

BEGIN IONS
PEPMASS=877.4596
CHARGE=1
MSLEVEL=2
RT=0
SOURCE_INSTRUMENT=qTOF
FILENAME=CCMSLIB00000004848.ms
IONMODE=Positive
ORGANISM=Natural
NAME=Rifapentine
PI=GNPS
DATACOLLECTOR=GNPS
SMILES=C[C@H]1C=CC=C(C)C(=NC2=C(c3c(c4c(c(C)c3O)O[C@@](C)(C4=O)OC=C[C@@H]([C@@H](C)[C@H]([C@H](C)[C@@H]([C@H](C)[C@H]1O)O)OC(=O)C)OC)C(=O)/C/2=C/NN1CCN(CC1)C1CCCC1)O)O
INCHI=InChI=1S/C47H64N4O12/c1-24-13-12-14-25(2)46(59)49-37-32(23-48-51-20-18-50(19-21-51)31-15-10-11-16-31)41(56)34-35(42(37)57)40(55)29(6)44-36(34)45(58)47(8,63-44)61-22-17-33(60-9)26(3)43(62-30(7)52)28(5)39(54)27(4)38(24)53/h12-14,17,22-24,26-28,31,33,38-39,43,48,53-55,57H,10-11,15-16,18-21H2,1-9H3,(H,49,59)/b13-12+,22-17+,25-14-,32-23+/t24-,26+,27+,28+,33-,38-,39+,43+,47-/m0/s1
FORMULA=C47H64N4O12
PUBMED=N/A
SUBMITUSER=BIOADREM
LIBRARYQUALITY=0
SPECTRUMID=CCMSLIB00000004848
SCANS=94
ID=CCMSLIB00000004848
95.085526321 	 2.35129393588258
97.0647908789 	 0.762842796446504
105.0698762568 	 1.88779451525686
107.085526321 	 15.7444959443801
109.0647908789 	 7.41599073001159
109.1011763852 	 5.43646195442256
111.0804409431 	 4.90054074932406
119.085526321 	 4.31633835457706
121.0647908789 	 3.68868288914639
121.1011763852 	 6.62900733874083
123.0804409431 	 21.6589416763229
125.0960910073 	 5.18057164928544
133.1011763852 	 3.5486674391657
135.0804409431 	 9.57898802626497
135.1168264494 	 4.88122827346466
137.0960910073 	 8.5843955195056
137.1324765136 	 2.24507531865585
139.0753555652 	 2.90169949787563
145.1011763852 	 6.64831981460023
147.1168264494 	 8.41541135573581
149.0960910073 	 1.25048281189649
149.1324765136 	 1.36635766705292
151.0753555652 	 65.3823870220162
152.1307994919 	 1.10563924295095
153.0910056294 	 11.104673619158
155.1066556936 	 3.00791811510236
159.1168264494 	 5.29644650444187
161.0960910073 	 10.3997682502897
163.1117410715 	 31.4310544611819
165.1273911357 	 4.64465044418694
171.1168264494 	 2.97894940131325
173.0960910073 	 8.24159907300116
173.1324765136 	 4.96330629586713
175.1117410715 	 8.71475473155659
175.1481265778 	 1.38567014291232
177.0910056294 	 2.96446504441869
177.1273911357 	 2.56855928930089
179.1066556936 	 17.6178061027424
181.1223057578 	 1.73329470838161
183.1168264494 	 0.815952105059869
185.1324765136 	 3.33623020471224
189.1273911357 	 1.07667052916184
191.1066556936 	 19.2062572421784
193.1223057578 	 4.22460409424488
199.1481265778 	 0.753186558516802
201.1273911357 	 4.82811896485129
203.1416985292 	 0.78215527230591
203.1430411999 	 2.50579374275782
209.1172203799 	 6.32966396292005
219.137955822 	 4.08941676322905
221.1536058862 	 2.03746620316725
231.1366131513 	 0.97045191193511
231.137955822 	 0.1882966396292
251.1794267062 	 1.02838933951333
253.1586912641 	 0.946311317110854
269.1899913925 	 2.28852838933951
271.1692559504 	 0.11104673619158
279.1743413283 	 2.36095017381228
289.1798206367 	 0.159327925840093
297.1849060146 	 4.4708381614523
315.1954707009 	 4.43221320973349
333.2060353872 	 0.265546543066821
451.1949158912 	 1.1297798377752
453.2105659554 	 1.96504441869448
845.4331347899 	 100
846.440959822 	 29.1183854770182
847.4375514658 	 7.56083429895713
877.4593495404 	 35.4094244882194
END IONS

BEGIN IONS
PEPMASS=621.1266
CHARGE=1
MSLEVEL=2
RT=0
SOURCE_INSTRUMENT=qTOF
FILENAME=CCMSLIB00000004857.ms
IONMODE=Positive
ORGANISM=Natural
NAME=CefditorenPivoxil
PI=GNPS
DATACOLLECTOR=GNPS
SMILES=Cc1c(/C=C\C2=C(C(=O)OCOC(=O)C(C)(C)C)N3C(=O)[C@H]([C@H]3SC2)N=C(/C(=N\OC)/c2csc(=N)[nH]2)O)scn1
INCHI=InChI=1S/C25H28N6O7S3/c1-12-15(41-10-27-12)7-6-13-8-39-21-17(29-19(32)16(30-36-5)14-9-40-24(26)28-14)20(33)31(21)18(13)22(34)37-11-38-23(35)25(2,3)4/h6-7,9-10,17,21H,8,11H2,1-5H3,(H2,26,28)(H,29,32)/b7-6-,30-16-/t17-,21-/m1/s1
FORMULA=C25H28N6O7S3
PUBMED=N/A
SUBMITUSER=BIOADREM
LIBRARYQUALITY=0
SPECTRUMID=CCMSLIB00000004857
SCANS=96
ID=CCMSLIB00000004857
100.0089697967 	 0.972916920824692
123.0262968826 	 0.208917896791509
125.0042187698 	 1.93210930828352
126.0100156542 	 3.75747224594364
126.0120438019 	 0.495608149322923
126.0133864726 	 14.2247163596438
138.0133864726 	 0.722825423935586
141.0004760626 	 0.658777601561547
150.0371959199 	 0.393436623154813
152.0104095847 	 0.532206904965231
155.0114126377 	 2.85927778455533
156.0226084882 	 0.131145541051604
156.0239511589 	 2.88215200683177
162.0371959199 	 1.78571428571429
166.0260596489 	 1.03696474319873
166.0287397236 	 4.05941197999268
166.0307678713 	 5.20617299011834
177.0480949572 	 1.14676101012566
179.0001792494 	 1.11473709893864
181.0178574613 	 0.520007319751129
182.0256824934 	 2.43534219836526
184.0175231103 	 0.0411736000975967
184.018865781 	 1.04916432841283
185.0491575897 	 0.0442234964011224
185.0505002604 	 2.27064779797487
186.0464011605 	 2.21574966451141
189.0276563283 	 1.05373917286812
195.0110407489 	 0.506282786385263
197.047129442 	 5.59503476881786
197.0491575897 	 8.70287910211053
197.0505002604 	 0.663352446016835
201.0420440641 	 4.50012199585214
205.0430095793 	 0.422410638038307
206.0447837183 	 0.419360741734781
207.9851603494 	 3.04227156276687
207.9858510931 	 15.2494815176284
207.9885311678 	 16.8842259363182
209.0107439357 	 5.86952543613517
209.0127720834 	 4.63431743320727
210.0133864726 	 3.47230694156399
210.0205971155 	 9.59802366719532
210.9848259984 	 0.338538489691351
211.0212115047 	 3.29388800780774
213.0440722118 	 0.477308771501769
213.0454148825 	 1.03238989874344
215.0273595151 	 0.440710015859461
221.0141147541 	 1.66676832987678
223.0093261894 	 0.379712089788947
223.0284221476 	 0.0411736000975967
225.0420440641 	 1.91380993046236
225.0440722118 	 0.346163230450165
225.9939133589 	 1.20623398804441
225.9990958541 	 0.658777601561547
226.9983675726 	 3.61870196413322
227.0069208862 	 2.14560204953032
233.0201656472 	 0.271440771013786
233.9967876682 	 1.88636086373063
234.0253106046 	 0.651152860802733
240.0569658468 	 0.820422105648408
241.0389868339 	 15.2494815176284
241.0403295046 	 49.3107234354032
241.9728811036 	 0.51543247529584
249.0025042103 	 0.756374283274369
249.0117094509 	 11.8229230206173
249.0150802693 	 11.8366475539832
249.0202627645 	 2.04800536781749
250.019534483 	 3.84744418689765
251.0307303335 	 1.75674027083079
253.9940104762 	 0.516957423447603
257.0174855725 	 1.247407588142
258.0457492335 	 2.26607295351958
261.0150802693 	 0.596254727339271
262.9943448272 	 2.92027571062584
267.0222741372 	 0.940893009637672
267.0256449556 	 0.117421007685739
267.0308274508 	 0.803647675979017
276.0239511589 	 2.38349396120532
276.0259793066 	 1.09033792851043
277.031124264 	 1.36330364767598
279.0256449556 	 0.0533731853116994
285.003846881 	 1.22148346956203
285.0124001946 	 2.26607295351958
290.9892594493 	 0.213492741246798
297.1015870907 	 0.038123703794071
304.0157114335 	 0.721300475783823
304.018865781 	 0.899719409540076
304.0208939287 	 1.54477247773576
311.0518597061 	 1.67286812248384
321.0184510877 	 1.20623398804441
325.0965017128 	 0.228742222764426
330.0439375567 	 0.433085275100647
342.0702494245 	 2.53293888007808
350.0263732371 	 0.491033304867635
352.9936761252 	 0.234842015371477
355.0529223386 	 1.61644504086861
363.0467743282 	 1.30535561790899
369.0791203141 	 0.721300475783823
373.0385178278 	 0.373612297181896
379.0654983976 	 0.579480297669879
381.0811484618 	 2.79980480663657
381.0903537024 	 6.17299011833598
388.0368408061 	 0.0365987556423082
414.0048719757 	 2.1379773087715
414.0100544709 	 1.75979016713432
414.0120826186 	 0.291265096986702
414.016105364 	 0.207392948639746
416.9919615657 	 0.669452238623887
419.990284544 	 1.96413321947054
430.0235960451 	 2.57411248017567
432.0266700503 	 0.0442234964011224
433.0583045297 	 0.0914968891057704
443.0426544655 	 0.0411736000975967
445.0232616941 	 0.683176771989752
448.0141911086 	 0.93936806148591
448.0215846724 	 1.34042942539954
449.0181763162 	 1.78418933756252
461.0471682587 	 3.09869464438209
461.0532191518 	 0.7838233500061
489.0369003856 	 1.49597413687935
489.0481337739 	 0.571855556911065
505.0594642795 	 1.30383066975723
507.0474650719 	 6.35445894839575
507.0573557895 	 0.722825423935586
507.0586984602 	 3.72087349030133
516.0801621838 	 0.0869220446504819
541.1270527969 	 0.796022935220203
546.0934069448 	 0.292790045138465
561.1294581001 	 0.375137245333659
563.1199560463 	 0.0640478223740393
564.0801621838 	 1.75674027083079
591.1036372801 	 0.919543735512993
591.1148706684 	 1.95803342686349
592.1114623122 	 0.550506282786385
593.1305207326 	 0.510857630840551
621.1254353547 	 100
END IONS

BEGIN IONS
PEPMASS=748.4829
CHARGE=1
MSLEVEL=2
RT=0
SOURCE_INSTRUMENT=qTOF
FILENAME=CCMSLIB00000004871.ms
IONMODE=Positive
ORGANISM=Natural
NAME=Clarithromycin
PI=GNPS
DATACOLLECTOR=GNPS
SMILES=CC[C@@H]1[C@](C)([C@@H]([C@@H](C)C(=O)[C@H](C)C[C@](C)([C@@H]([C@@H](C)[C@@H]([C@@H](C)C(=O)O1)O[C@H]1C[C@](C)([C@H]([C@H](C)O1)O)OC)O[C@H]1[C@@H]([C@H](C[C@@H](C)O1)N(C)C)O)OC)O)O
INCHI=InChI=1S/C38H69NO13/c1-15-26-38(10,45)31(42)21(4)28(40)19(2)17-37(9,47-14)33(52-35-29(41)25(39(11)12)16-20(3)48-35)22(5)30(23(6)34(44)50-26)51-27-18-36(8,46-13)32(43)24(7)49-27/h19-27,29-33,35,41-43,45H,15-18H2,1-14H3/t19-,20-,21+,22+,23-,24+,25+,26-,27+,29-,30+,31-,32+,33-,35+,36-,37-,38-/m1/s1
FORMULA=C38H69NO13
PUBMED=N/A
SUBMITUSER=BIOADREM
LIBRARYQUALITY=0
SPECTRUMID=CCMSLIB00000004871
SCANS=101
ID=CCMSLIB00000004871
87.0804409431 	 4.05686004539873
88.0882659752 	 0.685446358798794
98.0964253583 	 0.232947568191121
99.0804409431 	 0.0163733115022513
100.0756899162 	 0.288021434153239
105.0910056294 	 0.493432069363302
109.0647908789 	 0.0178617943660924
113.059705501 	 0.584229524057604
113.1324765136 	 0.644513080043166
114.0913399804 	 0.0483756930748335
115.0753555652 	 2.26993636735757
116.0706045383 	 1.676031704685
116.1069900446 	 5.40244855431102
123.0804409431 	 0.0290254158449001
127.0753555652 	 1.23097532839653
140.1069900446 	 0.0163733115022513
158.1175547309 	 29.7696572768206
176.1281194172 	 0.0215830015256949
193.1434351304 	 1.20641536114315
269.1832885724 	 0.616976147062107
284.1856342961 	 0.0580508316898002
291.1954707009 	 0.589439214081048
298.2502459256 	 0.739775983328992
316.2118490466 	 1.62616752874633
339.2166000735 	 0.0171175529341718
353.268635644 	 0.493432069363302
365.2322501377 	 0.165965839318275
366.2342019309 	 0.53436534811893
383.242814824 	 0.0744241431920515
397.2584648882 	 0.0320023815725821
414.321399496 	 0.53436534811893
415.2690295745 	 0.648978528634689
433.2795942608 	 1.09701187065084
451.2995418419 	 0.54850593532542
464.3006640539 	 0.0677259703047669
476.3217934265 	 0.945930859970975
477.321065145 	 0.781453503516541
496.3843936833 	 0.53436534811893
498.3425288686 	 0.506828415137871
511.4078687796 	 0.616976147062107
518.3687436191 	 0.54850593532542
522.3425288686 	 0.177129460797083
528.3894790612 	 1.7958545752242
529.3887507797 	 0.726379637554423
534.3272727349 	 0.863320061027797
540.3530935549 	 0.050608417370595
540.4258645675 	 0.232203326759201
541.360918587 	 0.0193502772299334
558.3636582412 	 3.31782830350166
559.3714832733 	 0.258251776876419
572.3793083054 	 0.56413500539575
573.3507478312 	 1.80925092099877
590.3898729917 	 21.9484240687679
591.3891447102 	 2.41208648085439
591.3976980238 	 2.70234063930339
592.3817136086 	 1.01440107170766
658.5014348138 	 0.506828415137871
680.4943380632 	 0.602835559855617
703.4263180775 	 0.739775983328992
716.4579525569 	 0.579019834034161
748.4841673074 	 100
END IONS

BEGIN IONS
PEPMASS=494.2671
CHARGE=1
MSLEVEL=2
RT=0
SOURCE_INSTRUMENT=qTOF
FILENAME=CCMSLIB00000004885.ms
IONMODE=Positive
ORGANISM=Natural
NAME=Imatinib
PI=GNPS
DATACOLLECTOR=GNPS
SMILES=Cc1ccc(cc1Nc1nccc(c2cccnc2)n1)NC(=O)c1ccc(cc1)CN1CCN(C)CC1
INCHI=InChI=1S/C29H31N7O/c1-21-5-10-25(18-27(21)34-29-31-13-11-26(33-29)24-4-3-12-30-19-24)32-28(37)23-8-6-22(7-9-23)20-36-16-14-35(2)15-17-36/h3-13,18-19H,14-17,20H2,1-2H3,(H,32,37)(H,31,33,34)
FORMULA=C29H31N7O
PUBMED=N/A
SUBMITUSER=BIOADREM
LIBRARYQUALITY=0
SPECTRUMID=CCMSLIB00000004885
SCANS=104
ID=CCMSLIB00000004885
98.0838492993 	 0.275
99.0916743314 	 0.56
104.0494751657 	 0.0975
105.0447241388 	 0.28
109.0760242672 	 0.3
111.0916743314 	 1.1975
112.0994993635 	 0.4
118.0399731119 	 0.3075
119.047798144 	 1.1675
119.0491408147 	 1.8425
131.060374203 	 3.7025
132.0443897878 	 0.2175
135.0916743314 	 0.1025
158.060039852 	 0.2675
174.0913399804 	 0.2625
179.085526321 	 0.1425
189.138624524 	 1.7425
194.0964253583 	 1.6
204.0807752941 	 1.23
209.1073243956 	 0.1975
210.0913399804 	 0.375
217.1335391461 	 9.5125
221.1073243956 	 3.05
222.0899973097 	 7.43
222.0913399804 	 10.15
223.0978223418 	 3.4875
237.1022390177 	 0.5525
238.1087213791 	 0.885
238.1100640498 	 1.215
247.0852462828 	 0.8825
247.0865889535 	 12.4475
248.0930713149 	 0.655
260.0944139856 	 0.3525
261.113472406 	 0.2625
263.1178890819 	 0.6025
264.113138055 	 10.0625
265.0958109691 	 1.6925
266.1036360012 	 0.2525
273.1022390177 	 0.1825
274.0974879908 	 1.23
275.1039703522 	 0.4475
276.1243714433 	 0.3125
290.1287881192 	 5.7475
340.1880343326 	 0.645
346.1087213791 	 0.5125
350.1400215075 	 0.365
351.1240370923 	 0.6075
351.1604225986 	 1.62
352.1318621244 	 0.2725
352.1556715717 	 0.68
361.1321964754 	 0.175
362.1400215075 	 0.29
365.1271110975 	 0.27
366.1713216359 	 2.975
367.1553372207 	 0.2525
367.166570609 	 0.285
367.1679132797 	 0.35
376.1556715717 	 4.0475
377.1396871565 	 3.89
378.1349361296 	 8.665
379.1427611617 	 13.645
380.1505861938 	 0.7775
381.1458351669 	 0.595
394.166236258 	 100
396.1693102632 	 2.675
438.2162604558 	 0.4375
476.2557199673 	 1.545
494.2662846536 	 97.0925
END IONS

BEGIN IONS
PEPMASS=297.1838
CHARGE=1
MSLEVEL=2
RT=0
SOURCE_INSTRUMENT=qTOF
FILENAME=CCMSLIB00000004895.ms
IONMODE=Positive
ORGANISM=Natural
NAME=EthinylEstradiol
PI=GNPS
DATACOLLECTOR=GNPS
SMILES=C#C[C@@]1(CC[C@H]2[C@@H]3CCc4cc(ccc4[C@H]3CC[C@]12C)O)O
INCHI=InChI=1S/C20H24O2/c1-3-20(22)11-9-18-17-6-4-13-12-14(21)5-7-15(13)16(17)8-10-19(18,20)2/h1,5,7,12,16-18,21-22H,4,6,8-11H2,2H3/t16-,17-,18+,19+,20+/m1/s1
FORMULA=C20H24O2
PUBMED=N/A
SUBMITUSER=BIOADREM
LIBRARYQUALITY=0
SPECTRUMID=CCMSLIB00000004895
SCANS=105
ID=CCMSLIB00000004895
103.0542261926 	 1.31705080648522
105.0698762568 	 2.50698120285083
107.0491408147 	 62.5182344850581
109.0647908789 	 2.08185720835244
109.1011763852 	 2.89667819780769
115.0542261926 	 1.70257991914308
117.0698762568 	 3.63439336473138
119.0491408147 	 2.53824032009336
121.0647908789 	 8.15446171800108
129.0698762568 	 8.79631559204768
131.085526321 	 8.05234860167549
132.0569658468 	 0.754386696119702
133.0647908789 	 25.4678447880632
133.1011763852 	 11.878464552161
137.0960910073 	 1.00862751635894
145.0647908789 	 1.92764556328929
145.1011763852 	 9.37565123160922
147.0804409431 	 10.4030342183137
157.0647908789 	 4.24290418038595
159.0804409431 	 7.0979035552036
159.1168264494 	 13.1329971241612
171.1168264494 	 4.78681282040595
183.0804409431 	 4.11995165256533
195.0804409431 	 1.45250698120285
209.0960910073 	 10.3259283957821
210.1039160394 	 0.339682407368816
211.1117410715 	 0.950277164172884
214.1352161678 	 1.5025215687909
240.150866232 	 0.631434168299087
251.1430411999 	 2.47988996790731
253.1586912641 	 5.00354269995415
279.1743413283 	 20.1579627391322
297.1849060146 	 100
END IONS

BEGIN IONS
PEPMASS=251.0598
CHARGE=1
MSLEVEL=2
RT=0
SOURCE_INSTRUMENT=qTOF
FILENAME=CCMSLIB00000004901.ms
IONMODE=Positive
ORGANISM=Natural
NAME=Sulfadiazine
PI=GNPS
DATACOLLECTOR=GNPS
SMILES=c1cnc(nc1)NS(=O)(=O)c1ccc(cc1)N
INCHI=InChI=1S/C10H10N4O2S/c11-8-2-4-9(5-3-8)17(15,16)14-10-12-6-1-7-13-10/h1-7H,11H2,(H,12,13,14)
FORMULA=C10H10N4O2S
PUBMED=N/A
SUBMITUSER=BIOADREM
LIBRARYQUALITY=0
SPECTRUMID=CCMSLIB00000004901
SCANS=108
ID=CCMSLIB00000004901
108.0443897878 	 11.13
156.0113750999 	 100
157.0144866429 	 0.68
185.0821722776 	 3.24
233.0491575897 	 3.62
251.059722276 	 151
END IONS

BEGIN IONS
PEPMASS=326.2332
CHARGE=1
MSLEVEL=2
RT=0
SOURCE_INSTRUMENT=qTOF
FILENAME=CCMSLIB00000004932.ms
IONMODE=Positive
ORGANISM=Natural
NAME=Bisoprolol
PI=GNPS
DATACOLLECTOR=GNPS
SMILES=CC(C)NCC(COc1ccc(cc1)COCCOC(C)C)O
INCHI=InChI=1S/C18H31NO4/c1-14(2)19-11-17(20)13-23-18-7-5-16(6-8-18)12-21-9-10-22-15(3)4/h5-8,14-15,17,19-20H,9-13H2,1-4H3
FORMULA=C18H31NO4
PUBMED=N/A
SUBMITUSER=BIOADREM
LIBRARYQUALITY=0
SPECTRUMID=CCMSLIB00000004932
SCANS=109
ID=CCMSLIB00000004932
91.0542261926 	 0.436380339917317
98.0964253583 	 1.33593630378196
103.0542261926 	 0.669882100750268
105.0698762568 	 9.81855764813964
106.0413157826 	 0.562700964630225
107.0491408147 	 44.4304088194763
115.0542261926 	 1.29382942887766
116.1069900446 	 100
117.0698762568 	 1.23641096309907
119.0491408147 	 11.751645996019
121.0647908789 	 7.48736793752871
129.0698762568 	 0.620119430408819
133.0647908789 	 21.1529627928342
135.0804409431 	 0.260297044862961
137.059705501 	 1.92926045016077
144.0807752941 	 0.20670647680294
145.0647908789 	 8.46730975348339
147.0804409431 	 8.21849640177615
162.0913399804 	 3.29581993569132
163.0753555652 	 2.1091716429337
180.1019046667 	 0.643086816720257
204.138290173 	 2.87092328892972
222.1488548593 	 6.4691471443883
308.2220198024 	 0.91869545245751
326.2325844887 	 87.6856530393508
END IONS

BEGIN IONS
PEPMASS=276.1592
CHARGE=1
MSLEVEL=2
RT=0
SOURCE_INSTRUMENT=qTOF
FILENAME=CCMSLIB00000004962.ms
IONMODE=Positive
ORGANISM=Natural
NAME=Rolipram
PI=GNPS
DATACOLLECTOR=GNPS
SMILES=COc1ccc(cc1OC1CCCC1)C1CC(=NC1)O
INCHI=InChI=1S/C16H21NO3/c1-19-14-7-6-11(12-9-16(18)17-10-12)8-15(14)20-13-4-2-3-5-13/h6-8,12-13H,2-5,9-10H2,1H3,(H,17,18)
FORMULA=C16H21NO3
PUBMED=N/A
SUBMITUSER=BIOADREM
LIBRARYQUALITY=0
SPECTRUMID=CCMSLIB00000004962
SCANS=111
ID=CCMSLIB00000004962
102.0464011605 	 0.910520652263885
103.0542261926 	 44.8596970449466
105.0698762568 	 5.56038407416604
106.0651252299 	 1.53960764837348
107.0491408147 	 1.48373479016638
109.0284053726 	 0.459399056369506
109.0647908789 	 0.070358414038573
113.0385761284 	 0.0620809535634467
115.0542261926 	 0.804983031206026
117.0698762568 	 0.0848439698700438
119.0491408147 	 0.111745716414204
120.0569658468 	 0.5049250889827
121.0647908789 	 4.14700769803824
122.0362304047 	 0.922936842976575
123.0440554368 	 0.329029053886268
124.0518804689 	 3.45377038324642
130.0413157826 	 0.554589851833457
130.0651252299 	 0.902243191788759
131.0491408147 	 58.8548133432663
133.0647908789 	 3.35030212730734
134.060039852 	 5.14444168529095
135.0440554368 	 2.76467179869216
135.0804409431 	 0.94363049416439
136.0518804689 	 1.46304113897856
137.059705501 	 9.20039731810281
141.0334907505 	 0.492508898270011
145.0647908789 	 0.945699859283172
147.0440554368 	 1.58513368098667
147.0678648841 	 0.498716993626355
148.0518804689 	 3.95455674199156
149.059705501 	 6.30535551692741
150.0675305331 	 6.86822282923599
158.0362304047 	 0.306266037579671
158.060039852 	 1.09883287807301
159.0440554368 	 6.62610711033855
160.0518804689 	 2.18111083519576
163.0753555652 	 27.2969952818475
165.0910056294 	 1.24161907126893
166.0862546025 	 9.45079049747537
173.059705501 	 1.02019700355931
175.0627795062 	 0.480092707557321
176.046795091 	 11.7746875258671
177.0546201231 	 0.136578097839583
180.1019046667 	 0.0848439698700438
190.0862546025 	 0.976740336064895
191.0702701873 	 47.5643572551941
193.0733441925 	 1.09055541759788
208.0968192888 	 67.1405512788676
276.1594195456 	 100
END IONS

BEGIN IONS
PEPMASS=225.087
CHARGE=1
MSLEVEL=2
RT=0
SOURCE_INSTRUMENT=qTOF
FILENAME=CCMSLIB00000004979.ms
IONMODE=Positive
ORGANISM=Natural
NAME=Stavudine
PI=GNPS
DATACOLLECTOR=GNPS
SMILES=Cc1cn([C@H]2C=C[C@@H](CO)O2)c(=O)nc1O
INCHI=InChI=1S/C10H12N2O4/c1-6-4-12(10(15)11-9(6)14)8-3-2-7(5-13)16-8/h2-4,7-8,13H,5H2,1H3,(H,11,14,15)/t7-,8+/m0/s1
FORMULA=C10H12N2O4
PUBMED=N/A
SUBMITUSER=BIOADREM
LIBRARYQUALITY=0
SPECTRUMID=CCMSLIB00000004979
SCANS=113
ID=CCMSLIB00000004979
109.0396387609 	 5.13
110.0236543457 	 6.8
127.0502034472 	 100
128.0944139856 	 0.23
146.9950938715 	 3.67
225.086982884 	 0
END IONS

BEGIN IONS
PEPMASS=505.324
CHARGE=1
MSLEVEL=2
RT=0
SOURCE_INSTRUMENT=qTOF
FILENAME=CCMSLIB00000004984.ms
IONMODE=Positive
ORGANISM=Natural
NAME=Dipyridamole
PI=GNPS
DATACOLLECTOR=GNPS
SMILES=C1CCN(CC1)c1c2c(c(nc(n2)N(CCO)CCO)N2CCCCC2)nc(n1)N(CCO)CCO
INCHI=InChI=1S/C24H40N8O4/c33-15-11-31(12-16-34)23-26-20-19(21(27-23)29-7-3-1-4-8-29)25-24(32(13-17-35)14-18-36)28-22(20)30-9-5-2-6-10-30/h33-36H,1-18H2
FORMULA=C24H40N8O4
PUBMED=N/A
SUBMITUSER=BIOADREM
LIBRARYQUALITY=0
SPECTRUMID=CCMSLIB00000004984
SCANS=114
ID=CCMSLIB00000004984
302.1737269391 	 1.29289235691665
303.1802093005 	 0.278603066810321
304.1853542579 	 0.34390066059399
304.1880343326 	 0.39396214916147
315.1775292258 	 0.33410602152644
315.1802093005 	 0.0304722104323789
316.1880343326 	 0.455994863255956
316.1893770033 	 0.86301653117416
317.1846259764 	 0.564824186228737
328.1893770033 	 0.285132826188688
329.1958593647 	 0.341724074134535
330.2010043221 	 0.469054382012689
330.2036843968 	 0.386344096553375
333.1907739868 	 0.285132826188688
341.219668812 	 0.351518713202085
341.2210114827 	 0.390697269472287
343.2002760406 	 0.518027577350441
346.1999416896 	 2.65108230761696
347.206424051 	 0.567000772688193
348.2142490831 	 2.25820845168522
355.2002760406 	 0.0293839172026511
355.2326388015 	 0.313428450161612
357.2145834341 	 0.375461164256097
357.2159261048 	 0.0750922328512194
359.206424051 	 0.265543548053588
360.2142490831 	 1.97416391872626
361.2108407269 	 0.765070140498656
369.2159261048 	 0.035913676581018
372.2394012011 	 0.0576795411755743
373.2108407269 	 0.36893140487773
377.2169887373 	 0.516939284120713
378.2248137694 	 1.29615723660583
382.2349845252 	 0.0337370901215624
385.2458835625 	 8.30258904959352
385.2472262332 	 11.0537943343454
386.2510285199 	 2.53463493203609
386.2537085946 	 2.36268460173909
387.2264907911 	 0.0467966088782962
387.2390668501 	 0.525645629958536
395.2401294826 	 0.0663858870133969
397.2458835625 	 0.747657448823011
398.2537085946 	 0.390697269472287
398.2550512653 	 0.761805260809473
399.2615336267 	 2.50416272160371
401.2407981846 	 0.315605036621067
401.2421408553 	 0.300368931404878
402.2248137694 	 0.0457083156485683
404.2404638336 	 3.00586590050823
411.2615336267 	 0.78792429832294
411.2628762974 	 0.599649569580028
412.2666785841 	 0.611620795107034
412.2693586588 	 0.492996833066701
414.2499658874 	 0.0892400448376811
415.2564482488 	 1.3342474996463
416.2642732809 	 0.696507667025803
416.2656159516 	 1.36798458976787
417.2370554774 	 1.03496686147115
419.2513628709 	 0.328664555377801
420.2353784557 	 0.137124946945705
422.2510285199 	 3.81011459727709
424.2707013295 	 0.0272073307431954
429.272098313 	 10.8829322972782
429.2734409837 	 12.2933603230054
430.2799233451 	 7.70076289355404
431.2513628709 	 0.0761805260809472
431.2652816006 	 0.667123749823152
432.2605305737 	 0.292750878796783
442.2799233451 	 0.519115870580169
442.2812660158 	 0.976199027065853
443.2877483772 	 3.0047776072785
449.2619275572 	 0.828191147822869
460.2904880314 	 1.43328218355154
460.2918307021 	 3.74481700349342
461.2983130635 	 3.96247564943898
487.3139631277 	 4.86467073688334
505.324527814 	 100
END IONS

BEGIN IONS
PEPMASS=310.142
CHARGE=1
MSLEVEL=2
RT=0
SOURCE_INSTRUMENT=qTOF
FILENAME=CCMSLIB00000005001.ms
IONMODE=Positive
ORGANISM=Natural
NAME=Fluoxetine
PI=GNPS
DATACOLLECTOR=GNPS
SMILES=CNCCC(c1ccccc1)Oc1ccc(cc1)C(F)(F)F
INCHI=InChI=1S/C17H18F3NO/c1-21-12-11-16(13-5-3-2-4-6-13)22-15-9-7-14(8-10-15)17(18,19)20/h2-10,16,21H,11-12H2,1H3
FORMULA=C17H18F3NO
PUBMED=N/A
SUBMITUSER=BIOADREM
LIBRARYQUALITY=0
SPECTRUMID=CCMSLIB00000005001
SCANS=115
ID=CCMSLIB00000005001
115.0542261926 	 2.42810491941431
116.0620512247 	 4.47698304013484
117.0698762568 	 100
129.0698762568 	 6.36258295586221
148.1120754225 	 30.8279785104814
149.1199004546 	 20.6994627620352
153.0510325926 	 7.27378068050142
183.0604544247 	 14.0419256294111
223.0729108889 	 1.45370272832614
231.0678648841 	 5.67260086379437
240.0756505431 	 1.66965132202676
251.067825511 	 11.6243547877383
253.0834755752 	 4.56125566206679
259.0928974073 	 52.6703887074687
260.1445184051 	 1.11661224059834
267.0865495804 	 1.46950384493838
277.0333711557 	 52.6703887074687
278.0411961878 	 15.7537132624039
310.1413248051 	 7.51606446855578
END IONS

BEGIN IONS
PEPMASS=495.2206
CHARGE=1
MSLEVEL=2
RT=0
SOURCE_INSTRUMENT=qTOF
FILENAME=CCMSLIB00000005045.ms
IONMODE=Positive
ORGANISM=Natural
NAME=Fluocinonide
PI=GNPS
DATACOLLECTOR=GNPS
SMILES=CC(=O)OCC(=O)[C@@]12[C@@H](C[C@H]3[C@@H]4C[C@@H](C5=CC(=O)C=C[C@]5(C)[C@]4([C@H](C[C@]13C)O)F)F)OC(C)(C)O2
INCHI=InChI=1S/C26H32F2O7/c1-13(29)33-12-20(32)26-21(34-22(2,3)35-26)10-15-16-9-18(27)17-8-14(30)6-7-23(17,4)25(16,28)19(31)11-24(15,26)5/h6-8,15-16,18-19,21,31H,9-12H2,1-5H3/t15-,16-,18-,19-,21+,23-,24-,25-,26+/m0/s1
FORMULA=C26H32F2O7
PUBMED=N/A
SUBMITUSER=BIOADREM
LIBRARYQUALITY=0
SPECTRUMID=CCMSLIB00000005045
SCANS=117
ID=CCMSLIB00000005045
105.0698762568 	 7.16370390023879
107.0491408147 	 4.15229503847174
121.0647908789 	 80.7420182188025
123.0440554368 	 4.24515786680817
125.059705501 	 2.08720261784735
129.0698762568 	 4.49279207570532
133.0647908789 	 7.73856902803573
135.0804409431 	 14.6546387193774
141.0698762568 	 2.53825064119572
145.0647908789 	 11.5415229503847
147.0804409431 	 3.99310161846644
149.059705501 	 2.69302202175643
151.0553690468 	 2.50287432563898
151.0753555652 	 2.52056248341735
159.0804409431 	 4.52816839126205
159.0815837973 	 7.99946935526665
169.0647908789 	 2.47192004952684
171.0804409431 	 19.4967719112055
175.0753555652 	 1.28681347837623
177.071019111 	 8.58317856195277
183.0815837973 	 4.95268417794287
185.059705501 	 4.24073582736358
185.0972338615 	 5.70885292296807
187.0764984194 	 4.89077562571858
195.0815837973 	 3.23693287344123
197.0960910073 	 2.60015919342001
203.0702701873 	 2.6045812328646
203.085526321 	 2.7107101795348
205.0659337331 	 5.01901476961175
205.1011763852 	 4.5547006279296
209.0960910073 	 3.8515963562395
211.1117410715 	 2.74608649509154
211.1128839257 	 13.9471124082427
221.0960910073 	 2.98929866454409
223.0764984194 	 3.72777925179093
223.1117410715 	 25.2675333863978
235.1117410715 	 18.7582913239586
235.1128839257 	 7.58379764747502
237.1273911357 	 2.37021314230123
237.1285339899 	 4.66967365348899
239.1066556936 	 2.93181215176439
239.1077985478 	 7.68992659414522
241.0870631057 	 3.60838418678695
246.1050588936 	 5.61156805518705
247.1117410715 	 4.60334306182011
247.1128839257 	 7.37153975413461
248.1207089578 	 5.3152914123994
249.1273911357 	 24.2195100380295
251.1066556936 	 9.1668877686389
251.1077985478 	 1.40178650393562
251.1430411999 	 5.17378615017246
253.1223057578 	 20.7482090740249
253.123448612 	 9.13151145308216
258.1050588936 	 4.77580260015919
259.1117410715 	 12.6337666931989
259.1128839257 	 1.43716281949235
261.1273911357 	 6.38542495799063
261.1285339899 	 13.9559564871319
263.1066556936 	 2.00318386840011
263.1430411999 	 7.80489961970461
263.1441840541 	 12.664720969311
265.123448612 	 6.79225258689308
273.1273911357 	 8.4593614575042
273.1285339899 	 16.0652693022022
275.1066556936 	 1.61404439727602
275.1077985478 	 2.60900327230919
277.1223057578 	 27.1690103475723
277.123448612 	 8.31343415583267
279.137955822 	 6.65074732466614
279.1390986762 	 4.54143450959583
283.1117410715 	 1.85725656672858
291.137955822 	 35.1198372689484
291.1390986762 	 26.1386751569824
293.1183632341 	 3.93119306624215
294.1261882662 	 3.80295392234899
295.1328704441 	 13.5623949765632
295.1340132983 	 2.60015919342001
301.1223057578 	 15.4240735827364
301.123448612 	 8.63182099584328
307.1328704441 	 3.2015565578845
309.1485205083 	 23.879013000796
309.1496633625 	 8.61855487750951
310.1527580099 	 3.62165030512072
311.1453269083 	 5.66021048907756
315.1402415304 	 1.40620854338021
319.1328704441 	 37.4414079773592
319.1340132983 	 33.0901211638808
320.1371079457 	 7.28309896524277
329.1547487404 	 2.04298222340143
329.1558915946 	 6.40753515521359
337.1434351304 	 65.5700008844079
337.1445779846 	 44.2203944459185
338.147672632 	 12.0810117626249
339.1390986762 	 14.3716281949235
339.1402415304 	 20.8278057840276
355.1539998167 	 30.9454320332537
355.1551426709 	 7.81816573803838
357.1496633625 	 15.8883877244185
357.1508062167 	 19.2491377023083
359.1489144388 	 5.44795259573715
375.1602280488 	 8.39303086583532
375.161370903 	 6.00070752631114
377.1558915946 	 6.84973909967277
377.1594791251 	 8.24710356416379
379.1539998167 	 11.8112673565048
379.1551426709 	 14.7519235871584
380.1582373183 	 4.0152118156894
397.164564503 	 27.8898027770408
397.1657073572 	 12.8504466259839
398.1688020046 	 4.62545325904307
399.161370903 	 6.12010259131512
415.1915281772 	 3.84717431679491
417.1707927351 	 22.0703988679579
417.1719355893 	 13.0936587954365
437.1770209672 	 6.31909436632175
455.2064293177 	 64.6236844432652
457.2020928635 	 10.0070752631113
475.2126575498 	 77.7394534359247
495.2188857819 	 100
END IONS

BEGIN IONS
PEPMASS=311.2007
CHARGE=1
MSLEVEL=2
RT=0
SOURCE_INSTRUMENT=qTOF
FILENAME=CCMSLIB00000005052.ms
IONMODE=Positive
ORGANISM=Natural
NAME=Gestodene
PI=GNPS
DATACOLLECTOR=GNPS
SMILES=CC[C@]12CC[C@@H]3[C@H]4CCC(=O)C=C4CC[C@H]3[C@@H]1C=C[C@]2(C#C)O
INCHI=InChI=1S/C21H26O2/c1-3-20-11-9-17-16-8-6-15(22)13-14(16)5-7-18(17)19(20)10-12-21(20,23)4-2/h2,10,12-13,16-19,23H,3,5-9,11H2,1H3/t16-,17+,18+,19-,20-,21-/m0/s1
FORMULA=C21H26O2
PUBMED=N/A
SUBMITUSER=BIOADREM
LIBRARYQUALITY=0
SPECTRUMID=CCMSLIB00000005052
SCANS=120
ID=CCMSLIB00000005052
103.0542261926 	 5.06
105.0334907505 	 11.48
105.0698762568 	 29.485
107.0491408147 	 24.465
107.085526321 	 15.1
109.0647908789 	 100
115.0542261926 	 10.055
116.0620512247 	 3.205
117.0698762568 	 14.78
119.085526321 	 23.185
121.0647908789 	 10.37
121.1011763852 	 11.045
123.0804409431 	 7.95
127.0542261926 	 2.105
128.0620512247 	 7.675
129.0698762568 	 24.52
131.0491408147 	 1.81
131.085526321 	 20.38
133.0647908789 	 19.495
133.1011763852 	 13.53
135.0804409431 	 20.155
135.1168264494 	 3.48
141.0698762568 	 11.945
142.0777012889 	 3.99
143.085526321 	 16.57
145.0647908789 	 5.535
145.1011763852 	 19.23
147.0804409431 	 16.77
147.1168264494 	 8.805
149.0960910073 	 9.99
153.0698762568 	 5.01
154.0777012889 	 1.695
155.085526321 	 12.505
157.1011763852 	 10.555
159.0804409431 	 12.165
159.1168264494 	 6.385
161.0960910073 	 8.82
161.1324765136 	 8.04
163.1117410715 	 6.465
167.085526321 	 3.585
169.1011763852 	 8.57
171.0804409431 	 1.21
171.1168264494 	 9.61
173.0960910073 	 1.485
173.1324765136 	 6.72
175.1117410715 	 8.375
181.1011763852 	 4.915
183.1168264494 	 8.86
185.1324765136 	 8.345
187.1117410715 	 3.66
195.1168264494 	 5.94
197.1324765136 	 5.905
199.1481265778 	 3.495
201.1273911357 	 13.99
207.1168264494 	 3.885
209.1324765136 	 3.26
211.1481265778 	 4.005
213.1273911357 	 3.4
213.163776642 	 5.52
215.1430411999 	 2.975
223.1481265778 	 3.28
225.163776642 	 5.77
231.1743413283 	 8.175
243.1743413283 	 4.89
293.1899913925 	 7.285
311.2005560788 	 39.985
END IONS

BEGIN IONS
PEPMASS=847.4488
CHARGE=1
MSLEVEL=2
RT=0
SOURCE_INSTRUMENT=qTOF
FILENAME=CCMSLIB00000005088.ms
IONMODE=Positive
ORGANISM=Natural
NAME=Rifabutin
PI=GNPS
DATACOLLECTOR=GNPS
SMILES=CC(C)CN1CCC2(CC1)N=C1c3c4c(c(C)c5c3C(=O)[C@@](C)(OC=C[C@@H]([C@@H](C)[C@H]([C@H](C)[C@@H]([C@H](C)[C@H]([C@@H](C)C=CC=C(C)C(=NC(=C1N2)C4=O)O)O)O)OC(=O)C)OC)O5)O
INCHI=InChI=1S/C46H62N4O11/c1-22(2)21-50-18-16-46(17-19-50)48-34-31-32-39(54)28(8)42-33(31)43(56)45(10,61-42)59-20-15-30(58-11)25(5)41(60-29(9)51)27(7)38(53)26(6)37(52)23(3)13-12-14-24(4)44(57)47-36(40(32)55)35(34)49-46/h12-15,20,22-23,25-27,30,37-38,41,49,52-54H,16-19,21H2,1-11H3,(H,47,57)/b13-12+,20-15+,24-14-/t23-,25+,26+,27+,30-,37-,38+,41+,45-/m0/s1
FORMULA=C46H62N4O11
PUBMED=N/A
SUBMITUSER=BIOADREM
LIBRARYQUALITY=0
SPECTRUMID=CCMSLIB00000005088
SCANS=122
ID=CCMSLIB00000005088
107.085526321 	 2.72666666666667
109.0647908789 	 1.48666666666667
109.1011763852 	 1.15333333333333
111.0804409431 	 1.30666666666667
112.1120754225 	 7.35333333333333
121.0647908789 	 0.413333333333333
123.0804409431 	 4.24666666666667
123.1168264494 	 0.51
127.0753555652 	 0.4
135.0804409431 	 1.74
135.112803704 	 0.603333333333333
135.1168264494 	 0.633333333333333
137.0960910073 	 1.64666666666667
145.1011763852 	 0.406666666666667
147.1168264494 	 0.883333333333333
151.0753555652 	 11.5333333333333
153.0910056294 	 1.81
159.112803704 	 0.606666666666667
161.0960910073 	 1.73
163.1077183261 	 1.78
163.1117410715 	 2.43666666666667
173.0960910073 	 0.313333333333333
175.1117410715 	 0.953333333333333
179.1066556936 	 2.44333333333333
191.1066556936 	 2.75666666666667
217.1182830124 	 0.45
321.0843028093 	 2.48
322.0835745278 	 0.666666666666667
323.0913995599 	 0.923333333333333
324.0952018466 	 0.616666666666667
338.1108519108 	 1.75
338.1148746562 	 0.61
339.1186769429 	 0.43
388.1669102267 	 0.356666666666667
406.177474913 	 0.326666666666667
423.2040240145 	 0.823333333333333
424.2078263012 	 2.17666666666667
517.2418660838 	 0.43
543.2615388934 	 0.306666666666667
545.2731662122 	 0.55
545.2771889576 	 0.43
573.2680808343 	 1.28333333333333
573.2721035797 	 0.67
631.309945649 	 0.973333333333333
632.3177706811 	 1.74666666666667
652.3017266864 	 1.63333333333333
670.3122913727 	 2.50666666666667
684.3041319896 	 0.47
684.3279414369 	 0.45
695.3412457774 	 0.4
698.3072059948 	 0.263333333333333
701.38819597 	 0.4
702.3146966759 	 1.12
712.322856059 	 0.7
713.3306810911 	 0.793333333333333
715.309945649 	 0.36
716.3177706811 	 2.83666666666667
730.3334207453 	 5.74666666666667
731.3412457774 	 0.423333333333333
737.38819597 	 1.5
737.3908760447 	 2.71
738.3960210021 	 0.353333333333333
755.3987606563 	 12.4366666666667
755.401440731 	 16.75
756.4065856884 	 1.75333333333333
769.4170907952 	 1.86333333333333
773.375619911 	 1.71666666666667
787.4276554815 	 3.21666666666667
797.4120054173 	 4.06666666666667
798.4198304494 	 0.57
815.4225701036 	 100
816.4303951357 	 15.9766666666667
847.4487848541 	 53.6733333333333
END IONS

BEGIN IONS
PEPMASS=786.3593
CHARGE=1
MSLEVEL=2
RT=0
SOURCE_INSTRUMENT=qTOF
FILENAME=CCMSLIB00000005102.ms
IONMODE=Positive
ORGANISM=Natural
NAME=Rifaximin
PI=GNPS
DATACOLLECTOR=GNPS
SMILES=Cc1ccn2c(c1)nc1c3c4c(c(C)c5c3C(=O)[C@@](C)(OC=C[C@@H]([C@@H](C)[C@H]([C@H](C)[C@@H]([C@H](C)[C@H]([C@@H](C)C=CC=C(C)C(=Nc(c21)c4O)O)O)O)OC(=O)C)OC)O5)O
INCHI=InChI=1S/C43H51N3O11/c1-19-14-16-46-28(18-19)44-32-29-30-37(50)25(7)40-31(29)41(52)43(9,57-40)55-17-15-27(54-10)22(4)39(56-26(8)47)24(6)36(49)23(5)35(48)20(2)12-11-13-21(3)42(53)45-33(34(32)46)38(30)51/h11-18,20,22-24,27,35-36,39,48-51H,1-10H3,(H,45,53)/b12-11+,17-15+,21-13-/t20-,22+,23+,24+,27-,35-,36+,39+,43-/m0/s1
FORMULA=C43H51N3O11
PUBMED=N/A
SUBMITUSER=BIOADREM
LIBRARYQUALITY=0
SPECTRUMID=CCMSLIB00000005102
SCANS=124
ID=CCMSLIB00000005102
95.085526321 	 0.419474439122081
105.0698762568 	 0.510586091490533
107.085526321 	 3.41713801160095
109.0647908789 	 1.9358970889376
109.1011763852 	 1.37479364563882
111.0804409431 	 1.07168953478932
119.085526321 	 0.999521889348958
121.0647908789 	 0.773095901779834
121.1011763852 	 1.43974452653514
123.0804409431 	 5.86271909646108
125.0960910073 	 1.03109523422911
133.1011763852 	 1.22684997248609
135.0804409431 	 2.67110497686125
135.1168264494 	 1.26473798634227
137.0960910073 	 1.43433195312711
137.1324765136 	 0.252586759041253
139.0753555652 	 0.668452815891316
145.1011763852 	 1.76991150442478
147.1168264494 	 2.15600840753069
149.0960910073 	 0.474502268770354
149.1324765136 	 0.226425987569123
151.0753555652 	 13.1588680504813
153.0910056294 	 2.7631187247977
155.1066556936 	 0.0838948878244161
157.1011763852 	 0.301299919713494
159.1168264494 	 1.06266857910927
161.0960910073 	 2.25163053773917
163.1117410715 	 7.8834131687911
165.1273911357 	 0.923745861636582
173.0960910073 	 1.80328904044094
173.1324765136 	 1.11047964421351
175.1117410715 	 1.94762433132166
177.0910056294 	 0.783921048595888
177.1273911357 	 0.615229177379052
179.1066556936 	 2.77484596718176
181.1223057578 	 0.64319413998719
185.1324765136 	 0.654019286803244
191.1066556936 	 3.86818579560319
193.1223057578 	 1.09875240182945
201.1273911357 	 0.755053990419745
203.1430411999 	 0.390607380945937
209.1172203799 	 1.04372457218118
213.1273911357 	 0.541257340802685
219.137955822 	 1.09785030626145
231.137955822 	 0.813690202340036
251.1794267062 	 0.251684663473248
259.1692559504 	 0.230034369841141
269.1899913925 	 0.330166977889638
271.1692559504 	 0.036083822720179
279.1743413283 	 0.404138814466005
289.1798206367 	 0.0469089695362327
297.1849060146 	 0.958927588788756
315.1954707009 	 0.728893218947615
325.1223057578 	 2.06760304186626
333.2060353872 	 0.0577341163522864
339.2107268346 	 0.730697410083624
347.1026329482 	 9.02095568004474
361.1070496241 	 5.34581833599452
362.1108519108 	 3.40360657808088
362.1148746562 	 2.05407160834619
380.2345958614 	 0.584557928066899
408.2295104835 	 0.595383074882953
425.2475062714 	 0.960731779924765
455.1448916934 	 1.15919280488575
466.177474913 	 0.271530765969347
484.1880395993 	 1.22143739907806
485.191841886 	 0.887662038916403
486.1996669181 	 0.960731779924765
512.1829542214 	 1.00583655832499
513.1867565081 	 0.616131272947056
514.1945815402 	 2.16142098093872
525.2271647598 	 0.751445608147727
528.2142543498 	 0.783018953027884
556.2091689719 	 0.81459229790804
570.2207962907 	 0.887662038916403
571.2326440682 	 1.40997537279099
614.2470110412 	 0.699124065203468
622.2911620001 	 0.647704617827213
640.3017266864 	 6.92268138886634
641.3095517185 	 6.74496856196946
642.3061433623 	 2.10909943799446
668.3092173675 	 0.720774358835575
676.3017266864 	 0.953515015380729
694.3122913727 	 7.91769280037527
695.3201164048 	 3.88442351582727
696.3167080486 	 1.79607227589691
697.3330863943 	 0.657627669075262
700.322856059 	 1.31525533815052
701.3194477028 	 0.939983581860662
708.3279414369 	 0.584557928066899
726.3385061232 	 4.0928075920363
727.3463311553 	 5.25200039692205
728.3541561874 	 2.41220354884396
729.3619812195 	 0.636879471011159
736.322856059 	 2.60886038266894
737.3306810911 	 0.3427963158417
754.3334207453 	 18.6309797659964
755.3412457774 	 10.4092807592036
756.3490708095 	 3.41443172489694
768.3490708095 	 1.42350680631106
786.3596354958 	 100
END IONS

BEGIN IONS
PEPMASS=386.1419
CHARGE=1
MSLEVEL=2
RT=0
SOURCE_INSTRUMENT=qTOF
FILENAME=CCMSLIB00000005131.ms
IONMODE=Positive
ORGANISM=Natural
NAME=Racecadotril
PI=GNPS
DATACOLLECTOR=GNPS
SMILES=CC(=O)SCC(Cc1ccccc1)C(=NCC(=O)OCc1ccccc1)O
INCHI=InChI=1S/C21H23NO4S/c1-16(23)27-15-19(12-17-8-4-2-5-9-17)21(25)22-13-20(24)26-14-18-10-6-3-7-11-18/h2-11,19H,12-15H2,1H3,(H,22,25)
FORMULA=C21H23NO4S
PUBMED=N/A
SUBMITUSER=BIOADREM
LIBRARYQUALITY=0
SPECTRUMID=CCMSLIB00000005131
SCANS=126
ID=CCMSLIB00000005131
91.0542261926 	 7.73431852863224
115.0542261926 	 4.95542526704682
117.0698762568 	 19.2648515514149
120.0807752941 	 0.631810028645624
127.0542261926 	 0.323936497737799
129.0698762568 	 6.44124969881937
131.0491408147 	 0.235590180172945
135.0262968826 	 0.0535432227665783
137.0419469468 	 4.20582014831473
143.0491408147 	 0.39621984847268
145.0647908789 	 46.2345728589404
157.0647908789 	 15.7443846545124
163.057597011 	 0.36944823708939
174.0913399804 	 0.315905014322812
179.0525116331 	 6.06912430059165
179.085526321 	 2.59416914304072
181.1011763852 	 0.722833507348807
191.0525116331 	 2.52456295344417
191.085526321 	 2.30771290123953
192.0933513531 	 0.425668620994298
202.0862546025 	 0.942360720691778
205.1011763852 	 0.107086445533157
207.1168264494 	 11.1878563970765
217.1011763852 	 2.13369742724815
220.0882659752 	 0.460471715792574
221.0630763194 	 0.152598184884748
223.1117410715 	 0.433700104409284
235.1117410715 	 30.0082991995288
241.1045472036 	 2.0373196262683
269.0994618257 	 100
278.084540043 	 0.811179824913662
298.1260109272 	 9.98313388482853
299.1277850662 	 1.05747864963992
326.1209255493 	 12.1623430514283
344.1314902356 	 69.5231976012636
347.1311558846 	 0.19810992423634
386.1420549219 	 3.48834096324258
END IONS

BEGIN IONS
PEPMASS=168.0334
CHARGE=1
MSLEVEL=2
RT=0
SOURCE_INSTRUMENT=qTOF
FILENAME=CCMSLIB00000005163.ms
IONMODE=Positive
ORGANISM=Natural
NAME=Thioguanine
PI=GNPS
DATACOLLECTOR=GNPS
SMILES=c1nc2c([nH]1)[nH]c(=N)nc2S
INCHI=InChI=1S/C5H5N5S/c6-5-9-3-2(4(11)10-5)7-1-8-3/h1H,(H4,6,7,8,9,10,11)
FORMULA=C5H5N5S
PUBMED=N/A
SUBMITUSER=BIOADREM
LIBRARYQUALITY=0
SPECTRUMID=CCMSLIB00000005163
SCANS=129
ID=CCMSLIB00000005163
107.035222085 	 7.16914442804568
108.9854947004 	 3.73216106821392
109.0508721492 	 0.24260313800508
110.0461211223 	 0.6365957015538
123.9963937377 	 0.12541885463448
126.0120438019 	 4.05901020453408
129.0103667802 	 2.45326880807748
134.0461211223 	 3.76129878191688
151.007292775 	 6.3342855876
168.0338418765 	 100
END IONS

BEGIN IONS
PEPMASS=313.2166
CHARGE=1
MSLEVEL=2
RT=0
SOURCE_INSTRUMENT=qTOF
FILENAME=CCMSLIB00000005176.ms
IONMODE=Positive
ORGANISM=Natural
NAME=Levonorgestrel
PI=GNPS
DATACOLLECTOR=GNPS
SMILES=CC[C@]12CC[C@@H]3[C@H]4CCC(=O)C=C4CC[C@H]3[C@@H]1CC[C@]2(C#C)O
INCHI=InChI=1S/C21H28O2/c1-3-20-11-9-17-16-8-6-15(22)13-14(16)5-7-18(17)19(20)10-12-21(20,23)4-2/h2,13,16-19,23H,3,5-12H2,1H3/t16-,17+,18+,19-,20-,21-/m0/s1
FORMULA=C21H28O2
PUBMED=N/A
SUBMITUSER=BIOADREM
LIBRARYQUALITY=0
SPECTRUMID=CCMSLIB00000005176
SCANS=132
ID=CCMSLIB00000005176
91.0542261926 	 2.93696239059287
93.0698762568 	 1.22566147008994
103.0542261926 	 1.71632824400617
105.0698762568 	 9.86662510745904
107.0491408147 	 5.464700648022
107.085526321 	 4.43761845631005
109.0647908789 	 22.6375350027399
109.1011763852 	 0.888830795372852
115.0542261926 	 3.43014282626073
116.0620512247 	 1.99433923373535
117.0698762568 	 7.60784865745326
118.0777012889 	 0.56657935881516
119.085526321 	 7.25844967397807
121.0647908789 	 1.39106041334654
121.1011763852 	 2.81731209121576
123.0804409431 	 4.71462398133858
123.1168264494 	 0.54898372655382
127.0542261926 	 0.0965246112622101
128.0620512247 	 4.20736703986165
129.0698762568 	 7.20113818604113
130.0777012889 	 1.98830644553146
131.085526321 	 10.9304067607446
133.0647908789 	 1.53785825964115
133.1011763852 	 7.50378306093619
135.0804409431 	 7.66616561009084
135.1168264494 	 2.58102788656347
137.0960910073 	 0.529377164891184
137.1324765136 	 0.420284244870873
141.0698762568 	 2.93847058764384
142.0777012889 	 1.40765058090723
143.085526321 	 6.0111707128242
144.0933513531 	 1.19801119082212
145.1011763852 	 7.03473377808389
146.072615911 	 0.246338851658765
147.0804409431 	 1.6122626474891
147.1168264494 	 3.26977120650737
148.0882659752 	 0.525355306088592
149.0960910073 	 4.53414306757226
154.0777012889 	 1.91239386063254
155.085526321 	 2.11197860371117
156.0933513531 	 0.955694197965945
157.1011763852 	 7.32028575306792
159.0804409431 	 1.4091587779582
159.1168264494 	 6.02223082453133
161.0960910073 	 4.64072232584095
161.1324765136 	 0.480612126909755
163.1117410715 	 2.88417549380885
167.085526321 	 1.02255760055904
169.1011763852 	 3.03951979005897
171.1168264494 	 4.14955281957439
173.0960910073 	 0.788284325308049
173.1324765136 	 3.42762916450911
175.1117410715 	 2.54835028379241
175.1481265778 	 1.06830624443852
181.1011763852 	 0.336327942366763
182.1090014173 	 0.569093020566781
183.1168264494 	 3.67899533967111
185.0960910073 	 0.424808836023789
185.1324765136 	 6.15997948852011
187.1481265778 	 2.336699964306
189.1273911357 	 1.4594320129906
195.1168264494 	 0.348896251124864
197.1324765136 	 1.34380357241608
199.1481265778 	 3.5970499665683
201.1273911357 	 0.536918150146044
207.1168264494 	 0.443912665336102
209.1324765136 	 0.871235163111511
213.1273911357 	 0.479606662209107
213.163776642 	 0.482623056311051
221.1324765136 	 0.417267850768929
223.1481265778 	 0.480612126909755
225.163776642 	 0.582666794025529
227.1794267062 	 3.89617571501109
235.1481265778 	 0.689246052294219
237.163776642 	 1.05875432978237
239.1794267062 	 0.502732350324011
245.1899913925 	 13.8713910101401
249.163776642 	 0.36096182753264
251.1794267062 	 0.326776027710607
253.1586912641 	 0.545967332451876
267.1743413283 	 0.692262446396163
277.1950767704 	 2.10343215375566
295.2056414567 	 7.38564095861005
313.216206143 	 100
END IONS

BEGIN IONS
PEPMASS=217.0498
CHARGE=1
MSLEVEL=2
RT=0
SOURCE_INSTRUMENT=qTOF
FILENAME=CCMSLIB00000005191.ms
IONMODE=Positive
ORGANISM=Natural
NAME=Methoxsalen
PI=GNPS
DATACOLLECTOR=GNPS
SMILES=COc1c2c(cco2)cc2ccc(=O)oc12
INCHI=InChI=1S/C12H8O4/c1-14-12-10-8(4-5-15-10)6-7-2-3-9(13)16-11(7)12/h2-6H,1H3
FORMULA=C12H8O4
PUBMED=N/A
SUBMITUSER=BIOADREM
LIBRARYQUALITY=0
SPECTRUMID=CCMSLIB00000005191
SCANS=134
ID=CCMSLIB00000005191
100.0307510963 	 0.056677372392563
101.0385761284 	 0.291166109153951
102.0464011605 	 0.662347332273874
103.0542261926 	 0.413411422157519
104.0620512247 	 0.117800028894347
105.0334907505 	 0.0944622873209384
105.0698762568 	 0.392296322638721
107.0491408147 	 0.0388962359556805
115.0542261926 	 2.10484202571597
116.0620512247 	 0.185590611559961
117.0334907505 	 0.922396452663281
117.0698762568 	 0.268939688607848
118.0413157826 	 13.5269995443584
119.0491408147 	 0.73680584110332
120.0205803405 	 0.0222264205461032
127.0542261926 	 0.0644566195836991
128.0256657184 	 0.0233377415734083
129.0334907505 	 0.56455108187102
130.0413157826 	 0.497871820232711
131.0491408147 	 1.21133991976262
132.0205803405 	 0.0889056821844126
133.0647908789 	 0.14447173354967
143.0491408147 	 0.171143438204994
145.0284053726 	 4.69422001933699
145.0647908789 	 1.01574741895691
146.0362304047 	 7.95372459242301
147.0440554368 	 0.448973695031284
157.0284053726 	 1.99593256504006
158.0362304047 	 1.40804374159563
161.059705501 	 12.7990842714735
171.0440554368 	 0.255603836280186
173.0233199947 	 0.0444528410922063
173.059705501 	 1.96703821833013
174.0311450268 	 47.0488870119912
185.0233199947 	 3.02946112043386
189.0546201231 	 4.29525577053443
202.0260596489 	 35.4022426458331
217.0495347452 	 100
END IONS

BEGIN IONS
PEPMASS=349.133
CHARGE=1
MSLEVEL=2
RT=0
SOURCE_INSTRUMENT=qTOF
FILENAME=CCMSLIB00000005204.ms
IONMODE=Positive
ORGANISM=Natural
NAME=Torsemide
PI=GNPS
DATACOLLECTOR=GNPS
SMILES=CC(C)N=C(NS(=O)(=O)c1c[nH]ccc1=Nc1cccc(C)c1)O
INCHI=InChI=1S/C16H20N4O3S/c1-11(2)18-16(21)20-24(22,23)15-10-17-8-7-14(15)19-13-6-4-5-12(3)9-13/h4-11H,1-3H3,(H,17,19)(H2,18,20,21)
FORMULA=C16H20N4O3S
PUBMED=N/A
SUBMITUSER=BIOADREM
LIBRARYQUALITY=0
SPECTRUMID=CCMSLIB00000005204
SCANS=136
ID=CCMSLIB00000005204
98.0058957915 	 0.244456686406831
114.0464011605 	 0.110177661479135
122.060039852 	 1.38066382041041
125.0167948288 	 13.2591929486297
126.0008104136 	 0.361520451728412
126.0212490425 	 0.550888307395676
128.0164604778 	 0.0826332461093513
129.0698762568 	 1.43230959922876
137.0167948288 	 0.678281228480926
140.0494751657 	 0.664509020796034
141.0573001978 	 1.07767525134279
142.0611024845 	 0.175595647982372
153.0117094509 	 0.970940641784878
154.0651252299 	 0.468255061286324
156.0807752941 	 2.20699628150392
167.060374203 	 1.05013083597301
168.0681992351 	 49.9724555846302
169.0720015218 	 3.49469770004132
169.0733441925 	 1.10177661479135
171.0916743314 	 0.526786943947115
175.032444893 	 0.185924803746041
176.0402699251 	 0.389064867098196
177.0480949572 	 0.172152596061149
181.0760242672 	 4.35201762842584
182.0838492993 	 15.1081118303264
183.0916743314 	 100
184.0968192888 	 3.6565211403388
185.0709388893 	 1.80415920672084
185.0960910073 	 0.106734609557912
186.0787639214 	 0.371849607492081
191.0637450214 	 4.17297892852224
192.0655191604 	 0.106734609557912
192.0681992351 	 0.0826332461093513
193.0634482082 	 0.0688610384244594
197.0669161439 	 0.199697011430932
198.0787639214 	 7.67800578432723
199.0865889535 	 9.02079603360419
201.0480949572 	 5.88417573337006
202.0525491709 	 0.385621815176973
202.0559199893 	 0.395950970940642
203.060374203 	 0.0964054537942432
205.0396387609 	 0.0757471422669054
205.0430095793 	 0.203140063352155
214.0736785435 	 0.781572786117615
219.0586596435 	 11.7890097782675
220.0631138572 	 0.674838176559703
221.0583628303 	 0.0929624018730203
229.0430095793 	 2.56507368131111
230.0508346114 	 11.5858697149153
231.0552888251 	 0.316760776752513
247.0535742656 	 12.4672910067484
248.0580284793 	 0.778129734196392
264.0801233671 	 67.6835146674012
264.0814660378 	 34.4305192122297
265.0845775808 	 21.3606941192673
267.0797890161 	 0.56810356700179
290.059387925 	 29.0111554882248
349.1328872191 	 11.9646054262498
END IONS

BEGIN IONS
PEPMASS=445.2101
CHARGE=1
MSLEVEL=2
RT=0
SOURCE_INSTRUMENT=qTOF
FILENAME=CCMSLIB00000005212.ms
IONMODE=Positive
ORGANISM=Natural
NAME=MitoxantroneHCl
PI=GNPS
DATACOLLECTOR=GNPS
SMILES=c1cc(c2c(c1NCCNCCO)C(=O)c1c(ccc(c1C2=O)O)O)NCCNCCO
INCHI=InChI=1S/C22H28N4O6/c27-11-9-23-5-7-25-13-1-2-14(26-8-6-24-10-12-28)18-17(13)21(31)19-15(29)3-4-16(30)20(19)22(18)32/h1-4,23-30H,5-12H2
FORMULA=C22H28N4O6
PUBMED=N/A
SUBMITUSER=BIOADREM
LIBRARYQUALITY=0
SPECTRUMID=CCMSLIB00000005212
SCANS=137
ID=CCMSLIB00000005212
133.0760242672 	 0.0621976503109883
159.0916743314 	 0.0816736822265502
160.0994993635 	 0.157064773512597
161.0709388893 	 0.0892127913551549
187.0865889535 	 0.0546585411823836
209.0835149483 	 0.266381855877364
212.0368991067 	 0.153295218948294
224.0706045383 	 0.0577998366526356
238.0498690962 	 0.0458629138656782
238.0696557981 	 0.310359992460891
240.0933513531 	 0.180938619086511
241.0607681335 	 0.452346547716278
241.0971536398 	 0.456744361374631
249.0698762568 	 0.266381855877364
249.0784295704 	 0.184079914556763
249.1022390177 	 0.310359992460891
251.0815035756 	 0.132562668844632
252.0655191604 	 0.0885845322611045
253.0607681335 	 0.11434315511717
253.0647908789 	 0.283973110510775
255.0764181977 	 1.55494125777471
256.0604337825 	 0.630143871332538
264.0655191604 	 0.831186781428661
265.0607681335 	 0.452346547716278
266.0771464792 	 0.829930263240561
267.0723954523 	 1.85524910473079
267.0764181977 	 0.965005968461394
269.0556827556 	 1.12395551925614
269.0920682619 	 0.272664446817868
271.0713328198 	 1.24206822893761
272.0706045383 	 0.163975623547151
275.0815035756 	 0.209838537412829
277.0647908789 	 0.474963875102092
278.0771464792 	 0.461142175032984
278.0811692246 	 0.247534083055852
279.0764181977 	 4.94816862474084
280.0604337825 	 2.17817427907269
280.0631138572 	 0.593704843877615
281.059705501 	 0.798517308538041
281.0682588146 	 0.327322988000251
281.0920682619 	 0.358735942702771
282.0760838467 	 0.108060564176666
283.0713328198 	 14.7521517873971
284.0751351065 	 2.46214738958346
284.0791578519 	 2.03932901928755
285.0829601386 	 1.01086888232707
285.086982884 	 0.531507193566627
286.0907851707 	 0.811710749513099
291.0764181977 	 0.0596846139347867
293.0920682619 	 1.48708927561726
294.0846371603 	 0.150153923478042
295.0713328198 	 4.18734686184583
296.0751351065 	 1.46321543004335
296.0791578519 	 0.826160708676258
297.086982884 	 15.3150719356663
298.0862546025 	 2.56581014010178
298.0948079161 	 0.497581202487906
299.0900568892 	 0.829930263240561
305.0880455165 	 0.672237230633913
305.0920682619 	 4.3814789219074
306.099893294 	 0.252560155808255
307.1036955807 	 0.160206068982849
308.0791578519 	 0.412766224791104
309.086982884 	 0.461142175032984
309.0955361976 	 0.554752780046491
310.0611024845 	 0.170886473581705
310.0948079161 	 0.109945341458818
311.0986102028 	 1.33316579757492
311.1026329482 	 0.500094238864108
311.1111862618 	 0.297166551485833
312.1064352349 	 0.554752780046491
315.0975475703 	 0.0383238047370736
322.0948079161 	 0.785323867562983
323.1026329482 	 8.59961047936169
324.1019046667 	 1.26908336998178
324.1104579803 	 0.34114468806936
338.1009559265 	 0.157064773512597
338.1135319855 	 0.94238864107558
340.1291820497 	 0.0483759502418798
341.1131976345 	 0.0841867186027518
342.1210226666 	 0.128164855186279
356.1240966718 	 1.25840296538292
358.139746736 	 21.6560909719168
359.1390184545 	 2.36853678456996
366.1448321139 	 0.35685116542062
371.1475717681 	 0.4875290569831
372.1441634119 	 0.273292705911918
384.1553968002 	 4.44995916315889
385.1506457733 	 0.252560155808255
386.1710468644 	 0.153923478042345
427.1975959659 	 0.110573600552868
444.2003356201 	 0.218634164729534
445.2081606522 	 100
END IONS

BEGIN IONS
PEPMASS=435.217
CHARGE=1
MSLEVEL=2
RT=0
SOURCE_INSTRUMENT=qTOF
FILENAME=CCMSLIB00000005220.ms
IONMODE=Positive
ORGANISM=Natural
NAME=TriamcinoloneAcetonide
PI=GNPS
DATACOLLECTOR=GNPS
SMILES=CC1(C)O[C@@H]2C[C@H]3[C@@H]4CCC5=CC(=O)C=C[C@]5(C)[C@]4([C@H](C[C@]3(C)[C@]2(C(=O)CO)O1)O)F
INCHI=InChI=1S/C24H31FO6/c1-20(2)30-19-10-16-15-6-5-13-9-14(27)7-8-21(13,3)23(15,25)17(28)11-22(16,4)24(19,31-20)18(29)12-26/h7-9,15-17,19,26,28H,5-6,10-12H2,1-4H3/t15-,16-,17-,19+,21-,22-,23-,24+/m0/s1
FORMULA=C24H31FO6
PUBMED=N/A
SUBMITUSER=BIOADREM
LIBRARYQUALITY=0
SPECTRUMID=CCMSLIB00000005220
SCANS=139
ID=CCMSLIB00000005220
105.0698762568 	 9.43736976151887
105.071019111 	 13.6652002778421
109.0659337331 	 5.41792081500347
117.0698762568 	 7.48321370687659
119.085526321 	 6.3996295438759
121.0647908789 	 81.7411437832832
125.059705501 	 0.546422783051632
131.085526321 	 17.1937948599213
133.0647908789 	 18.4487149803195
135.0804409431 	 7.28409354017134
135.0815837973 	 11.2942810835842
143.085526321 	 16.8418615420236
145.0647908789 	 16.230608937254
147.0804409431 	 100
151.0389700589 	 0.801111368372308
151.0753555652 	 0.745542949756888
155.085526321 	 6.01065061356796
155.0866691752 	 6.87196110210697
158.072615911 	 12.1509608705719
159.0804409431 	 62.7506367214633
161.059705501 	 10.0393609631859
161.0960910073 	 12.3176661264182
161.0972338615 	 14.0727020143552
163.0753555652 	 4.36212086131049
169.0647908789 	 6.43667515628618
171.0804409431 	 85.3855059041445
173.0960910073 	 43.2275989812456
179.0702701873 	 0.407501736513082
180.0933513531 	 4.51956471405418
181.1011763852 	 4.70942347765686
181.1023192394 	 7.27483213706877
185.0960910073 	 17.920815003473
187.0753555652 	 24.2833989349386
192.0933513531 	 4.88075943505441
193.1011763852 	 5.61241028015744
193.1023192394 	 6.01065061356796
195.0804409431 	 7.70548738133827
195.0815837973 	 7.91849965269738
197.0960910073 	 11.7156749247511
197.0972338615 	 18.4440842787682
197.1324765136 	 18.4163000694605
198.1039160394 	 7.4507987960176
199.1117410715 	 6.04306552442695
205.1023192394 	 5.75133132669599
207.1168264494 	 15.9620282472795
208.0882659752 	 11.0395924982635
209.0960910073 	 12.7668441768928
209.0972338615 	 24.3991664737208
210.1039160394 	 37.6892799259088
211.1117410715 	 14.1653160453809
213.1273911357 	 82.5237323454503
213.1285339899 	 46.3070155128502
219.0804409431 	 7.84903912942811
221.0960910073 	 8.12688122250521
221.0972338615 	 5.74206992359342
222.1039160394 	 8.59921278073628
222.1050588936 	 8.71034961796712
223.1117410715 	 39.9305394767307
223.1128839257 	 16.6936790923825
224.1207089578 	 6.40889094697847
225.1273911357 	 72.623292428803
227.1430411999 	 0.912248205603149
233.0972338615 	 19.0460754804353
234.1039160394 	 6.49687427645288
235.1117410715 	 27.5434128270433
237.1273911357 	 26.2931234081963
237.1285339899 	 12.9196573280852
239.1430411999 	 9.58092150960871
239.1441840541 	 4.77425329937486
241.1223057578 	 9.95137763371151
243.137955822 	 0.486223662884927
245.0960910073 	 7.25630933086363
246.1050588936 	 5.718916415837
247.1117410715 	 6.2144014818245
248.1195661036 	 10.7339661958787
248.1207089578 	 14.4802037508683
249.1273911357 	 11.8870108821486
249.1285339899 	 13.4012502894188
251.1430411999 	 18.6987728640889
253.1223057578 	 18.6848807594351
253.1586912641 	 11.9147950914564
259.1117410715 	 3.03310951609169
260.1195661036 	 9.88654781199352
261.1273911357 	 12.0953924519565
261.1285339899 	 5.5336883537856
263.1430411999 	 37.1104422319981
263.1441840541 	 21.2965964343598
265.1223057578 	 3.28316739986108
265.1586912641 	 21.4123639731419
267.1390986762 	 9.4281083584163
269.1172203799 	 5.07987960175967
269.1536058862 	 0.805742069923593
275.1430411999 	 29.6225978235703
277.1223057578 	 7.81662421856911
279.137955822 	 17.7541097476268
279.1390986762 	 7.87219263718453
281.1536058862 	 15.4063440611253
283.1692559504 	 5.91340588099097
291.137955822 	 4.89002083815698
293.1536058862 	 38.9673535540634
295.1328704441 	 1.58833063209076
297.1485205083 	 7.66381106737671
303.137955822 	 10.1412363973142
309.1485205083 	 4.8853901366057
311.1641705725 	 37.4808983561009
321.1485205083 	 36.5130817318824
329.1747352588 	 0.972447325769854
339.1590851946 	 56.457513313267
357.1696498809 	 32.8270432970595
379.190385323 	 1.10210696920583
397.2009500093 	 67.3720768696458
415.2115146956 	 56.392683491549
435.2177429277 	 15.3554063440611
END IONS

BEGIN IONS
PEPMASS=304.11
CHARGE=1
MSLEVEL=2
RT=0
SOURCE_INSTRUMENT=qTOF
FILENAME=CCMSLIB00000005237.ms
IONMODE=Positive
ORGANISM=Natural
NAME=Flumazenil
PI=GNPS
DATACOLLECTOR=GNPS
SMILES=CCOC(=O)c1c2CN(C)C(=O)c3cc(ccc3n2cn1)F
INCHI=InChI=1S/C15H14FN3O3/c1-3-22-15(21)13-12-7-18(2)14(20)10-6-9(16)4-5-11(10)19(12)8-17-13/h4-6,8H,3,7H2,1-2H3
FORMULA=C15H14FN3O3
PUBMED=N/A
SUBMITUSER=BIOADREM
LIBRARYQUALITY=0
SPECTRUMID=CCMSLIB00000005237
SCANS=142
ID=CCMSLIB00000005237
101.0385761284 	 0.222078945483201
107.0291542963 	 1.89125295508274
110.0400533336 	 0.490722831148363
120.0244032694 	 0.770112472240132
121.0448043605 	 0.644745325596389
122.0400533336 	 7.2856221792392
126.0338251015 	 0.297299233469446
128.0494751657 	 0.42983021706426
132.0244032694 	 3.23447238340855
133.0448043605 	 0.644745325596389
134.0400533336 	 16.8099434056881
138.0349679557 	 0.261480048714091
146.0400533336 	 2.89777204670822
148.0193178915 	 2.0488573680063
148.0557033978 	 23.3791818898202
149.0397189826 	 0.118203309692671
150.0349679557 	 0.39759295078444
155.060374203 	 1.91990830288703
158.0400533336 	 1.73364854215918
159.0353023067 	 1.14263199369582
160.0193178915 	 0.906225374310481
160.0557033978 	 0.727129450533706
161.0509523709 	 1.09248513503833
162.0349679557 	 44.1614728848771
171.0353023067 	 0.483558994197292
173.0509523709 	 31.9936958234831
174.0349679557 	 1.06024786875851
175.0666024351 	 7.87663872770256
176.0506180199 	 5.87076438140268
183.0552888251 	 0.179095923776775
185.0509523709 	 1.34321942832581
187.0302169288 	 5.20094562647754
188.0142325136 	 1.41843971631206
189.045866993 	 62.3826921699262
201.045866993 	 26.8572247295652
202.0775014724 	 4.90364639300809
203.0615170572 	 30.5036177376603
212.0618514082 	 0.175514005301239
213.045866993 	 0.243570456336414
215.0251315509 	 12.3934379253528
217.0407816151 	 100
229.0407816151 	 36.0985743964467
230.0724160945 	 13.4859230603911
231.0564316793 	 3.55326312773121
240.0567660303 	 0.118203309692671
241.0407816151 	 5.41227881653414
247.0513463014 	 0.0823841249373164
258.0673307166 	 91.3998137402393
276.0778954029 	 92.7895981087471
304.1091955313 	 69.6575685937388
END IONS

BEGIN IONS
PEPMASS=587.2854
CHARGE=1
MSLEVEL=2
RT=0
SOURCE_INSTRUMENT=qTOF
FILENAME=CCMSLIB00000005258.ms
IONMODE=Positive
ORGANISM=Natural
NAME=Irinotecan
PI=GNPS
DATACOLLECTOR=GNPS
SMILES=CCc1c2cc(ccc2nc2c1Cn1c2cc2c(COC(=O)[C@@]2(CC)O)c1=O)OC(=O)N1CCC(CC1)N1CCCCC1
INCHI=InChI=1S/C33H38N4O6/c1-3-22-23-16-21(43-32(40)36-14-10-20(11-15-36)35-12-6-5-7-13-35)8-9-27(23)34-29-24(22)18-37-28(29)17-26-25(30(37)38)19-42-31(39)33(26,41)4-2/h8-9,16-17,20,41H,3-7,10-15,18-19H2,1-2H3/t33-/m0/s1
FORMULA=C33H38N4O6
PUBMED=N/A
SUBMITUSER=BIOADREM
LIBRARYQUALITY=0
SPECTRUMID=CCMSLIB00000005258
SCANS=143
ID=CCMSLIB00000005258
98.0964253583 	 0.106399398383649
110.060039852 	 1.43770545099881
112.0756899162 	 0.104100645949434
124.1120754225 	 4.67172173273391
138.0675305331 	 2.39956914811519
150.1277254867 	 0.120520306193824
167.1178890819 	 7.37998049344363
195.1491892103 	 4.70357587360802
247.1229744598 	 0.102130286720107
275.1178890819 	 0.0715897186655414
303.1465091356 	 0.479782472341082
303.1491892103 	 0.16748053449278
316.1206287361 	 0.52050322974717
318.1362788003 	 0.24530972405119
319.1441038324 	 0.103443859539658
329.1284537682 	 0.178317510254078
331.1441038324 	 2.60317293514563
332.1519288645 	 0.276507078515531
335.1390184545 	 0.1077129712032
346.0948079161 	 0.445301185827863
347.1026329482 	 0.100816713900556
348.1104579803 	 0.338573394239326
349.1420924597 	 0.133984427594224
361.1546685187 	 0.230860423036127
363.1339330766 	 0.417716156617287
372.1706529339 	 0.212470403562409
373.178477966 	 0.0640366749531219
375.125379763 	 0.879765395894428
375.1339330766 	 0.642993895170321
376.1417581087 	 0.199663068571785
379.0924621924 	 0.150404087838614
384.1746756793 	 0.223635772528595
388.1893770033 	 0.193423597678917
391.1288476987 	 0.087352592500156
393.1444977629 	 0.400311316758234
402.1574081729 	 0.0653502477726731
405.1319217039 	 0.39341505945559
406.152322795 	 0.170436073336771
407.1237623208 	 0.403266855602224
414.2176031265 	 0.985836401073189
415.2254281586 	 0.31263033105319
458.1988790571 	 2.05836860823676
458.2074323707 	 1.47908299481467
459.2152574028 	 0.385533622538282
502.1846855559 	 1.44098938304769
502.1887083013 	 0.384876836128507
502.1972616149 	 2.15590139008844
503.205086647 	 0.757603123676165
543.296581729 	 0.857763051166945
587.2864109732 	 100
END IONS

BEGIN IONS
PEPMASS=350.2496
CHARGE=1
MSLEVEL=2
RT=0
SOURCE_INSTRUMENT=qTOF
FILENAME=CCMSLIB00000005274.ms
IONMODE=Positive
ORGANISM=Natural
NAME=Abiraterone
PI=GNPS
DATACOLLECTOR=GNPS
SMILES=C[C@]12CC[C@@H](CC1=CC[C@H]1[C@@H]3CC=C(c4cccnc4)[C@@]3(C)CC[C@H]21)O
INCHI=InChI=1S/C24H31NO/c1-23-11-9-18(26)14-17(23)5-6-19-21-8-7-20(16-4-3-13-25-15-16)24(21,2)12-10-22(19)23/h3-5,7,13,15,18-19,21-22,26H,6,8-12,14H2,1-2H3/t18-,19-,21-,22-,23-,24+/m0/s1
FORMULA=C24H31NO
PUBMED=N/A
SUBMITUSER=BIOADREM
LIBRARYQUALITY=0
SPECTRUMID=CCMSLIB00000005274
SCANS=145
ID=CCMSLIB00000005274
105.0698762568 	 2.03
106.0651252299 	 2.37
107.085526321 	 2.93
117.0573001978 	 1.15
118.0651252299 	 2.43
119.072950262 	 1.83
120.0807752941 	 2
129.0698762568 	 0.81
130.0651252299 	 1.5
131.085526321 	 0.94
132.0807752941 	 3
133.1011763852 	 0.72
143.072950262 	 8.69
144.0807752941 	 4.72
153.0698762568 	 3.77
156.0807752941 	 49.54
157.0886003262 	 49.99
158.0964253583 	 34.11
168.0807752941 	 2.89
169.0886003262 	 1.9
170.0964253583 	 35.15
172.1120754225 	 9.72
182.0964253583 	 3.53
183.1042503904 	 1.94
184.1120754225 	 3.85
186.1277254867 	 3.57
196.1120754225 	 8.26
197.1199004546 	 13.47
210.1277254867 	 9.03
212.1433755509 	 3.47
224.1433755509 	 1.2
262.1590256151 	 1.1
264.1746756793 	 1.13
274.1590256151 	 1.21
276.1746756793 	 1.5
278.1903257435 	 3.11
279.1981507756 	 10.88
289.1825007114 	 2.75
291.1981507756 	 7.78
292.1695903014 	 1.01
302.1903257435 	 12.58
306.1852403656 	 1.8
306.2216258719 	 1.04
307.1930653977 	 1.44
316.2059758077 	 9.16
320.2008904298 	 21.24
332.2372759361 	 4.84
334.216540494 	 100
350.2478406224 	 507.91
END IONS

BEGIN IONS
PEPMASS=442.2227
CHARGE=1
MSLEVEL=2
RT=0
SOURCE_INSTRUMENT=qTOF
FILENAME=CCMSLIB00000005299.ms
IONMODE=Positive
ORGANISM=Natural
NAME=Deflazacort
PI=GNPS
DATACOLLECTOR=GNPS
SMILES=CC1=N[C@]2(C(=O)COC(=O)C)[C@@H](C[C@H]3[C@@H]4CCC5=CC(=O)C=C[C@]5(C)[C@H]4[C@H](C[C@]23C)O)O1
INCHI=InChI=1S/C25H31NO6/c1-13-26-25(20(30)12-31-14(2)27)21(32-13)10-18-17-6-5-15-9-16(28)7-8-23(15,3)22(17)19(29)11-24(18,25)4/h7-9,17-19,21-22,29H,5-6,10-12H2,1-4H3/t17-,18-,19-,21+,22+,23-,24-,25+/m0/s1
FORMULA=C25H31NO6
PUBMED=N/A
SUBMITUSER=BIOADREM
LIBRARYQUALITY=0
SPECTRUMID=CCMSLIB00000005299
SCANS=146
ID=CCMSLIB00000005299
100.0393044099 	 0.115770678627126
101.0233199947 	 0.931188018111456
105.0698762568 	 0.0981916167965425
107.0491408147 	 0.85760708787773
107.085526321 	 0.0959314517040389
110.060039852 	 0.128829410272701
114.0549544741 	 0.169512381937765
117.0698762568 	 0.0544950916748074
119.085526321 	 0.272977717283483
121.0647908789 	 0.840530284956592
123.0804409431 	 0.104972112074053
124.0366243352 	 1.20918832448939
124.0393044099 	 1.9711150901178
126.0549544741 	 0.0615267164070407
131.085526321 	 0.101205170253214
133.0647908789 	 0.116021808081848
133.1011763852 	 0.0617778458617633
135.0804409431 	 0.399295833008958
138.0522743994 	 0.107734536076002
138.0549544741 	 0.219989402337011
141.163776642 	 0.122048914995191
142.0471890215 	 2.51129454722615
142.0498690962 	 2.51129454722615
145.0647908789 	 0.0781012604187332
145.1011763852 	 0.0738320596884488
147.0804409431 	 2.53289168033229
155.085526321 	 0.0607733280428728
157.1011763852 	 0.242842182716769
158.072615911 	 0.0612755869523181
159.0804409431 	 0.265443833641804
160.0730098415 	 0.37167159298947
161.0960910073 	 0.161476239386641
171.0804409431 	 0.293570332570737
173.0960910073 	 0.217226978335062
184.0604337825 	 0.16423866338859
185.0960910073 	 0.110748089532673
187.1117410715 	 0.0934201571568128
197.0960910073 	 0.0863885324245795
199.1117410715 	 0.0894020858812509
211.1117410715 	 0.14113475355411
213.1273911357 	 0.0961825811587615
215.1066556936 	 0.38799500754644
225.1273911357 	 0.370164816261134
225.1332643746 	 0.94022867848147
237.1273911357 	 0.080863684420682
239.1430411999 	 0.173028194303882
240.150866232 	 0.756401917624516
241.1586912641 	 0.131842963729373
262.1410894067 	 0.343545094060537
265.1586912641 	 0.232294745618419
268.1669102267 	 0.244600088899827
277.1586912641 	 0.0954291927945937
282.1852403656 	 0.0848817556962439
287.1430411999 	 0.809892491480433
294.1852403656 	 0.0924156393379223
295.1692559504 	 0.284278542746
312.1931249772 	 0.716723463778343
312.1958050519 	 1.13209158188955
322.177474913 	 0.0745854480526166
329.059705501 	 2.51129454722615
340.1880395993 	 0.26795512818903
340.190719674 	 0.436714121762627
358.2012843603 	 0.0758410953262297
382.2012843603 	 0.1210443971763
383.2091093924 	 0.54068171601779
385.1883739503 	 0.0552484800389753
400.2118490466 	 1.18784232083797
442.2224137329 	 100
END IONS

BEGIN IONS
PEPMASS=230.055
CHARGE=1
MSLEVEL=2
RT=0
SOURCE_INSTRUMENT=qTOF
FILENAME=CCMSLIB00000005340.ms
IONMODE=Positive
ORGANISM=Natural
NAME=AmilorideHCl
PI=GNPS
DATACOLLECTOR=GNPS
SMILES=c1(c(N)nc(c(Cl)n1)N)C(=NC(=N)N)O
INCHI=InChI=1S/C6H8ClN7O/c7-2-4(9)13-3(8)1(12-2)5(15)14-6(10)11/h(H4,8,9,13)(H4,10,11,14,15)
FORMULA=C6H8ClN7O
PUBMED=N/A
SUBMITUSER=BIOADREM
LIBRARYQUALITY=0
SPECTRUMID=CCMSLIB00000005340
SCANS=150
ID=CCMSLIB00000005340
88.9901017525 	 0.218159398638875
100.9901017525 	 5.43264328567025
107.035222085 	 0.976974698252354
108.0430471171 	 10.5333048777596
116.0010007898 	 58.4904318133314
119.0006664388 	 0.184961229280785
125.0457867713 	 0.113822294942022
143.0118998271 	 18.6312869033222
161.0224645134 	 12.4256005311707
171.0054717785 	 33.1863128690332
171.0068144492 	 24.6330416637025
188.0333635507 	 1.00543027198786
189.0160364648 	 7.66640582390742
213.0286125238 	 1.01254416542174
230.0551616253 	 100
END IONS

BEGIN IONS
PEPMASS=403.2122
CHARGE=1
MSLEVEL=2
RT=0
SOURCE_INSTRUMENT=qTOF
FILENAME=CCMSLIB00000005351.ms
IONMODE=Positive
ORGANISM=Natural
NAME=CortisoneAcetate
PI=GNPS
DATACOLLECTOR=GNPS
SMILES=CC(=O)OCC(=O)[C@]1(CC[C@H]2[C@@H]3CCC4=CC(=O)CC[C@]4(C)[C@H]3C(=O)C[C@]12C)O
INCHI=InChI=1S/C23H30O6/c1-13(24)29-12-19(27)23(28)9-7-17-16-5-4-14-10-15(25)6-8-21(14,2)20(16)18(26)11-22(17,23)3/h10,16-17,20,28H,4-9,11-12H2,1-3H3/t16-,17-,20+,21-,22-,23-/m0/s1
FORMULA=C23H30O6
PUBMED=N/A
SUBMITUSER=BIOADREM
LIBRARYQUALITY=0
SPECTRUMID=CCMSLIB00000005351
SCANS=151
ID=CCMSLIB00000005351
93.0698762568 	 1.15401133230816
101.0233199947 	 1.54884113988058
105.0698762568 	 6.22722801767729
107.085526321 	 5.99310086862558
109.0647908789 	 0.70792291813862
117.0698762568 	 0.710693653630356
119.085526321 	 4.80306997492484
121.0647908789 	 13.3050718313176
121.1011763852 	 3.27778008672402
123.0804409431 	 0.969757422107699
131.085526321 	 0.860313370184116
133.0647908789 	 0.418381059252179
133.1011763852 	 0.904645138051896
135.0804409431 	 3.26392640926534
135.1168264494 	 2.02817837995096
137.0960910073 	 0.556917833838993
139.0753555652 	 1.18587479046313
143.085526321 	 1.0348697061635
145.0647908789 	 0.64835210506629
145.1011763852 	 7.79407893825416
147.0804409431 	 3.85132233351343
147.1168264494 	 0.315863846057936
148.0882659752 	 2.07251014781874
149.0960910073 	 1.90210991507696
155.085526321 	 0.688527769696466
157.1011763852 	 2.08082235429395
159.0804409431 	 0.761952260227477
161.0960910073 	 3.06027735062272
163.1117410715 	 55.4147098347256
164.1195661036 	 1.69707548868847
169.1011763852 	 0.508429962733608
171.0804409431 	 1.33965061025449
171.1168264494 	 0.554147098347256
173.0960910073 	 5.16465095659643
175.1117410715 	 0.52921047892163
181.0859202515 	 0.494576285274926
181.1011763852 	 0.376820026876134
183.1168264494 	 2.02540764445922
185.0960910073 	 0.861698737929984
185.1324765136 	 0.608176440436114
189.0910056294 	 1.9090367538063
189.1273911357 	 0.700996079409279
195.1168264494 	 0.501503124004267
197.1324765136 	 1.58624606901902
199.1117410715 	 0.743942479531192
207.1015703157 	 0.261834503969079
211.1117410715 	 0.289541858886441
211.1481265778 	 0.462712827119959
221.1324765136 	 0.74532784727706
225.1273911357 	 2.02125154122162
237.1273911357 	 0.296468697615782
237.163776642 	 0.213346632863694
239.1430411999 	 2.42854965850685
241.1586912641 	 0.833991383012621
243.137955822 	 1.73309505008104
243.1743413283 	 2.27477383871549
247.1328704441 	 0.64835210506629
247.1481265778 	 0.362966349417453
255.1743413283 	 0.45440062064475
257.1536058862 	 0.606791072690246
258.1614309183 	 1.30917251984539
265.1586912641 	 3.91504924982337
267.1743413283 	 2.20550545142208
269.1536058862 	 0.459942091628223
279.1743413283 	 1.34657744898383
283.1692559504 	 4.2960253799371
284.1770809825 	 1.48372885582478
285.1485205083 	 0.631727692115872
285.1849060146 	 0.964215951124226
289.1586912641 	 0.572156879043542
295.1692559504 	 0.414224956014574
297.1849060146 	 2.01709543798401
298.1927310467 	 1.40337752656443
299.1641705725 	 0.689913137442334
301.1798206367 	 6.31589155341285
307.1692559504 	 1.4740312816037
313.1798206367 	 2.53799371043043
315.1954707009 	 0.288156491140573
325.1798206367 	 6.22307191443969
341.1747352588 	 0.656664311541499
343.190385323 	 20.4965158001191
344.1982103551 	 4.43733289001566
361.2009500093 	 2.02817837995096
385.2009500093 	 3.5437706939307
403.2115146956 	 100
END IONS

BEGIN IONS
PEPMASS=419.1813
CHARGE=1
MSLEVEL=2
RT=0
SOURCE_INSTRUMENT=qTOF
FILENAME=CCMSLIB00000005360.ms
IONMODE=Positive
ORGANISM=Natural
NAME=Nimodipine
PI=GNPS
DATACOLLECTOR=GNPS
SMILES=CC(C)OC(=O)C1=C(C)NC(=C(C1c1cccc(c1)N(=O)=O)C(=O)OCCOC)C
INCHI=InChI=1S/C21H26N2O7/c1-12(2)30-21(25)18-14(4)22-13(3)17(20(24)29-10-9-28-5)19(18)15-7-6-8-16(11-15)23(26)27/h6-8,11-12,19,22H,9-10H2,1-5H3
FORMULA=C21H26N2O7
PUBMED=N/A
SUBMITUSER=BIOADREM
LIBRARYQUALITY=0
SPECTRUMID=CCMSLIB00000005360
SCANS=153
ID=CCMSLIB00000005360
150.0185689678 	 0.608966674658355
150.0549544741 	 0.489091345001199
167.072950262 	 0.407576120834332
168.0807752941 	 8.39127307600096
171.1042503904 	 1.04051786142412
176.034219032 	 1.38575881083673
178.0498690962 	 0.302085830736035
180.0807752941 	 0.417166147206905
181.0886003262 	 1.256293454807
182.0964253583 	 3.5962598897147
183.1042503904 	 6.69383840805562
196.0756899162 	 0.263725725245744
198.0913399804 	 1.46247902181731
199.0991650125 	 0.575401582354351
207.0678648841 	 0.292495804363462
208.0756899162 	 1.5344042196116
209.0835149483 	 4.63198273795253
210.0913399804 	 9.4605610165428
211.0991650125 	 3.78326540397986
212.0706045383 	 3.16470870294893
214.0862546025 	 0.47470630544234
226.0862546025 	 12.4718292975306
227.0940796346 	 0.647326780148645
228.0655191604 	 0.47470630544234
236.0706045383 	 1.1172380724047
237.0784295704 	 1.34739870534644
239.0815035756 	 0.939822584512107
240.0655191604 	 2.05706065691681
241.0733441925 	 0.19180052745145
242.0811692246 	 2.62287221289859
253.0733441925 	 10.1894030208583
254.0811692246 	 22.3879165667706
255.0889942567 	 53.3876768161112
259.0839088788 	 0.15344042196116
266.0685931656 	 0.791177175737233
267.0764181977 	 1.73099976024934
270.0760838467 	 1.12203308559099
273.086982884 	 0.829537281227523
283.0713328198 	 10.4243586669863
284.0791578519 	 15.1282666027332
287.0788235009 	 2.5845121074083
301.0818975061 	 100
343.1288476987 	 95.9002637257253
359.1237623208 	 15.0899064972429
377.1343270071 	 0.158235435147447
387.1550624492 	 0.263725725245744
419.1812771997 	 0.110285303284584
END IONS

BEGIN IONS
PEPMASS=254.0597
CHARGE=1
MSLEVEL=2
RT=0
SOURCE_INSTRUMENT=qTOF
FILENAME=CCMSLIB00000005386.ms
IONMODE=Positive
ORGANISM=Natural
NAME=Sulfamethoxazole
PI=GNPS
DATACOLLECTOR=GNPS
SMILES=Cc1cc(no1)NS(=O)(=O)c1ccc(cc1)N
INCHI=InChI=1S/C10H11N3O3S/c1-7-6-10(12-16-7)13-17(14,15)9-4-2-8(11)3-5-9/h2-6H,11H2,1H3,(H,12,13)
FORMULA=C10H11N3O3S
PUBMED=N/A
SUBMITUSER=BIOADREM
LIBRARYQUALITY=0
SPECTRUMID=CCMSLIB00000005386
SCANS=155
ID=CCMSLIB00000005386
79.0389700589 	 0.358490963918939
92.0494751657 	 4.3567195968031
93.0573001978 	 2.92275574112735
94.0651252299 	 0.248834904367263
99.0552888251 	 2.4335210138968
101.0055614405 	 0.383796208430864
105.0447241388 	 0.160266548575526
105.0546201231 	 0.339512030534995
106.0525491709 	 0.0822420446637566
107.060374203 	 4.20067058897957
108.0443897878 	 74.8065203180026
118.0525491709 	 0.36481727504692
119.060374203 	 0.917315113557285
130.0559199893 	 0.36481727504692
131.060374203 	 0.518757512494464
132.0655191604 	 0.742287172349803
132.0681992351 	 0.183463022711457
133.0634482082 	 0.107547289175682
133.0760242672 	 0.231964741359313
143.060374203 	 0.274140148879189
145.0760242672 	 0.0970034372957129
146.0712732403 	 4.2554986187554
147.0790982724 	 9.07614769827713
148.0664846756 	 0.377469897302883
149.0583628303 	 0.11809114105565
156.0113750999 	 88.7771240589612
159.0552888251 	 0.0590455705278252
159.0790982724 	 0.0801332742877628
160.0869233045 	 10.4025642647772
161.0709388893 	 0.1012209780477
163.0865889535 	 0.202441956095401
172.0869233045 	 0.189789333839438
173.0583628303 	 0.191898104215432
174.0219397862 	 0.162375318951519
176.0276938661 	 0.151831467071551
176.0290365368 	 0.225638430231332
177.0117094509 	 0.21298580797537
188.0818379266 	 11.9377490985007
190.0974879908 	 5.54606608886358
194.0382585524 	 1.70599523417895
194.0396012231 	 0.913097572805297
236.0488232387 	 1.81776006410662
254.059387925 	 100
END IONS

BEGIN IONS
PEPMASS=436.0594
CHARGE=1
MSLEVEL=2
RT=0
SOURCE_INSTRUMENT=qTOF
FILENAME=CCMSLIB00000005428.ms
IONMODE=Positive
ORGANISM=Natural
NAME=Aztreonam
PI=GNPS
DATACOLLECTOR=GNPS
SMILES=C[C@H]1[C@@H](C(=O)N1S(=O)(=O)O)N=C(/C(=N\OC(C)(C)C(=O)O)/c1csc(=N)[nH]1)O
INCHI=InChI=1S/C13H17N5O8S2/c1-5-7(10(20)18(5)28(23,24)25)16-9(19)8(6-4-27-12(14)15-6)17-26-13(2,3)11(21)22/h4-5,7H,1-3H3,(H2,14,15)(H,16,19)(H,21,22)(H,23,24,25)/b17-8-/t5-,7-/m0/s1
FORMULA=C13H17N5O8S2
PUBMED=N/A
SUBMITUSER=BIOADREM
LIBRARYQUALITY=0
SPECTRUMID=CCMSLIB00000005428
SCANS=158
ID=CCMSLIB00000005428
100.0089697967 	 1.67295472597299
111.0011447646 	 1.6977760127085
113.0167948288 	 2.41759332803813
124.0089697967 	 1.29567116759333
124.0505377982 	 1.76231135822081
125.0042187698 	 3.9912629070691
126.0120438019 	 52.0949166004766
127.019868834 	 38.5375297855441
135.9963937377 	 0.665210484511517
138.0120438019 	 3.29626687847498
138.9960593867 	 2.34809372517871
139.019868834 	 1.56374106433678
140.0276938661 	 0.620532168387609
142.006958424 	 10.9561159650516
152.0276938661 	 2.03534551231136
153.0229428392 	 7.48610007942812
154.0307678713 	 0.953137410643368
156.0226084882 	 4.5472597299444
166.0307678713 	 13.1701747418586
170.0018730461 	 0.367355043685465
171.0335075255 	 4.5373312152502
181.0165200573 	 0.248212867355044
181.0178574613 	 5.33657664813344
182.0243450894 	 1.06731532962669
182.0256824934 	 6.93506751389992
183.0321701215 	 0.575853852263701
183.0335075255 	 20.3385623510723
199.0270847436 	 0.233320095313741
199.0284221476 	 4.527402700556
209.0114346794 	 0.79428117553614
209.0127720834 	 26.1467434471803
209.0478201857 	 0.560961080222399
210.0192597115 	 5.14793486894361
210.0205971155 	 41.928117553614
227.0219993657 	 1.22120730738682
227.0233367697 	 5.76846703733121
251.058384872 	 0.104249404289118
269.0689495583 	 0.531175536139794
269.0702869623 	 3.36576648133439
285.0652015844 	 2.10484511517077
313.0601162065 	 100
328.1074007501 	 0.39714058776807
356.1023153722 	 22.6717633042097
436.0591299285 	 3.44023034154091
END IONS

BEGIN IONS
PEPMASS=349.176
CHARGE=1
MSLEVEL=2
RT=0
SOURCE_INSTRUMENT=qTOF
FILENAME=CCMSLIB00000005438.ms
IONMODE=Positive
ORGANISM=Natural
NAME=EnalaprilatDihydrate
PI=GNPS
DATACOLLECTOR=GNPS
SMILES=C[C@@H](C(=O)N1CCC[C@H]1C(=O)O)N[C@@H](CCc1ccccc1)C(=O)O
INCHI=InChI=1S/C18H24N2O5/c1-12(16(21)20-11-5-8-15(20)18(24)25)19-14(17(22)23)10-9-13-6-3-2-4-7-13/h2-4,6-7,12,14-15,19H,5,8-11H2,1H3,(H,22,23)(H,24,25)/t12-,14-,15-/m0/s1
FORMULA=C18H24N2O5
PUBMED=N/A
SUBMITUSER=BIOADREM
LIBRARYQUALITY=0
SPECTRUMID=CCMSLIB00000005438
SCANS=161
ID=CCMSLIB00000005438
91.0542261926 	 0.772474170394927
102.0549544741 	 21.9801087901123
103.0542261926 	 0.222086323988542
105.0698762568 	 0.476359071743539
115.0542261926 	 0.54716920402974
116.0706045383 	 3.01908654929351
117.0698762568 	 40.8445717596318
128.0620512247 	 0.215649039235251
134.0964253583 	 11.9830055682513
142.0862546025 	 0.218867681611896
143.085526321 	 0.228523608741833
144.0807752941 	 0.402330297080691
160.1120754225 	 25.124722392095
178.1226401088 	 1.43551449998391
188.1069900446 	 0.0643728475329106
206.1175547309 	 98.5162058643664
232.1332047951 	 0.643728475329106
303.1703185829 	 28.6008561588722
349.1757978913 	 100
END IONS

BEGIN IONS
PEPMASS=854.3382
CHARGE=1
MSLEVEL=2
RT=0
SOURCE_INSTRUMENT=qTOF
FILENAME=CCMSLIB00000005449.ms
IONMODE=Positive
ORGANISM=Natural
NAME=Paclitaxel
PI=GNPS
DATACOLLECTOR=GNPS
SMILES=CC1=C2C(C(=O)C3(C)C(CC4C(CO4)(C3C(C(CC1OC(=O)C(C(c1ccccc1)N=C(c1ccccc1)O)O)(C2(C)C)O)OC(=O)c1ccccc1)OC(=O)C)O)OC(=O)C
INCHI=InChI=1S/C47H51NO14/c1-25-31(60-43(56)36(52)35(28-16-10-7-11-17-28)48-41(54)29-18-12-8-13-19-29)23-47(57)40(61-42(55)30-20-14-9-15-21-30)38-45(6,32(51)22-33-46(38,24-58-33)62-27(3)50)39(53)37(59-26(2)49)34(25)44(47,4)5/h7-21,31-33,35-38,40,51-52,57H,22-24H2,1-6H3,(H,48,54)
FORMULA=C47H51NO14
PUBMED=N/A
SUBMITUSER=BIOADREM
LIBRARYQUALITY=0
SPECTRUMID=CCMSLIB00000005449
SCANS=163
ID=CCMSLIB00000005449
105.0334907505 	 47.171971605221
107.085526321 	 1.28616136172811
118.0651252299 	 2.21357148309289
119.085526321 	 1.3663079154263
121.0647908789 	 3.05320204564537
121.1011763852 	 0.30150370200748
122.060039852 	 25.6239981680788
123.0804409431 	 0.706052973055492
133.0647908789 	 3.53026486527746
133.1011763852 	 5.44996565147699
135.0804409431 	 1.31669338218457
136.0756899162 	 1.58384856117854
149.059705501 	 2.21357148309289
149.0960910073 	 2.55324021067094
151.0753555652 	 1.49225249980917
159.0804409431 	 1.88535226318602
161.0960910073 	 2.43111212884513
169.1011763852 	 0.900694603465384
173.0960910073 	 0.782383024196626
177.0546201231 	 1.75559117624609
177.0910056294 	 1.63727959697733
183.1168264494 	 0.706052973055492
185.0960910073 	 0.809098542096023
189.0546201231 	 0.339668727578048
189.0910056294 	 0.343485230135104
195.1168264494 	 1.18311579268758
197.0960910073 	 1.14113426455996
199.1117410715 	 0.736584993511946
207.0651848094 	 0.396916265933898
209.1324765136 	 1.41210594611098
211.1117410715 	 1.07243721853294
211.1481265778 	 0.862529577894817
213.1273911357 	 0.736584993511946
221.1324765136 	 1.46935348446683
223.1117410715 	 1.33959239752691
229.1223057578 	 1.00755667506297
235.1481265778 	 1.25562934127166
237.1273911357 	 2.93107396381956
239.1430411999 	 2.61430425158385
240.1019046667 	 14.8003969162659
241.1223057578 	 1.20983131058698
249.1273911357 	 1.03808869551943
251.1066556936 	 0.77856652163957
253.1586912641 	 2.45401114418747
263.1430411999 	 4.83932524234791
265.1223057578 	 1.20219830547286
267.137955822 	 3.42721929623693
268.0968192888 	 12.8577971147241
269.0808348736 	 0.446530799175635
269.1172203799 	 1.07625372108999
281.1536058862 	 6.48423784443936
285.1485205083 	 0.412182276162125
286.1073839751 	 85.6766659033661
291.137955822 	 4.40042744828639
299.1641705725 	 3.27455919395466
309.1485205083 	 12.514311884589
327.1590851946 	 18.03679108465
329.1383497525 	 0.450347301732692
341.1747352588 	 0.935043126478895
341.1774153335 	 0.442714296618579
345.1696498809 	 4.92328829860316
351.1617652693 	 0.320586214792764
369.1696498809 	 1.61056407907793
369.1723299556 	 2.77841386153729
372.1230340393 	 0.702236470498435
387.1802145672 	 4.3202808945882
387.1828946419 	 6.44988932142585
390.1335987256 	 3.98442866956721
405.1907792535 	 2.15250744217999
405.1934593282 	 3.46920082436455
431.1852999451 	 1.03808869551943
431.1879800198 	 0.5114113426456
447.2040240145 	 1.60293107396382
449.1958646314 	 3.88901610564079
449.1985447061 	 4.25921685367529
465.2145887008 	 1.03808869551943
473.1985447061 	 0.396916265933898
491.2091093924 	 2.45401114418747
509.2196740787 	 26.5094267613159
551.230238765 	 5.05304938554309
569.2408034513 	 7.94214182123502
655.2623267544 	 0.854896572780704
732.3014519149 	 0.79001602931074
776.3065372928 	 3.59132890619037
794.3171019791 	 0.965575146935348
854.3382313517 	 100
END IONS

BEGIN IONS
PEPMASS=296.0236
CHARGE=1
MSLEVEL=2
RT=0
SOURCE_INSTRUMENT=qTOF
FILENAME=CCMSLIB00000005461.ms
IONMODE=Positive
ORGANISM=Natural
NAME=DIclofenac
PI=GNPS
DATACOLLECTOR=GNPS
SMILES=c1ccc(c(c1)CC(=O)O)Nc1c(cccc1Cl)Cl
INCHI=InChI=1S/C14H11Cl2NO2/c15-10-5-3-6-11(16)14(10)17-12-7-2-1-4-9(12)8-13(18)19/h1-7,17H,8H2,(H,18,19)
FORMULA=C14H11Cl2NO2
PUBMED=N/A
SUBMITUSER=BIOADREM
LIBRARYQUALITY=0
SPECTRUMID=CCMSLIB00000005461
SCANS=166
ID=CCMSLIB00000005461
180.0807752941 	 2.83993623427998
214.041802972 	 63.9015173879672
215.0496280041 	 82.8363936942788
250.0184807141 	 100
278.0133953362 	 32.4024325441341
296.0239600225 	 16.5967999055323
END IONS

BEGIN IONS
PEPMASS=243.101
CHARGE=1
MSLEVEL=2
RT=0
SOURCE_INSTRUMENT=qTOF
FILENAME=CCMSLIB00000005468.ms
IONMODE=Positive
ORGANISM=Natural
NAME=FenoprpfenCa
PI=GNPS
DATACOLLECTOR=GNPS
SMILES=CC(c1cccc(c1)Oc1ccccc1)C(=O)O
INCHI=InChI=1S/C15H14O3/c1-11(15(16)17)12-6-5-9-14(10-12)18-13-7-3-2-4-8-13/h2-11H,1H3,(H,16,17)
FORMULA=C15H14O3
PUBMED=N/A
SUBMITUSER=BIOADREM
LIBRARYQUALITY=0
SPECTRUMID=CCMSLIB00000005468
SCANS=167
ID=CCMSLIB00000005468
101.0385761284 	 0.306345733041575
102.0464011605 	 0.455142231947484
103.0542261926 	 48.3150984682713
104.0620512247 	 100
105.0334907505 	 0.446389496717724
115.0542261926 	 3.06345733041575
117.0698762568 	 0.901531728665208
119.0491408147 	 22.4420131291028
121.0647908789 	 1.7855579868709
127.0542261926 	 1.05908096280088
128.0620512247 	 4.95404814004376
131.0491408147 	 3.86870897155361
132.0569658468 	 0.420131291028446
141.0698762568 	 11.0809628008753
145.0647908789 	 0.192560175054705
151.0542261926 	 1.73304157549234
152.0620512247 	 4.63894967177243
153.0698762568 	 9.58424507658643
154.0777012889 	 13.5754923413567
164.0620512247 	 0.481400437636762
167.085526321 	 4.35010940919037
168.0569658468 	 0.402625820568928
169.1011763852 	 5.18161925601751
179.085526321 	 12.7702407002188
181.0647908789 	 31.4835886214442
182.072615911 	 8.48140043763676
197.0960910073 	 87.527352297593
243.1015703157 	 0
END IONS

BEGIN IONS
PEPMASS=242.1036
CHARGE=1
MSLEVEL=2
RT=0
SOURCE_INSTRUMENT=qTOF
FILENAME=CCMSLIB00000005476.ms
IONMODE=Positive
ORGANISM=Natural
NAME=Methocarbamol
PI=GNPS
DATACOLLECTOR=GNPS
SMILES=COc1ccccc1OCC(COC(=N)O)O
INCHI=InChI=1S/C11H15NO5/c1-15-9-4-2-3-5-10(9)16-6-8(13)7-17-11(12)14/h2-5,8,13H,6-7H2,1H3,(H2,12,14)
FORMULA=C11H15NO5
PUBMED=N/A
SUBMITUSER=BIOADREM
LIBRARYQUALITY=0
SPECTRUMID=CCMSLIB00000005476
SCANS=169
ID=CCMSLIB00000005476
95.0491408147 	 0.9475
101.0233199947 	 0.0575
103.0542261926 	 25.24
105.0698762568 	 15.8775
107.0491408147 	 5.5575
108.0569658468 	 1.885
109.0284053726 	 0.6675
109.0647908789 	 1.64
110.0362304047 	 14.815
117.0698762568 	 0.32
118.0498690962 	 100
120.0569658468 	 6.0025
121.0284053726 	 18.3275
121.0647908789 	 6.2425
122.0362304047 	 38.4425
123.0440554368 	 6.065
123.0804409431 	 0.555
125.059705501 	 26.38
131.0491408147 	 3.6825
132.0569658468 	 0.6975
135.0804409431 	 14.895
137.059705501 	 7.5075
145.0647908789 	 3.4275
147.0440554368 	 1.9625
148.0518804689 	 6.395
149.059705501 	 0.12
151.0753555652 	 18.51
163.0753555652 	 52.8775
181.0859202515 	 6.9125
199.0964849378 	 13.795
224.0917339109 	 5.0425
242.1022985972 	 1.3825
END IONS

BEGIN IONS
PEPMASS=377.1463
CHARGE=1
MSLEVEL=2
RT=0
SOURCE_INSTRUMENT=qTOF
FILENAME=CCMSLIB00000005495.ms
IONMODE=Positive
ORGANISM=Natural
NAME=Riboflavin
PI=GNPS
DATACOLLECTOR=GNPS
SMILES=Cc1cc2c(cc1C)n(C[C@@H]([C@@H]([C@@H](CO)O)O)O)c1c(c(nc(=O)n1)O)n2
INCHI=InChI=1S/C17H20N4O6/c1-7-3-9-10(4-8(7)2)21(5-11(23)14(25)12(24)6-22)15-13(18-9)16(26)20-17(27)19-15/h3-4,11-12,14,22-25H,5-6H2,1-2H3,(H,20,26,27)/t11-,12+,14-/m0/s1
FORMULA=C17H20N4O6
PUBMED=N/A
SUBMITUSER=BIOADREM
LIBRARYQUALITY=0
SPECTRUMID=CCMSLIB00000005495
SCANS=172
ID=CCMSLIB00000005495
103.0542261926 	 0.426409259172485
118.0651252299 	 0.304578042266061
130.0651252299 	 0.349093294597254
145.0760242672 	 1.84386860971838
156.0681992351 	 0.522468487887165
157.0760242672 	 0.632585164706434
170.0712732403 	 1.60957780797526
171.0916743314 	 0.693500773159646
172.0869233045 	 32.2384143198538
173.0709388893 	 0.677100417037627
184.0869233045 	 0.571669556253221
197.0920682619 	 0.838761070240382
198.0661878624 	 21.2759477062931
200.0818379266 	 7.38953188697812
201.0896629587 	 0.754416381612858
213.0896629587 	 0.522468487887165
214.0974879908 	 0.838761070240382
215.0001792494 	 1.06836605594864
215.1026329482 	 1.06836605594864
216.0767525487 	 2.5725130031395
225.0770868997 	 0.262405697952298
226.0611024845 	 0.634928072723865
229.9998448984 	 1.25345578932571
243.087651586 	 60.5946300548241
244.0842432298 	 2.63811442762757
245.0821722776 	 1.39403027037159
245.0920682619 	 0.873904690501851
248.0831805973 	 1.07539478000094
253.1209630871 	 0.571669556253221
254.0924026129 	 0.522468487887165
255.0849715113 	 0.693500773159646
256.9981678767 	 1.03322243568718
260.1002872245 	 0.887962138606438
262.0849119318 	 2.11798884775784
262.9974991747 	 2.01724380300829
286.0948079161 	 1.25111288130828
297.0982162723 	 0.571669556253221
298.1186173634 	 0.522468487887165
306.0846371603 	 1.3729440982147
313.0818975061 	 0.585727004357809
316.0815631551 	 0.68178623307249
316.1291820497 	 0.81533199006607
318.0846371603 	 0.784874185839464
319.0825662081 	 0.599784452462396
321.0829601386 	 0.944191931024788
333.0016358124 	 1.21362635302938
341.1244310228 	 0.344407478562392
342.0846371603 	 1.38231573028443
357.1193456449 	 2.01724380300829
359.1349957091 	 2.9403495618762
375.1299103312 	 18.8112084719554
377.1455603954 	 100
END IONS

BEGIN IONS
PEPMASS=367.2275
CHARGE=1
MSLEVEL=2
RT=0
SOURCE_INSTRUMENT=qTOF
FILENAME=CCMSLIB00000005507.ms
IONMODE=Positive
ORGANISM=Natural
NAME=Drospirenone
PI=GNPS
DATACOLLECTOR=GNPS
SMILES=C[C@@]12CCC(=O)C=C2[C@@H]2C[C@@H]2[C@@H]2[C@@H]1CC[C@@]1(C)[C@H]2[C@@H]2C[C@@H]2[C@]21CCC(=O)O2
INCHI=InChI=1S/C24H30O3/c1-22-6-3-12(25)9-17(22)13-10-14(13)20-16(22)4-7-23(2)21(20)15-11-18(15)24(23)8-5-19(26)27-24/h9,13-16,18,20-21H,3-8,10-11H2,1-2H3/t13-,14+,15-,16+,18+,20-,21+,22-,23+,24+/m1/s1
FORMULA=C24H30O3
PUBMED=N/A
SUBMITUSER=BIOADREM
LIBRARYQUALITY=0
SPECTRUMID=CCMSLIB00000005507
SCANS=174
ID=CCMSLIB00000005507
105.0698762568 	 18.3148135972122
107.085526321 	 14.3347140947246
109.0647908789 	 6.05781664365398
111.0440554368 	 10.3063975277796
115.0542261926 	 0.532579393779999
116.0620512247 	 0.578604773489381
117.0698762568 	 7.45282398579788
119.085526321 	 14.9560567208013
121.0647908789 	 7.38597760098188
121.1011763852 	 0.943520284042343
123.0804409431 	 10.4291318736713
125.059705501 	 0.522716812413702
128.0620512247 	 0.976395555263331
129.0698762568 	 7.45939904004208
131.085526321 	 16.7050211497578
133.0647908789 	 0.899686589081027
133.1011763852 	 7.68404672671883
135.0804409431 	 10.3557104346111
135.1168264494 	 2.08319635303658
141.0698762568 	 1.32706511495387
142.0777012889 	 1.65362614241568
143.085526321 	 14.1966379555965
145.1011763852 	 9.6905341135731
147.0804409431 	 7.40241523659237
147.1168264494 	 3.27985622548053
149.0960910073 	 11.4997698731015
151.0753555652 	 2.49632892804699
153.0910056294 	 7.04188309553554
154.0777012889 	 0.483266486948517
155.085526321 	 2.96096609463695
156.0933513531 	 1.1517303351086
157.1011763852 	 12.3654853485875
159.0804409431 	 9.29931838604335
159.1168264494 	 9.03522037390142
161.0960910073 	 3.90996559054946
165.0698762568 	 0.482170644574484
167.085526321 	 0.93475354505008
168.0933513531 	 0.778048085563373
169.1011763852 	 6.74052644267648
171.1168264494 	 13.7539176364872
173.0960910073 	 4.26721020448419
173.1324765136 	 2.96096609463695
175.1117410715 	 2.57632542135139
177.0910056294 	 10.7052841519276
179.085526321 	 0.447103688605431
179.1066556936 	 3.78065619041357
180.0933513531 	 0.489841541192715
181.1011763852 	 1.03118767396498
182.1090014173 	 2.74727683170053
183.1168264494 	 4.48309115216867
185.0960910073 	 3.73463081070419
185.1324765136 	 5.88467354855678
187.1117410715 	 3.03986674556732
189.1273911357 	 3.4453284239595
193.1011763852 	 0.719968439739628
195.1168264494 	 5.86056501632805
197.1324765136 	 10.2066758717426
199.1117410715 	 4.15872180945493
201.1273911357 	 2.71111403335744
209.1324765136 	 2.42619501610888
211.1117410715 	 0.590659039603743
211.1481265778 	 3.94174501939641
213.1273911357 	 2.87329870471431
215.1430411999 	 2.43496175510115
217.1223057578 	 0.659697109167817
219.137955822 	 4.01078308896048
221.1324765136 	 4.20145966204221
223.1481265778 	 2.8261774826309
231.137955822 	 6.31643544392575
239.1430411999 	 6.00412036732636
245.1536058862 	 2.15771363447082
257.1536058862 	 9.65108378810792
289.1950767704 	 2.49961645516909
307.2056414567 	 4.7570517456769
321.2212915209 	 2.98397878449164
331.2056414567 	 4.27488110110242
349.216206143 	 10.9584237403292
367.2267708293 	 100
END IONS

BEGIN IONS
PEPMASS=825.4069
CHARGE=1
MSLEVEL=2
RT=0
SOURCE_INSTRUMENT=qTOF
FILENAME=CCMSLIB00000005529.ms
IONMODE=Positive
ORGANISM=Natural
NAME=Vincristine
PI=GNPS
DATACOLLECTOR=GNPS
SMILES=CC[C@@]1(C[C@@H]2C[C@](c3cc4c(cc3OC)N(C=O)[C@@H]3[C@@]54CCN4CC=C[C@](CC)([C@@H]54)[C@H]([C@@]3(C(=O)OC)O)OC(=O)C)(c3c(CCN(C2)C1)c1ccccc1[nH]3)C(=O)OC)O
INCHI=InChI=1S/C46H56N4O10/c1-7-42(55)22-28-23-45(40(53)58-5,36-30(14-18-48(24-28)25-42)29-12-9-10-13-33(29)47-36)32-20-31-34(21-35(32)57-4)50(26-51)38-44(31)16-19-49-17-11-15-43(8-2,37(44)49)39(60-27(3)52)46(38,56)41(54)59-6/h9-13,15,20-21,26,28,37-39,47,55-56H,7-8,14,16-19,22-25H2,1-6H3/t28-,37+,38-,39-,42+,43-,44-,45+,46+/m1/s1
FORMULA=C46H56N4O10
PUBMED=N/A
SUBMITUSER=BIOADREM
LIBRARYQUALITY=0
SPECTRUMID=CCMSLIB00000005529
SCANS=176
ID=CCMSLIB00000005529
122.0964253583 	 8.72
124.1120754225 	 2.8
126.1277254867 	 1.15
136.1120754225 	 1.51
138.1277254867 	 3.44
140.1069900446 	 1.88
154.1226401088 	 1.33
156.138290173 	 1.08
224.1281194172 	 8.67
353.1859686471 	 3.43
520.2594679412 	 1.61
538.2700326275 	 1.21
556.2805973138 	 1.07
598.2911620001 	 4.41
616.3017266864 	 0.94
634.3122913727 	 1.48
659.3591819858 	 1.09
677.3697466721 	 1.43
687.3540966079 	 5.2
705.3646612942 	 24.59
715.34901123 	 1.34
723.3752259805 	 13.73
733.3595759163 	 4.91
747.3752259805 	 8.84
765.3857906668 	 100
783.3963553531 	 8.77
807.3963553531 	 60.54
825.4069200394 	 336.77
END IONS

BEGIN IONS
PEPMASS=589.1916
CHARGE=1
MSLEVEL=2
RT=0
SOURCE_INSTRUMENT=qTOF
FILENAME=CCMSLIB00000005536.ms
IONMODE=Positive
ORGANISM=Natural
NAME=Etoposide
PI=GNPS
DATACOLLECTOR=GNPS
SMILES=CC1OCC2C(C(C(C(O2)OC2c3cc4c(cc3[C@@H](c3cc(c(c(c3)OC)O)OC)[C@@H]3C2COC3=O)OCO4)O)O)O1
INCHI=InChI=1S/C29H32O13/c1-11-36-9-20-27(40-11)24(31)25(32)29(41-20)42-26-14-7-17-16(38-10-39-17)6-13(14)21(22-15(26)8-37-28(22)33)12-4-18(34-2)23(30)19(5-12)35-3/h4-7,11,15,20-22,24-27,29-32H,8-10H2,1-3H3/t11?,15?,20?,21-,22+,24?,25?,26?,27?,29?/m1/s1
FORMULA=C29H32O13
PUBMED=N/A
SUBMITUSER=BIOADREM
LIBRARYQUALITY=0
SPECTRUMID=CCMSLIB00000005536
SCANS=177
ID=CCMSLIB00000005536
109.0284053726 	 0.596580574754456
111.0440554368 	 0.221898872317206
115.0542261926 	 1.38959621680611
127.0389700589 	 1.03674063295744
129.0698762568 	 0.345580210985813
135.0440554368 	 0.28010185522008
143.0491408147 	 0.505638413968716
145.0495347452 	 0.847580938523099
171.0651848094 	 0.28373954165151
173.059705501 	 2.19352491815206
185.059705501 	 56.3077482720989
199.0389700589 	 2.13895962168061
217.0495347452 	 1.54237904692615
229.0495347452 	 100
247.0600994315 	 7.41360494725355
299.0913995599 	 0.349217897417243
383.1125289325 	 2.76100400145507
589.1915671145 	 1.66969807202619
END IONS

BEGIN IONS
PEPMASS=429.2408
CHARGE=1
MSLEVEL=2
RT=0
SOURCE_INSTRUMENT=qTOF
FILENAME=CCMSLIB00000005546.ms
IONMODE=Positive
ORGANISM=Natural
NAME=Irbesartan
PI=GNPS
DATACOLLECTOR=GNPS
SMILES=CCCCC1=NC2(CCCC2)C(=O)N1Cc1ccc(cc1)c1ccccc1c1n[nH]nn1
INCHI=InChI=1S/C25H28N6O/c1-2-3-10-22-26-25(15-6-7-16-25)24(32)31(22)17-18-11-13-19(14-12-18)20-8-4-5-9-21(20)23-27-29-30-28-23/h4-5,8-9,11-14H,2-3,6-7,10,15-17H2,1H3,(H,27,28,29,30)
FORMULA=C25H28N6O
PUBMED=N/A
SUBMITUSER=BIOADREM
LIBRARYQUALITY=0
SPECTRUMID=CCMSLIB00000005546
SCANS=180
ID=CCMSLIB00000005546
98.0586971813 	 0.74
113.0821722776 	 0.74
129.0447241388 	 0.24
140.0494751657 	 0.295
151.0542261926 	 0.2475
152.0620512247 	 0.5675
153.0698762568 	 1.7475
163.0542261926 	 0.2075
165.0698762568 	 0.4875
167.072950262 	 0.485
167.1542745882 	 0.9875
177.0573001978 	 0.085
178.0651252299 	 1.5025
179.072950262 	 1.81
180.0807752941 	 12.515
181.0886003262 	 0.67
183.0665222134 	 1.2725
190.0651252299 	 5.4025
191.072950262 	 0.5175
192.0807752941 	 2.195
194.0586971813 	 0.195
195.1478465396 	 3.44
195.1491892103 	 14.08
196.0743472455 	 0.23
196.0869233045 	 0.7575
205.0760242672 	 2.7625
206.0838492993 	 11.005
207.0916743314 	 100
235.0978223418 	 1.0375
247.0865889535 	 0.7225
313.0634482082 	 0.6875
343.0978223418 	 0.6525
386.2213458337 	 1.67
386.2226885044 	 2.845
387.2291708658 	 0.5325
400.2257625096 	 0.0625
401.2335875417 	 1.995
429.2397355521 	 51.325
END IONS

BEGIN IONS
PEPMASS=382.0829
CHARGE=1
MSLEVEL=2
RT=0
SOURCE_INSTRUMENT=qTOF
FILENAME=CCMSLIB00000005556.ms
IONMODE=Positive
ORGANISM=Natural
NAME=Celecoxib
PI=GNPS
DATACOLLECTOR=GNPS
SMILES=Cc1ccc(cc1)c1cc(C(F)(F)F)nn1c1ccc(cc1)S(=O)(=O)N
INCHI=InChI=1S/C17H14F3N3O2S/c1-11-2-4-12(5-3-11)15-10-16(17(18,19)20)22-23(15)13-6-8-14(9-7-13)26(21,24)25/h2-10H,1H3,(H2,21,24,25)
FORMULA=C17H14F3N3O2S
PUBMED=N/A
SUBMITUSER=BIOADREM
LIBRARYQUALITY=0
SPECTRUMID=CCMSLIB00000005556
SCANS=182
ID=CCMSLIB00000005556
115.0542261926 	 2.38886227729963
116.0620512247 	 1.18670519338041
117.0698762568 	 1.59154472549716
118.0651252299 	 1.74451844183136
125.0197324642 	 0.352303104284809
130.0651252299 	 0.585626651420801
131.072950262 	 2.00720058099108
140.0494751657 	 0.302857054560626
153.0510325926 	 0.466647094271984
156.0118272104 	 0.631982323037224
160.0557033978 	 0.45892114900258
165.0384565336 	 3.92478019685709
166.0462815657 	 0.383206885362424
180.0619316299 	 2.1988040236723
184.0393044099 	 0.387842452524066
185.0446847657 	 0.509912387780645
191.072950262 	 0.295131109291222
192.0807752941 	 0.367754994823617
193.0886003262 	 0.475918228595269
200.068159862 	 0.350757915230929
206.0964253583 	 0.950291268136657
207.1042503904 	 4.9183367585024
208.1120754225 	 0.896209651250831
216.0807752941 	 0.360029049554213
218.0838492993 	 0.509912387780645
221.017937683 	 0.68606393992305
231.0916743314 	 1.92685075018929
232.0994993635 	 2.22507223758827
233.1073243956 	 6.13594573296043
235.0791784941 	 0.469737472379746
236.0870035262 	 0.738600367754995
240.0619316299 	 0.446559636571535
242.0838492993 	 0.384752074416305
247.0666024351 	 1.10481017352473
254.0775816941 	 0.389387641577947
255.0739735214 	 0.394023208739589
261.0822524993 	 3.74244788849916
261.0833953535 	 0.962652780567702
262.0862546025 	 0.797317551802463
262.0900775314 	 3.33451797827464
263.0940796346 	 1.43084506389357
263.0979025635 	 1.90830848154272
264.1019046667 	 0.4172010445478
267.0728306672 	 6.48515845913747
268.0768327704 	 0.798862740856344
269.0868857667 	 0.287405164021818
274.0963859852 	 0.356938671446451
275.0790588993 	 2.30387687933619
280.0806556993 	 1.5405534867191
281.0884807314 	 16.2708407373642
281.0896235856 	 1.94075745167421
282.0963057635 	 26.0534326374832
283.1003078667 	 2.72725868009951
283.1041307956 	 3.30979495341255
284.1081328988 	 0.573265138989755
286.0712338672 	 0.579445895205278
287.0790588993 	 9.01617812939413
288.0868839314 	 0.914751919897399
300.0868839314 	 8.86011403495218
301.0947089635 	 16.4021818069441
302.1025339956 	 13.8943399724956
303.1103590277 	 8.54025990079886
314.0861350077 	 3.61728757513482
316.0817985535 	 0.361574238608094
317.0896235856 	 0.622711188713939
332.0789411398 	 3.13673377937791
334.0923632398 	 2.68399338659085
335.0660307298 	 0.441924069409892
336.095437245 	 0.472827850487507
342.070701535 	 3.21862879923359
347.0534546708 	 0.579445895205278
362.0769297671 	 46.3556716164223
364.0725933129 	 1.39839609376207
382.0831579992 	 100
END IONS

BEGIN IONS
PEPMASS=721.322
CHARGE=1
MSLEVEL=2
RT=0
SOURCE_INSTRUMENT=qTOF
FILENAME=CCMSLIB00000005593.ms
IONMODE=Positive
ORGANISM=Natural
NAME=Ritonavir
PI=GNPS
DATACOLLECTOR=GNPS
SMILES=CC(C)[C@@H](C(=N[C@@H](Cc1ccccc1)C[C@@H]([C@H](Cc1ccccc1)N=C(O)OCc1cncs1)O)O)N=C(N(C)Cc1csc(C(C)C)n1)O
INCHI=InChI=1S/C37H48N6O5S2/c1-24(2)33(42-36(46)43(5)20-29-22-49-35(40-29)25(3)4)34(45)39-28(16-26-12-8-6-9-13-26)18-32(44)31(17-27-14-10-7-11-15-27)41-37(47)48-21-30-19-38-23-50-30/h6-15,19,22-25,28,31-33,44H,16-18,20-21H2,1-5H3,(H,39,45)(H,41,47)(H,42,46)/t28-,31-,32-,33-/m0/s1
FORMULA=C37H48N6O5S2
PUBMED=N/A
SUBMITUSER=BIOADREM
LIBRARYQUALITY=0
SPECTRUMID=CCMSLIB00000005593
SCANS=183
ID=CCMSLIB00000005593
98.0058957915 	 0.640098559108683
120.0807752941 	 0.17944185548235
129.0698762568 	 0.115164175906583
140.0528459841 	 32.7253736140125
146.0964253583 	 0.131233595800525
169.0793950856 	 0.857035727676898
171.0950451498 	 54.2905351116825
197.0743097077 	 63.6482939632546
268.1444381834 	 0.281214848143982
268.1478090018 	 67.2987305158284
269.1522632155 	 2.13723284589426
278.1525975665 	 0.182120092131341
289.1494860235 	 0.219615405217205
296.1393528055 	 0.377631367507633
296.1427236239 	 100
297.1453661608 	 6.61524452300605
297.1471778376 	 9.26402056885747
330.1304443781 	 0.168728908886389
330.1310963051 	 0.144624779045476
339.1941280302 	 0.254432481654079
347.1569934796 	 0.808827467995072
347.1576454066 	 1.31233595800525
364.1835425811 	 0.0749906261717285
365.1675581659 	 0.744549788419305
365.1682100929 	 0.859713964325888
376.2271051803 	 0.166050672237399
382.1941072674 	 0.455300230328352
382.1947591944 	 0.160694198939418
391.1468227238 	 0.0535647329798061
392.2280706955 	 0.273180138197011
408.1733718253 	 0.302640741335904
408.1740237523 	 0.141946542396486
408.1773945707 	 0.0937382827146607
408.2155917538 	 0.25978895495206
409.1573874101 	 0.0642776795757673
409.1766662892 	 0.0696341528737479
418.1947591944 	 0.208902458621244
420.2229853176 	 0.35352723766672
421.2386729196 	 0.235684825111147
426.1839365116 	 0.803470994697091
426.1845884386 	 26.0190690449408
426.187959257 	 8.39359365793562
427.1872309755 	 1.88815683753816
436.2212707581 	 1.10075526273502
437.2257249718 	 0.423161390540468
459.2338843549 	 0.291927794739943
460.2529427753 	 0.203545985323263
480.2315386312 	 0.361561947613691
489.2312210552 	 0.187476565429321
489.2318729822 	 0.0696341528737479
490.2219394601 	 0.168728908886389
507.2417857415 	 0.115164175906583
507.2424376685 	 2.92999089399539
508.2450802054 	 1.50516899673255
509.2506941689 	 0.342814291070759
529.2454145564 	 0.182120092131341
533.2217022264 	 0.733836841823344
533.2250730448 	 0.216937168568215
551.2322669127 	 28.0732765547164
551.2356377311 	 0.34817076436874
552.2349094496 	 8.33467245165783
553.2301584227 	 4.26375274519256
554.230589891 	 1.07397289624511
562.3210223405 	 0.334779581123788
590.3107544674 	 0.182120092131341
591.3073461112 	 0.214258931919224
606.3108515847 	 0.634742085810702
607.3134941216 	 0.495473780063206
608.3213191537 	 0.275858374846001
636.2183106452 	 0.17140714553538
677.31897343 	 1.31233595800525
677.3302068183 	 0.0990947560126413
703.3094713762 	 1.22395414858857
705.3013119931 	 0.128555359151535
721.3200360625 	 88.941560876319
END IONS

BEGIN IONS
PEPMASS=505.2581
CHARGE=1
MSLEVEL=2
RT=0
SOURCE_INSTRUMENT=qTOF
FILENAME=CCMSLIB00000005599.ms
IONMODE=Positive
ORGANISM=Natural
NAME=BetamethazoneDipropionate
PI=GNPS
DATACOLLECTOR=GNPS
SMILES=CCC(=O)OCC(=O)[C@]1([C@@H](C)C[C@H]2[C@@H]3CCC4=CC(=O)C=C[C@]4(C)[C@]3([C@H](C[C@]12C)O)F)OC(=O)CC
INCHI=InChI=1S/C28H37FO7/c1-6-23(33)35-15-22(32)28(36-24(34)7-2)16(3)12-20-19-9-8-17-13-18(30)10-11-25(17,4)27(19,29)21(31)14-26(20,28)5/h10-11,13,16,19-21,31H,6-9,12,14-15H2,1-5H3/t16-,19-,20-,21-,25-,26-,27-,28-/m0/s1
FORMULA=C28H37FO7
PUBMED=N/A
SUBMITUSER=BIOADREM
LIBRARYQUALITY=0
SPECTRUMID=CCMSLIB00000005599
SCANS=186
ID=CCMSLIB00000005599
105.0698762568 	 15.2336249199915
107.085526321 	 32.6505938411208
109.0647908789 	 10.6464689566887
109.1011763852 	 11.2438660123747
119.085526321 	 46.6111940829244
121.0647908789 	 16.1012730246782
121.1011763852 	 17.7156674489723
131.085526321 	 13.7543560201977
133.0659337331 	 2.33269326505938
133.1011763852 	 4.30268117488088
133.1023192394 	 18.6188749022118
135.0804409431 	 30.1756631818505
137.0960910073 	 2.89453097219259
147.0804409431 	 77.9105326790413
149.0960910073 	 26.1645686651021
151.1117410715 	 2.52471374724415
153.0910056294 	 11.1371879667164
159.0804409431 	 25.7236327430481
159.1168264494 	 7.64525993883792
161.0960910073 	 4.82895953346135
161.0972338615 	 22.0823554512481
165.0910056294 	 4.56582035417111
167.1066556936 	 33.6889268188607
171.0804409431 	 61.1905269895456
173.0960910073 	 28.1416684446341
177.0910056294 	 7.27544271388948
185.0960910073 	 37.4084346774767
185.0972338615 	 33.9947372164142
187.0753555652 	 22.7793186828817
197.0960910073 	 24.6781878955978
203.1077985478 	 1.21612972050352
209.0972338615 	 7.83016855131214
209.1172203799 	 4.55870848446057
211.1117410715 	 11.4074390157172
221.0960910073 	 0.739634449896878
223.1128839257 	 20.4537372875329
225.1273911357 	 9.69347841547543
229.123448612 	 5.56148211364768
230.1101442715 	 9.50856980300121
235.149269432 	 8.02930090320745
237.1285339899 	 29.0235402887419
239.1066556936 	 1.79930303676837
239.1430411999 	 2.77362918711329
249.1649194962 	 17.9788066282626
257.1324765136 	 2.27579830737501
261.1273911357 	 6.52869639428206
261.1285339899 	 15.0700519166489
263.1430411999 	 7.64525993883792
263.1441840541 	 71.118697105469
267.137955822 	 0.810753147002347
272.1207089578 	 21.6627551383259
273.163776642 	 9.25965436313207
275.1430411999 	 10.3619941682668
275.1441840541 	 2.6385036626129
276.1520090862 	 28.8386316762677
278.1676591504 	 18.8535666026598
279.1743413283 	 100
279.1754841825 	 55.9064077946092
286.136359022 	 20.1905981082427
291.1743413283 	 42.9059099637295
291.1754841825 	 41.4835360216201
293.1547487404 	 1.2730246781879
297.1849060146 	 2.4109238318754
301.1598341183 	 29.3222388165849
303.1390986762 	 1.08100419600313
309.1860488688 	 5.46902780741057
319.1692559504 	 57.4710191309295
319.1703988046 	 59.2205390797241
325.1798206367 	 6.52869639428206
335.201698933 	 2.70251049000782
337.1798206367 	 31.2495555081431
337.1809634909 	 39.8904772064576
355.190385323 	 58.6800369817225
367.1915281772 	 0.917431192660551
375.1966135551 	 1.31569589645118
393.2071782414 	 23.1704715169618
411.2177429277 	 78.7283976957542
485.2533795103 	 31.3989047720646
505.2596077424 	 18.9958039968708
END IONS

BEGIN IONS
PEPMASS=210.1358
CHARGE=1
MSLEVEL=2
RT=0
SOURCE_INSTRUMENT=qTOF
FILENAME=CCMSLIB00000005605.ms
IONMODE=Positive
ORGANISM=Natural
NAME=Minoxidil
PI=GNPS
DATACOLLECTOR=GNPS
SMILES=C1CCN(CC1)c1cc(N)n(c(=N)n1)O
INCHI=InChI=1S/C9H15N5O/c10-7-6-8(12-9(11)14(7)15)13-4-2-1-3-5-13/h6,11,15H,1-5,10H2
FORMULA=C9H15N5O
PUBMED=N/A
SUBMITUSER=BIOADREM
LIBRARYQUALITY=0
SPECTRUMID=CCMSLIB00000005605
SCANS=189
ID=CCMSLIB00000005605
98.0586971813 	 0.111653567440944
105.0447241388 	 2.08201063992819
108.0556231761 	 1.88278564704337
109.0508721492 	 1.95065350176237
110.0586971813 	 23.7077741532938
110.060039852 	 11.8046281498347
111.0678648841 	 0.326203559778444
120.0556231761 	 1.61788208507564
121.0508721492 	 0.225496420517985
122.0712732403 	 6.99476760732973
123.0916743314 	 0.0459749983580358
124.0743472455 	 1.84775707686582
125.0695962186 	 3.25765702651225
126.0774212507 	 0.109464281804847
130.0399731119 	 0.109464281804847
133.0508721492 	 0.192657135976531
135.0665222134 	 0.0985178536243624
136.0617711865 	 0.218928563609694
137.0821722776 	 22.0964599251264
137.0835149483 	 4.24283556275587
141.100896347 	 0.118221424349235
141.1022390177 	 0.0875714254438777
145.0508721492 	 0.334960702322832
147.0665222134 	 5.09446767519758
147.0678648841 	 0.678678547190052
149.0821722776 	 1.33108566674694
150.0774212507 	 3.88379271843597
150.0787639214 	 3.66705344046238
151.0852462828 	 2.95772489436697
152.0930713149 	 0.383124986316965
161.0821722776 	 0.10727499616875
162.0774212507 	 1.16907852967577
163.0852462828 	 0.634892834468113
164.0930713149 	 40.311316417453
164.0944139856 	 21.8928563609694
166.1212974381 	 0.746546401909057
175.0978223418 	 0.385314271953062
176.1056473739 	 2.85701775510651
178.1087213791 	 2.145499923375
182.1400215075 	 0.218928563609694
192.1243714433 	 10.8303960417716
193.1321964754 	 51.446023162642
210.1349361296 	 100
END IONS

BEGIN IONS
PEPMASS=366.068
CHARGE=1
MSLEVEL=2
RT=0
SOURCE_INSTRUMENT=qTOF
FILENAME=CCMSLIB00000005622.ms
IONMODE=Positive
ORGANISM=Natural
NAME=Indapamide
PI=GNPS
DATACOLLECTOR=GNPS
SMILES=CC1Cc2ccccc2N1N=C(c1ccc(c(c1)S(=O)(=O)N)Cl)O
INCHI=InChI=1S/C16H16ClN3O3S/c1-10-8-11-4-2-3-5-14(11)20(10)19-16(21)12-6-7-13(17)15(9-12)24(18,22)23/h2-7,9-10H,8H2,1H3,(H,19,21)(H2,18,22,23)
FORMULA=C16H16ClN3O3S
PUBMED=N/A
SUBMITUSER=BIOADREM
LIBRARYQUALITY=0
SPECTRUMID=CCMSLIB00000005622
SCANS=192
ID=CCMSLIB00000005622
91.0542261926 	 1.54666666666667
105.0698762568 	 2.15
106.0651252299 	 0.1
115.0542261926 	 1.30666666666667
117.0573001978 	 32.8666666666667
132.0807752941 	 100
366.0673657955 	 2.99666666666667
END IONS

BEGIN IONS
PEPMASS=260.1657
CHARGE=1
MSLEVEL=2
RT=0
SOURCE_INSTRUMENT=qTOF
FILENAME=CCMSLIB00000005637.ms
IONMODE=Positive
ORGANISM=Natural
NAME=Ramelteon
PI=GNPS
DATACOLLECTOR=GNPS
SMILES=CCC(=NCC[C@@H]1CCc2ccc3c(CCO3)c12)O
INCHI=InChI=1S/C16H21NO2/c1-2-15(18)17-9-7-12-4-3-11-5-6-14-13(16(11)12)8-10-19-14/h5-6,12H,2-4,7-10H2,1H3,(H,17,18)/t12-/m0/s1
FORMULA=C16H21NO2
PUBMED=N/A
SUBMITUSER=BIOADREM
LIBRARYQUALITY=0
SPECTRUMID=CCMSLIB00000005637
SCANS=193
ID=CCMSLIB00000005637
103.0542261926 	 0.808867585380467
105.0698762568 	 2.66626722588376
107.0491408147 	 0.77225218028094
115.0542261926 	 3.38526063511084
116.0620512247 	 1.67432261500566
117.0698762568 	 1.48791691631716
118.0413157826 	 0.123160908062046
119.085526321 	 0.286265894414486
121.0647908789 	 0.11983223487118
127.0542261926 	 0.702350043272751
128.0620512247 	 0.619133213501099
129.0698762568 	 3.55502296784502
130.0777012889 	 0.0898741761533853
131.0491408147 	 4.68344317954863
131.085526321 	 7.54943079688436
132.0569658468 	 0.083216829771653
133.0647908789 	 15.8577990812862
140.0620512247 	 0.0798881565807869
141.0698762568 	 6.98688502762799
143.0491408147 	 0.206377737833699
143.085526321 	 1.20497969509354
144.0569658468 	 9.28366952932561
145.0647908789 	 0.858797683243459
146.072615911 	 0.679049330936689
147.0804409431 	 0.38612609014047
152.0620512247 	 0.083216829771653
153.0698762568 	 0.249650489314959
154.0777012889 	 0.485986285866454
157.0647908789 	 2.27015511617069
158.072615911 	 8.89754343918514
159.0804409431 	 71.2402636309167
161.0960910073 	 6.87038146594767
167.085526321 	 0.083216829771653
169.1011763852 	 0.955329205778577
170.072615911 	 0.233007123360628
171.0804409431 	 1.01857399640503
172.0882659752 	 8.67452233539711
185.0960910073 	 0.372811397377006
187.1117410715 	 46.418347646628
189.1148150767 	 0.252979162505825
204.138290173 	 100
242.1539402372 	 0.309566606750549
260.1645049235 	 75.7739165168764
END IONS

BEGIN IONS
PEPMASS=373.201
CHARGE=1
MSLEVEL=2
RT=0
SOURCE_INSTRUMENT=qTOF
FILENAME=CCMSLIB00000005655.ms
IONMODE=Positive
ORGANISM=Natural
NAME=Betapar
PI=GNPS
DATACOLLECTOR=GNPS
SMILES=C[C@H]1CC2[C@@H]3CCC4=CC(=O)C=C[C@]4(C)C3C(=O)C[C@]2(C)[C@]1(C(=O)CO)O
INCHI=InChI=1S/C22H28O5/c1-12-8-16-15-5-4-13-9-14(24)6-7-20(13,2)19(15)17(25)10-21(16,3)22(12,27)18(26)11-23/h6-7,9,12,15-16,19,23,27H,4-5,8,10-11H2,1-3H3/t12-,15-,16?,19?,20-,21-,22-/m0/s1
FORMULA=C22H28O5
PUBMED=N/A
SUBMITUSER=BIOADREM
LIBRARYQUALITY=0
SPECTRUMID=CCMSLIB00000005655
SCANS=196
ID=CCMSLIB00000005655
105.0698762568 	 9.59801806121633
109.0284053726 	 13.154319507712
123.0440554368 	 34.1804523295772
127.0542261926 	 8.66299048989051
131.085526321 	 29.4413809637977
132.0569658468 	 38.9594821385759
135.0804409431 	 16.3430032765923
145.0647908789 	 27.403500359626
147.0804409431 	 79.9168864381044
149.059705501 	 8.74290737632862
151.0753555652 	 6.49724286741789
158.072615911 	 25.6932789898506
159.0804409431 	 50.6513226244706
170.072615911 	 10.5889874530488
171.0804409431 	 66.8584671941181
173.0960910073 	 13.2262447055063
179.0702701873 	 15.7436266283066
187.0753555652 	 21.0261328218653
187.1117410715 	 27.0438743706545
196.0882659752 	 23.7592903380484
197.0960910073 	 15.895468712539
198.1039160394 	 20.5386398145928
201.1273911357 	 11.1324222808279
225.1273911357 	 26.3885559018621
229.1223057578 	 10.6369375849117
233.0960910073 	 8.99864141293055
237.1273911357 	 4.45936226324622
248.1195661036 	 26.8520738432031
249.0910056294 	 20.3708143530728
249.1273911357 	 12.22728362503
253.1586912641 	 4.66714616798529
263.1430411999 	 11.0365220171022
265.1223057578 	 17.0862303204667
273.1273911357 	 11.1004555262527
281.1536058862 	 15.3120754415408
283.1328704441 	 6.36937584911692
291.137955822 	 53.8719731479262
299.1641705725 	 15.1922001118836
311.1641705725 	 10.1894030208583
319.1328704441 	 6.44929273555502
327.1590851946 	 100
337.1434351304 	 14.0973387676816
355.1539998167 	 79.9168864381044
373.2009500093 	 0
END IONS

BEGIN IONS
PEPMASS=255.1016
CHARGE=1
MSLEVEL=2
RT=0
SOURCE_INSTRUMENT=qTOF
FILENAME=CCMSLIB00000005668.ms
IONMODE=Positive
ORGANISM=Natural
NAME=Ketoprofen
PI=GNPS
DATACOLLECTOR=GNPS
SMILES=CC(c1cccc(c1)C(=O)c1ccccc1)C(=O)O
INCHI=InChI=1S/C16H14O3/c1-11(16(18)19)13-8-5-9-14(10-13)15(17)12-6-3-2-4-7-12/h2-11H,1H3,(H,18,19)
FORMULA=C16H14O3
PUBMED=N/A
SUBMITUSER=BIOADREM
LIBRARYQUALITY=0
SPECTRUMID=CCMSLIB00000005668
SCANS=199
ID=CCMSLIB00000005668
103.0542261926 	 18.5593566424779
105.0334907505 	 100
106.0413157826 	 0.804196902585367
121.0647908789 	 2.35604561304307
131.0491408147 	 8.1362108503754
134.0362304047 	 0.119372977727515
149.059705501 	 1.09320516445198
165.0698762568 	 7.92887883642761
166.0777012889 	 3.47752332485157
177.0546201231 	 17.4378789306694
181.1011763852 	 0.100524612823171
191.085526321 	 2.14557220494455
193.0647908789 	 1.17174001822009
194.072615911 	 13.9760625765715
209.0960910073 	 57.3367260390161
255.1015703157 	 17.5541105142462
END IONS

BEGIN IONS
PEPMASS=465.0951
CHARGE=1
MSLEVEL=2
RT=0
SOURCE_INSTRUMENT=qTOF
FILENAME=CCMSLIB00000005683.ms
IONMODE=Positive
ORGANISM=Natural
NAME=Sorafenib
PI=GNPS
DATACOLLECTOR=GNPS
SMILES=CNC(=O)c1cc(ccn1)Oc1ccc(cc1)NC(=Nc1ccc(c(c1)C(F)(F)F)Cl)O
INCHI=InChI=1S/C21H16ClF3N4O3/c1-26-19(30)18-11-15(8-9-27-18)32-14-5-2-12(3-6-14)28-20(31)29-13-4-7-17(22)16(10-13)21(23,24)25/h2-11H,1H3,(H,26,30)(H2,28,29,31)
FORMULA=C21H16ClF3N4O3
PUBMED=N/A
SUBMITUSER=BIOADREM
LIBRARYQUALITY=0
SPECTRUMID=CCMSLIB00000005683
SCANS=201
ID=CCMSLIB00000005683
130.0651252299 	 0.156061400407223
155.060374203 	 0.705933990904547
156.0443897878 	 0.721783976883405
157.0760242672 	 0.210926736487887
168.0443897878 	 0.208488277106524
170.060039852 	 0.374303515039198
176.0056792 	 0.496226484107341
176.0068220542 	 0.709591679976591
183.0552888251 	 0.26457284287787
185.0709388893 	 1.31554883624526
193.016316503 	 1.39479876613955
194.0212096694 	 0.180445994220851
195.0126357136 	 0.446238066789402
196.0119074321 	 0.346261232153525
196.0130502863 	 0.337726624318755
198.0549544741 	 1.23142198758824
199.0865889535 	 0.19629598019971
201.9854309473 	 5.61211426620661
203.0815035756 	 0.882722296053354
204.0681992351 	 0.612053304722077
211.0502034472 	 9.75871444421415
212.055583803 	 0.39259196039942
225.0658535114 	 1.1485143686219
226.0974879908 	 5.38533754373987
227.0990454177 	 0.326753557102623
229.0607681335 	 4.93422255818774
239.042673393 	 0.241407478754923
239.0451180693 	 0.44379960740804
243.0809281325 	 0.10241529401724
244.1080526771 	 1.54842170716541
251.0217958114 	 0.135334495665638
252.0767525487 	 27.559467928163
253.0783099756 	 1.81787146880601
257.0532380793 	 0.296272814835587
270.087317235 	 20.318462795206
271.0280240435 	 0.0841268486570185
271.0888746619 	 1.0631682902742
272.0317743557 	 0.203611358343798
331.0718200092 	 0.0780307002036114
336.0579088845 	 0.0707153220595228
350.0735589487 	 0.343822772772163
358.0514991398 	 0.130457576902913
358.0553220687 	 0.252380545971055
362.0302501724 	 0.214584425559931
366.0440084587 	 0.135334495665638
370.0764514413 	 0.676672478328192
370.0797871808 	 0.458430363696217
371.0876122129 	 1.05463368243943
378.0615503008 	 0.470622660603031
386.0428262314 	 0.201172898962436
386.0502366908 	 3.80399663492605
387.0506512635 	 0.848583864714274
388.0459002366 	 0.775430083273388
406.0564649229 	 12.365427522891
408.054573145 	 2.09707506797206
409.0498221181 	 0.376741974420561
425.0811222465 	 3.54795839988295
427.0767857923 	 0.357234299369658
434.051379545 	 0.123142198758824
445.0873504786 	 0.276765139784684
447.0830140244 	 8.60044623806679
449.0748546413 	 0.752264719150441
465.0935787107 	 100
END IONS

BEGIN IONS
PEPMASS=535.1575
CHARGE=1
MSLEVEL=2
RT=0
SOURCE_INSTRUMENT=qTOF
FILENAME=CCMSLIB00000005690.ms
IONMODE=Positive
ORGANISM=Natural
NAME=Aprepitant
PI=GNPS
DATACOLLECTOR=GNPS
SMILES=CC(c1cc(cc(c1)C(F)(F)F)C(F)(F)F)O[C@@H]1[C@H](c2ccc(cc2)F)N(CCO1)Cc1nc(n[nH]1)O
INCHI=InChI=1S/C23H21F7N4O3/c1-12(14-8-15(22(25,26)27)10-16(9-14)23(28,29)30)37-20-19(13-2-4-17(24)5-3-13)34(6-7-36-20)11-18-31-21(35)33-32-18/h2-5,8-10,12,19-20H,6-7,11H2,1H3,(H2,31,32,33,35)/t12?,19-,20+/m0/s1
FORMULA=C23H21F7N4O3
PUBMED=N/A
SUBMITUSER=BIOADREM
LIBRARYQUALITY=0
SPECTRUMID=CCMSLIB00000005690
SCANS=203
ID=CCMSLIB00000005690
109.0448043605 	 2.2
121.0448043605 	 0.31
122.0400533336 	 2.98
123.0240689184 	 3.36
134.0526293926 	 0.21
136.0557033978 	 0.4
137.0397189826 	 0.25
148.0557033978 	 0.54
150.071353462 	 4.13
151.0553690468 	 0.59
151.0791784941 	 1.33
152.0631940789 	 0.3
161.0635284299 	 0.24
164.0506180199 	 3.57
166.0662680841 	 0.32
178.0662680841 	 1.72
179.0740931162 	 100
186.0661878624 	 0.56
196.0768327704 	 0.64
206.0724160945 	 3.75
233.0833151318 	 0.61
259.098965196 	 0.26
277.1095298823 	 6.24
535.1574639612 	 0
END IONS

BEGIN IONS
PEPMASS=213.9823
CHARGE=1
MSLEVEL=2
RT=0
SOURCE_INSTRUMENT=qTOF
FILENAME=CCMSLIB00000005711.ms
IONMODE=Positive
ORGANISM=Natural
NAME=Chloroxine
PI=GNPS
DATACOLLECTOR=GNPS
SMILES=c1cc2c(cc(c(c2nc1)O)Cl)Cl
INCHI=InChI=1S/C9H5Cl2NO/c10-6-4-7(11)9(13)8-5(6)2-1-3-12-8/h1-4,13H
FORMULA=C9H5Cl2NO
PUBMED=N/A
SUBMITUSER=BIOADREM
LIBRARYQUALITY=0
SPECTRUMID=CCMSLIB00000005711
SCANS=204
ID=CCMSLIB00000005711
114.0338251015 	 1.84799065622702
115.0416501336 	 4.05502444088766
116.0494751657 	 2.10580957736731
122.9996038063 	 7.1618289570446
126.9711961705 	 0.762209629277155
130.0287397236 	 0.0700782973569235
143.0365647557 	 0.377211575896526
144.0443897878 	 0.451615694077951
150.0105028436 	 12.5915992559588
151.0183278757 	 7.96729679456677
153.0101684926 	 1.67755331574166
159.9948527794 	 0.184279967123762
161.0026778115 	 0.44642470908855
166.0054174657 	 3.24696111087079
178.0054174657 	 0.455076350737552
179.0132424978 	 11.9539732664273
195.9715305215 	 0.0423930440801142
213.9820952078 	 100
END IONS

BEGIN IONS
PEPMASS=288.1708
CHARGE=1
MSLEVEL=2
RT=0
SOURCE_INSTRUMENT=qTOF
FILENAME=CCMSLIB00000005713.ms
IONMODE=Positive
ORGANISM=Natural
NAME=Zolmitriptan
PI=GNPS
DATACOLLECTOR=GNPS
SMILES=CN(C)CCc1c[nH]c2ccc(C[C@H]3COC(=N3)O)cc12
INCHI=InChI=1S/C16H21N3O2/c1-19(2)6-5-12-9-17-15-4-3-11(8-14(12)15)7-13-10-21-16(20)18-13/h3-4,8-9,13,17H,5-7,10H2,1-2H3,(H,18,20)/t13-/m0/s1
FORMULA=C16H21N3O2
PUBMED=N/A
SUBMITUSER=BIOADREM
LIBRARYQUALITY=0
SPECTRUMID=CCMSLIB00000005713
SCANS=205
ID=CCMSLIB00000005713
102.0464011605 	 0.017476025078096
103.0542261926 	 0.0429618949836526
104.0494751657 	 0.02184503134762
108.0443897878 	 0.0662632617544473
115.0542261926 	 0.751469078358127
117.0573001978 	 0.146361710029054
127.0542261926 	 0.314568451405728
128.0620512247 	 0.317481122252077
129.0698762568 	 1.15050498430799
134.047463793 	 0.381559880871762
135.0552888251 	 0.145633542317467
139.0542261926 	 0.114322330719211
141.0698762568 	 0.533018764881928
143.072950262 	 0.0640787586196853
144.0807752941 	 0.0516999075227006
152.0580284793 	 0.12014767241191
153.0698762568 	 0.57598065986558
154.0651252299 	 2.73791059556837
155.085526321 	 2.71679373193234
156.0807752941 	 7.68726653122747
157.0886003262 	 3.03645935731918
165.0698762568 	 5.37169320837975
167.072950262 	 11.0222746502975
168.0767525487 	 0.0873801253904799
170.0236543457 	 3.41510656734459
180.0807752941 	 1.44686924292403
181.0886003262 	 2.23984388084264
182.0964253583 	 26.1652503804676
183.100227645 	 0.906568800926229
197.1073243956 	 0.506076559553196
198.0913399804 	 0.0167478573665087
199.1229744598 	 0.162381399683975
207.0916743314 	 0.0844674545441306
217.0971536398 	 0.0407773918488906
225.1022390177 	 0.170391244511436
243.112803704 	 17.3536929025493
288.1706529339 	 100
END IONS

BEGIN IONS
PEPMASS=266.096
CHARGE=1
MSLEVEL=2
RT=0
SOURCE_INSTRUMENT=qTOF
FILENAME=CCMSLIB00000005722.ms
IONMODE=Positive
ORGANISM=Natural
NAME=Albendazole
PI=GNPS
DATACOLLECTOR=GNPS
SMILES=CCCSc1ccc2c(c1)[nH]c(n2)N=C(O)OC
INCHI=InChI=1S/C12H15N3O2S/c1-3-6-18-8-4-5-9-10(7-8)14-11(13-9)15-12(16)17-2/h4-5,7H,3,6H2,1-2H3,(H2,13,14,15,16)
FORMULA=C12H15N3O2S
PUBMED=N/A
SUBMITUSER=BIOADREM
LIBRARYQUALITY=0
SPECTRUMID=CCMSLIB00000005722
SCANS=207
ID=CCMSLIB00000005722
104.0368991067 	 0.809345014601585
105.0447241388 	 0.120984564038381
108.9980707594 	 0.196078431372549
119.047798144 	 1.13057989153108
120.9980707594 	 0.312891113892365
122.0058957915 	 0.421360033375052
123.0137208236 	 0.137672090112641
130.0399731119 	 0.387984981226533
131.047798144 	 2.61576971214017
132.0556231761 	 0.229453483521068
136.0089697967 	 3.10387984981227
147.0427127661 	 0.888610763454318
148.0089697967 	 0.221109720483938
149.0167948288 	 0.166875260742595
158.034887734 	 0.279516061743847
159.0427127661 	 42.9828952857739
163.019868834 	 8.72757613683771
164.0276938661 	 3.77138089278264
166.019534483 	 0.225281602002503
180.0589939945 	 0.141843971631206
191.0147834561 	 100
192.0226084882 	 35.5277430120985
206.0746440587 	 0.133500208594076
223.0409982066 	 0.83020442219441
234.0695586808 	 77.6804338756779
266.0957734313 	 36.5623696287025
END IONS

BEGIN IONS
PEPMASS=431.0668
CHARGE=1
MSLEVEL=2
RT=0
SOURCE_INSTRUMENT=qTOF
FILENAME=CCMSLIB00000005726.ms
IONMODE=Positive
ORGANISM=Natural
NAME=Bicalutamide
PI=GNPS
DATACOLLECTOR=GNPS
SMILES=CC(CS(=O)(=O)c1ccc(cc1)F)(C(=Nc1ccc(C#N)c(c1)C(F)(F)F)O)O
INCHI=InChI=1S/C18H14F4N2O4S/c1-17(26,10-29(27,28)14-6-3-12(19)4-7-14)16(25)24-13-5-2-11(9-23)15(8-13)18(20,21)22/h2-8,26H,10H2,1H3,(H,24,25)
FORMULA=C18H14F4N2O4S
PUBMED=N/A
SUBMITUSER=BIOADREM
LIBRARYQUALITY=0
SPECTRUMID=CCMSLIB00000005726
SCANS=208
ID=CCMSLIB00000005726
80.046795091 	 0.278585868546916
95.0251315509 	 0.352546718603619
96.032956583 	 0.167644593461861
98.0184718505 	 0.187367486810315
99.0314793778 	 0.278585868546916
109.0448043605 	 0.263793698535575
113.0397189826 	 0.377200335289187
115.0012249863 	 0.81850007396085
118.0525491709 	 0.406784675311868
120.9953906847 	 16.0889502490015
123.0274397368 	 0.167644593461861
127.0012249863 	 0.313100931906711
135.0604544247 	 0.29830876189537
135.0690077383 	 0.177506040136088
139.0513463014 	 0.147921700113407
140.0306315015 	 0.246536166855678
142.9961396084 	 7.28267836891672
155.0702701873 	 0.167644593461861
158.9910542305 	 46.2748385188107
159.9988792626 	 0.640994033824762
161.0067042947 	 1.9106552931315
161.0608483552 	 0.2909126768897
167.017268981 	 0.125733445096396
167.0399355741 	 2.85981953552586
167.0410784283 	 1.10448202751344
167.0415305388 	 12.960406291603
177.0016189168 	 0.281051230215473
185.0505002604 	 1.38306789606035
185.0516431146 	 0.579359992110843
187.0461638062 	 49.7288102164588
187.0477587709 	 23.9386618016863
188.0501659094 	 1.71342635964696
189.0521754468 	 0.150387061781963
205.0567284925 	 0.44376510034022
209.0606316431 	 0.172575316798974
211.0524891556 	 0.155317785119077
217.0329190452 	 100
218.0355784777 	 1.87367486810315
219.0297254452 	 0.857945860657758
237.0607287604 	 0.184902125141758
237.0618138704 	 0.0936837434051575
237.0629567246 	 0.130664168433509
301.0464381419 	 0.147921700113407
413.0577517519 	 0.128198806764952
431.0683164382 	 17.2402741482175
END IONS

BEGIN IONS
PEPMASS=491.2322
CHARGE=1
MSLEVEL=2
RT=0
SOURCE_INSTRUMENT=qTOF
FILENAME=CCMSLIB00000005740.ms
IONMODE=Positive
ORGANISM=Natural
NAME=Glimepiride
PI=GNPS
DATACOLLECTOR=GNPS
SMILES=CCC1=C(C)CN(C1=O)C(=NCCc1ccc(cc1)S(=O)(=O)NC(=NC1CCC(C)CC1)O)O
INCHI=InChI=1S/C24H34N4O5S/c1-4-21-17(3)15-28(22(21)29)24(31)25-14-13-18-7-11-20(12-8-18)34(32,33)27-23(30)26-19-9-5-16(2)6-10-19/h7-8,11-12,16,19H,4-6,9-10,13-15H2,1-3H3,(H,25,31)(H2,26,27,30)
FORMULA=C24H34N4O5S
PUBMED=N/A
SUBMITUSER=BIOADREM
LIBRARYQUALITY=0
SPECTRUMID=CCMSLIB00000005740
SCANS=211
ID=CCMSLIB00000005740
103.0542261926 	 5.68813337692056
106.0651252299 	 0.121421566338206
108.0807752941 	 1.40101807313314
109.0647908789 	 1.68122168775977
118.0651252299 	 0.4903563255966
119.0491408147 	 0.322234156820623
121.0647908789 	 0.541726988278149
124.0756899162 	 5.2724980152244
126.0913399804 	 100
128.0494751657 	 0.154111988044646
146.060039852 	 1.62518096483445
152.0706045383 	 6.67818614860132
181.0971536398 	 8.71433241488815
271.1441038324 	 0.298883855601737
317.0954390803 	 0.182132349507309
335.1060037666 	 5.9449866903283
352.1325528681 	 85.6675851118479
491.2322669127 	 5.02031476206043
END IONS

BEGIN IONS
PEPMASS=318.2073
CHARGE=1
MSLEVEL=2
RT=0
SOURCE_INSTRUMENT=qTOF
FILENAME=CCMSLIB00000005752.ms
IONMODE=Positive
ORGANISM=Natural
NAME=Nateglinide
PI=GNPS
DATACOLLECTOR=GNPS
SMILES=CC(C)C1CCC(CC1)C(=N[C@H](Cc1ccccc1)C(=O)O)O
INCHI=InChI=1S/C19H27NO3/c1-13(2)15-8-10-16(11-9-15)18(21)20-17(19(22)23)12-14-6-4-3-5-7-14/h3-7,13,15-17H,8-12H2,1-2H3,(H,20,21)(H,22,23)/t15?,16?,17-/m1/s1
FORMULA=C19H27NO3
PUBMED=N/A
SUBMITUSER=BIOADREM
LIBRARYQUALITY=0
SPECTRUMID=CCMSLIB00000005752
SCANS=214
ID=CCMSLIB00000005752
103.0542261926 	 0.52
120.0807752941 	 48.5
125.1324765136 	 75.34
131.0491408147 	 0.35
149.059705501 	 0.35
153.1273911357 	 7.34
166.0862546025 	 100
272.2008904298 	 6.9
300.1958050519 	 4.43
318.2063697382 	 45.24
END IONS

BEGIN IONS
PEPMASS=436.2353
CHARGE=1
MSLEVEL=2
RT=0
SOURCE_INSTRUMENT=qTOF
FILENAME=CCMSLIB00000005787.ms
IONMODE=Positive
ORGANISM=Natural
NAME=Valsartan
PI=GNPS
DATACOLLECTOR=GNPS
SMILES=CCCCC(=O)N(Cc1ccc(cc1)c1ccccc1c1n[nH]nn1)[C@@H](C(C)C)C(=O)O
INCHI=InChI=1S/C24H29N5O3/c1-4-5-10-21(30)29(22(16(2)3)24(31)32)15-17-11-13-18(14-12-17)19-8-6-7-9-20(19)23-25-27-28-26-23/h6-9,11-14,16,22H,4-5,10,15H2,1-3H3,(H,31,32)(H,25,26,27,28)/t22-/m0/s1
FORMULA=C24H29N5O3
PUBMED=N/A
SUBMITUSER=BIOADREM
LIBRARYQUALITY=0
SPECTRUMID=CCMSLIB00000005787
SCANS=215
ID=CCMSLIB00000005787
103.0753555652 	 0.100931963016171
115.0542261926 	 0.10682580027259
127.0542261926 	 0.0346262938814602
129.0447241388 	 0.0692525877629204
140.0494751657 	 0.229122923343279
141.0698762568 	 0.0419935904519836
150.0464011605 	 0.0272589973109368
152.0620512247 	 0.363944450583858
153.0698762568 	 1.82414263086161
156.0933513531 	 2.11073046745497
157.1011763852 	 2.53361329060301
159.1015703157 	 0.178288577006667
159.112803704 	 0.233543301285593
163.0542261926 	 0.432460308689726
165.0698762568 	 0.232069841971489
168.0681992351 	 0.0677791284488157
168.0807752941 	 0.280693999336943
169.0886003262 	 0.253435002026007
178.0777012889 	 2.63454525361918
179.0815035756 	 0.173131469407301
180.0807752941 	 8.16001768151177
181.0845775808 	 0.24827789442664
183.0916743314 	 0.271853243452315
184.0756899162 	 0.040520131137879
184.0994993635 	 0.375732125096696
185.1073243956 	 14.7345931410469
186.1111266823 	 1.10288429660736
186.112469353 	 1.47272258444764
190.0651252299 	 6.31377316093859
191.0689275166 	 0.373521936125539
194.060039852 	 0.0611485615353446
194.0964253583 	 1.12277599734777
202.1424268107 	 0.411095148635208
203.1416985292 	 0.215861789516337
205.0760242672 	 1.20086934099532
206.0838492993 	 4.06085386967252
207.0916743314 	 28.7906582679486
208.0756899162 	 0.0434670497660883
209.0794922029 	 0.0920912071315431
209.1073243956 	 0.724205252882455
210.0913399804 	 0.357313883670387
213.1148150767 	 1.16476958779976
221.1073243956 	 0.0250488083397797
225.1273911357 	 0.180498765977824
235.0978223418 	 12.6960621799831
235.0991650125 	 14.7345931410469
237.1022390177 	 0.156186687295097
241.1699246524 	 0.100931963016171
249.151200583 	 0.530445353077688
250.1550028697 	 0.239437138542012
263.1542745882 	 1.88160754411169
264.150866232 	 0.215861789516337
264.1594195456 	 0.352156776071021
270.1726643066 	 0.0994585037020665
273.138624524 	 0.0442037794231407
278.1651736255 	 14.1216340663793
279.1689759122 	 1.23328544590562
280.1695903014 	 0.168711091464987
284.1883143708 	 0.503186355766752
290.1400215075 	 0.0596751022212399
291.1478465396 	 0.507606733709066
291.1491892103 	 24.631082624231
292.152991497 	 1.11246178214904
293.1648392745 	 0.185655873577191
306.1713216359 	 14.4273768740561
306.1726643066 	 6.41838877224003
307.1764665933 	 0.462666224628872
308.1757383118 	 0.486241573654548
324.1706529339 	 1.60680738203116
336.1706529339 	 0.165764172836778
336.1832289929 	 0.110509448557852
352.1768009443 	 2.94102479095296
352.178143615 	 2.89313736324456
353.1859686471 	 0.123770582384794
362.2226885044 	 6.17526798541275
363.2264907911 	 0.404464581721737
364.2271051803 	 0.109035989243747
379.2128520996 	 1.27675249567171
382.2237511369 	 0.198180277747081
388.2495719569 	 0.221755626772756
390.2176031265 	 0.120086934099532
390.2288365148 	 0.085460640218072
393.2159261048 	 1.12940656426124
394.2125177486 	 0.260065568939478
408.2281678128 	 16.2485725862895
410.231241818 	 0.192286440490662
418.2237511369 	 6.45448852543559
436.2343158232 	 100
END IONS

BEGIN IONS
PEPMASS=327.1378
CHARGE=1
MSLEVEL=2
RT=0
SOURCE_INSTRUMENT=qTOF
FILENAME=CCMSLIB00000005800.ms
IONMODE=Positive
ORGANISM=Natural
NAME=Clozapine
PI=GNPS
DATACOLLECTOR=GNPS
SMILES=CN1CCN(CC1)C1=c2ccccc2=Nc2ccc(cc2N1)Cl
INCHI=InChI=1S/C18H19ClN4/c1-22-8-10-23(11-9-22)18-14-4-2-3-5-15(14)20-16-7-6-13(19)12-17(16)21-18/h2-7,12,21H,8-11H2,1H3
FORMULA=C18H19ClN4
PUBMED=N/A
SUBMITUSER=BIOADREM
LIBRARYQUALITY=0
SPECTRUMID=CCMSLIB00000005800
SCANS=218
ID=CCMSLIB00000005800
164.0494751657 	 0.635331490087652
165.0573001978 	 0.276486852167775
191.060374203 	 2.41778928172245
192.0681992351 	 60.0623566092123
200.0261529078 	 1.20007059238779
205.0760242672 	 0.300017648096947
207.0916743314 	 0.352961938937585
208.0994993635 	 0.417671627742808
215.0370519451 	 0.529442908406377
217.0760242672 	 0.147067474557327
218.0838492993 	 2.10012353667863
226.029226913 	 2.60015295017354
227.0370519451 	 15.8950526501559
234.1025733687 	 1.21183599035237
235.1103984008 	 0.988293429025237
241.0527020093 	 0.700041178892876
243.0683520735 	 0.476498617565739
244.0636010466 	 0.194129066415672
246.1025733687 	 0.347079239955291
253.0527020093 	 2.02953114889111
255.0557760145 	 1.37066886287429
260.1182234329 	 0.288252250132361
268.0636010466 	 0.617683393140773
270.0792511108 	 100
281.0714260787 	 0.352961938937585
296.094901175 	 9.65350902994294
327.1371003407 	 28.8781693040767
END IONS

BEGIN IONS
PEPMASS=419.2791
CHARGE=1
MSLEVEL=2
RT=0
SOURCE_INSTRUMENT=qTOF
FILENAME=CCMSLIB00000005802.ms
IONMODE=Positive
ORGANISM=Natural
NAME=Simvastatin
PI=GNPS
DATACOLLECTOR=GNPS
SMILES=CCC(C)(C)C(=O)O[C@H]1C[C@@H](C)C=C2C=C[C@H](C)[C@H](CC[C@@H]3C[C@H](CC(=O)O3)O)[C@@H]12
INCHI=InChI=1S/C25H38O5/c1-6-25(4,5)24(28)30-21-12-15(2)11-17-8-7-16(3)20(23(17)21)10-9-19-13-18(26)14-22(27)29-19/h7-8,11,15-16,18-21,23,26H,6,9-10,12-14H2,1-5H3/t15-,16-,18+,19+,20-,21-,23-/m0/s1
FORMULA=C25H38O5
PUBMED=N/A
SUBMITUSER=BIOADREM
LIBRARYQUALITY=0
SPECTRUMID=CCMSLIB00000005802
SCANS=220
ID=CCMSLIB00000005802
101.059705501 	 0.188867320707203
105.0698762568 	 10.8257698966476
107.0491408147 	 2.41068149624888
107.085526321 	 11.0644772047637
109.0647908789 	 0.878757672734904
109.1011763852 	 0.388227270342584
115.0542261926 	 0.731860867740412
117.0698762568 	 1.57127118199465
119.085526321 	 8.48591364566392
121.1011763852 	 3.72750642673522
125.059705501 	 3.84292534494518
127.0753555652 	 0.288547295524894
128.0620512247 	 4.82398614972981
129.0698762568 	 0.178374691779025
131.085526321 	 23.3172446356435
133.1011763852 	 6.41624258958082
135.1168264494 	 0.167882062850847
137.0960910073 	 0.199359949635381
141.0698762568 	 4.21541367189549
142.0777012889 	 0.209852578563559
143.0702701873 	 2.97990661560254
143.085526321 	 25.7830124337653
145.1011763852 	 17.6433555427312
147.1168264494 	 1.79686270395047
151.0753555652 	 0.359372540790095
155.085526321 	 4.54068516866901
156.0933513531 	 2.92744347096165
157.1011763852 	 16.6544252662505
158.1090014173 	 4.3570641624259
159.1168264494 	 26.8375216410472
160.1246514815 	 2.17197418813284
161.0960910073 	 0.493153559624364
163.1117410715 	 0.48528408792823
165.0698762568 	 0.427574628823252
165.0910056294 	 0.264938880436493
166.0777012889 	 0.679397723099523
168.0933513531 	 0.868265043806726
169.1011763852 	 23.2254341325219
171.1168264494 	 26.297151251246
173.1324765136 	 75.1849325848591
177.0910056294 	 0.354126226326006
179.085526321 	 0.755469282828813
181.1011763852 	 2.05917842715492
183.1168264494 	 9.56927758249829
185.1324765136 	 3.74586852735953
187.1117410715 	 0.170505220082892
191.1066556936 	 2.16148155920466
192.0933513531 	 0.516761974712764
194.1090014173 	 0.398719899270762
195.1168264494 	 1.18042075442002
196.1246514815 	 0.991553433712817
197.1324765136 	 6.24836052672997
199.1481265778 	 100
201.163776642 	 16.035360159488
205.1223057578 	 1.05713236451393
207.1168264494 	 2.42117412517706
209.1172203799 	 0.834163999790147
210.1403015457 	 0.608572477834321
211.1117410715 	 0.125911547138135
211.1481265778 	 2.18508997429306
215.1794267062 	 1.7627616599339
223.1481265778 	 8.78495357011699
225.163776642 	 65.980273857615
229.1223057578 	 1.21714495566864
234.1403015457 	 0.188867320707203
239.1794267062 	 12.8324851791616
243.1743413283 	 42.5581029326898
245.1899913925 	 1.77063113163003
247.1328704441 	 0.0865641886574681
249.163776642 	 9.2807302869734
257.1536058862 	 0.369865169718273
267.1743413283 	 15.9724043859189
285.1849060146 	 58.1449032054981
303.1954707009 	 19.9700960075547
321.2060353872 	 0.448559886679608
419.2792003303 	 4.04753160904465
END IONS

BEGIN IONS
PEPMASS=362.1515
CHARGE=1
MSLEVEL=2
RT=0
SOURCE_INSTRUMENT=qTOF
FILENAME=CCMSLIB00000005824.ms
IONMODE=Positive
ORGANISM=Natural
NAME=Levofloxacin
PI=GNPS
DATACOLLECTOR=GNPS
SMILES=C[C@H]1COc2c3c(cc(c2N2CCN(C)CC2)F)c(=O)c(cn13)C(=O)O
INCHI=InChI=1S/C18H20FN3O4/c1-10-9-26-17-14-11(16(23)12(18(24)25)8-22(10)14)7-13(19)15(17)21-5-3-20(2)4-6-21/h7-8,10H,3-6,9H2,1-2H3,(H,24,25)/t10-/m0/s1
FORMULA=C18H20FN3O4
PUBMED=N/A
SUBMITUSER=BIOADREM
LIBRARYQUALITY=0
SPECTRUMID=CCMSLIB00000005824
SCANS=223
ID=CCMSLIB00000005824
122.0400533336 	 0.87022208792869
150.0349679557 	 1.23583622903762
151.0416501336 	 0.199425895150325
158.0236543457 	 0.592234476507025
165.045866993 	 0.259857984589817
171.0552888251 	 0.936697386312132
178.0298825778 	 1.62864481039432
179.033884681 	 1.26605227375737
179.0365647557 	 1.14820969935035
179.0377076099 	 3.10016618824596
180.045532642 	 0.410938208188548
187.0302169288 	 0.160145037014655
188.0506180199 	 0.936697386312132
191.0615170572 	 0.595256080979
192.0417097131 	 0.43208943949237
192.045532642 	 1.08777760991086
193.0369586862 	 0.897416528176462
193.0407816151 	 2.86145943495996
194.0611827062 	 0.15712343254268
195.0552888251 	 0.389786976884726
195.0564316793 	 0.302160447197462
199.0502034472 	 2.35987309261218
200.0580284793 	 0.323311678501284
202.0624451552 	 0.371657350052878
202.0662680841 	 0.28100921589364
203.0576941283 	 0.389786976884726
203.0615170572 	 1.11799365463061
204.045532642 	 1.66188245958604
205.0407816151 	 5.48723372110591
205.0771671214 	 5.17600846049252
207.0564316793 	 0.329354887445233
213.0658535114 	 0.250793171173893
215.0251315509 	 0.259857984589817
219.0526087504 	 4.24837588759631
219.0564316793 	 11.4186432995921
220.0604337825 	 1.16331772171023
220.0642567114 	 0.549932013899381
221.0682588146 	 6.06133857078108
221.0720817435 	 16.9179634385859
231.0564316793 	 0.855114065568817
231.0928171856 	 0.226620335398096
233.0720817435 	 4.07312282822179
234.0799067756 	 0.468348693156066
235.0877318077 	 0.256836380117843
241.0971536398 	 2.03656141411089
244.0768327704 	 0.939718990784106
245.0682588146 	 0.604320894394924
245.0720817435 	 0.495543133403837
246.0799067756 	 0.19640429067835
247.0839088788 	 1.86735156368031
247.0877318077 	 4.93730170720653
253.1209630871 	 0.35957093216498
261.099558943 	 30.2160447197462
261.1033818719 	 100
268.1080526771 	 0.927632572896208
268.1444381834 	 0.308203656141411
270.1237027413 	 0.833962834264995
273.099558943 	 0.797703580601299
273.1033818719 	 1.38691645263635
275.1190319361 	 0.296117238253513
296.1029672992 	 0.163166641486629
296.1393528055 	 0.501586342347787
298.1550028697 	 0.456262275268167
301.085720435 	 0.537845596011482
301.1182830124 	 1.7978546608249
301.1221059413 	 1.63468801933827
316.1091955313 	 0.229641939870071
316.1417581087 	 1.12101525910258
316.1455810376 	 3.87974014201541
318.1612311018 	 71.6241124036864
321.1245112445 	 0.71309865538601
344.1404956597 	 7.21559147907539
362.151060346 	 75.2016920985043
END IONS

BEGIN IONS
PEPMASS=448.133
CHARGE=1
MSLEVEL=2
RT=0
SOURCE_INSTRUMENT=qTOF
FILENAME=CCMSLIB00000005834.ms
IONMODE=Positive
ORGANISM=Natural
NAME=Elvitegravir
PI=GNPS
DATACOLLECTOR=GNPS
SMILES=CC(C)[C@@H](CO)n1cc(c(=O)c2cc(Cc3cccc(c3F)Cl)c(cc12)OC)C(=O)O
INCHI=InChI=1S/C23H23ClFNO5/c1-12(2)19(11-27)26-10-16(23(29)30)22(28)15-8-14(20(31-3)9-18(15)26)7-13-5-4-6-17(24)21(13)25/h4-6,8-10,12,19,27H,7,11H2,1-3H3,(H,29,30)/t19-/m1/s1
FORMULA=C23H23ClFNO5
PUBMED=N/A
SUBMITUSER=BIOADREM
LIBRARYQUALITY=0
SPECTRUMID=CCMSLIB00000005834
SCANS=225
ID=CCMSLIB00000005834
158.020974271 	 0.0966666666666667
184.0366243352 	 0.46
273.0312978652 	 1.89666666666667
273.0351207941 	 1.33
275.026961411 	 0.18
288.0585958904 	 0.153333333333333
301.0262124873 	 0.456666666666667
316.0535105125 	 1.32333333333333
317.0575126157 	 0.126666666666667
318.0480312041 	 0.18
329.0249500383 	 0.15
342.0289521415 	 0.27
344.0484251346 	 100
345.0524272378 	 5.90666666666667
346.0429458262 	 7.52
347.0480907836 	 1.78666666666667
362.0589898209 	 9.80333333333333
364.0535105125 	 3.27666666666667
365.0586554699 	 0.523333333333333
412.1110253914 	 0.1
430.1215900777 	 20.5266666666667
448.132154764 	 65.8933333333333
END IONS

BEGIN IONS
PEPMASS=315.2322
CHARGE=1
MSLEVEL=2
RT=0
SOURCE_INSTRUMENT=qTOF
FILENAME=CCMSLIB00000005857.ms
IONMODE=Positive
ORGANISM=Natural
NAME=Progesterone
PI=GNPS
DATACOLLECTOR=GNPS
SMILES=CC(=O)[C@H]1CC[C@H]2[C@@H]3CCC4=CC(=O)CC[C@]4(C)[C@H]3CC[C@]12C
INCHI=InChI=1S/C21H30O2/c1-13(22)17-6-7-18-16-5-4-14-12-15(23)8-10-20(14,2)19(16)9-11-21(17,18)3/h12,16-19H,4-11H2,1-3H3/t16-,17+,18-,19-,20-,21+/m0/s1
FORMULA=C21H30O2
PUBMED=N/A
SUBMITUSER=BIOADREM
LIBRARYQUALITY=0
SPECTRUMID=CCMSLIB00000005857
SCANS=227
ID=CCMSLIB00000005857
91.0542261926 	 1.2875
93.0698762568 	 1.13
95.085526321 	 1.5425
97.0647908789 	 23.6925
103.0542261926 	 0.055
105.0698762568 	 5.58
107.0491408147 	 1.3975
107.085526321 	 4.505
108.0569658468 	 0.0575
109.0647908789 	 100
111.0804409431 	 0.225
117.0698762568 	 2.5625
119.085526321 	 4.8525
121.0647908789 	 1.415
121.1011763852 	 3.66
123.0804409431 	 13.025
129.0698762568 	 1.48
131.085526321 	 4.54
133.1011763852 	 3.8225
135.0804409431 	 0.44
135.1168264494 	 0.5975
137.0960910073 	 1.6125
141.0698762568 	 0.06
142.0777012889 	 0.44
143.085526321 	 1.1825
145.1011763852 	 6.225
147.1168264494 	 4.1425
149.0960910073 	 0.7975
149.1324765136 	 0.61
151.1117410715 	 0.3025
155.085526321 	 0.1525
156.0933513531 	 0.425
157.1011763852 	 2.755
159.1168264494 	 4.4325
161.1324765136 	 2.515
163.1117410715 	 0.72
163.1481265778 	 0.575
169.1011763852 	 0.3975
171.1168264494 	 2.6875
172.1246514815 	 0.445
173.1324765136 	 2.8275
175.1117410715 	 0.135
175.1481265778 	 1.26
177.1273911357 	 0.785
183.1168264494 	 0.4575
185.1324765136 	 0.955
187.1117410715 	 0.29
187.1481265778 	 1.9775
189.1273911357 	 1.3475
189.163776642 	 0.83
191.1430411999 	 0.28
197.1324765136 	 0.1525
199.1481265778 	 0.2225
201.163776642 	 1.9725
203.1430411999 	 0.1575
209.1324765136 	 0.7325
213.163776642 	 0.7825
215.1430411999 	 0.2725
215.1794267062 	 0.54
219.1743413283 	 0.1825
223.1481265778 	 0.275
227.1794267062 	 0.32
229.1586912641 	 0.2325
237.163776642 	 0.2025
239.1794267062 	 0.6575
241.1586912641 	 1.3325
245.1899913925 	 0.32
253.1950767704 	 0.36
255.2107268346 	 0.9725
257.1899913925 	 0.2575
271.2056414567 	 0.2225
273.2212915209 	 0.6325
279.2107268346 	 2.24
297.2212915209 	 4.795
315.2318562072 	 11.1475
END IONS

BEGIN IONS
PEPMASS=349.119
CHARGE=1
MSLEVEL=2
RT=0
SOURCE_INSTRUMENT=qTOF
FILENAME=CCMSLIB00000005873.ms
IONMODE=Positive
ORGANISM=Natural
NAME=Camptothecin
PI=GNPS
DATACOLLECTOR=GNPS
SMILES=CC[C@@]1(c2cc3c4c(cc5ccccc5n4)Cn3c(=O)c2COC1=O)O
INCHI=InChI=1S/C20H16N2O4/c1-2-20(25)14-8-16-17-12(7-11-5-3-4-6-15(11)21-17)9-22(16)18(23)13(14)10-26-19(20)24/h3-8,25H,2,9-10H2,1H3/t20-/m0/s1
FORMULA=C20H16N2O4
PUBMED=N/A
SUBMITUSER=BIOADREM
LIBRARYQUALITY=0
SPECTRUMID=CCMSLIB00000005873
SCANS=229
ID=CCMSLIB00000005873
168.0681992351 	 21.3796461613374
181.0760242672 	 9.97565330303522
182.0838492993 	 0.262944327219607
193.0886003262 	 2.98977438727479
194.0964253583 	 1.1978574906671
204.0807752941 	 3.4507385164746
205.0760242672 	 7.0443109884759
207.0916743314 	 0.486933939295569
218.0838492993 	 3.49618568414218
219.0916743314 	 28.6869014770329
220.0994993635 	 41.093978250284
221.1073243956 	 22.6164583671482
231.0916743314 	 1.75296218146405
232.0756899162 	 1.11345560785587
233.1073243956 	 1.97695179354001
234.0787639214 	 1.07125466645025
234.1151494277 	 2.57425742574257
235.0865889535 	 7.49878266515176
235.1229744598 	 0.240220743385814
236.0944139856 	 0.512903749391333
244.0994993635 	 1.98669047232592
245.1073243956 	 0.912189579613699
246.0787639214 	 8.77779581236812
246.1151494277 	 2.86641778931992
247.0865889535 	 7.77471189741925
248.0944139856 	 22.6294432721961
249.1022390177 	 31.5955202077585
257.1073243956 	 0.973867878591138
259.1229744598 	 5.88865443921441
260.1069900446 	 3.10339230644376
261.138624524 	 2.08407726018503
262.1100640498 	 3.49618568414218
263.0815035756 	 1.49326408050641
263.1178890819 	 0.467456581723746
272.0944139856 	 1.44132446031488
275.0815035756 	 3.89547151436455
275.1178890819 	 7.76821944489531
276.0893286077 	 1.31796786236001
277.1335391461 	 9.80360331115079
280.0842432298 	 0.762863171563058
285.1022390177 	 0.626521668560299
287.1178890819 	 2.19120272683006
288.0893286077 	 0.642752799870151
289.0971536398 	 2.07109235513715
290.1049786719 	 0.56484336958286
291.112803704 	 2.02889141373154
292.0842432298 	 0.727154682681383
292.1206287361 	 1.06151598766434
303.112803704 	 3.61304982957312
305.1284537682 	 52.8096088297354
320.0791578519 	 1.85359519558513
321.1233683903 	 0.295406589839312
349.1182830124 	 100
END IONS

BEGIN IONS
PEPMASS=808.3539
CHARGE=1
MSLEVEL=2
RT=0
SOURCE_INSTRUMENT=qTOF
FILENAME=CCMSLIB00000005880.ms
IONMODE=Positive
ORGANISM=Natural
NAME=Docetaxel
PI=GNPS
DATACOLLECTOR=GNPS
SMILES=CC1=C2[C@H](C(=O)[C@]3(C)[C@H](C[C@@H]4[C@@](CO4)([C@H]3[C@@H]([C@](C[C@@H]1OC(=O)[C@@H]([C@H](c1ccccc1)N=C(O)OC(C)(C)C)O)(C2(C)C)O)OC(=O)c1ccccc1)OC(=O)C)O)O
INCHI=InChI=1S/C43H53NO14/c1-22-26(55-37(51)32(48)30(24-15-11-9-12-16-24)44-38(52)58-39(3,4)5)20-43(53)35(56-36(50)25-17-13-10-14-18-25)33-41(8,34(49)31(47)29(22)40(43,6)7)27(46)19-28-42(33,21-54-28)57-23(2)45/h9-18,26-28,30-33,35,46-48,53H,19-21H2,1-8H3,(H,44,52)/t26-,27-,28+,30-,31+,32+,33-,35-,41+,42-,43+/m0/s1
FORMULA=C43H53NO14
PUBMED=N/A
SUBMITUSER=BIOADREM
LIBRARYQUALITY=0
SPECTRUMID=CCMSLIB00000005880
SCANS=230
ID=CCMSLIB00000005880
105.0334907505 	 8.0470777397483
119.0491408147 	 0.836451553790042
119.085526321 	 0.338718544396957
121.0647908789 	 1.07763334456484
123.0440554368 	 0.27192064646178
123.0804409431 	 0.292019129026347
133.0647908789 	 0.500097536753622
133.1011763852 	 0.397240596570253
136.0730098415 	 1.33418456318313
137.0960910073 	 0.374777586645149
147.0804409431 	 0.479407922348922
149.059705501 	 0.517240360117517
151.0753555652 	 0.386009091607701
151.1117410715 	 0.197438034604858
161.0960910073 	 0.591722971974439
165.0546201231 	 0.624235223181826
171.0804409431 	 0.380097773206358
173.0960910073 	 0.287290074305272
177.0546201231 	 0.294974788227018
179.1066556936 	 0.208078407727275
180.0628390857 	 2.10620274639853
182.0784891499 	 13.16036815691
189.0910056294 	 0.326304775754136
191.0702701873 	 0.254777823097885
208.0577537078 	 1.26916006076835
209.0893881872 	 0.156058805795457
213.1206883156 	 0.324531380233734
221.1257736935 	 0.290245733505944
223.1050382514 	 0.637240123664781
226.0683183941 	 10.140866717504
239.0999528735 	 0.17438389283962
251.0999528735 	 0.185615397802172
255.137955822 	 0.218127649009559
263.1363383798 	 0.346403258318703
267.1312530019 	 0.487683768110802
269.1105175598 	 0.946402076055023
269.1172203799 	 0.94462868053462
281.1469030661 	 0.954677921816903
282.1309186509 	 0.312708743431047
286.1047039004 	 0.872510596038234
287.1210822461 	 0.866008145796757
287.1277850662 	 0.66324992463069
291.1312530019 	 0.455171516903415
291.137955822 	 0.646107101266795
297.1418176882 	 0.384826827927433
299.1574677524 	 1.30108118013561
299.1641705725 	 0.96531829493932
309.1418176882 	 2.14817310704807
309.1485205083 	 2.34738453717333
327.1523823745 	 13.0994815773762
329.1316469324 	 0.276058569342721
330.0945331446 	 0.499506404913488
345.1629470608 	 6.26954429646444
347.1422116187 	 0.244137449975468
347.1489144388 	 0.220492176370096
363.1735117471 	 0.335762885196285
363.1802145672 	 0.383644564247164
369.1629470608 	 0.605319004297528
387.1735117471 	 3.27900831722499
387.1802145672 	 0.309161952390242
405.1840764334 	 5.89949576454037
423.1946411197 	 0.894382474123204
431.178597125 	 1.77280438856278
449.1891618113 	 3.64432779442799
467.1997264976 	 2.26107928851372
491.1997264976 	 1.1580272748231
509.2102911839 	 4.72077887531256
527.2208558702 	 5.46856065308246
586.2561191645 	 0.242955186295199
690.282333915 	 0.285516678784869
708.2928986013 	 0.422068133855894
716.2615984729 	 0.367092872723403
734.2721631592 	 0.677437088793914
752.2827278455 	 2.5950687781896
808.3538814159 	 100
END IONS

BEGIN IONS
PEPMASS=298.1146
CHARGE=1
MSLEVEL=2
RT=0
SOURCE_INSTRUMENT=qTOF
FILENAME=CCMSLIB00000005883.ms
IONMODE=Positive
ORGANISM=Natural
NAME=Nelarabine
PI=GNPS
DATACOLLECTOR=GNPS
SMILES=COc1c2c([nH]c(=N)n1)n(cn2)[C@H]1[C@H]([C@@H]([C@@H](CO)O1)O)O
INCHI=InChI=1S/C11H15N5O5/c1-20-9-5-8(14-11(12)15-9)16(3-13-5)10-7(19)6(18)4(2-17)21-10/h3-4,6-7,10,17-19H,2H2,1H3,(H2,12,14,15)/t4-,6-,7+,10-/m1/s1
FORMULA=C11H15N5O5
PUBMED=N/A
SUBMITUSER=BIOADREM
LIBRARYQUALITY=0
SPECTRUMID=CCMSLIB00000005883
SCANS=233
ID=CCMSLIB00000005883
107.0239886967 	 0.296666666666667
107.033884681 	 2.65666666666667
109.0495347452 	 5.67666666666667
121.0495347452 	 0.986666666666667
134.0447837183 	 6.75666666666667
135.0287993031 	 5.43666666666667
135.0301367071 	 0.696666666666667
149.0444493673 	 33.3333333333333
149.0457867713 	 5.45
151.0475233725 	 4.72666666666667
151.0502034472 	 0.813333333333333
166.0709984688 	 31.61
166.0723358728 	 100
177.0168919461 	 0.863333333333333
244.0829005591 	 0.3
280.1040299317 	 0.38
298.114594618 	 16.45
END IONS

BEGIN IONS
PEPMASS=499.2275
CHARGE=1
MSLEVEL=2
RT=0
SOURCE_INSTRUMENT=qTOF
FILENAME=CCMSLIB00000005888.ms
IONMODE=Positive
ORGANISM=Natural
NAME=Masitinib
PI=GNPS
DATACOLLECTOR=GNPS
SMILES=Cc1ccc(cc1N=c1[nH]c(cs1)c1cccnc1)NC(=O)c1ccc(cc1)CN1CCN(C)CC1
INCHI=InChI=1S/C28H30N6OS/c1-20-5-10-24(16-25(20)31-28-32-26(19-36-28)23-4-3-11-29-17-23)30-27(35)22-8-6-21(7-9-22)18-34-14-12-33(2)13-15-34/h3-11,16-17,19H,12-15,18H2,1-2H3,(H,30,35)(H,31,32)
FORMULA=C28H30N6OS
PUBMED=N/A
SUBMITUSER=BIOADREM
LIBRARYQUALITY=0
SPECTRUMID=CCMSLIB00000005888
SCANS=236
ID=CCMSLIB00000005888
99.0916743314 	 1.59
105.0447241388 	 0.785
118.0413157826 	 1.935
119.0491408147 	 6.425
124.0181750373 	 0.555
124.0215458557 	 0.51
131.0491408147 	 0.91
135.0137208236 	 0.575
136.0215458557 	 1.285
137.0260000694 	 0.475
149.0167948288 	 0.25
151.032444893 	 2.35
176.0276938661 	 5.425
194.0964253583 	 0.365
195.1042503904 	 1.61
206.0964253583 	 1.18
207.0838117615 	 0.425
209.1073243956 	 0.3
219.0916743314 	 0.27
221.1073243956 	 0.38
222.0899973097 	 0.465
222.0913399804 	 0.815
223.0991650125 	 8.175
224.1056473739 	 8.275
224.1069900446 	 10.57
235.0865889535 	 0.285
237.1022390177 	 0.295
237.1056098361 	 0.555
238.1087213791 	 0.845
246.0774212507 	 0.545
246.0787639214 	 0.205
247.0865889535 	 2.195
249.100896347 	 0.72
249.1022390177 	 0.595
252.0477606062 	 0.955
261.100896347 	 2.605
261.1022390177 	 4.715
262.1087213791 	 0.775
263.1086838413 	 1.455
264.0589939945 	 0.695
264.113138055 	 2.015
279.0586596435 	 0.405
281.085543096 	 1.47
282.0695586808 	 0.3
282.0947107988 	 0.48
295.0886171012 	 0.995
295.0899597719 	 0.38
296.0930713149 	 0.705
321.0804577181 	 0.17
348.1290849324 	 0.465
351.1240370923 	 0.55
352.1318621244 	 0.8
356.1090181923 	 0.29
365.1396871565 	 3.105
366.150883007 	 0.545
371.1324932886 	 5
373.1321964754 	 0.465
381.113472406 	 1.06
382.1008588092 	 2.53
384.1039328144 	 0.85
385.1083870281 	 0.605
394.1696070764 	 0.975
395.1648560495 	 0.955
396.1693102632 	 0.735
399.1274079107 	 100
400.1318621244 	 16.42
401.1271110975 	 4.175
481.21689162 	 0.17
499.2274563063 	 82.14
END IONS

BEGIN IONS
PEPMASS=338.1523
CHARGE=1
MSLEVEL=2
RT=0
SOURCE_INSTRUMENT=qTOF
FILENAME=CCMSLIB00000005896.ms
IONMODE=Positive
ORGANISM=Natural
NAME=Linezolid
PI=GNPS
DATACOLLECTOR=GNPS
SMILES=CC(=NC[C@H]1CN(c2ccc(c(c2)F)N2CCOCC2)C(=O)O1)O
INCHI=InChI=1S/C16H20FN3O4/c1-11(21)18-9-13-10-20(16(22)24-13)12-2-3-15(14(17)8-12)19-4-6-23-7-5-19/h2-3,8,13H,4-7,9-10H2,1H3,(H,18,21)/t13-/m0/s1
FORMULA=C16H20FN3O4
PUBMED=N/A
SUBMITUSER=BIOADREM
LIBRARYQUALITY=0
SPECTRUMID=CCMSLIB00000005896
SCANS=237
ID=CCMSLIB00000005896
109.0448043605 	 0.528768047083346
115.0542261926 	 0.230920924909828
116.0494751657 	 0.388785008531813
117.0573001978 	 0.177277789698474
118.0651252299 	 0.15530964861192
122.0400533336 	 0.15173343959783
123.0478783657 	 0.307553975211763
124.0557033978 	 0.872084112436011
125.0509523709 	 0.219170523863532
130.0651252299 	 0.227344715895738
131.060374203 	 0.220703184869571
133.0760242672 	 0.156331422615946
134.0400533336 	 0.163483840644126
135.0478783657 	 3.47658604869775
136.0557033978 	 1.63177308442919
137.0635284299 	 2.45430115766995
142.0651252299 	 0.345359613360717
143.0615170572 	 0.205376574809184
144.0807752941 	 0.201289478793081
146.0400533336 	 0.184941094728668
148.0557033978 	 9.50913976846601
149.059705501 	 1.16431147758739
149.0635284299 	 0.202311252797106
150.071353462 	 1.31962112619931
151.0666024351 	 3.41221428644412
152.0744274672 	 1.44887553770857
153.0822524993 	 2.13652944241793
154.0651252299 	 0.148157230583739
156.0681992351 	 0.453156770785438
156.0693420893 	 0.0229899150905803
157.0760242672 	 0.67232729464897
159.0916743314 	 0.169103597666268
162.071353462 	 3.77698760588133
163.0666024351 	 7.52434376564591
164.0744274672 	 0.539496674125617
164.0870035262 	 0.0321858811268124
165.0822524993 	 5.0674881729659
166.0862546025 	 0.221724958873596
167.0979025635 	 0.453156770785438
169.0771671214 	 3.5935791721587
171.0916743314 	 0.870551451429973
171.0928171856 	 0.324924133280201
172.0557033978 	 0.945651840725868
174.058777403 	 3.68758238052907
175.0666024351 	 0.595694244347035
176.0744274672 	 0.577302312274571
177.0822524993 	 3.14399861038735
178.0900775314 	 0.160929405634062
179.0615170572 	 0.387763234527787
179.0979025635 	 1.43865779766831
181.0886003262 	 0.720861559840195
181.0897431804 	 0.102177400402579
185.1073243956 	 0.52774627307932
187.0666024351 	 1.12701672644045
189.0822524993 	 5.2376135446362
190.0900775314 	 1.38194934044488
191.0979025635 	 6.34061858198204
192.1019046667 	 0.311641071227866
195.0928171856 	 9.26595755550787
196.1006422177 	 0.754069214971033
197.0720817435 	 0.948717162737946
197.1073243956 	 0.884856287486334
197.1084672498 	 0.764797842013303
203.1178890819 	 0.289672930141311
207.0928171856 	 0.216616088853467
209.1084672498 	 3.63955900233986
210.112469353 	 0.191071738752823
215.1178890819 	 2.21009717070778
217.1135526277 	 0.931347004669507
221.1084672498 	 0.302955992193647
222.1037162229 	 0.189539077746784
222.1050588936 	 0.284053173119169
223.0877318077 	 0.303977766197672
223.124117314 	 0.990609896903003
233.1084672498 	 0.0699915192757666
235.124117314 	 7.27707445667167
241.098296494 	 2.79353012700651
250.098630845 	 0.196691495774965
250.0999735157 	 0.259530597022551
252.1142809092 	 2.06193994012404
276.1506664155 	 0.0449580561771347
277.1346820003 	 0.227344715895738
278.1299309734 	 0.29120559114735
279.1139465582 	 0.231431811911841
294.1612311018 	 1.50302955992194
296.1404956597 	 15.3266100603868
338.151060346 	 100
END IONS

BEGIN IONS
PEPMASS=385.2387
CHARGE=1
MSLEVEL=2
RT=0
SOURCE_INSTRUMENT=qTOF
FILENAME=CCMSLIB00000005910.ms
IONMODE=Positive
ORGANISM=Natural
NAME=MegestrolAcetate
PI=GNPS
DATACOLLECTOR=GNPS
SMILES=CC1=C[C@@H]2[C@H](CC[C@@]3(C)[C@H]2CC[C@@]3(C(=O)C)OC(=O)C)[C@@]2(C)CCC(=O)C=C12
INCHI=InChI=1S/C24H32O4/c1-14-12-18-19(22(4)9-6-17(27)13-21(14)22)7-10-23(5)20(18)8-11-24(23,15(2)25)28-16(3)26/h12-13,18-20H,6-11H2,1-5H3/t18-,19+,20+,22-,23+,24+/m1/s1
FORMULA=C24H32O4
PUBMED=N/A
SUBMITUSER=BIOADREM
LIBRARYQUALITY=0
SPECTRUMID=CCMSLIB00000005910
SCANS=239
ID=CCMSLIB00000005910
105.0698762568 	 4.38973707754914
107.085526321 	 3.10254264192329
109.0647908789 	 0.493520736529193
109.1011763852 	 2.72446535253543
111.0804409431 	 0.698432855205056
119.085526321 	 4.03186239141101
121.0647908789 	 3.05636526306676
121.1011763852 	 2.10107073797224
129.0698762568 	 1.34491615919651
131.085526321 	 4.6639152645098
133.1011763852 	 11.186470027995
137.0960910073 	 1.80668994776184
142.0777012889 	 2.64365493953649
143.085526321 	 4.05495108083927
145.1011763852 	 9.97431383301105
147.1168264494 	 3.62492424023781
149.0960910073 	 1.81246212011891
151.1117410715 	 1.14000404052065
155.085526321 	 2.90917486796156
156.0933513531 	 0.343444255245462
157.1011763852 	 8.50240988195908
159.0804409431 	 1.09959883402118
159.1168264494 	 5.45181679124939
161.0960910073 	 8.93532280873907
167.085526321 	 2.4531732517533
169.1011763852 	 10.1734537793298
171.0804409431 	 1.39686571041011
171.1168264494 	 7.93673699096655
173.0960910073 	 6.09541400906231
173.1324765136 	 1.94522208433144
175.1117410715 	 18.2602672515801
177.1273911357 	 0.499292908886259
179.085526321 	 2.87165574764062
181.1011763852 	 2.88897226471182
182.1090014173 	 1.26987791855465
183.1168264494 	 18.0726716499755
185.1324765136 	 5.17763860428872
187.1117410715 	 16.0033478599671
188.1195661036 	 1.35068833155358
189.1273911357 	 3.01596005656729
193.1011763852 	 3.22375826142169
194.1090014173 	 4.71875090190193
195.1168264494 	 7.35951975525989
196.1246514815 	 1.26987791855465
197.1324765136 	 12.2918410343733
198.1403015457 	 8.59476463967214
199.1481265778 	 2.3319576322549
201.1273911357 	 0.984155386879852
207.1168264494 	 1.56714479494358
208.1246514815 	 2.80238967935583
209.1324765136 	 47.3260411555889
211.1481265778 	 23.6889953534012
215.1430411999 	 1.11402926491385
221.1324765136 	 1.68836041444198
222.1403015457 	 1.01301624866519
223.1481265778 	 18.3035585442581
224.1559516099 	 80.8883373257525
225.163776642 	 17.2761118647003
229.1586912641 	 0.730179803168923
234.1403015457 	 3.87889982394874
235.1481265778 	 3.33631562238448
237.163776642 	 4.80533348725793
239.1430411999 	 1.53539784697971
239.1794267062 	 1.06496579987878
241.1586912641 	 8.19071257467748
247.1481265778 	 1.38820745187451
249.163776642 	 15.1894715576207
251.1430411999 	 2.1847672371497
253.1586912641 	 2.25691939161303
255.1743413283 	 7.33931715201016
263.1794267062 	 2.85433923056942
265.1586912641 	 3.31611301913475
265.1950767704 	 21.7235706658201
267.1743413283 	 95.6391237842362
281.1899913925 	 11.5212560247049
282.1978164246 	 22.2401800917775
283.2056414567 	 10.8459118589281
289.1950767704 	 1.59600565672891
307.2056414567 	 10.9757857369621
325.216206143 	 83.6358913677162
385.2373355156 	 100
END IONS

BEGIN IONS
PEPMASS=496.4003
CHARGE=1
MSLEVEL=2
RT=0
SOURCE_INSTRUMENT=qTOF
FILENAME=CCMSLIB00000005925.ms
IONMODE=Positive
ORGANISM=Natural
NAME=Orlistat
PI=GNPS
DATACOLLECTOR=GNPS
SMILES=CCCCCCCCCCC[C@@H](C[C@H]1[C@H](CCCCCC)C(=O)O1)OC(=O)[C@H](CC(C)C)N=CO
INCHI=InChI=1S/C29H53NO5/c1-5-7-9-11-12-13-14-15-16-18-24(34-29(33)26(30-22-31)20-23(3)4)21-27-25(28(32)35-27)19-17-10-8-6-2/h22-27H,5-21H2,1-4H3,(H,30,31)/t24-,25-,26-,27-/m0/s1
FORMULA=C29H53NO5
PUBMED=N/A
SUBMITUSER=BIOADREM
LIBRARYQUALITY=0
SPECTRUMID=CCMSLIB00000005925
SCANS=242
ID=CCMSLIB00000005925
93.0698762568 	 0.978204093261788
95.085526321 	 9.4591386105703
97.0647908789 	 0.759770169523719
97.1011763852 	 2.63782705731516
105.0698762568 	 7.41963056175507
107.085526321 	 2.99634360605917
109.0647908789 	 2.49062158696994
109.1011763852 	 26.7367871218956
110.1090014173 	 0.315779476708296
111.1168264494 	 4.93613182012441
114.0913399804 	 57.8303813096538
119.085526321 	 2.45500736027352
121.1011763852 	 4.84590911249347
123.0804409431 	 3.71337670354718
123.1168264494 	 13.9085426658436
125.1324765136 	 4.2689586400114
127.1117410715 	 0.301533786029726
132.1019046667 	 12.9612042357187
133.1011763852 	 6.78332304477895
135.1168264494 	 1.40320053183912
137.1324765136 	 9.72980673346313
138.1403015457 	 0.534213400446365
142.0862546025 	 15.4565743862482
147.1168264494 	 1.32247495132722
148.1246514815 	 1.29635785174985
149.1324765136 	 1.91129683270811
151.1481265778 	 6.63374329265397
153.163776642 	 0.429745002136854
160.0968192888 	 67.8308561660098
161.1324765136 	 1.28448644285104
163.1481265778 	 3.70387957642813
165.163776642 	 2.77078683698181
167.1430411999 	 5.14032005318391
175.1481265778 	 2.85151241749371
177.163776642 	 1.0826724915713
179.1430411999 	 9.82240372287383
179.1794267062 	 0.738401633505864
181.1586912641 	 1.03756113775583
189.163776642 	 3.69675673108885
191.1794267062 	 5.43473099387435
193.1586912641 	 1.64775155515457
193.1950767704 	 24.9584500688542
203.1794267062 	 1.32247495132722
207.1743413283 	 0.458236383493993
211.2056414567 	 3.42371432641626
217.1950767704 	 1.2559950614939
219.2107268346 	 0.698038843249917
221.1899913925 	 1.74034854456527
223.2056414567 	 1.03281257419631
235.2056414567 	 1.65250011871409
237.2212915209 	 0.308656631369011
245.2263768988 	 3.26463744717223
263.2369415851 	 0.664798898333254
291.3046272198 	 10.1239375089036
292.3124522519 	 1.07554964623201
301.2889771556 	 20.0033239944917
309.3151919061 	 1.06130395555345
319.2995418419 	 100
320.307366874 	 6.42243221425519
337.3101065282 	 32.0385583361033
370.2951847455 	 1.17289519920224
452.4098205728 	 23.7428177976162
496.399649817 	 52.1154850657676
496.4081978639 	 0.890355667410608
END IONS

BEGIN IONS
PEPMASS=515.2442
CHARGE=1
MSLEVEL=2
RT=0
SOURCE_INSTRUMENT=qTOF
FILENAME=CCMSLIB00000005935.ms
IONMODE=Positive
ORGANISM=Natural
NAME=Telmisartan
PI=GNPS
DATACOLLECTOR=GNPS
SMILES=CCCc1nc2c(C)cc(cc2n1Cc1ccc(cc1)c1ccccc1C(=O)O)c1nc2ccccc2n1C
INCHI=InChI=1S/C33H30N4O2/c1-4-9-30-35-31-21(2)18-24(32-34-27-12-7-8-13-28(27)36(32)3)19-29(31)37(30)20-22-14-16-23(17-15-22)25-10-5-6-11-26(25)33(38)39/h5-8,10-19H,4,9,20H2,1-3H3,(H,38,39)
FORMULA=C33H30N4O2
PUBMED=N/A
SUBMITUSER=BIOADREM
LIBRARYQUALITY=0
SPECTRUMID=CCMSLIB00000005935
SCANS=245
ID=CCMSLIB00000005935
133.0284053726 	 0.192044264188445
141.0698762568 	 0.0658053772393973
152.0620512247 	 0.607021030861379
153.0698762568 	 0.158470092127528
155.085526321 	 0.531814885444925
165.0334907505 	 0.119524052536864
165.0698762568 	 1.06094383712498
166.0777012889 	 0.108780317477371
167.085526321 	 0.202787999247939
168.0569658468 	 0.0402890064731004
183.0804409431 	 0.656710805511536
193.0647908789 	 3.52125916574897
194.0712732403 	 0.200102065483065
211.0753555652 	 19.3924417823856
212.0818379266 	 0.488839945206951
261.113472406 	 0.722516182750933
262.1212974381 	 0.145040423303161
274.1212974381 	 0.134296688243668
275.1291224702 	 0.954849453412479
276.1369475023 	 26.0616153205662
288.1369475023 	 0.154441191480218
289.1447725344 	 5.52362278746206
301.1447725344 	 0.033574172060917
302.1525975665 	 0.177271628481642
303.1604225986 	 1.87075286723429
308.1267767465 	 0.279337111546829
317.1760726628 	 2.1017431710134
439.1804893387 	 0.0550616421799038
453.1709872849 	 0.230990303779109
455.1866373491 	 0.357229190728157
467.1866373491 	 1.28387633960947
468.1944623812 	 0.592248395154576
469.191054025 	 0.0725202116515807
471.2543229838 	 0.377373693964707
473.1972020354 	 0.100722516182751
483.2179374775 	 0.120867019419301
485.1972020354 	 0.915903413821815
497.2335875417 	 53.0391340549542
498.2414125738 	 9.98630173779915
515.244152228 	 100
END IONS

BEGIN IONS
PEPMASS=250.0194
CHARGE=1
MSLEVEL=2
RT=0
SOURCE_INSTRUMENT=qTOF
FILENAME=CCMSLIB00000005959.ms
IONMODE=Positive
ORGANISM=Natural
NAME=Erdosteine
PI=GNPS
DATACOLLECTOR=GNPS
SMILES=C1CSC(=O)C1N=C(CSCC(=O)O)O
INCHI=InChI=1S/C8H11NO4S2/c10-6(3-14-4-7(11)12)9-5-1-2-15-8(5)13/h5H,1-4H2,(H,9,10)(H,11,12)
FORMULA=C8H11NO4S2
PUBMED=N/A
SUBMITUSER=BIOADREM
LIBRARYQUALITY=0
SPECTRUMID=CCMSLIB00000005959
SCANS=246
ID=CCMSLIB00000005959
100.0215458557 	 27.1902796349049
101.0055614405 	 12.3074239869775
102.0371959199 	 77.2803906749608
104.0164604778 	 9.6622289401779
105.0004760626 	 100
112.0215458557 	 1.09295971164467
114.0371959199 	 20.2604499738387
115.0086354457 	 1.13365502005697
116.0164604778 	 2.02313818964014
118.032110542 	 75.8153595721179
128.0164604778 	 7.08098366374048
130.032110542 	 15.7839660484856
132.0113750999 	 2.86611243532353
132.9953906847 	 0.639497703621883
142.032110542 	 37.9629091331899
158.0092666099 	 2.255682809139
170.0270251641 	 0.436021161560374
176.0137804031 	 1.77315272367886
176.0198312962 	 42.0266263589326
188.0375898504 	 1.29643625370618
204.0134032476 	 36.1897564095111
204.0147459183 	 58.1361548747166
222.0253106046 	 3.9590721469682
232.0096605404 	 30.9051799313993
250.018882556 	 0.348816929248299
250.0202252267 	 10.0284867158886
END IONS

BEGIN IONS
PEPMASS=237.069
CHARGE=1
MSLEVEL=2
RT=0
SOURCE_INSTRUMENT=qTOF
FILENAME=CCMSLIB00000005970.ms
IONMODE=Positive
ORGANISM=Natural
NAME=Zileuton
PI=GNPS
DATACOLLECTOR=GNPS
SMILES=CC(c1cc2ccccc2s1)N(C(=N)O)O
INCHI=InChI=1S/C11H12N2O2S/c1-7(13(15)11(12)14)10-6-8-4-2-3-5-9(8)16-10/h2-7,15H,1H3,(H2,12,14)
FORMULA=C11H12N2O2S
PUBMED=N/A
SUBMITUSER=BIOADREM
LIBRARYQUALITY=0
SPECTRUMID=CCMSLIB00000005970
SCANS=249
ID=CCMSLIB00000005970
102.0464011605 	 1.01
115.0542261926 	 21.86
117.0698762568 	 28.73
127.0542261926 	 13.63
128.0620512247 	 100
134.0184718505 	 2.16
160.0341219147 	 1
161.0419469468 	 15.74
237.0692243298 	 0
END IONS

BEGIN IONS
PEPMASS=245.097
CHARGE=1
MSLEVEL=2
RT=0
SOURCE_INSTRUMENT=qTOF
FILENAME=CCMSLIB00000005981.ms
IONMODE=Positive
ORGANISM=Natural
NAME=Flurbiprofen
PI=GNPS
DATACOLLECTOR=GNPS
SMILES=CC(c1ccc(c2ccccc2)c(c1)F)C(=O)O
INCHI=InChI=1S/C15H13FO2/c1-10(15(17)18)12-7-8-13(14(16)9-12)11-5-3-2-4-6-11/h2-10H,1H3,(H,17,18)
FORMULA=C15H13FO2
PUBMED=N/A
SUBMITUSER=BIOADREM
LIBRARYQUALITY=0
SPECTRUMID=CCMSLIB00000005981
SCANS=250
ID=CCMSLIB00000005981
64.0318939505 	 0.366871503255985
101.0385761284 	 1.15564523525635
103.0542261926 	 1.27182121128741
115.0542261926 	 0.317955302821853
121.0448043605 	 0.645082393225106
123.0229260642 	 0.137576813720994
133.0448043605 	 1.00889663395396
139.0553690468 	 0.360756978201718
150.0475440147 	 0.284325415023388
151.0553690468 	 2.14314103152038
152.0620512247 	 3.34158794215659
152.0631940789 	 0.513620104558378
153.0698762568 	 1.16481702283775
157.0448043605 	 0.0672597755969305
159.0604544247 	 2.19817175700877
163.0542261926 	 0.223180164480724
164.0620512247 	 0.0947751383411293
165.071019111 	 0.262924577333456
170.0526293926 	 0.269039102387722
171.0604544247 	 1.98110611758232
176.0620512247 	 1.28405026139595
177.0698762568 	 3.15203766547433
177.071019111 	 6.53642728301079
178.0777012889 	 69.4793481916292
178.0788441431 	 7.89385184505793
179.085526321 	 28.9125317190987
183.0604544247 	 26.3413739337797
184.0682794568 	 29.9458864532697
196.0682794568 	 1.27793573634168
197.0761044889 	 9.32465070775627
198.083929521 	 0.571708092573909
199.0917545531 	 100
208.0894088294 	 0.458589379069981
245.0972338615 	 0.24763826469779
END IONS

BEGIN IONS
PEPMASS=498.1773
CHARGE=1
MSLEVEL=2
RT=0
SOURCE_INSTRUMENT=qTOF
FILENAME=CCMSLIB00000005988.ms
IONMODE=Positive
ORGANISM=Natural
NAME=Idarubicin
PI=GNPS
DATACOLLECTOR=GNPS
SMILES=C[C@H]1[C@H]([C@H](C[C@@H](O1)O[C@H]1C[C@@](Cc2c1c(c1c(C(=O)c3ccccc3C1=O)c2O)O)(C(=O)C)O)N)O
INCHI=InChI=1S/C26H27NO9/c1-10-21(29)15(27)7-17(35-10)36-16-9-26(34,11(2)28)8-14-18(16)25(33)20-19(24(14)32)22(30)12-5-3-4-6-13(12)23(20)31/h3-6,10,15-17,21,29,32-34H,7-9,27H2,1-2H3/t10-,15-,16-,17-,21+,26-/m0/s1
FORMULA=C26H27NO9
PUBMED=N/A
SUBMITUSER=BIOADREM
LIBRARYQUALITY=0
SPECTRUMID=CCMSLIB00000005988
SCANS=252
ID=CCMSLIB00000005988
104.0706045383 	 0.198435413089105
112.0756899162 	 3.43827513833238
113.059705501 	 13.7073077656936
130.0862546025 	 98.6452966991032
148.0968192888 	 0.843350505628697
189.0698762568 	 0.148826559816829
207.0804409431 	 0.103033772180881
217.0647908789 	 0.328181644724289
235.0753555652 	 0.232780003816066
263.0702701873 	 1.36615149780576
273.0546201231 	 0.973096737263881
291.0651848094 	 100
293.0741320535 	 1.21732493798893
305.0808348736 	 0.190803281816447
315.0651848094 	 0.122114100362526
333.0757494957 	 30.0591490173631
351.086314182 	 4.81587483304713
498.1758574708 	 3.98778858996375
END IONS

BEGIN IONS
PEPMASS=253.1233
CHARGE=1
MSLEVEL=2
RT=0
SOURCE_INSTRUMENT=qTOF
FILENAME=CCMSLIB00000006006.ms
IONMODE=Positive
ORGANISM=Natural
NAME=Cimetidine
PI=GNPS
DATACOLLECTOR=GNPS
SMILES=Cc1c(CSCCNC(=NC)NC#N)[nH]cn1
INCHI=InChI=1S/C10H16N6S/c1-8-9(16-7-15-8)5-17-4-3-13-10(12-2)14-6-11/h7H,3-5H2,1-2H3,(H,15,16)(H2,12,13,14)
FORMULA=C10H16N6S
PUBMED=N/A
SUBMITUSER=BIOADREM
LIBRARYQUALITY=0
SPECTRUMID=CCMSLIB00000006006
SCANS=255
ID=CCMSLIB00000006006
95.060374203 	 50.1729056799516
99.0665222134 	 12.6437278464598
103.032444893 	 0.63542837382208
117.0480949572 	 61.5414541367684
125.0821722776 	 1.60370018155096
128.0276938661 	 0.402005705887438
132.0589939945 	 0.211809457940693
155.0637450214 	 0.220454741938273
159.0698930318 	 100
172.0902941229 	 2.52874556929195
211.1011931602 	 6.71306302412034
253.1229912348 	 58.1914065877064
END IONS

BEGIN IONS
PEPMASS=428.2528
CHARGE=1
MSLEVEL=2
RT=0
SOURCE_INSTRUMENT=qTOF
FILENAME=CCMSLIB00000006035.ms
IONMODE=Positive
ORGANISM=Natural
NAME=Ranolazine
PI=GNPS
DATACOLLECTOR=GNPS
SMILES=Cc1cccc(C)c1N=C(CN1CCN(CC1)CC(COc1ccccc1OC)O)O
INCHI=InChI=1S/C24H33N3O4/c1-18-7-6-8-19(2)24(18)25-23(29)16-27-13-11-26(12-14-27)15-20(28)17-31-22-10-5-4-9-21(22)30-3/h4-10,20,28H,11-17H2,1-3H3,(H,25,29)
FORMULA=C24H33N3O4
PUBMED=N/A
SUBMITUSER=BIOADREM
LIBRARYQUALITY=0
SPECTRUMID=CCMSLIB00000006035
SCANS=256
ID=CCMSLIB00000006035
97.0760242672 	 1.8678642221892
98.0838492993 	 4.87165989557491
99.0916743314 	 0.310303225692704
100.0756899162 	 0.996395747435339
101.1073243956 	 2.2990648085414
102.0913399804 	 0.0453365102473107
103.0542261926 	 0.0853837609657684
105.0698762568 	 0.152381048331239
106.0651252299 	 0.0334986436827351
107.0491408147 	 1.22559699368563
108.0807752941 	 0.0329949046799872
109.0647908789 	 0.0576781158146341
109.0760242672 	 0.0355135996937267
110.060039852 	 0.0385360337102141
111.0916743314 	 5.43005458012095
112.0756899162 	 0.687099999748131
112.0994993635 	 0.0700197213819576
113.1073243956 	 7.44400311310704
114.0913399804 	 0.0700197213819576
114.1151494277 	 2.31014706660185
119.0491408147 	 0.379819208071914
120.0807752941 	 0.097221627530344
121.0284053726 	 0.126690359191096
121.0522148199 	 0.898418511400873
121.0647908789 	 0.395435117157099
122.0362304047 	 0.960882147741612
122.0964253583 	 0.179834823980999
123.0440554368 	 0.618843364875791
123.0916743314 	 0.0541519427953989
124.0994993635 	 0.943755021648184
125.059705501 	 0.294687316607519
127.1229744598 	 1.55882034400337
131.0491408147 	 0.0518851172830333
132.0807752941 	 0.63924479448708
133.0647908789 	 0.100747800549579
134.0964253583 	 1.97667184678275
135.0440554368 	 0.0355135996937267
135.0804409431 	 0.309295747687208
137.059705501 	 0.956096627215507
137.1046443209 	 0.861645564200276
137.1073243956 	 1.0364429981538
138.1151494277 	 0.729414075978954
139.0865889535 	 0.206532991126637
139.1229744598 	 0.478300183109128
140.0944139856 	 0.189405865033209
141.1022390177 	 0.119889882653999
142.1100640498 	 0.198725036584045
147.0440554368 	 0.597182587757631
148.1120754225 	 0.207540469132133
149.059705501 	 0.727399119967962
151.0753555652 	 0.0818575879465332
155.1178890819 	 9.60831773841337
157.1335391461 	 0.350350476411162
161.059705501 	 1.11250758756873
163.0753555652 	 1.00218874596694
179.0702701873 	 2.14769123821566
191.1178890819 	 0.354128518931771
217.1335391461 	 0.117874926643008
222.112469353 	 0.27176719198249
224.1281194172 	 1.00848548350129
236.1281194172 	 0.0541519427953989
245.1522632155 	 0.405258027710683
248.1519288645 	 1.05583694975959
260.1757383118 	 1.03518365064693
261.1597538966 	 0.3770486435568
264.1468434866 	 1.93309842304505
274.1887083013 	 1.08706876792996
279.1703185829 	 18.7181857336077
286.191388376 	 0.277812060015465
304.2019530623 	 0.497190395712174
410.243817877 	 0.282093841538822
411.2516429091 	 0.0813538489437853
428.2543825633 	 100
END IONS

BEGIN IONS
PEPMASS=255.0653
CHARGE=1
MSLEVEL=2
RT=0
SOURCE_INSTRUMENT=qTOF
FILENAME=CCMSLIB00000006049.ms
IONMODE=Positive
ORGANISM=Natural
NAME=Diadzein
PI=GNPS
DATACOLLECTOR=GNPS
SMILES=c1cc(ccc1c1coc2cc(ccc2c1=O)O)O
INCHI=InChI=1S/C15H10O4/c16-10-3-1-9(2-4-10)13-8-19-14-7-11(17)5-6-12(14)15(13)18/h1-8,16-17H
FORMULA=C15H10O4
PUBMED=N/A
SUBMITUSER=BIOADREM
LIBRARYQUALITY=0
SPECTRUMID=CCMSLIB00000006049
SCANS=260
ID=CCMSLIB00000006049
103.0542261926 	 0.49696917587378
105.0334907505 	 2.17617471303899
107.0491408147 	 0.53995958901165
109.0284053726 	 1.87352220454839
115.0542261926 	 0.509006491552384
117.0698762568 	 0.235587463995529
118.0413157826 	 0.263101328403766
119.0491408147 	 3.81754868664288
120.0205803405 	 0.0851210180129831
121.0284053726 	 0.903658484158033
127.0542261926 	 2.15897854778384
128.0620512247 	 8.83968874940888
129.0698762568 	 3.36271011564421
131.0491408147 	 2.8218907183698
133.0284053726 	 1.3464597394781
134.0362304047 	 0.879583852800826
135.0440554368 	 0.104036799793646
137.0233199947 	 26.4141696401702
139.0542261926 	 0.0223550148316925
141.0698762568 	 1.74369115687202
143.085526321 	 3.28962641330983
147.0440554368 	 0.126391814625339
149.0233199947 	 2.20110915265896
151.0542261926 	 2.14522161557973
152.0620512247 	 18.0551137096427
153.0698762568 	 14.3596577963114
155.085526321 	 0.095438717166072
156.0569658468 	 0.374876402562229
157.0647908789 	 3.30768238682774
159.0440554368 	 0.244185546623103
165.0698762568 	 1.76604617170371
166.0777012889 	 0.409268733072525
167.033884681 	 0.0816817849619535
167.085526321 	 8.59808262757405
169.0647908789 	 2.27075362194231
170.072615911 	 0.517604574179958
171.0804409431 	 5.71686513907399
175.0389700589 	 0.0223550148316925
181.0647908789 	 25.1244572460341
182.072615911 	 0.902798675895275
184.0518804689 	 4.94475731911784
185.059705501 	 0.287175959760973
187.0389700589 	 0.165083186449422
197.059705501 	 5.4339882206268
198.0675305331 	 1.60612183483083
199.0753555652 	 20.4428012553201
209.059705501 	 0.412707966123554
210.0675305331 	 0.354241004256051
211.0753555652 	 0.871845578436009
212.046795091 	 0.601005975667426
213.0546201231 	 0.108335841107433
225.0546201231 	 0.449679721422123
227.0702701873 	 12.7991057994067
237.0546201231 	 5.80886462318903
255.0651848094 	 100
END IONS

BEGIN IONS
PEPMASS=265.156
CHARGE=1
MSLEVEL=2
RT=0
SOURCE_INSTRUMENT=qTOF
FILENAME=CCMSLIB00000006060.ms
IONMODE=Positive
ORGANISM=Natural
NAME=Vorinostat
PI=GNPS
DATACOLLECTOR=GNPS
SMILES=C(CCCC(=NO)O)CCC(=Nc1ccccc1)O
INCHI=InChI=1S/C14H20N2O3/c17-13(15-12-8-4-3-5-9-12)10-6-1-2-7-11-14(18)16-19/h3-5,8-9,19H,1-2,6-7,10-11H2,(H,15,17)(H,16,18)
FORMULA=C14H20N2O3
PUBMED=N/A
SUBMITUSER=BIOADREM
LIBRARYQUALITY=0
SPECTRUMID=CCMSLIB00000006060
SCANS=262
ID=CCMSLIB00000006060
100.0393044099 	 0.319937573156457
101.047129442 	 0.866172454155287
102.0913399804 	 11.0651580179477
103.0542261926 	 12.0327740928599
104.046795091 	 23.0667186890363
105.0698762568 	 0.507218103784627
106.0624451552 	 6.47678501755755
108.0807752941 	 5.36090518923137
109.0647908789 	 3.3788529067499
110.0964253583 	 0.663285212641436
111.0804409431 	 37.5107296137339
116.0706045383 	 0.319937573156457
117.0573001978 	 1.57627779945377
118.0624451552 	 4.65860319937573
119.0702701873 	 6.86695278969957
120.0443897878 	 100
121.0647908789 	 20.046820132657
126.0913399804 	 6.07881388997269
130.0624451552 	 5.09559110417479
132.0780952194 	 8.29496683573937
139.0753555652 	 63.6753804135778
143.072950262 	 0.56184159188451
144.0780952194 	 1.47483417869684
145.0859202515 	 1.1002731174405
153.0698762568 	 0.171673819742489
156.0780952194 	 0.515021459227468
157.0859202515 	 0.327740928599298
158.0937452836 	 2.05228248146703
170.0964253583 	 0.873975809598127
171.1015703157 	 1.0222395630121
172.0968192888 	 47.4053843152556
184.1120754225 	 0.343347639484979
186.125045412 	 2.77019118220835
196.1093953478 	 0.195083886071011
214.1226401088 	 0.358954350370659
265.1546685187 	 0
END IONS

BEGIN IONS
PEPMASS=213.0336
CHARGE=1
MSLEVEL=2
RT=0
SOURCE_INSTRUMENT=qTOF
FILENAME=CCMSLIB00000006067.ms
IONMODE=Positive
ORGANISM=Natural
NAME=Zonisamide
PI=GNPS
DATACOLLECTOR=GNPS
SMILES=c1ccc2c(c1)c(CS(=O)(=O)N)no2
INCHI=InChI=1S/C8H8N2O3S/c9-14(11,12)5-7-6-3-1-2-4-8(6)13-10-7/h1-4H,5H2,(H2,9,11,12)
FORMULA=C8H8N2O3S
PUBMED=N/A
SUBMITUSER=BIOADREM
LIBRARYQUALITY=0
SPECTRUMID=CCMSLIB00000006067
SCANS=265
ID=CCMSLIB00000006067
102.0338251015 	 50.0256374399851
104.0494751657 	 37.421339672773
105.0334907505 	 15.4896751037151
120.0443897878 	 5.08087446977113
132.0443897878 	 100
149.0709388893 	 7.36959865753041
150.0549544741 	 29.6508646809304
213.0328388235 	 37.3141285601081
END IONS

BEGIN IONS
PEPMASS=488.1636
CHARGE=1
MSLEVEL=2
RT=0
SOURCE_INSTRUMENT=qTOF
FILENAME=CCMSLIB00000006077.ms
IONMODE=Positive
ORGANISM=Natural
NAME=Dasatinib
PI=GNPS
DATACOLLECTOR=GNPS
SMILES=Cc1cccc(c1N=C(c1cnc(Nc2cc(nc(C)n2)N2CCN(CC2)CCO)s1)O)Cl
INCHI=InChI=1S/C22H26ClN7O2S/c1-14-4-3-5-16(23)20(14)28-21(32)17-13-24-22(33-17)27-18-12-19(26-15(2)25-18)30-8-6-29(7-9-30)10-11-31/h3-5,12-13,31H,6-11H2,1-2H3,(H,28,32)(H,24,25,26,27)
FORMULA=C22H26ClN7O2S
PUBMED=N/A
SUBMITUSER=BIOADREM
LIBRARYQUALITY=0
SPECTRUMID=CCMSLIB00000006077
SCANS=267
ID=CCMSLIB00000006077
102.0913399804 	 0.21953896816685
109.0760242672 	 0.141132193821546
114.0913399804 	 3.65767602320841
125.0167948288 	 0.44691861376823
131.1178890819 	 0.117610161517955
134.0712732403 	 0.152893209973342
135.0790982724 	 0.215618629449584
136.0869233045 	 0.215618629449584
151.0978223418 	 0.239140661753175
152.0276938661 	 0.133291516387016
161.0821722776 	 0.772306727301239
176.0276938661 	 0.117610161517955
176.0930713149 	 0.384193194291987
177.113472406 	 0.11368982280069
178.0433439303 	 0.368511839422926
180.113138055 	 0.297945742512153
187.0978223418 	 0.192096597145993
193.0527020093 	 1.76415242276933
193.0542429676 	 1.96016935863259
202.1087213791 	 0.270503371491297
207.0698930318 	 0.384193194291987
219.0683520735 	 0.517484710679003
219.0698930318 	 0.33322879096754
232.0636010466 	 11.0945585698604
232.0651420049 	 12.4274737337306
233.0491575897 	 0.787988082170299
234.0787639214 	 1.40348126078093
234.0807920691 	 2.09738121373687
248.1505861938 	 0.231299984318645
258.0792511108 	 3.34012858710993
258.0807920691 	 2.83832523129998
260.060056627 	 1.97585071350165
260.0613992977 	 2.22675239140662
260.0944139856 	 0.57628979143798
260.0964421333 	 0.564528775286185
261.0606710162 	 0.305786419946683
280.1226568838 	 0.290105065077623
286.0757066912 	 0.231299984318645
292.0305863587 	 0.882076211384664
310.1120921975 	 0.137211855104281
317.0253481424 	 0.368511839422926
317.0258353318 	 0.344989807119335
319.041485396 	 0.45475929120276
319.1320149628 	 6.49992159322565
319.1335559211 	 4.7279284930218
320.1341703103 	 1.25058805080759
338.1070068196 	 0.176415242276933
343.0409982066 	 0.537086404265329
343.041485396 	 0.415555904030108
347.1269295849 	 0.850713501646542
347.1284705432 	 0.415555904030108
348.1290849324 	 0.34106946840207
360.0675473081 	 2.18754900423397
360.0680344975 	 2.57566253724322
365.1179058569 	 0.552767759134389
365.1192485276 	 0.686059275521405
375.0789335348 	 0.325388113533009
375.0802762055 	 0.305786419946683
377.0815203506 	 0.329308452250274
386.0836845617 	 0.90167790497099
387.0784463454 	 1.09769484083425
391.1348985918 	 0.317547436098479
401.094583599 	 39.2033871726517
401.0959262697 	 39.2033871726517
402.1019214417 	 9.36176885682923
403.0971704148 	 13.6859024619727
404.094249248 	 2.54037948878783
427.1102336632 	 6.44895718990121
427.1115763339 	 7.20558256233339
429.112820479 	 3.29700486122001
430.1098993122 	 0.862474517798338
488.1629975152 	 100
END IONS

BEGIN IONS
PEPMASS=502.207
CHARGE=1
MSLEVEL=2
RT=0
SOURCE_INSTRUMENT=qTOF
FILENAME=CCMSLIB00000006092.ms
IONMODE=Positive
ORGANISM=Natural
NAME=AdefovirDipivoxil
PI=GNPS
DATACOLLECTOR=GNPS
SMILES=CC(C)(C)C(=O)OCOP(=O)(COCCn1cnc2c(N)ncnc12)OCOC(=O)C(C)(C)C
INCHI=InChI=1S/C20H32N5O8P/c1-19(2,3)17(26)30-11-32-34(28,33-12-31-18(27)20(4,5)6)13-29-8-7-25-10-24-14-15(21)22-9-23-16(14)25/h9-10H,7-8,11-13H2,1-6H3,(H2,21,22,23)
FORMULA=C20H32N5O8P
PUBMED=N/A
SUBMITUSER=BIOADREM
LIBRARYQUALITY=0
SPECTRUMID=CCMSLIB00000006092
SCANS=268
ID=CCMSLIB00000006092
135.0678648841 	 0.0485933947692682
136.0631138572 	 0.098922267923153
140.0944139856 	 0.118012530153937
162.0787639214 	 2.45223095746343
170.1049786719 	 2.20579302684785
174.0787639214 	 0.0364450460769511
192.0893286077 	 8.67912740146822
192.0909818899 	 0.109335138230853
212.0345296435 	 0.0659481786154354
226.0501797077 	 5.18560941323476
238.0501797077 	 1.07252564169313
256.0594017233 	 5.96136825115843
256.060744394 	 52.0643515385016
257.0600161125 	 1.86563926346297
258.0651610699 	 0.203050971000156
274.0699664096 	 0.262057236077125
274.0713090803 	 10.3868381319311
275.0705807988 	 0.197844535846306
340.1169166022 	 3.04750004338696
358.1274812885 	 11.7995175370091
358.1288239592 	 1.07252564169313
359.1366489913 	 0.170076881692439
370.1274812885 	 2.72643654223287
388.1380459748 	 0.208257406154006
442.1849961674 	 55.4415924749657
444.1894128433 	 0.203050971000156
472.1955608537 	 39.5984103017997
473.2033858858 	 1.27557661269329
502.20612554 	 100
END IONS

BEGIN IONS
PEPMASS=374.122
CHARGE=1
MSLEVEL=2
RT=0
SOURCE_INSTRUMENT=qTOF
FILENAME=CCMSLIB00000006114.ms
IONMODE=Positive
ORGANISM=Natural
NAME=Prasugrel
PI=GNPS
DATACOLLECTOR=GNPS
SMILES=CC(=O)Oc1cc2CN(CCc2s1)C(c1ccccc1F)C(=O)C1CC1
INCHI=InChI=1S/C20H20FNO3S/c1-12(23)25-18-10-14-11-22(9-8-17(14)26-18)19(20(24)13-6-7-13)15-4-2-3-5-16(15)21/h2-5,10,13,19H,6-9,11H2,1H3
FORMULA=C20H20FNO3S
PUBMED=N/A
SUBMITUSER=BIOADREM
LIBRARYQUALITY=0
SPECTRUMID=CCMSLIB00000006114
SCANS=271
ID=CCMSLIB00000006114
109.0448043605 	 20.5412534805334
121.0448043605 	 0.90860241316985
123.0240689184 	 0.122123980264765
127.0542261926 	 0.175858531581261
129.0698762568 	 5.64701284744272
133.0448043605 	 0.82555810658981
134.0526293926 	 2.74534707635191
135.0604544247 	 13.3701333593864
136.0318939505 	 0.254017878950711
147.0604544247 	 3.56113526452054
149.0397189826 	 10.678520834351
149.0761044889 	 81.5201993063358
159.0604544247 	 0.512920717112012
161.0635284299 	 0.102584143422402
162.0475440147 	 1.65600117239021
176.0870035262 	 0.996531678960481
177.071019111 	 75.7510624786283
178.1026535904 	 0.254017878950711
206.0975682125 	 100
332.1115037172 	 21.6061745884422
374.1220684035 	 34.6441307215085
END IONS

BEGIN IONS
PEPMASS=288.1598
CHARGE=1
MSLEVEL=2
RT=0
SOURCE_INSTRUMENT=qTOF
FILENAME=CCMSLIB00000006120.ms
IONMODE=Positive
ORGANISM=Natural
NAME=Etodolac
PI=GNPS
DATACOLLECTOR=GNPS
SMILES=CCc1cccc2c3CCOC(CC)(CC(=O)O)c3[nH]c12
INCHI=InChI=1S/C17H21NO3/c1-3-11-6-5-7-12-13-8-9-21-17(4-2,10-14(19)20)16(13)18-15(11)12/h5-7,18H,3-4,8-10H2,1-2H3,(H,19,20)
FORMULA=C17H21NO3
PUBMED=N/A
SUBMITUSER=BIOADREM
LIBRARYQUALITY=0
SPECTRUMID=CCMSLIB00000006120
SCANS=273
ID=CCMSLIB00000006120
103.0542261926 	 0.129757785467128
115.0542261926 	 2.44809688581315
116.0620512247 	 0.748269896193772
117.0698762568 	 3.55536332179931
127.0542261926 	 1.69982698961938
130.0651252299 	 2.3961937716263
132.0807752941 	 0.354671280276817
142.0651252299 	 2.29671280276817
143.072950262 	 78.3131487889273
144.0807752941 	 39.3901384083045
145.1011763852 	 0.125432525951557
154.0651252299 	 0.666089965397924
156.0807752941 	 3.1098615916955
157.0886003262 	 10.0259515570934
158.0964253583 	 1.55276816608997
167.072950262 	 3.55103806228374
168.0807752941 	 3.06660899653979
169.0886003262 	 0.605536332179931
170.0964253583 	 1.02076124567474
172.1120754225 	 100
179.072950262 	 0.103806228373702
180.0807752941 	 7.24048442906574
181.0886003262 	 6.32352941176471
182.0964253583 	 4.96107266435986
183.1042503904 	 0.454152249134948
184.1120754225 	 0.765570934256055
194.0964253583 	 5.15138408304498
195.1042503904 	 6.28460207612457
196.1120754225 	 4.61937716262976
197.1199004546 	 0.168685121107266
198.0913399804 	 0.441176470588235
198.1277254867 	 0.32439446366782
200.1069900446 	 0.281141868512111
208.1120754225 	 1.45328719723183
209.1199004546 	 1.77335640138408
210.1277254867 	 9.36418685121107
211.1355505188 	 1.26297577854671
224.1433755509 	 5.66176470588235
226.1590256151 	 0.484429065743945
228.138290173 	 2.24480968858132
252.138290173 	 1.31487889273356
270.1488548593 	 2.31401384083045
288.1594195456 	 0.00432525951557093
END IONS

BEGIN IONS
PEPMASS=493.198
CHARGE=1
MSLEVEL=2
RT=0
SOURCE_INSTRUMENT=qTOF
FILENAME=CCMSLIB00000006140.ms
IONMODE=Positive
ORGANISM=Natural
NAME=Cilnidipine
PI=GNPS
DATACOLLECTOR=GNPS
SMILES=CC1=C(C(c2cccc(c2)N(=O)=O)C(=C(C)N1)C(=O)OCCOC)C(=O)OC/C=C/c1ccccc1
INCHI=InChI=1S/C27H28N2O7/c1-18-23(26(30)35-14-8-11-20-9-5-4-6-10-20)25(21-12-7-13-22(17-21)29(32)33)24(19(2)28-18)27(31)36-16-15-34-3/h4-13,17,25,28H,14-16H2,1-3H3/b11-8+
FORMULA=C27H28N2O7
PUBMED=N/A
SUBMITUSER=BIOADREM
LIBRARYQUALITY=0
SPECTRUMID=CCMSLIB00000006140
SCANS=275
ID=CCMSLIB00000006140
91.0542261926 	 0.249732429539779
96.0933513531 	 0.51730288976097
115.0542261926 	 5.09810916874777
117.0698762568 	 71.3521227256511
210.0913399804 	 0.413842311808776
210.1151494277 	 1.39493399928648
211.1117410715 	 0.445950767035319
226.0835745278 	 0.367463432037103
228.1019046667 	 0.235462004994649
228.1104579803 	 0.65643952907599
239.0815035756 	 0.720656439529076
252.099224592 	 0.174812700677845
255.0764181977 	 4.15269354263289
256.0842432298 	 0.242597217267214
257.0920682619 	 0.620763467713164
301.0818975061 	 1.03103817338566
301.1223057578 	 0.178380306814128
315.137955822 	 1.35925793792365
317.0768121282 	 5.45130217623974
331.1288476987 	 4.88048519443453
359.1152090072 	 0.18194791295041
359.1237623208 	 1.69104530859793
370.164898854 	 0.428112736353906
373.1546685187 	 0.19621833749554
375.1186769429 	 36.8569389939351
376.1179486614 	 4.37031751694613
376.1305247204 	 2.32251159471994
377.1257736935 	 0.588655012486621
417.1444977629 	 0.845522654298965
449.2070980197 	 35.6760613628255
475.1863625776 	 1.616125579736
476.1941876097 	 0.192650731359258
493.1969272639 	 100
END IONS

BEGIN IONS
PEPMASS=365.1179
CHARGE=1
MSLEVEL=2
RT=0
SOURCE_INSTRUMENT=qTOF
FILENAME=CCMSLIB00000006152.ms
IONMODE=Positive
ORGANISM=Natural
NAME=Bumetanide
PI=GNPS
DATACOLLECTOR=GNPS
SMILES=CCCCNc1cc(cc(c1Oc1ccccc1)S(=O)(=O)N)C(=O)O
INCHI=InChI=1S/C17H20N2O5S/c1-2-3-9-19-14-10-12(17(20)21)11-15(25(18,22)23)16(14)24-13-7-5-4-6-8-13/h4-8,10-11,19H,2-3,9H2,1H3,(H,20,21)(H2,18,22,23)
FORMULA=C17H20N2O5S
PUBMED=N/A
SUBMITUSER=BIOADREM
LIBRARYQUALITY=0
SPECTRUMID=CCMSLIB00000006152
SCANS=276
ID=CCMSLIB00000006152
108.0417097131 	 0.35094355482705
108.0443897878 	 1.48783255579372
115.0542261926 	 1.17891816920943
124.0393044099 	 0.31942167864498
127.0542261926 	 0.794351279788173
128.0620512247 	 3.09334678266717
129.0698762568 	 5.73277854831253
131.0491408147 	 0.130290421552557
139.0542261926 	 2.6415332240575
141.0698762568 	 6.27915773546841
143.085526321 	 0.252175009456563
146.060039852 	 0.0966670869583491
152.034219032 	 1.91653007186988
152.0620512247 	 0.409784390366915
153.0698762568 	 3.58718950951961
154.0651252299 	 1.09275837431177
155.0491408147 	 0.554785020804438
155.072950262 	 0.262682301517253
156.0807752941 	 55.26835623923
157.0647908789 	 0.113478754255453
157.0859202515 	 3.73429159836927
164.034219032 	 0.21224729962594
166.0651252299 	 11.6609927289539
167.0702701873 	 0.897322741982936
168.0569658468 	 2.17921237338713
168.0807752941 	 0.714495860126928
169.0647908789 	 7.15966881015425
170.0964253583 	 3.791030975497
171.0804409431 	 1.02341024671122
180.0780952194 	 0.569495229689404
180.0807752941 	 0.325726053881394
181.0647908789 	 1.95855924011264
181.0886003262 	 0.18072542344387
182.060039852 	 4.73248434413483
183.0678648841 	 26.0685916025722
184.0756899162 	 61.9867187828353
185.0808348736 	 3.1500861597949
192.0807752941 	 0.0987685453704871
194.0573597773 	 0.403480015130501
195.0678648841 	 3.02610011347875
196.0756899162 	 39.0871264657672
197.0808348736 	 0.737611902660446
198.0886599057 	 0.827974614382381
198.0913399804 	 2.18551674862354
208.0756899162 	 0.39297272306981
209.0835149483 	 1.90392132139705
210.0549544741 	 1.41218005295675
210.0913399804 	 0.777539612491069
212.1433755509 	 12.0917917034422
214.0862546025 	 0.229058966923045
222.1277254867 	 0.245870634220149
224.0706045383 	 0.336233345942084
224.1043099699 	 0.405581473542639
224.1069900446 	 0.21224729962594
225.0546201231 	 1.18732400285798
227.0576941283 	 3.25305762198966
228.0655191604 	 0.989786912117009
238.1199600341 	 2.61841718152398
238.1226401088 	 4.77031059555331
239.1277850662 	 0.638843357289959
239.1304651409 	 2.36203925524314
240.0655191604 	 2.40616988189804
240.138290173 	 83.7136973059303
242.0811692246 	 8.89757491699239
243.0889942567 	 0.332030429117808
248.1069900446 	 0.086159794897659
256.1332047951 	 0.937250451813559
266.1148746562 	 1.2713823393435
266.1175547309 	 5.66343042071197
283.1202943851 	 0.954062119110663
284.1281194172 	 68.6105156978943
286.1311934224 	 0.514857310973816
292.0274190946 	 2.60790988946329
309.0539681961 	 0.386668347833396
348.0900193514 	 9.84953557769092
365.1165684529 	 100
END IONS

BEGIN IONS
PEPMASS=357.0956
CHARGE=1
MSLEVEL=2
RT=0
SOURCE_INSTRUMENT=qTOF
FILENAME=CCMSLIB00000006165.ms
IONMODE=Positive
ORGANISM=Natural
NAME=Sulindac
PI=GNPS
DATACOLLECTOR=GNPS
SMILES=CC1=C(CC(=O)O)c2cc(ccc2/C/1=C\c1ccc(cc1)S(=O)C)F
INCHI=InChI=1S/C20H17FO3S/c1-12-17(9-13-3-6-15(7-4-13)25(2)24)16-8-5-14(21)10-19(16)18(12)11-20(22)23/h3-10H,11H2,1-2H3,(H,22,23)/b17-9-
FORMULA=C20H17FO3S
PUBMED=N/A
SUBMITUSER=BIOADREM
LIBRARYQUALITY=0
SPECTRUMID=CCMSLIB00000006165
SCANS=279
ID=CCMSLIB00000006165
147.0604544247 	 0.196259220231823
173.0761044889 	 1.55031612223393
220.0682794568 	 0.454425711275026
221.0761044889 	 0.304267650158061
227.085526321 	 0.0987881981032666
232.0682794568 	 0.0645416227608008
233.0761044889 	 60.2871443624868
246.083929521 	 3.31533192834563
247.0917545531 	 9.52976817702845
248.0995795852 	 41.4475763962065
249.071019111 	 0.156743940990516
253.0481751789 	 0.0461011591148577
262.1152296494 	 0.313487881981033
263.1230546815 	 0.0487355110642782
264.0944942073 	 0.111959957850369
265.0481751789 	 1.41464699683878
266.056000211 	 0.154109589041096
279.0638252431 	 1.06822971548999
280.0716502752 	 4.47049525816649
281.043089801 	 0.489989462592202
281.0794753073 	 0.363540569020021
282.0509148331 	 0.331928345626976
283.0587398652 	 0.273972602739726
292.0894088294 	 0.408324552160169
294.0873003394 	 1.11037934668072
295.0951253715 	 9.21628029504742
296.0665648973 	 1.97049525816649
297.0743899294 	 4.0463645943098
298.0822149615 	 0.779768177028451
309.0380044231 	 0.0447839831401475
309.0921484836 	 0.11986301369863
311.0900399936 	 1.481822971549
313.1056900578 	 1.33561643835616
324.0614795194 	 0.12118018967334
325.0693045515 	 0.148840885142255
339.0849546157 	 0.47418335089568
340.0927796478 	 23.3653846153846
342.0720442057 	 8.0413593256059
357.095519302 	 100
END IONS

BEGIN IONS
PEPMASS=316.0927
CHARGE=1
MSLEVEL=2
RT=0
SOURCE_INSTRUMENT=qTOF
FILENAME=CCMSLIB00000006201.ms
IONMODE=Positive
ORGANISM=Natural
NAME=Chlorprothixene
PI=GNPS
DATACOLLECTOR=GNPS
SMILES=CN(C)CC/C=C/1\c2ccccc2Sc2ccc(cc12)Cl
INCHI=InChI=1S/C18H18ClNS/c1-20(2)11-5-7-14-15-6-3-4-8-17(15)21-18-10-9-13(19)12-16(14)18/h3-4,6-10,12H,5,11H2,1-2H3/b14-7+
FORMULA=C18H18ClNS
PUBMED=N/A
SUBMITUSER=BIOADREM
LIBRARYQUALITY=0
SPECTRUMID=CCMSLIB00000006201
SCANS=281
ID=CCMSLIB00000006201
102.0464011605 	 0.0592557478075373
103.0542261926 	 0.15110215690922
115.0542261926 	 0.317018250770325
128.0620512247 	 1.76582128466461
129.0698762568 	 0.162953306470728
130.0777012889 	 0.139251007347713
149.0152538705 	 0.269613652524295
152.0620512247 	 0.29331595164731
159.0262968826 	 0.269613652524295
162.0230789026 	 1.18511495615075
165.0698762568 	 0.755510784546101
178.0777012889 	 0.219246266887888
192.9873245605 	 0.619222564588765
194.9870277473 	 0.183692818203366
195.0262968826 	 1.27103579047168
196.0341219147 	 2.34060203839773
197.0385761284 	 0.251836928182034
199.0309039347 	 0.645887651102157
202.0777012889 	 4.39973927470965
203.085526321 	 11.1993363356246
208.0341219147 	 0.385162360748993
209.0419469468 	 1.48435648257881
210.0497719789 	 20.3217587105949
211.0542261926 	 1.11104527139133
212.0387289668 	 2.07098838587343
221.0419469468 	 77.1717231571462
222.0464011605 	 4.29307892865608
231.0029746247 	 100
232.0074288384 	 5.24413368096705
234.0497719789 	 7.76546575017777
235.057597011 	 50.6695899502252
236.0654220431 	 32.2677174685945
238.054379031 	 16.9115904242712
245.0186246889 	 12.0259540175397
246.0230789026 	 0.542190092438967
247.0183278757 	 0.912538516236075
255.0029746247 	 3.79236785968239
256.0107996568 	 6.66923441573833
257.0026778115 	 0.874022280161176
269.0186246889 	 0.364422849016355
271.0342747531 	 56.6751599905191
273.0339779399 	 2.41763451054752
273.0499248173 	 5.62633325432567
316.092123983 	 71.9661057122541
END IONS

BEGIN IONS
PEPMASS=332.07
CHARGE=1
MSLEVEL=2
RT=0
SOURCE_INSTRUMENT=qTOF
FILENAME=CCMSLIB00000006204.ms
IONMODE=Positive
ORGANISM=Natural
NAME=Piroxicam
PI=GNPS
DATACOLLECTOR=GNPS
SMILES=CN1C(=C(c2ccccc2S1(=O)=O)O)C(=Nc1ccccn1)O
INCHI=InChI=1S/C15H13N3O4S/c1-18-13(15(20)17-12-8-4-5-9-16-12)14(19)10-6-2-3-7-11(10)23(18,21)22/h2-9,19H,1H3,(H,16,17,20)
FORMULA=C15H13N3O4S
PUBMED=N/A
SUBMITUSER=BIOADREM
LIBRARYQUALITY=0
SPECTRUMID=CCMSLIB00000006204
SCANS=283
ID=CCMSLIB00000006204
79.0542261926 	 0.89
93.0573001978 	 0.9675
95.060374203 	 53.6
96.0681992351 	 1.0625
97.0106468184 	 0.3675
105.0334907505 	 0.465
105.0447241388 	 1.0775
107.060374203 	 1.3075
109.0106468184 	 1.0775
118.0651252299 	 0.1675
121.0396387609 	 100
123.0552888251 	 1.53
125.0055614405 	 0.4575
133.0396387609 	 0.1475
135.0552888251 	 1.03
136.0869233045 	 2.1575
137.0055614405 	 1.2475
146.060039852 	 0.6725
148.0505377982 	 0.8375
149.0055614405 	 0.17
149.0583628303 	 2.0825
149.059705501 	 0.9275
153.0004760626 	 4.285
162.0661878624 	 1.3225
163.0740128945 	 0.2425
164.0164604778 	 1.5725
164.0818379266 	 35.9375
164.0831805973 	 5.875
165.0784295704 	 0.835
180.0767525487 	 0.225
182.0270251641 	 0.44
210.0219397862 	 3.1325
212.0375898504 	 4.2075
223.9800749715 	 0.795
238.0168544083 	 25
240.0113750999 	 1.895
253.0641389519 	 0.795
332.0699526113 	 92.635
END IONS

BEGIN IONS
PEPMASS=330.2048
CHARGE=1
MSLEVEL=2
RT=0
SOURCE_INSTRUMENT=qTOF
FILENAME=CCMSLIB00000006242.ms
IONMODE=Positive
ORGANISM=Natural
NAME=Trilostane
PI=GNPS
DATACOLLECTOR=GNPS
SMILES=C[C@]12CC[C@H]3[C@@H](CC[C@@]45[C@@H](C(=C(C[C@]34C)C#N)O)O5)[C@@H]1CC[C@@H]2O
INCHI=InChI=1S/C20H27NO3/c1-18-7-6-14-12(13(18)3-4-15(18)22)5-8-20-17(24-20)16(23)11(10-21)9-19(14,20)2/h12-15,17,22-23H,3-9H2,1-2H3/t12-,13-,14-,15-,17+,18-,19+,20+/m0/s1
FORMULA=C20H27NO3
PUBMED=N/A
SUBMITUSER=BIOADREM
LIBRARYQUALITY=0
SPECTRUMID=CCMSLIB00000006242
SCANS=285
ID=CCMSLIB00000006242
105.0698762568 	 6.98820313623939
107.0491408147 	 0.494790061039522
107.085526321 	 3.37823951332799
108.0807752941 	 2.09836200341164
110.060039852 	 1.13601331771379
111.0804409431 	 0.482972645251454
112.0393044099 	 2.32135150132561
117.0546201231 	 0.948989867850463
119.085526321 	 2.4806297141213
120.0569658468 	 0.655609675894527
121.0522148199 	 1.45662494605093
123.0440554368 	 0.610909016174446
123.0678648841 	 0.379698707277473
123.0804409431 	 1.76593295928643
129.0698762568 	 0.560042748217112
131.085526321 	 3.29192099800645
132.0933513531 	 0.681299710216413
138.0549544741 	 0.392543724438416
144.0933513531 	 0.752204204944818
145.1011763852 	 1.36825122798364
147.1168264494 	 5.27724685040179
152.0706045383 	 2.87625624267834
154.1226401088 	 0.836981318207041
155.085526321 	 0.533838913208788
159.1168264494 	 2.43284625028259
160.1246514815 	 0.354008672955587
161.1324765136 	 0.995231929629858
163.0753555652 	 0.992662926197669
164.0706045383 	 0.328832439320139
173.1324765136 	 0.838522720266354
175.1117410715 	 0.724458967877181
189.163776642 	 1.02862897424831
195.1168264494 	 0.728055572682245
201.1273911357 	 0.487596851429394
201.163776642 	 8.08516760178392
209.1324765136 	 0.765049222105761
211.1481265778 	 0.36685369011653
213.163776642 	 0.258955545964609
219.1743413283 	 0.75836981318207
228.1719956046 	 0.40281973816717
239.1794267062 	 0.305711408430442
241.1586912641 	 2.71286762439115
274.1801549877 	 1.6251515712025
274.216540494 	 0.991121524138356
284.1645049235 	 0.66383048687753
286.1801549877 	 0.367367490802968
294.1852403656 	 2.31107548759685
302.1750696098 	 2.90348767905954
302.2114551161 	 1.16992416301868
303.1954707009 	 1.8635550897096
312.1958050519 	 5.13800686437717
313.1798206367 	 0.392029923751978
330.2063697382 	 100
END IONS

BEGIN IONS
PEPMASS=344.179
CHARGE=1
MSLEVEL=2
RT=0
SOURCE_INSTRUMENT=qTOF
FILENAME=CCMSLIB00000006259.ms
IONMODE=Positive
ORGANISM=Natural
NAME=ClemastineFumarate
PI=GNPS
DATACOLLECTOR=GNPS
SMILES=C[C@@](c1ccccc1)(c1ccc(cc1)Cl)OCC[C@H]1CCCN1C
INCHI=InChI=1S/C21H26ClNO/c1-21(17-7-4-3-5-8-17,18-10-12-19(22)13-11-18)24-16-14-20-9-6-15-23(20)2/h3-5,7-8,10-13,20H,6,9,14-16H2,1-2H3/t20-,21-/m1/s1
FORMULA=C21H26ClNO
PUBMED=N/A
SUBMITUSER=BIOADREM
LIBRARYQUALITY=0
SPECTRUMID=CCMSLIB00000006259
SCANS=288
ID=CCMSLIB00000006259
101.0385761284 	 3.4167053672129
102.0464011605 	 5.91786638359981
103.0542261926 	 48.9484508724209
112.1120754225 	 0.179128242552909
130.1226401088 	 24.772772507132
137.0152538705 	 71.3726530883036
165.0698762568 	 32.335964970477
179.085526321 	 64.744908113846
180.0933513531 	 91.1762754594308
199.0309039347 	 0.152590725137663
200.0387289668 	 2.41491408478737
215.0622040631 	 100
344.1775681719 	 4.21283088967027
END IONS

BEGIN IONS
PEPMASS=295.9564
CHARGE=1
MSLEVEL=2
RT=0
SOURCE_INSTRUMENT=qTOF
FILENAME=CCMSLIB00000006264.ms
IONMODE=Positive
ORGANISM=Natural
NAME=Chlorothiazide
PI=GNPS
DATACOLLECTOR=GNPS
SMILES=c1c(c(cc2c1N=CNS2(=O)=O)S(=O)(=O)N)Cl
INCHI=InChI=1S/C7H6ClN3O4S2/c8-4-1-5-7(2-6(4)16(9,12)13)17(14,15)11-3-10-5/h1-3H,(H,10,11)(H2,9,12,13)
FORMULA=C7H6ClN3O4S2
PUBMED=N/A
SUBMITUSER=BIOADREM
LIBRARYQUALITY=0
SPECTRUMID=CCMSLIB00000006264
SCANS=289
ID=CCMSLIB00000006264
101.0026778115 	 12.8
104.9560244321 	 35.23
105.0447241388 	 12.58
106.0525491709 	 5.93
106.9824206952 	 27.3
108.9742613121 	 7.31
111.9948527794 	 16.69
113.9741173373 	 4.79
114.0105028436 	 23.99
117.0447241388 	 12.96
123.0011447646 	 17.81
123.9948527794 	 100
127.9897674015 	 5.26
128.9975924336 	 8.36
129.0214018809 	 16.95
130.0054174657 	 7.39
131.9669234694 	 14.87
131.9698070984 	 6.04
132.9509390542 	 1.06
139.0057518167 	 2.07
139.9897674015 	 80.63
141.0214018809 	 6.7
141.9512734052 	 61.55
142.0054174657 	 9.17
152.0135768488 	 26.34
155.0006664388 	 29.16
155.9846820236 	 56.75
157.016316503 	 28.93
158.0003320878 	 43.18
158.9778225067 	 1.47
159.9618380915 	 26.25
169.9461880273 	 21.61
170.9540130594 	 5.28
185.991605173 	 4.18
187.9567527136 	 14.04
187.9596363426 	 8.13
203.9516673357 	 1.39
203.9545509647 	 34
204.9833018151 	 88.01
214.9676517509 	 48.14
214.9705353799 	 11.34
220.9782164372 	 55.92
230.965450002 	 35.18
242.9766833903 	 23.97
268.9452017493 	 26.52
278.9295516851 	 100
295.9561007866 	 88.48
END IONS

BEGIN IONS
PEPMASS=244.134
CHARGE=1
MSLEVEL=2
RT=0
SOURCE_INSTRUMENT=qTOF
FILENAME=CCMSLIB00000006276.ms
IONMODE=Positive
ORGANISM=Natural
NAME=Agomelatine
PI=GNPS
DATACOLLECTOR=GNPS
SMILES=CC(=NCCc1cccc2ccc(cc12)OC)O
INCHI=InChI=1S/C15H17NO2/c1-11(17)16-9-8-13-5-3-4-12-6-7-14(18-2)10-15(12)13/h3-7,10H,8-9H2,1-2H3,(H,16,17)
FORMULA=C15H17NO2
PUBMED=N/A
SUBMITUSER=BIOADREM
LIBRARYQUALITY=0
SPECTRUMID=CCMSLIB00000006276
SCANS=291
ID=CCMSLIB00000006276
102.0464011605 	 0.138649837445018
103.0542261926 	 0.143430866322433
114.0464011605 	 0.320328934786766
115.0542261926 	 9.77242302543507
127.0542261926 	 6.1005928475808
128.0620512247 	 5.81851214381335
129.0698762568 	 7.21935360489577
140.0620512247 	 0.200803212851406
141.0698762568 	 28.6431440045898
142.0777012889 	 21.6484987569325
143.0491408147 	 2.04149933065596
144.0569658468 	 0.129087779690189
145.0647908789 	 0.191241155096577
151.0542261926 	 3.61923886020272
152.0620512247 	 24.3545611015491
153.0698762568 	 59.5429336393192
154.0777012889 	 36.3071332950851
155.0491408147 	 6.51654235991585
155.085526321 	 16.1455345190285
157.0647908789 	 1.60642570281125
158.072615911 	 2.25664563013961
159.0804409431 	 0.29164276152228
165.0698762568 	 0.36813922356091
168.0569658468 	 0.329890992541595
169.0647908789 	 23.3314209217824
170.072615911 	 69.1671447695544
172.0756899162 	 0.167336010709505
183.0804409431 	 0.879709313444253
184.0882659752 	 1.21916236374068
185.0960910073 	 100
187.0991650125 	 0.406387454580226
202.1226401088 	 7.79785809906292
227.1066556936 	 0.100401606425703
244.1332047951 	 8.49110728628801
END IONS

BEGIN IONS
PEPMASS=734.4681
CHARGE=1
MSLEVEL=2
RT=0
SOURCE_INSTRUMENT=qTOF
FILENAME=CCMSLIB00000006290.ms
IONMODE=Positive
ORGANISM=Natural
NAME=Erythromycin
PI=GNPS
DATACOLLECTOR=GNPS
SMILES=CC[C@@H]1[C@](C)([C@@H]([C@@H](C)C(=O)[C@H](C)C[C@](C)([C@@H]([C@@H](C)[C@@H]([C@@H](C)C(=O)O1)O[C@H]1C[C@](C)([C@H]([C@H](C)O1)O)OC)O[C@H]1[C@@H]([C@H](C[C@@H](C)O1)N(C)C)O)O)O)O
INCHI=InChI=1S/C37H67NO13/c1-14-25-37(10,45)30(41)20(4)27(39)18(2)16-35(8,44)32(51-34-28(40)24(38(11)12)15-19(3)47-34)21(5)29(22(6)33(43)49-25)50-26-17-36(9,46-13)31(42)23(7)48-26/h18-26,28-32,34,40-42,44-45H,14-17H2,1-13H3/t18-,19-,20+,21+,22-,23+,24+,25-,26+,28-,29+,30-,31+,32-,34+,35-,36-,37-/m1/s1
FORMULA=C37H67NO13
PUBMED=N/A
SUBMITUSER=BIOADREM
LIBRARYQUALITY=0
SPECTRUMID=CCMSLIB00000006290
SCANS=293
ID=CCMSLIB00000006290
100.0756899162 	 0.33313143549364
109.0647908789 	 0.164402526607251
113.059705501 	 1.0080470710392
114.0913399804 	 0.246603789910876
115.0753555652 	 2.81214848143982
116.0706045383 	 2.48766981050446
116.1069900446 	 9.00969109630527
127.0753555652 	 3.16907501946872
132.1019046667 	 0.0497533962100891
158.1175547309 	 58.2244527126417
159.1015703157 	 0.105996365838886
176.1281194172 	 0.622999048195899
233.0021906221 	 0.07138530760578
289.0342786115 	 0.07138530760578
307.0964849378 	 0.0822012633036255
316.2118490466 	 0.793891148221857
325.0190224778 	 0.192524011421649
325.2009500093 	 0.21415592281734
342.125045412 	 0.3569265380289
342.2274991108 	 0.155749762048975
347.0424379946 	 0.0540797784892273
365.0893881872 	 0.283378039283551
383.0483112335 	 0.140607424071991
384.2380637971 	 0.168728908886389
408.0197507593 	 0.391537596262006
464.0612216435 	 0.352600155749762
482.1360040288 	 0.151423379769836
500.1551220287 	 0.203339967119495
522.1520480235 	 7.00873929220386
522.3425288686 	 7.28779094920827
523.3418005871 	 2.01393095093883
536.2979839792 	 1.21138703815869
540.1500366508 	 4.11006316518128
540.3530935549 	 6.85082633901532
541.3523652734 	 1.44068529895302
558.1606013371 	 6.35978195033313
558.3636582412 	 14.8957341870728
559.3629299597 	 1.9944622306827
573.2330379987 	 0.969109630526954
575.4027834017 	 0.105996365838886
576.2353837224 	 21.6319113956909
576.3742229275 	 61.4540970840183
577.373494646 	 8.42779267976118
590.165686715 	 0.194687202561218
605.3895386407 	 1.04482132041187
611.3663978954 	 1.61590378125811
611.4153594607 	 2.18914943324392
611.4364888333 	 1.76516396988838
631.2623267544 	 1.32170978627672
631.2749028134 	 1.34983127109111
640.2150422108 	 0.103833174699316
651.4102740828 	 1.14216492169248
651.4552129027 	 2.36436791554902
664.2150422108 	 1.89062905598339
664.2388516581 	 1.11404343687808
668.4493992433 	 1.54019209137319
668.4579525569 	 2.00311499524098
673.2728914407 	 2.14372241931297
698.4473878706 	 3.35510945747166
706.2494163444 	 1.70892100025958
716.4579525569 	 6.83135761875919
734.4685172432 	 100
END IONS

BEGIN IONS
PEPMASS=309.1585
CHARGE=1
MSLEVEL=2
RT=0
SOURCE_INSTRUMENT=qTOF
FILENAME=CCMSLIB00000006293.ms
IONMODE=Positive
ORGANISM=Natural
NAME=Phenylbutazone
PI=GNPS
DATACOLLECTOR=GNPS
SMILES=CCCCC1C(=O)N(c2ccccc2)N(c2ccccc2)C1=O
INCHI=InChI=1S/C19H20N2O2/c1-2-3-14-17-18(22)20(15-10-6-4-7-11-15)21(19(17)23)16-12-8-5-9-13-16/h4-13,17H,2-3,14H2,1H3
FORMULA=C19H20N2O2
PUBMED=N/A
SUBMITUSER=BIOADREM
LIBRARYQUALITY=0
SPECTRUMID=CCMSLIB00000006293
SCANS=296
ID=CCMSLIB00000006293
92.0494751657 	 0.760391009191634
93.0334907505 	 0.471167792377209
93.0573001978 	 0.489190604107485
101.0021906221 	 0.56728945493868
101.0385761284 	 1.15260172160763
104.0494751657 	 9.09551231987916
105.0334907505 	 1.20323724027841
106.0651252299 	 8.32138964460732
107.0491408147 	 0.300380195504596
117.0573001978 	 3.80624619160824
118.0651252299 	 3.11365528368764
119.0365647557 	 0.795578403522172
120.0443897878 	 22.4512740411435
130.0651252299 	 6.8761317896652
132.0443897878 	 5.07728353315768
133.0522148199 	 4.78033625417314
146.060039852 	 5.06097717968743
148.0756899162 	 0.77841382092191
148.1120754225 	 0.742368197461358
156.0807752941 	 1.87437241994868
160.0631138572 	 0.92087985650409
160.1120754225 	 5.48150945339387
162.1277254867 	 6.31313348037659
166.0651252299 	 1.12685484770724
168.0807752941 	 0.543259039298312
174.0549544741 	 0.706322574000807
188.1069900446 	 16.7749465752367
190.1226401088 	 18.4175971300818
201.1022390177 	 0.50721341583776
211.0865889535 	 15.3992052798256
216.1019046667 	 4.20360627880432
263.1542745882 	 1.71989117654631
281.1648392745 	 0.670276950540255
291.1491892103 	 1.42122743930174
309.1597538966 	 100
END IONS

BEGIN IONS
PEPMASS=410.156
CHARGE=1
MSLEVEL=2
RT=0
SOURCE_INSTRUMENT=qTOF
FILENAME=CCMSLIB00000006303.ms
IONMODE=Positive
ORGANISM=Natural
NAME=Ezetimibe
PI=GNPS
DATACOLLECTOR=GNPS
SMILES=c1cc(ccc1[C@H](CC[C@@H]1[C@@H](c2ccc(cc2)O)N(c2ccc(cc2)F)C1=O)O)F
INCHI=InChI=1S/C24H21F2NO3/c25-17-5-1-15(2-6-17)22(29)14-13-21-23(16-3-11-20(28)12-4-16)27(24(21)30)19-9-7-18(26)8-10-19/h1-12,21-23,28-29H,13-14H2/t21-,22+,23-/m1/s1
FORMULA=C24H21F2NO3
PUBMED=N/A
SUBMITUSER=BIOADREM
LIBRARYQUALITY=0
SPECTRUMID=CCMSLIB00000006303
SCANS=299
ID=CCMSLIB00000006303
105.0698762568 	 3.17
107.0491408147 	 3.84333333333333
109.0448043605 	 0.476666666666667
115.0542261926 	 10.1533333333333
123.0240689184 	 0.63
133.0448043605 	 1.73333333333333
133.0647908789 	 32.8933333333333
135.0604544247 	 100
147.0440554368 	 1.23
151.0553690468 	 1.11
161.059705501 	 10.8933333333333
175.0553690468 	 0.146666666666667
193.0659337331 	 0.303333333333333
201.071019111 	 1.62666666666667
255.0815837973 	 0.186666666666667
271.1128839257 	 1.29666666666667
299.1077985478 	 4.15333333333333
364.1507466372 	 1.44
392.1456612593 	 7.88333333333333
410.1562259456 	 0.72
END IONS

BEGIN IONS
PEPMASS=629.3706
CHARGE=1
MSLEVEL=2
RT=0
SOURCE_INSTRUMENT=qTOF
FILENAME=CCMSLIB00000006305.ms
IONMODE=Positive
ORGANISM=Natural
NAME=Lopinavir
PI=GNPS
DATACOLLECTOR=GNPS
SMILES=CC(C)[C@@H](C(=N[C@@H](Cc1ccccc1)C[C@@H]([C@H](Cc1ccccc1)N=C(COc1c(C)cccc1C)O)O)O)N1CCCN=C1O
INCHI=InChI=1S/C37H48N4O5/c1-25(2)34(41-20-12-19-38-37(41)45)36(44)39-30(21-28-15-7-5-8-16-28)23-32(42)31(22-29-17-9-6-10-18-29)40-33(43)24-46-35-26(3)13-11-14-27(35)4/h5-11,13-18,25,30-32,34,42H,12,19-24H2,1-4H3,(H,38,45)(H,39,44)(H,40,43)/t30-,31-,32-,34-/m0/s1
FORMULA=C37H48N4O5
PUBMED=N/A
SUBMITUSER=BIOADREM
LIBRARYQUALITY=0
SPECTRUMID=CCMSLIB00000006305
SCANS=301
ID=CCMSLIB00000006305
99.0552888251 	 0.292296450136533
103.0542261926 	 0.0769201184569824
105.0698762568 	 0.388446598207761
117.0698762568 	 0.834583285258259
120.0807752941 	 22.8260451521095
129.0698762568 	 0.203838313911003
131.085526321 	 1.03842159916926
135.0804409431 	 1.07688165839775
141.1022390177 	 0.17307026652821
146.0964253583 	 0.096150148071228
155.1178890819 	 48.5481327641245
158.0964253583 	 0.188454290219607
163.0753555652 	 0.249990384985193
172.1120754225 	 0.507672781816084
180.1019046667 	 1.43456020922272
183.112803704 	 89.8734664051383
203.1304651409 	 0.499980769970386
204.1369475023 	 0.834583285258259
205.1447725344 	 0.638436983192954
226.1550028697 	 0.503826775893235
233.1324765136 	 0.519210799584631
234.1362788003 	 0.111534171762625
249.1709872849 	 0.17307026652821
250.1590256151 	 3.30756509365024
261.1471778376 	 0.399984615976309
274.0696557981 	 0.188454290219607
288.1706529339 	 1.26918195454021
289.0886003262 	 1.02303757547787
290.0924026129 	 0.146148225068267
291.0916743314 	 0.192300296142456
302.1863029981 	 0.673051036498596
303.1941280302 	 0.56920887658167
304.1166059907 	 38.4600592284912
305.1158777092 	 5.82285296719357
306.1151494277 	 1.43456020922272
310.1801549877 	 1.87300488442752
316.2019530623 	 0.996115534017922
317.2012247808 	 0.207684319833853
336.1872517383 	 0.146148225068267
346.2125177486 	 0.607668935810161
347.2117894671 	 0.446136687050498
384.2295104835 	 0.542286835121726
384.2321905582 	 0.823045267489712
385.2359928449 	 0.265374408676589
399.2390668501 	 0.303834467905081
412.2244251056 	 0.249990384985193
412.2271051803 	 1.03072958732356
413.230907467 	 0.146148225068267
417.2496315364 	 1.23072189531172
418.2489032549 	 0.303834467905081
429.2509742071 	 1.04995961693781
429.2536542818 	 29.0950348063536
430.2574565685 	 2.33067958924657
431.2607510324 	 0.492288758124688
447.2642189681 	 100
447.2668990428 	 0.119226183608323
448.2680212548 	 16.1647628937349
449.2713157187 	 1.92300296142456
449.2911024206 	 0.126918195454021
450.2777980801 	 0.573054882504519
491.3016671069 	 1.0884196761663
492.3022814961 	 0.488442752201838
493.2723783512 	 0.111534171762625
493.3101065282 	 0.142302219145417
509.3122317932 	 0.192300296142456
510.3128461824 	 0.138456213222568
611.3591819858 	 14.707126648975
629.3697466721 	 44.3175262489904
END IONS

BEGIN IONS
PEPMASS=235.0141
CHARGE=1
MSLEVEL=2
RT=0
SOURCE_INSTRUMENT=qTOF
FILENAME=CCMSLIB00000006316.ms
IONMODE=Positive
ORGANISM=Natural
NAME=Riluzole
PI=GNPS
DATACOLLECTOR=GNPS
SMILES=c1cc2c(cc1OC(F)(F)F)sc(=N)[nH]2
INCHI=InChI=1S/C8H5F3N2OS/c9-8(10,11)14-4-1-2-5-6(3-4)15-7(12)13-5/h1-3H,(H2,12,13)
FORMULA=C8H5F3N2OS
PUBMED=N/A
SUBMITUSER=BIOADREM
LIBRARYQUALITY=0
SPECTRUMID=CCMSLIB00000006316
SCANS=304
ID=CCMSLIB00000006316
75.0353023067 	 0.0831844649602487
94.9949967542 	 0.226370839072152
95.0365647557 	 0.054547190137868
96.0028217863 	 1.09571668189442
96.0039646405 	 0.189551485729091
101.0197324642 	 0.128867736700713
105.0447241388 	 0.715250030682794
106.9949967542 	 0.0975031023714391
107.0365647557 	 0.0647747882887183
110.0058957915 	 0.207279322523898
110.0400533336 	 0.172505488811008
110.0411961878 	 0.0859118244671421
111.0137208236 	 4.029673671435
111.0148636778 	 0.133640615837777
115.0012249863 	 0.0879573440973122
115.0290740746 	 0.0218188760551472
116.0306315015 	 0.0211370361784239
118.0525491709 	 0.0675021477956117
120.9980707594 	 0.295918506497934
121.0259606963 	 0.0763660661930153
122.0058957915 	 3.89807857522739
122.0070386457 	 0.602064611146718
123.0137208236 	 1.46663757483193
123.9977364084 	 2.9666853036233
123.9988792626 	 0.463651116171878
127.0012249863 	 3.24964885246349
131.0073729967 	 0.0722750269326751
133.0396387609 	 1.29685944552781
133.0407816151 	 0.193642524989431
137.0167948288 	 0.116594618919693
138.0246198609 	 16.6737123453928
138.0257627151 	 2.63462928365903
142.0121240236 	 0.155459491892924
142.0132668778 	 0.0838663048369721
144.9918031542 	 0.0361375134663376
149.017937683 	 1.38958966876219
149.0208753184 	 4.79197065361171
150.0246198609 	 5.910188051438
160.0004742273 	 0.0163641570413604
164.0317743557 	 8.8359629624579
165.0117094509 	 0.438423040733114
166.019534483 	 16.9621306132468
166.0206773372 	 6.8183987672335
169.0230230609 	 0.199779083879942
169.0241659151 	 0.294554826744487
174.0161242915 	 0.0559108698913147
176.0317743557 	 2.55621769783584
176.0329172099 	 1.2934502461442
180.9929460084 	 0.412513125417627
192.9929460084 	 8.22844363229739
192.9940888626 	 4.20695203938307
202.0348483609 	 0.561154218543317
202.0359912151 	 0.397512648129713
208.0038450457 	 9.06233380153005
208.0049878999 	 4.83151736646166
235.014744083 	 100
235.0158869372 	 66.5312078111576
END IONS

BEGIN IONS
PEPMASS=308.034
CHARGE=1
MSLEVEL=2
RT=0
SOURCE_INSTRUMENT=qTOF
FILENAME=CCMSLIB00000006353.ms
IONMODE=Positive
ORGANISM=Natural
NAME=Nitazoxanide
PI=GNPS
DATACOLLECTOR=GNPS
SMILES=CC(=O)Oc1ccccc1C(=Nc1ncc(N(=O)=O)s1)O
INCHI=InChI=1S/C12H9N3O5S/c1-7(16)20-9-5-3-2-4-8(9)11(17)14-12-13-6-10(21-12)15(18)19/h2-6H,1H3,(H,13,14,17)
FORMULA=C12H9N3O5S
PUBMED=N/A
SUBMITUSER=BIOADREM
LIBRARYQUALITY=0
SPECTRUMID=CCMSLIB00000006353
SCANS=305
ID=CCMSLIB00000006353
118.0525491709 	 1.335
119.0365647557 	 2.05
121.0270627019 	 50
121.0284053726 	 100
128.9971052442 	 7.535
145.9998448984 	 11.135
147.0076699305 	 1.43
163.0376273882 	 10.825
163.0389700589 	 12.41
164.0454524203 	 2.77
175.0025845526 	 1.305
248.0124377324 	 3.945
248.9964533172 	 5.625
266.0230024187 	 78.73
290.0230024187 	 0.975
308.033567105 	 0
END IONS

BEGIN IONS
PEPMASS=332.1223
CHARGE=1
MSLEVEL=2
RT=0
SOURCE_INSTRUMENT=qTOF
FILENAME=CCMSLIB00000006362.ms
IONMODE=Positive
ORGANISM=Natural
NAME=Nizatidine
PI=GNPS
DATACOLLECTOR=GNPS
SMILES=CN/C(=C\N(=O)=O)/NCCSCc1csc(CN(C)C)n1
INCHI=InChI=1S/C12H21N5O2S2/c1-13-11(6-17(18)19)14-4-5-20-8-10-9-21-12(15-10)7-16(2)3/h6,9,13-14H,4-5,7-8H2,1-3H3/b11-6+
FORMULA=C12H21N5O2S2
PUBMED=N/A
SUBMITUSER=BIOADREM
LIBRARYQUALITY=0
SPECTRUMID=CCMSLIB00000006362
SCANS=307
ID=CCMSLIB00000006362
100.0215458557 	 0.326009355919341
102.0371959199 	 0.026959426063774
102.9670674442 	 0.0344481555259335
110.0058957915 	 0.182724998876691
111.0137208236 	 2.4563032635883
112.0181750373 	 0.331501090858258
112.0215458557 	 0.0439338795113354
113.0260000694 	 0.671988657071108
113.0293708878 	 1.58860914323943
124.0215458557 	 0.0224661883864784
127.032444893 	 0.0249624315405315
129.0480949572 	 0.0239639342789102
129.9779664815 	 0.022965437017289
131.0637450214 	 10.2595593631584
138.0371959199 	 0.275085995576657
139.032444893 	 1.6814693885702
141.0447241388 	 0.629552523452204
142.9857915136 	 0.477780939685773
145.0014415778 	 0.0254616801713421
153.0480949572 	 0.032451161002691
154.0559199893 	 4.19318925017848
155.0637450214 	 14.9774589243189
156.0681992351 	 0.442334286898218
158.0092666099 	 0.0289564205870165
169.0793950856 	 0.0284571719562059
171.017091642 	 0.339988317582039
172.0249166741 	 0.0604090843280862
187.0358157114 	 1.12780265700121
198.9994302051 	 0.331501090858258
199.0358157114 	 1.49325265475459
200.0402699251 	 0.399898153279315
215.0671158398 	 4.80676581744475
216.0715700535 	 0.739886470861354
230.0780148771 	 0.0339489068951228
232.0936649413 	 7.29102700435844
243.0858399092 	 7.11379374042067
244.0936649413 	 1.42036235465624
258.0729294992 	 4.06038911438285
259.0807545313 	 0.453817005406863
271.1045639786 	 4.97451335739712
284.1123890107 	 0.382923699831753
286.1280390749 	 6.75982646117593
287.0994786007 	 0.0234646856480996
296.0998129517 	 0.0659008192670032
301.0787431586 	 0.129804644010764
314.110377638 	 1.20468694614605
332.1209423243 	 100
END IONS

BEGIN IONS
PEPMASS=609.2809
CHARGE=1
MSLEVEL=2
RT=0
SOURCE_INSTRUMENT=qTOF
FILENAME=CCMSLIB00000006372.ms
IONMODE=Positive
ORGANISM=Natural
NAME=Reserpine
PI=GNPS
DATACOLLECTOR=GNPS
SMILES=COc1ccc2c3CCN4C[C@H]5C[C@H]([C@@H]([C@H]([C@H]5C[C@@H]4c3[nH]c2c1)C(=O)OC)OC)OC(=O)c1cc(c(c(c1)OC)OC)OC
INCHI=InChI=1S/C33H40N2O9/c1-38-19-7-8-20-21-9-10-35-16-18-13-27(44-32(36)17-11-25(39-2)30(41-4)26(12-17)40-3)31(42-5)28(33(37)43-6)22(18)15-24(35)29(21)34-23(20)14-19/h7-8,11-12,14,18,22,24,27-28,31,34H,9-10,13,15-16H2,1-6H3/t18-,22+,24-,27-,28+,31+/m1/s1
FORMULA=C33H40N2O9
PUBMED=N/A
SUBMITUSER=BIOADREM
LIBRARYQUALITY=0
SPECTRUMID=CCMSLIB00000006372
SCANS=310
ID=CCMSLIB00000006372
118.0651252299 	 0.113834406197427
120.0780952194 	 0.223639275892291
130.0651252299 	 0.125923015705119
131.072950262 	 0.508728983448679
132.0443897878 	 0.096708876061531
132.0807752941 	 0.166218380730756
139.0753555652 	 0.360643516979459
143.0702701873 	 0.167225764856397
143.072950262 	 0.307252158320489
144.0807752941 	 0.239757421902546
148.0756899162 	 0.874409421056343
152.046795091 	 1.00839150976659
159.0678648841 	 1.17964681112555
160.0756899162 	 0.941904157474287
161.0835149483 	 0.331429377335872
162.0913399804 	 0.156144539474347
167.0702701873 	 0.490596069187142
172.0756899162 	 0.11685655857435
174.0913399804 	 23.124502604088
178.0862546025 	 0.145063314092297
181.0859202515 	 0.13801162521281
186.0913399804 	 0.319340767828181
188.1069900446 	 0.317325999576899
189.1022390177 	 0.422093948643557
190.0862546025 	 0.354599212225614
192.099224592 	 0.1279377839564
192.1019046667 	 2.05002669567933
195.0651848094 	 37.7406388830125
197.0709388893 	 0.143048545841015
198.0913399804 	 0.102753180815377
199.0964849378 	 0.144055929966656
200.1069900446 	 0.739419948220456
201.1022390177 	 0.119878710951273
204.1019046667 	 0.760575014858916
215.1152090072 	 0.161181460102552
215.1178890819 	 0.426123485146121
226.1226401088 	 0.14909285059486
227.1178890819 	 0.129952552207682
236.1254393425 	 0.516788056453806
236.1281194172 	 3.51980013498947
238.1226401088 	 0.209535898133317
248.1043099699 	 0.0876424189307625
250.1199600341 	 0.122900863328196
251.1277850662 	 0.119878710951273
253.1335391461 	 0.156144539474347
261.112135002 	 0.0896571871820444
262.1226401088 	 0.21255805051024
265.1335391461 	 0.113834406197427
267.1465091356 	 0.0886498030564034
276.1356100983 	 0.208528514007676
276.138290173 	 0.357621364602537
287.1430411999 	 0.203491593379472
288.1356100983 	 0.171255301358961
288.138290173 	 0.404968418507661
289.1434351304 	 0.112827022071786
304.1332047951 	 0.292141396435875
316.1305247204 	 0.0926793395589672
322.1437694814 	 0.0936867236846082
333.1332643746 	 0.0987236443128129
333.1570738219 	 0.190395599746139
333.1597538966 	 0.323370304330744
336.1567394709 	 0.944926309851209
336.1594195456 	 0.990258595505052
348.1567394709 	 0.387842888371765
348.1594195456 	 0.568164646861495
365.1832885724 	 1.10308561757684
365.1859686471 	 3.38380327802795
366.1699842319 	 0.113834406197427
366.1911136045 	 0.331429377335872
368.1856342961 	 0.472463154925605
380.1829542214 	 0.270986329797415
380.1856342961 	 0.124915631579478
382.1860282266 	 0.0886498030564034
397.2095033229 	 2.40059637140238
397.2121833976 	 17.0046440408192
434.1809428487 	 0.108797485569222
436.1965929129 	 0.659836602294821
448.1992729876 	 2.52148246647929
449.204417945 	 0.386835504246124
577.2544421428 	 1.72262685484602
578.2622671749 	 0.144055929966656
580.2541077918 	 0.109804869694863
591.270092207 	 0.142041161715374
609.2806568933 	 100
END IONS

BEGIN IONS
PEPMASS=328.119
CHARGE=1
MSLEVEL=2
RT=0
SOURCE_INSTRUMENT=qTOF
FILENAME=CCMSLIB00000006385.ms
IONMODE=Positive
ORGANISM=Natural
NAME=Tranilast
PI=GNPS
DATACOLLECTOR=GNPS
SMILES=COc1ccc(/C=C/C(=Nc2ccccc2C(=O)O)O)cc1OC
INCHI=InChI=1S/C18H17NO5/c1-23-15-9-7-12(11-16(15)24-2)8-10-17(20)19-14-6-4-3-5-13(14)18(21)22/h3-11H,1-2H3,(H,19,20)(H,21,22)/b10-8+
FORMULA=C18H17NO5
PUBMED=N/A
SUBMITUSER=BIOADREM
LIBRARYQUALITY=0
SPECTRUMID=CCMSLIB00000006385
SCANS=312
ID=CCMSLIB00000006385
91.0542261926 	 0.389375072284976
102.0464011605 	 0.366243879872007
103.0542261926 	 12.3944639346158
105.0334907505 	 0.774894945834458
105.0698762568 	 1.58834187902386
117.0334907505 	 0.501175835614326
118.0413157826 	 8.54312039785651
119.0491408147 	 15.1740622229076
120.0569658468 	 1.02933806237712
130.0413157826 	 3.78580515825591
132.0569658468 	 37.1911022013185
133.0284053726 	 21.0069779097112
133.0647908789 	 1.83121939936004
134.072615911 	 2.37094722232931
135.0804409431 	 0.859709318015344
145.0284053726 	 4.1597594355989
146.0362304047 	 0.674659778711592
147.0440554368 	 5.21608388912448
148.0518804689 	 49.1846254674428
160.0518804689 	 3.07259339218937
163.0753555652 	 61.8643741084853
175.0389700589 	 1.04475885731909
176.046795091 	 10.2394078414742
191.0702701873 	 100
328.1179486614 	 0
END IONS

BEGIN IONS
PEPMASS=360.158
CHARGE=1
MSLEVEL=2
RT=0
SOURCE_INSTRUMENT=qTOF
FILENAME=CCMSLIB00000006397.ms
IONMODE=Positive
ORGANISM=Natural
NAME=Capecitabine
PI=GNPS
DATACOLLECTOR=GNPS
SMILES=CCCCCOC(=Nc1c(cn([C@H]2[C@@H]([C@@H]([C@@H](C)O2)O)O)c(=O)n1)F)O
INCHI=InChI=1S/C15H22FN3O6/c1-3-4-5-6-24-15(23)18-12-9(16)7-19(14(22)17-12)13-11(21)10(20)8(2)25-13/h7-8,10-11,13,20-21H,3-6H2,1-2H3,(H,17,18,22,23)/t8-,10-,11-,13-/m1/s1
FORMULA=C15H22FN3O6
PUBMED=N/A
SUBMITUSER=BIOADREM
LIBRARYQUALITY=0
SPECTRUMID=CCMSLIB00000006397
SCANS=313
ID=CCMSLIB00000006397
112.0305512798 	 3.46
113.0145668646 	 4.21
130.0411159661 	 100
156.020380524 	 3.15
174.0309452103 	 14.68
360.1565396544 	 0
END IONS

BEGIN IONS
PEPMASS=384.1744
CHARGE=1
MSLEVEL=2
RT=0
SOURCE_INSTRUMENT=qTOF
FILENAME=CCMSLIB00000006402.ms
IONMODE=Positive
ORGANISM=Natural
NAME=QuetiapineFumarate
PI=GNPS
DATACOLLECTOR=GNPS
SMILES=c1ccc2c(c1)C(=Nc1ccccc1S2)N1CCN(CC1)CCOCCO
INCHI=InChI=1S/C21H25N3O2S/c25-14-16-26-15-13-23-9-11-24(12-10-23)21-17-5-1-3-7-19(17)27-20-8-4-2-6-18(20)22-21/h1-8,25H,9-16H2
FORMULA=C21H25N3O2S
PUBMED=N/A
SUBMITUSER=BIOADREM
LIBRARYQUALITY=0
SPECTRUMID=CCMSLIB00000006402
SCANS=314
ID=CCMSLIB00000006402
132.0967221715 	 0.398087971410046
139.0542261926 	 0.149282989278767
151.0542261926 	 0.0678559042176214
158.1123722357 	 2.45789164166051
159.0262968826 	 0.0829349940437595
166.0651252299 	 0.0422214515131867
177.0573001978 	 0.309121341435831
178.0651252299 	 0.9937120195425
180.0807752941 	 0.0859508120089871
183.0262968826 	 1.57576488683143
187.019868834 	 0.0331739976175038
187.0212115047 	 0.0603163593045524
192.0681992351 	 0.0784112670959181
193.0886003262 	 0.125156445556946
196.0756899162 	 0.165869988087519
201.0368615689 	 0.09499826590467
204.0807752941 	 0.120632718609105
205.0760242672 	 0.137219717417857
207.0916743314 	 0.0588084503219386
209.0293708878 	 1.80044332524089
210.0371959199 	 26.359756925072
211.032444893 	 1.05704419681228
211.0416501336 	 0.527768143914833
212.0368991067 	 0.150790898261381
213.0355188982 	 0.0376977245653452
219.0838117615 	 0.193012349774568
219.0916743314 	 1.25156445556946
220.0994993635 	 0.039205633547959
221.0994618257 	 12.143191036989
221.1073243956 	 54.7144774341421
222.1025733687 	 2.38701991947766
223.1137692192 	 0.381500972601294
224.0528459841 	 0.11460108267865
226.0684960483 	 0.150790898261381
227.0637450214 	 0.0361898155827314
228.0477606062 	 0.251820800096506
232.0994993635 	 0.0557926323567109
236.0528459841 	 0.188488622826726
238.0525491709 	 0.06333217726978
238.0559199893 	 0.0678559042176214
245.1073243956 	 0.218646802479002
247.1151118899 	 3.53001492829893
247.1229744598 	 17.5083311971289
248.1182234329 	 0.642369226593483
249.1294192834 	 0.171901624017974
251.0637450214 	 0.425230333097094
252.0681992351 	 0.0738875401480766
253.0793950856 	 100
254.0759867294 	 7.03439540389342
254.0838492993 	 2.3915436464255
255.0712357025 	 2.09146975888535
259.0899597719 	 0.0542847233740971
264.0681992351 	 0.0588084503219386
279.0950451498 	 24.9739885700499
280.0994993635 	 0.473483420540736
281.0868857667 	 0.713240948776332
384.1740237523 	 53.375454257581
END IONS

BEGIN IONS
PEPMASS=370.2246
CHARGE=1
MSLEVEL=2
RT=0
SOURCE_INSTRUMENT=qTOF
FILENAME=CCMSLIB00000006416.ms
IONMODE=Positive
ORGANISM=Natural
NAME=Cilostazol
PI=GNPS
DATACOLLECTOR=GNPS
SMILES=C1CCC(CC1)n1c(CCCCOc2ccc3c(CCC(=O)N3)c2)nnn1
INCHI=InChI=1S/C20H27N5O2/c26-20-12-9-15-14-17(10-11-18(15)21-20)27-13-5-4-8-19-22-23-24-25(19)16-6-2-1-3-7-16/h10-11,14,16H,1-9,12-13H2,(H,21,26)
FORMULA=C20H27N5O2
PUBMED=N/A
SUBMITUSER=BIOADREM
LIBRARYQUALITY=0
SPECTRUMID=CCMSLIB00000006416
SCANS=316
ID=CCMSLIB00000006416
91.0502034472 	 1.04359873963664
98.0838492993 	 2.00004469373617
103.0542261926 	 0.283805224697759
104.0494751657 	 0.230172741290308
105.0698762568 	 0.236876801716239
106.0651252299 	 0.402243625555878
108.0443897878 	 0.163132137030995
110.060039852 	 0.256988982994033
118.0651252299 	 4.96100471518917
119.072950262 	 0.489396411092985
120.0430471171 	 1.31399584348254
120.0443897878 	 0.6994569711055
120.0807752941 	 1.66037229882232
122.060039852 	 5.1464837203066
125.0821722776 	 22.3468680864377
125.0835149483 	 61.1142148427898
128.0494751657 	 0.250284922568102
130.0651252299 	 0.811191311537688
131.0689275166 	 1.22907774475407
132.0807752941 	 3.66041699255849
134.060039852 	 10.9678428568236
135.0665222134 	 1.17544526134662
142.0651252299 	 0.113969027240832
143.060374203 	 0.210060560012514
145.0396387609 	 0.730742586426512
145.0720015218 	 1.02348655835885
145.0760242672 	 0.431294554068247
146.060039852 	 11.354443674719
146.0924026129 	 1.88607566649534
148.0756899162 	 10.6572213904221
156.0767525487 	 0.963150014525464
156.0807752941 	 0.218999307247089
158.060039852 	 0.167601510648283
160.0756899162 	 8.1387293570806
162.0549544741 	 12.7019598203312
163.0614368355 	 6.81356007955485
164.0706045383 	 23.6273436277906
173.0709388893 	 6.10069498759749
174.0913399804 	 21.4775749178753
176.0706045383 	 26.0117544526135
178.0736785435 	 0.963150014525464
184.0743472455 	 2.32407428098952
184.0756899162 	 1.47712798051353
186.0985506233 	 0.764262888556169
187.0502034472 	 0.855885047710563
188.0706045383 	 0.36201926300029
189.0658535114 	 6.41578582761626
190.0862546025 	 0.502804531944848
198.0899973097 	 0.122907774475407
198.0913399804 	 0.15419338979642
199.0502034472 	 0.822364745580907
200.0692618676 	 1.7050660349952
200.0706045383 	 0.183244318308789
200.1069900446 	 0.178774944691501
201.0658535114 	 8.34655523028447
201.1022390177 	 2.18999307247089
202.0862546025 	 19.7009989050035
215.0815035756 	 1.2916489753961
215.1165464112 	 0.929629712395808
215.1178890819 	 0.203356499586583
216.100561996 	 1.50841359583454
216.1019046667 	 0.234642114907596
218.1175547309 	 7.7454244787593
226.0849119318 	 0.138550582135914
228.087985937 	 0.105030280006257
243.1114610333 	 4.16769089812063
243.112803704 	 1.59109700775436
245.1284537682 	 8.07615812643858
288.1455008159 	 61.0494089253391
370.2237511369 	 100
END IONS

BEGIN IONS
PEPMASS=212.067
CHARGE=1
MSLEVEL=2
RT=0
SOURCE_INSTRUMENT=qTOF
FILENAME=CCMSLIB00000006430.ms
IONMODE=Positive
ORGANISM=Natural
NAME=Nicorandil
PI=GNPS
DATACOLLECTOR=GNPS
SMILES=c1cc(cnc1)C(=NCCON(=O)=O)O
INCHI=InChI=1S/C8H9N3O4/c12-8(7-2-1-3-9-6-7)10-4-5-15-11(13)14/h1-3,6H,4-5H2,(H,10,12)
FORMULA=C8H9N3O4
PUBMED=N/A
SUBMITUSER=BIOADREM
LIBRARYQUALITY=0
SPECTRUMID=CCMSLIB00000006430
SCANS=319
ID=CCMSLIB00000006430
93.0573001978 	 7.05
107.0365647557 	 37.07
107.060374203 	 88.95
108.0443897878 	 100
117.0447241388 	 77.6
135.0526087504 	 25.32
135.0552888251 	 16.42
136.0393044099 	 19.71
136.0631138572 	 100
147.0552888251 	 66.84
165.0658535114 	 44.98
168.0529431014 	 39.78
212.0665817929 	 0
END IONS

BEGIN IONS
PEPMASS=212.0816
CHARGE=1
MSLEVEL=2
RT=0
SOURCE_INSTRUMENT=qTOF
FILENAME=CCMSLIB00000006442.ms
IONMODE=Positive
ORGANISM=Natural
NAME=Milrinone
PI=GNPS
DATACOLLECTOR=GNPS
SMILES=Cc1c(cc(C#N)c(n1)O)c1ccncc1
INCHI=InChI=1S/C12H9N3O/c1-8-11(9-2-4-14-5-3-9)6-10(7-13)12(16)15-8/h2-6H,1H3,(H,15,16)
FORMULA=C12H9N3O
PUBMED=N/A
SUBMITUSER=BIOADREM
LIBRARYQUALITY=0
SPECTRUMID=CCMSLIB00000006442
SCANS=320
ID=CCMSLIB00000006442
101.0385761284 	 0.116029989289539
102.0338251015 	 0.380816375104129
103.0542261926 	 1.06212067118886
104.0494751657 	 29.7512793050101
113.0385761284 	 2.01416160894918
115.0542261926 	 4.62334880399857
116.0494751657 	 21.7452100440319
117.0573001978 	 6.51553016779722
118.0651252299 	 3.74271093657027
128.0494751657 	 0.856836843984291
129.0447241388 	 0.357015351660121
129.0573001978 	 0.633702249196715
130.0651252299 	 3.54932762108771
138.0338251015 	 0.107104605498036
139.0416501336 	 0.374866119243127
140.0494751657 	 10.415922884684
142.0525491709 	 19.8708794478163
143.060374203 	 14.3371414970844
144.0443897878 	 0.345114839938117
145.0760242672 	 3.17148637391408
148.0631138572 	 29.7512793050101
155.060374203 	 1.33285731286445
157.0760242672 	 2.44555515887183
158.060039852 	 0.166607164108057
159.0552888251 	 0.300487920980602
165.0447241388 	 0.217184338926574
166.0525491709 	 3.62965607521123
167.060374203 	 4.34963703439248
168.0681992351 	 1.57086754730453
169.0760242672 	 1.96655956206117
171.0552888251 	 0.773533261930263
182.0712732403 	 1.36855884803047
183.0790982724 	 2.21052005236225
184.0869233045 	 6.81899321670832
185.0709388893 	 2.18076877305724
194.0712732403 	 1.82970367725812
195.0552888251 	 2.43960490301083
196.0631138572 	 2.54075925264786
211.0740128945 	 8.33630846126383
212.0818379266 	 100
END IONS

BEGIN IONS
PEPMASS=406.182
CHARGE=1
MSLEVEL=2
RT=0
SOURCE_INSTRUMENT=qTOF
FILENAME=CCMSLIB00000006454.ms
IONMODE=Positive
ORGANISM=Natural
NAME=Nebivolol
PI=GNPS
DATACOLLECTOR=GNPS
SMILES=C1CC(C(CNCC(C2CCc3cc(ccc3O2)F)O)O)Oc2ccc(cc12)F
INCHI=InChI=1S/C22H25F2NO4/c23-15-3-7-19-13(9-15)1-5-21(28-19)17(26)11-25-12-18(27)22-6-2-14-10-16(24)4-8-20(14)29-22/h3-4,7-10,17-18,21-22,25-27H,1-2,5-6,11-12H2
FORMULA=C22H25F2NO4
PUBMED=N/A
SUBMITUSER=BIOADREM
LIBRARYQUALITY=0
SPECTRUMID=CCMSLIB00000006454
SCANS=321
ID=CCMSLIB00000006454
103.0542261926 	 14.31
109.0448043605 	 3.95
121.0448043605 	 0.23
123.0604544247 	 44.66
125.0397189826 	 8.28
129.0698762568 	 0.84
131.0491408147 	 1.03
133.0448043605 	 1.53
135.0604544247 	 0.57
137.0397189826 	 2.39
139.0553690468 	 1.32
147.0604544247 	 0.38
149.0397189826 	 1.85
149.0761044889 	 1.63
151.0553690468 	 100
159.0604544247 	 0.44
162.0475440147 	 0.81
163.0553690468 	 0.77
165.071019111 	 2.55
167.0502836689 	 0.32
177.071019111 	 4.39
194.0975682125 	 0.31
195.0815837973 	 0.2
212.1081328988 	 0.26
238.123782963 	 0.21
264.1394330272 	 0.24
282.1499977135 	 0.5
406.1824406961 	 1.69
END IONS

BEGIN IONS
PEPMASS=351.1122
CHARGE=1
MSLEVEL=2
RT=0
SOURCE_INSTRUMENT=qTOF
FILENAME=CCMSLIB00000006470.ms
IONMODE=Positive
ORGANISM=Natural
NAME=Biapenem
PI=GNPS
DATACOLLECTOR=GNPS
SMILES=C[C@@H]1[C@@H]2[C@@H]([C@@H](C)O)C(=O)N2C(=C1SC1Cn2cnc[n+]2C1)C(=O)[O-]
INCHI=InChI=1S/C15H18N4O4S/c1-7-11-10(8(2)20)14(21)19(11)12(15(22)23)13(7)24-9-3-17-5-16-6-18(17)4-9/h5-11,20H,3-4H2,1-2H3/t7-,8-,10-,11-/m1/s1
FORMULA=C15H18N4O4S
PUBMED=N/A
SUBMITUSER=BIOADREM
LIBRARYQUALITY=0
SPECTRUMID=CCMSLIB00000006470
SCANS=322
ID=CCMSLIB00000006470
108.0556231761 	 6.88103880169726
110.0685931656 	 14.4317775164869
110.0712732403 	 45.5191452379735
110.072615911 	 51.1221307704105
118.0651252299 	 42.2575532948213
120.0443897878 	 29.3645519145238
121.0522148199 	 11.3797863094934
121.0971536398 	 1.18603343387352
124.018865781 	 51.1221307704105
124.0215458557 	 18.5368846173509
126.0371959199 	 32.3909820561321
127.0178406863 	 9.04350493328562
134.0573597773 	 18.2608251111906
137.047129442 	 38.1677828331885
138.0008104136 	 10.6487398394765
140.0164604778 	 4.95373447165278
147.0314793778 	 6.55385716476663
152.0104095847 	 15.7149429988242
152.0528459841 	 4.58565513010582
156.0080042815 	 9.40647206175553
156.0113750999 	 8.86457747558918
170.0270251641 	 100
170.9858886309 	 6.55896937784367
172.9929853815 	 8.63964010019938
196.0426752283 	 5.39849700935535
198.0219397862 	 7.26956699555237
198.0583252925 	 6.65610142630745
242.046811866 	 30.013802975308
247.0621275792 	 2.39251572005521
259.0423408773 	 2.36695465467001
264.0199284135 	 7.85235928633506
265.0753723402 	 54.4041715658709
272.9838772582 	 41.6287510863453
292.0750379892 	 7.68876846786974
351.112151777 	 72.0464188947395
END IONS

BEGIN IONS
PEPMASS=370.0832
CHARGE=1
MSLEVEL=2
RT=0
SOURCE_INSTRUMENT=qTOF
FILENAME=CCMSLIB00000006481.ms
IONMODE=Positive
ORGANISM=Natural
NAME=Lansoprazole
PI=GNPS
DATACOLLECTOR=GNPS
SMILES=Cc1c(CS(=O)c2nc3ccccc3[nH]2)nccc1OCC(F)(F)F
INCHI=InChI=1S/C16H14F3N3O2S/c1-10-13(20-7-6-14(10)24-9-16(17,18)19)8-25(23)15-21-11-4-2-3-5-12(11)22-15/h2-7H,8-9H2,1H3,(H,21,22)
FORMULA=C16H14F3N3O2S
PUBMED=N/A
SUBMITUSER=BIOADREM
LIBRARYQUALITY=0
SPECTRUMID=CCMSLIB00000006481
SCANS=325
ID=CCMSLIB00000006481
106.0651252299 	 4.5890022675737
107.072950262 	 23.6904761904762
108.0807752941 	 0.198412698412698
119.060374203 	 52.9053287981859
120.0443897878 	 0.255102040816327
120.0807752941 	 1.38888888888889
121.082332721 	 0.0566893424036281
122.060039852 	 1.23866213151927
123.0137208236 	 0.50453514739229
127.0416501336 	 3.13208616780045
134.0058957915 	 0.839002267573696
136.0756899162 	 42.4773242630385
144.0318137288 	 1.51643990929705
149.1073243956 	 0.133219954648526
151.0086354457 	 8.0187074829932
165.058443052 	 0.0878684807256236
166.0161636646 	 0.283446712018141
166.019534483 	 28.3446712018141
167.0199490557 	 3.09807256235828
168.0113750999 	 2.13151927437642
185.0646712841 	 1.01190476190476
190.0462815657 	 0.606575963718821
192.0619316299 	 0.0623582766439909
204.0619316299 	 0.187074829931973
204.0630744841 	 14.6740362811791
205.0708995162 	 24.3140589569161
206.0070386457 	 0.0821995464852608
206.0746440587 	 0.904195011337869
208.056846252 	 0.124716553287982
213.1022390177 	 1.9047619047619
220.0539086166 	 3.25396825396825
220.056846252 	 6.28684807256236
222.0724963162 	 8.57993197278912
222.0736391704 	 1.48809523809524
223.0773837129 	 0.0850340136054422
226.0644733029 	 1.61281179138322
231.0552888251 	 1.38888888888889
234.0109586919 	 0.314625850340136
234.0183522557 	 42.9733560090703
235.0261772878 	 4.16383219954648
235.1052736498 	 0.18140589569161
238.0923632398 	 0.158730158730159
252.028916942 	 100
254.0508346114 	 1.32369614512472
266.0508346114 	 1.51643990929705
276.0801233671 	 1.48526077097506
292.0817985535 	 0.153061224489796
310.082015145 	 0.376984126984127
322.1161726871 	 1.77437641723356
352.0725933129 	 6.58730158730159
370.0831579992 	 65.6150793650794
END IONS

BEGIN IONS
PEPMASS=286.1008
CHARGE=1
MSLEVEL=2
RT=0
SOURCE_INSTRUMENT=qTOF
FILENAME=CCMSLIB00000006500.ms
IONMODE=Positive
ORGANISM=Natural
NAME=Asenapine
PI=GNPS
DATACOLLECTOR=GNPS
SMILES=CN1C[C@H]2c3ccccc3Oc3ccc(cc3[C@@H]2C1)Cl
INCHI=InChI=1S/C17H16ClNO/c1-19-9-14-12-4-2-3-5-16(12)20-17-7-6-11(18)8-13(17)15(14)10-19/h2-8,14-15H,9-10H2,1H3/t14-,15-/m0/s1
FORMULA=C17H16ClNO
PUBMED=N/A
SUBMITUSER=BIOADREM
LIBRARYQUALITY=0
SPECTRUMID=CCMSLIB00000006500
SCANS=328
ID=CCMSLIB00000006500
103.0542261926 	 0.348547551127004
104.0620512247 	 0.380690264775604
105.0698762568 	 0.47912732532444
115.0542261926 	 1.28570854594399
116.0620512247 	 0.752340391337539
117.0698762568 	 0.268190767005504
118.0651252299 	 0.306360239463217
125.0152538705 	 0.840732853871188
128.0620512247 	 0.468078267507734
129.0698762568 	 0.721202137490458
130.0651252299 	 0.819639198039295
131.072950262 	 1.15512877174655
132.0807752941 	 1.49965848366748
133.0886003262 	 0.302342400257142
143.072950262 	 0.177789384868818
144.0807752941 	 2.07320503033469
145.0886003262 	 0.964281409457993
146.0964253583 	 0.255132789585761
149.0152538705 	 0.592631282896058
151.0309039347 	 0.41584635782876
152.0620512247 	 0.160713568242999
158.0964253583 	 0.35156093053156
159.1042503904 	 0.177789384868818
165.0698762568 	 7.5937160994817
166.0777012889 	 11.255976535819
167.0491408147 	 0.211941018120455
167.0496280041 	 0.470087187110772
176.0620512247 	 0.217967776929567
178.041802972 	 0.580577765277834
178.0777012889 	 0.271204146410061
179.0496280041 	 0.176784925067299
179.085526321 	 0.186829523082486
180.0569658468 	 0.31941821688296
181.0647908789 	 0.827674876451444
190.0777012889 	 0.236048053356905
191.085526321 	 1.56193499136165
192.0933513531 	 1.63224717746796
193.0647908789 	 0.136606533006549
193.0652780683 	 0.209932098517417
194.072615911 	 5.95242878380007
194.0731031004 	 0.733255655108683
201.0465539989 	 4.38848487283539
202.0777012889 	 1.5167343002933
205.0647908789 	 1.38414560649283
207.0804409431 	 0.445980151874322
215.0258185568 	 8.85933544939532
218.072615911 	 0.682028205231227
219.0804409431 	 3.02342400257142
220.0882659752 	 3.99975892964764
227.0622040631 	 0.507252199766965
229.041468621 	 14.7022781148298
234.0913399804 	 0.842741773474226
236.1069900446 	 1.60311784322391
239.0258185568 	 0.563501948652015
241.041468621 	 1.19932500301338
250.1226401088 	 0.433926634256097
251.1304651409 	 0.158704648639961
255.0571186852 	 2.41371690304954
256.0523676583 	 1.1149503796858
257.0727687494 	 0.953232351641287
270.0680177225 	 0.55948410944594
271.0758427546 	 0.608702639720358
286.0993178509 	 100
END IONS

BEGIN IONS
PEPMASS=315.1488
CHARGE=1
MSLEVEL=2
RT=0
SOURCE_INSTRUMENT=qTOF
FILENAME=CCMSLIB00000006508.ms
IONMODE=Positive
ORGANISM=Natural
NAME=Ranitidine
PI=GNPS
DATACOLLECTOR=GNPS
SMILES=CN/C(=C\N(=O)=O)/NCCSCc1ccc(CN(C)C)o1
INCHI=InChI=1S/C13H22N4O3S/c1-14-13(9-17(18)19)15-6-7-21-10-12-5-4-11(20-12)8-16(2)3/h4-5,9,14-15H,6-8,10H2,1-3H3/b13-9+
FORMULA=C13H22N4O3S
PUBMED=N/A
SUBMITUSER=BIOADREM
LIBRARYQUALITY=0
SPECTRUMID=CCMSLIB00000006508
SCANS=330
ID=CCMSLIB00000006508
95.0491408147 	 0.436140159587649
97.0760242672 	 1.62313525301085
101.0293708878 	 0.475789265004708
102.0371959199 	 31.2558854140853
104.0494751657 	 0.381622639639193
106.0651252299 	 0.413837537790554
107.0491408147 	 3.39991078951281
108.0807752941 	 0.555087475838826
109.0634482082 	 0.138771868959707
109.0760242672 	 0.39649105417059
110.060039852 	 0.842543490112504
110.0964253583 	 3.04802497893641
114.0371959199 	 0.146206076225405
114.0787639214 	 1.16469247162611
115.032444893 	 0.458442781384745
117.0480949572 	 1.37285027506567
118.032110542 	 0.738464588392724
118.0651252299 	 0.346929672399266
120.0807752941 	 0.763245279278386
121.0760242672 	 2.09892451801556
122.060039852 	 0.190811319819597
123.0678648841 	 0.0619517272141547
124.0743472455 	 5.69955890370224
124.0756899162 	 9.5133072310056
125.0055614405 	 34.7499628289637
127.0740128945 	 0.121425385339743
129.0447241388 	 0.485701541358973
129.0480949572 	 0.617039203052981
130.0559199893 	 30.6933637309808
132.0443897878 	 1.29850820240868
133.0522148199 	 1.29355206423155
134.060039852 	 0.282499876096546
134.0838492993 	 0.138771868959707
135.0262968826 	 0.29241215245081
135.0916743314 	 2.68127075382862
136.0756899162 	 0.584824304901621
137.0055614405 	 0.123903454428309
137.1073243956 	 0.304802497893641
138.0913399804 	 4.78019527184418
139.0978223418 	 0.515438370421767
144.0767525487 	 14.1225157357387
145.0430095793 	 0.587302373990187
146.060039852 	 0.190811319819597
147.0222741372 	 0.805372453784011
147.0678648841 	 0.493135748624672
147.0916743314 	 0.255241116122317
148.0756899162 	 6.21004113594687
149.0709388893 	 0.626951479407246
150.0371959199 	 0.151162214402538
150.0913399804 	 0.180899043465332
151.0212115047 	 0.314714774247906
153.0368615689 	 3.38008623680428
159.0460835845 	 0.166030628933935
162.0787639214 	 0.123903454428309
163.0865889535 	 1.89572285275313
163.1229744598 	 0.235416563413788
164.0164604778 	 0.128859592605442
165.1022390177 	 5.0280021807008
170.0634106704 	 6.29181741586955
176.0488232387 	 74.7212172275363
177.0480949572 	 2.94146800812807
177.1022390177 	 1.80651236556475
178.032110542 	 0.441096297764782
178.0433439303 	 1.23407840610596
178.1100640498 	 0.443574366853348
181.0793950856 	 1.48188531496258
191.1178890819 	 6.42811121574069
192.0477606062 	 1.08787232988056
193.0555856383 	 1.53640283491104
194.0634106704 	 0.148684145313971
195.0698930318 	 0.485701541358973
223.0899597719 	 0.5203945085989
224.097784804 	 17.2101898200922
241.1005244582 	 0.284977945185112
270.0906880534 	 32.0488675224265
272.0937620586 	 1.5388809039996
315.1485372833 	 100
END IONS

BEGIN IONS
PEPMASS=319.1042
CHARGE=1
MSLEVEL=2
RT=0
SOURCE_INSTRUMENT=qTOF
FILENAME=CCMSLIB00000006518.ms
IONMODE=Positive
ORGANISM=Natural
NAME=Chlorpromazine
PI=GNPS
DATACOLLECTOR=GNPS
SMILES=CN(C)CCCN1c2ccccc2Sc2ccc(cc12)Cl
INCHI=InChI=1S/C17H19ClN2S/c1-19(2)10-5-11-20-14-6-3-4-7-16(14)21-17-9-8-13(18)12-15(17)20/h3-4,6-9,12H,5,10-11H2,1-2H3
FORMULA=C17H19ClN2S
PUBMED=N/A
SUBMITUSER=BIOADREM
LIBRARYQUALITY=0
SPECTRUMID=CCMSLIB00000006518
SCANS=333
ID=CCMSLIB00000006518
117.0698762568 	 0.619774686077665
130.0651252299 	 1.35898511895155
151.0542261926 	 0.32925530197876
154.0651252299 	 0.287291390942251
166.0651252299 	 0.319571322508796
177.0573001978 	 0.745666419187191
178.0651252299 	 1.63659253042384
179.072950262 	 1.77862422931663
184.0341219147 	 0.729526453403919
191.072950262 	 0.258239452532361
198.0371959199 	 8.59937376932761
201.0339779399 	 1.16530552955228
204.0807752941 	 1.19758546111882
205.0886003262 	 0.529390877691339
206.0964253583 	 7.60837987023467
209.0293708878 	 0.287291390942251
210.0371959199 	 6.50763420381549
211.045020952 	 34.7073824203493
212.0261529078 	 5.03566932438103
213.0339779399 	 7.16291681461635
214.041802972 	 100
223.045020952 	 0.684334549210756
224.0528459841 	 6.15255495658349
233.0060486299 	 18.2026534103748
238.0684960483 	 9.25788437328513
239.0763210804 	 53.9333096613835
240.0574530362 	 1.53329674941089
241.0652780683 	 4.68059007714904
246.013873662 	 89.722069789212
259.0216986941 	 0.135575712579489
274.0451737904 	 16.8210723393266
304.079547924 	 0.32925530197876
319.1030230203 	 94.2670841537816
END IONS

BEGIN IONS
PEPMASS=383.1521
CHARGE=1
MSLEVEL=2
RT=0
SOURCE_INSTRUMENT=qTOF
FILENAME=CCMSLIB00000006521.ms
IONMODE=Positive
ORGANISM=Natural
NAME=Loratadine
PI=GNPS
DATACOLLECTOR=GNPS
SMILES=CCOC(=O)N1CCC(=C2c3ccc(cc3CCc3cccnc23)Cl)CC1
INCHI=InChI=1S/C22H23ClN2O2/c1-2-27-22(26)25-12-9-15(10-13-25)20-19-8-7-18(23)14-17(19)6-5-16-4-3-11-24-21(16)20/h3-4,7-8,11,14H,2,5-6,9-10,12-13H2,1H3
FORMULA=C22H23ClN2O2
PUBMED=N/A
SUBMITUSER=BIOADREM
LIBRARYQUALITY=0
SPECTRUMID=CCMSLIB00000006521
SCANS=335
ID=CCMSLIB00000006521
124.0756899162 	 0.769355012382901
180.9839537421 	 0.862495962097556
192.0807752941 	 0.0231506406805212
193.0886003262 	 0.242812533649187
205.0886003262 	 0.172283837622483
206.094232473 	 0.908797243458598
214.041802972 	 0.841498869387316
217.0886003262 	 0.115753203402606
218.0964253583 	 0.152901905889954
219.1042503904 	 0.0328416065467858
226.041802972 	 0.83019274254334
227.0496280041 	 16.1709917088403
228.0574530362 	 0.986324970388715
229.0527020093 	 1.79444384623667
229.0652780683 	 1.06708301927425
230.0964253583 	 0.0872186927963821
231.1042503904 	 0.992247227306988
232.1120754225 	 0.634758264240336
233.1199004546 	 0.141057392053408
238.041802972 	 0.0247658016582319
240.0574530362 	 0.109292559491763
242.0964253583 	 0.0306880585765048
243.1042503904 	 0.836653386454183
244.1120754225 	 0.970173360611608
245.1199004546 	 0.775277269301174
246.1277254867 	 1.34489070744051
251.0496280041 	 0.0500699903090341
252.0574530362 	 1.09292559491763
253.0652780683 	 1.56024550446861
256.1120754225 	 0.171745450629913
257.1199004546 	 0.324647356519866
258.1277254867 	 4.34155270808657
259.1355505188 	 10.3531818671261
264.0574530362 	 0.148594809949392
266.0731031004 	 5.09367933670723
267.0809281325 	 14.7593410143211
270.0554416635 	 0.131904813179714
270.0805937815 	 0.156670614837946
278.0731031004 	 0.593302465812426
278.1777496845 	 1.02562722084634
279.0809281325 	 3.4666738451599
280.0887531646 	 4.90362872832992
281.0965781967 	 5.97717239151502
282.1044032288 	 2.45019920318725
285.1040688778 	 0.0597609561752988
292.0887531646 	 1.46656616776139
294.1044032288 	 5.82857758156563
302.1413641782 	 0.805426940885108
309.1153022661 	 0.0678367610638527
311.1309523303 	 1.3739636050393
322.0867417919 	 0.89210724668892
337.1102168882 	 31.0767739851405
338.106808532 	 1.58501130612684
340.1098825372 	 0.492085711209217
355.1207815745 	 0.310110907720469
383.1520817029 	 100
END IONS

BEGIN IONS
PEPMASS=358.2385
CHARGE=1
MSLEVEL=2
RT=0
SOURCE_INSTRUMENT=qTOF
FILENAME=CCMSLIB00000006548.ms
IONMODE=Positive
ORGANISM=Natural
NAME=Oxybutynin
PI=GNPS
DATACOLLECTOR=GNPS
SMILES=CCN(CC)CC#CCOC(=O)C(c1ccccc1)(C1CCCCC1)O
INCHI=InChI=1S/C22H31NO3/c1-3-23(4-2)17-11-12-18-26-21(24)22(25,19-13-7-5-8-14-19)20-15-9-6-10-16-20/h5,7-8,13-14,20,25H,3-4,6,9-10,15-18H2,1-2H3
FORMULA=C22H31NO3
PUBMED=N/A
SUBMITUSER=BIOADREM
LIBRARYQUALITY=0
SPECTRUMID=CCMSLIB00000006548
SCANS=340
ID=CCMSLIB00000006548
91.0542261926 	 0.937242733202457
94.0651252299 	 1.54011778861377
95.072950262 	 0.277373187258565
96.0807752941 	 0.914444936989424
103.0542261926 	 0.386295991387499
105.0334907505 	 20.8371857387119
105.0698762568 	 0.668735355582294
107.0491408147 	 12.9656133240453
107.085526321 	 0.229244506364385
108.0807752941 	 3.42980178582737
109.0886003262 	 2.63947818377557
113.0260000694 	 0.668735355582294
114.0913399804 	 0.0278639731492622
115.0542261926 	 0.595275790006966
117.0698762568 	 1.26654423405737
119.085526321 	 0.0291305173833196
121.0647908789 	 0.468621366601229
122.0964253583 	 1.70096890633905
124.1120754225 	 19.1248179342664
125.1199004546 	 0.291305173833196
127.0542261926 	 0.27484009879045
128.0620512247 	 1.51731999240073
129.0698762568 	 9.36609461085428
131.0491408147 	 0.0367297827876639
131.085526321 	 0.040529415489836
133.0647908789 	 0.195047812044836
140.1069900446 	 0.0316636058514344
141.0698762568 	 0.302704071939712
142.1226401088 	 48.9734658982965
143.085526321 	 1.92261414729909
153.0698762568 	 0.0316636058514344
155.0491408147 	 0.140586409980369
155.085526321 	 0.124121334937623
157.0647908789 	 2.32790830219745
159.0804409431 	 0.0759926540434425
165.0698762568 	 0.200113988981065
166.0777012889 	 0.393895256791843
169.1011763852 	 0.0683933886390982
170.1175547309 	 0.0443290481920081
171.1168264494 	 4.81033500094991
181.1011763852 	 0.45342283579254
183.0804409431 	 0.0721930213412704
185.059705501 	 0.238110316002786
187.0753555652 	 0.191248179342664
189.1273911357 	 7.30796023051105
197.047129442 	 0.789057057817744
199.1117410715 	 3.38800582610348
217.1223057578 	 0.208979798619467
221.1324765136 	 0.040529415489836
239.1430411999 	 0.0278639731492622
256.1332047951 	 0.0265974289152049
258.1488548593 	 0.770058894306884
267.0804409431 	 0.823253752137293
267.137955822 	 0.284972452662909
297.0784295704 	 0.840985371414097
340.2271051803 	 8.51244379709961
358.2376698666 	 100
END IONS

BEGIN IONS
PEPMASS=446.1844
CHARGE=1
MSLEVEL=2
RT=0
SOURCE_INSTRUMENT=qTOF
FILENAME=CCMSLIB00000006553.ms
IONMODE=Positive
ORGANISM=Natural
NAME=Glipizide
PI=GNPS
DATACOLLECTOR=GNPS
SMILES=Cc1cnc(cn1)C(=NCCc1ccc(cc1)S(=O)(=O)NC(=NC1CCCCC1)O)O
INCHI=InChI=1S/C21H27N5O4S/c1-15-13-24-19(14-23-15)20(27)22-12-11-16-7-9-18(10-8-16)31(29,30)26-21(28)25-17-5-3-2-4-6-17/h7-10,13-14,17H,2-6,11-12H2,1H3,(H,22,27)(H2,25,26,28)
FORMULA=C21H27N5O4S
PUBMED=N/A
SUBMITUSER=BIOADREM
LIBRARYQUALITY=0
SPECTRUMID=CCMSLIB00000006553
SCANS=342
ID=CCMSLIB00000006553
93.0447241388 	 4.22078861341742
100.1120754225 	 20.8262215407759
102.0464011605 	 0.769520062487343
103.0542261926 	 82.2952526976596
107.0491408147 	 4.81094685682877
107.0525116331 	 2.54578065785287
111.0552888251 	 4.33072005091561
118.0399731119 	 0.0781091792750311
118.0651252299 	 7.90638470217259
119.047798144 	 3.6942748864524
119.0491408147 	 0.280614458876964
119.072950262 	 1.56218358550062
120.0556231761 	 4.48693840946568
120.0569658468 	 6.44834668903868
121.007276 	 1.88908496542946
121.0396387609 	 24.971793907484
121.0647908789 	 0.457083345387219
131.060374203 	 8.87841004426187
136.0505377982 	 0.130181965458385
138.0371959199 	 0.135967830589869
138.0661878624 	 0.506263199004831
138.0675305331 	 0.0838950444065149
139.0212115047 	 4.19475222032574
139.045020952 	 0.543871322359476
139.0502034472 	 3.55541412329679
148.0215458557 	 4.77623166603986
148.0253856802 	 3.27479966441982
149.0021906221 	 1.18031648682269
149.0055614405 	 1.62004223681546
149.0583628303 	 0.619087569068765
149.059705501 	 0.196719414470449
150.0008104136 	 0.15332542598432
150.0661878624 	 20.0017357595394
150.0675305331 	 1.94983654931004
166.032110542 	 12.7202244915671
167.0127553084 	 10.5592038649579
167.0161261268 	 68.1025255301299
167.0199659513 	 3.99513987328955
177.1723299556 	 0.15332542598432
183.087651586 	 3.16197529435589
183.0889942567 	 0.269042728613996
183.0916743314 	 4.10796424335349
184.0426752283 	 3.81577805421356
184.0465150528 	 3.30951485520872
195.0916743314 	 0.81002111840773
202.0532399146 	 0.0954667746694825
203.1053130229 	 2.68753435357422
211.0825662081 	 2.35195417594816
211.0839088788 	 0.376081233546446
211.0865889535 	 3.76081233546446
220.0869233045 	 0.138860763155611
222.1025733687 	 8.08863945381433
222.1072868578 	 0.352937773020511
223.0865889535 	 0.821592848670697
223.0899597719 	 5.11759770879741
225.0896629587 	 0.543871322359476
226.0948079161 	 0.312436717100124
226.0974879908 	 1.66343622530159
238.0934652454 	 1.8572627072063
238.0974879908 	 5.21595741603263
238.0988306615 	 0.324008447363092
240.113138055 	 9.71736048832702
240.9953906847 	 0.147539560852837
255.2067040892 	 0.147539560852837
256.1001901072 	 0.193826481904707
256.1080526771 	 7.2439031446177
256.1093953478 	 1.48986027135707
256.1114234955 	 0.457083345387219
258.0668786061 	 0.277721526311222
258.0695586808 	 1.90644256082391
258.0709013515 	 0.517834929267799
264.0853058623 	 0.164897156247288
268.0539086166 	 0.512049064136315
268.0552512873 	 0.127289032892643
286.0644733029 	 31.1713483958689
286.0658159736 	 11.7944860705297
287.0637450214 	 0.33558017762606
288.0589939945 	 0.156218358550062
299.1199172296 	 0.2140770098649
303.0923650751 	 0.208291144733416
303.0950451498 	 1.00963346544392
304.0750379892 	 24.7432522347904
304.0763806599 	 15.2457546214598
305.0743097077 	 0.370295368414962
306.0695586808 	 0.144646628287095
306.0794546651 	 0.141753695721353
321.1015870907 	 100
321.1029297614 	 86.7879769722568
322.1008588092 	 5.21885034859837
322.1094121228 	 3.60748690948014
323.1046610959 	 0.38186709867793
325.0965017128 	 0.480226805913154
326.1043267449 	 0.36740243584922
337.0607681335 	 0.196719414470449
341.1608165291 	 0.616194636503023
344.0699526113 	 0.271935661179738
347.0808516486 	 54.505742471143
347.084874394 	 16.5822894668325
349.0767150109 	 1.78783232562849
350.084540043 	 0.402117626638123
355.0713328198 	 0.2140770098649
356.0791578519 	 0.306650851968641
405.1015870907 	 1.00095466774669
446.1856510711 	 29.0566146903116
END IONS

BEGIN IONS
PEPMASS=256.17
CHARGE=1
MSLEVEL=2
RT=0
SOURCE_INSTRUMENT=qTOF
FILENAME=CCMSLIB00000006570.ms
IONMODE=Positive
ORGANISM=Natural
NAME=Diphenylhydramine
PI=GNPS
DATACOLLECTOR=GNPS
SMILES=CN(C)CCOC(c1ccccc1)c1ccccc1
INCHI=InChI=1S/C17H21NO/c1-18(2)13-14-19-17(15-9-5-3-6-10-15)16-11-7-4-8-12-16/h3-12,17H,13-14H2,1-2H3
FORMULA=C17H21NO
PUBMED=N/A
SUBMITUSER=BIOADREM
LIBRARYQUALITY=0
SPECTRUMID=CCMSLIB00000006570
SCANS=348
ID=CCMSLIB00000006570
115.0542261926 	 0.916632102861883
126.0464011605 	 0.240564081294069
128.0620512247 	 2.92824554126918
139.0542261926 	 0.203235172127748
141.0698762568 	 3.49647449191207
150.0464011605 	 0.145167980091248
151.0542261926 	 5.32144338448776
152.0620512247 	 94.7988386561593
163.0542261926 	 0.0871007880547491
165.0698762568 	 100
166.0777012889 	 17.8141849854832
167.085526321 	 98.1211115719618
169.0647908789 	 0.261302364164247
181.0647908789 	 0.219825798423891
256.1695903014 	 0.530900041476566
END IONS

BEGIN IONS
PEPMASS=611.2603
CHARGE=1
MSLEVEL=2
RT=0
SOURCE_INSTRUMENT=qTOF
FILENAME=CCMSLIB00000006590.ms
IONMODE=Positive
ORGANISM=Natural
NAME=CandesartanCilextil
PI=GNPS
DATACOLLECTOR=GNPS
SMILES=CCOc1nc2cccc(c2n1Cc1ccc(cc1)c1ccccc1c1n[nH]nn1)C(=O)OC(C)OC(=O)OC1CCCCC1
INCHI=InChI=1S/C33H34N6O6/c1-3-42-32-34-28-15-9-14-27(31(40)43-21(2)44-33(41)45-24-10-5-4-6-11-24)29(28)39(32)20-22-16-18-23(19-17-22)25-12-7-8-13-26(25)30-35-37-38-36-30/h7-9,12-19,21,24H,3-6,10-11,20H2,1-2H3,(H,35,36,37,38)
FORMULA=C33H34N6O6
PUBMED=N/A
SUBMITUSER=BIOADREM
LIBRARYQUALITY=0
SPECTRUMID=CCMSLIB00000006590
SCANS=349
ID=CCMSLIB00000006590
145.0396387609 	 0.787554691298007
147.0552888251 	 30.0145843461352
161.034553383 	 14.5065629557608
165.0698762568 	 2.82936315021877
167.085526321 	 1.77929022848809
173.034553383 	 4.93923189110355
175.0865889535 	 13.8940204180846
178.0777012889 	 16.8692270296548
187.0502034472 	 12.5911521633447
189.0658535114 	 37.6081672338357
192.0807752941 	 28.7408847836655
194.0964253583 	 8.31307729703452
207.0916743314 	 100
218.0964253583 	 2.46961594555177
219.0916743314 	 1.57510938259601
220.0994993635 	 4.19056878949927
221.0709388893 	 2.03208556149733
233.0709388893 	 21.9931939718036
233.1073243956 	 8.33252309188138
234.1151494277 	 3.44190568789499
235.1229744598 	 61.0403500243072
247.0865889535 	 0.943121050072922
261.1022390177 	 2.04180845892076
262.1100640498 	 1.42926592124453
263.1291224702 	 5.80456976178901
282.1151494277 	 1.147301895965
296.1155433582 	 1.20563928050559
309.1022390177 	 9.95624696159456
310.1100640498 	 5.55177442877978
320.1056473739 	 1.89596499756928
322.0974879908 	 4.89061740398639
323.1264423955 	 1.58483228001945
324.113138055 	 3.83082158483228
337.0971536398 	 13.6315021876519
338.1049786719 	 65.4739912493923
348.100561996 	 2.91686922702965
349.1083870281 	 93.5051045211473
350.0924026129 	 42.7029654837142
352.1053726024 	 1.38065143412737
352.1080526771 	 55.8580456976179
365.1396871565 	 1.35148274185707
366.1111266823 	 3.85999027710258
367.1189517144 	 38.3957219251337
377.1370070818 	 5.96985901798736
377.1396871565 	 0.93339815264949
380.1366727308 	 1.24453087019932
380.1393528055 	 11.4146815751094
393.1346017786 	 1.10841030627127
395.1475717681 	 29.0811861934857
395.1502518428 	 12.396694214876
422.1611508801 	 97.2289742343218
423.1563998532 	 5.6490034030141
424.1615448106 	 4.67671366067088
441.1642844648 	 0.709771511910549
611.2612588552 	 0.0972289742343218
END IONS

BEGIN IONS
PEPMASS=428.1576
CHARGE=1
MSLEVEL=2
RT=0
SOURCE_INSTRUMENT=qTOF
FILENAME=CCMSLIB00000006598.ms
IONMODE=Positive
ORGANISM=Natural
NAME=Pemetrexed
PI=GNPS
DATACOLLECTOR=GNPS
SMILES=c1cc(ccc1CCc1c[nH]c2c1c(nc(=N)[nH]2)O)C(=O)N[C@@H](CCC(=O)O)C(=O)O
INCHI=InChI=1S/C20H21N5O6/c21-20-24-16-15(18(29)25-20)12(9-22-16)6-3-10-1-4-11(5-2-10)17(28)23-13(19(30)31)7-8-14(26)27/h1-2,4-5,9,13H,3,6-8H2,(H,23,28)(H,26,27)(H,30,31)(H4,21,22,24,25,29)/t13-/m0/s1
FORMULA=C20H21N5O6
PUBMED=N/A
SUBMITUSER=BIOADREM
LIBRARYQUALITY=0
SPECTRUMID=CCMSLIB00000006598
SCANS=351
ID=CCMSLIB00000006598
146.034887734 	 0.33
163.0614368355 	 7.91
281.1033016502 	 100
299.1138663365 	 14.75
382.1509801243 	 0.33
410.1458947464 	 4.43
428.1564594327 	 154.54
END IONS

BEGIN IONS
PEPMASS=260.1645
CHARGE=1
MSLEVEL=2
RT=0
SOURCE_INSTRUMENT=qTOF
FILENAME=CCMSLIB00000006838.ms
IONMODE=Positive
ORGANISM=Natural
NAME=2-heptyl-3-hydroxy 4-quinolone
PI=GNPS
DATACOLLECTOR=GNPS
SMILES=CCCCCCCC1=Nc2ccccc2C(=O)C1O
INCHI=InChI=1S/C16H21NO2/c1-2-3-4-5-6-11-14-16(19)15(18)12-9-7-8-10-13(12)17-14/h7-10,16,19H,2-6,11H2,1H3
FORMULA=C16H21NO2
PUBMED=N/A
SUBMITUSER=BIOADREM
LIBRARYQUALITY=0
SPECTRUMID=CCMSLIB00000006838
SCANS=352
ID=CCMSLIB00000006838
130.0651252299 	 0.67
134.060039852 	 0.9
146.060039852 	 0.82
147.0678648841 	 2.02
175.0627795062 	 100
176.0706045383 	 6.21
188.0706045383 	 10.91
189.0784295704 	 4.93
190.0862546025 	 7.91
200.1069900446 	 0.55
202.0862546025 	 3.37
204.0205803405 	 1.38
204.1019046667 	 2.77
218.1175547309 	 0.58
232.1695903014 	 1.65
242.1539402372 	 0.83
260.1645049235 	 0
END IONS

BEGIN IONS
PEPMASS=325.0675
CHARGE=1
MSLEVEL=2
RT=0
SOURCE_INSTRUMENT=qTOF
FILENAME=CCMSLIB00000006841.ms
IONMODE=Positive
ORGANISM=Natural
NAME=pyochelin
PI=GNPS
DATACOLLECTOR=GNPS
SMILES=CN1[C@@H](CSC1[C@H]1CS/C(=C/2\C=CC=CC2=O)/N1)C(=O)O
INCHI=InChI=1S/C14H16N2O3S2/c1-16-10(14(18)19)7-21-13(16)9-6-20-12(15-9)8-4-2-3-5-11(8)17/h2-5,9-10,13,15H,6-7H2,1H3,(H,18,19)/b12-8+/t9-,10+,13?/m1/s1
FORMULA=C14H16N2O3S2
PUBMED=N/A
SUBMITUSER=BIOADREM
LIBRARYQUALITY=0
SPECTRUMID=CCMSLIB00000006841
SCANS=353
ID=CCMSLIB00000006841
95.0001792494 	 2.27
99.9647217205 	 5.42
114.0008104136 	 0.66
127.9960218489 	 65.63
132.0028217863 	 0.71
133.0919711446 	 0.68
145.9998448984 	 7.17
146.0058957915 	 13.02
159.0011447646 	 16.58
160.0011072268 	 73.13
161.0868857667 	 8.68
165.0910056294 	 1.69
172.0011072268 	 100
172.0426752283 	 39.95
174.0008104136 	 1.16
178.044686601 	 4.87
186.0008104136 	 10.2
189.9990958541 	 5.66
190.032110542 	 13.36
206.0303959825 	 9.52
206.0429720415 	 11.37
212.0831805973 	 3.4
221.0920682619 	 1.27
224.0198312962 	 58.66
224.0250137914 	 26.19
228.0926994261 	 3.83
234.9994302051 	 2.06
235.0899597719 	 10.98
240.0926994261 	 1.37
279.0620304619 	 19.84
281.0776805261 	 100
325.0675097703 	 0
END IONS

BEGIN IONS
PEPMASS=688.326
CHARGE=1
MSLEVEL=2
RT=0
SOURCE_INSTRUMENT=qTOF
FILENAME=CCMSLIB00000006879.ms
IONMODE=Positive
ORGANISM=Natural
NAME=Desferrichrome
PI=GNPS
DATACOLLECTOR=GNPS
SMILES=CC(=O)N(CCC[C@H]1C(=NCC(=NCC(=NCC(=N[C@@H](CCCN(C(=O)C)O)C(=N[C@@H](CCCN(C(=O)C)O)C(=N1)O)O)O)O)O)O)O
INCHI=InChI=1S/C27H45N9O12/c1-16(37)34(46)10-4-7-19-25(43)30-14-23(41)28-13-22(40)29-15-24(42)31-20(8-5-11-35(47)17(2)38)26(44)33-21(27(45)32-19)9-6-12-36(48)18(3)39/h19-21,46-48H,4-15H2,1-3H3,(H,28,41)(H,29,40)(H,30,43)(H,31,42)(H,32,45)(H,33,44)/t19-,20-,21-/m0/s1
FORMULA=C27H45N9O12
PUBMED=N/A
SUBMITUSER=BIOADREM
LIBRARYQUALITY=0
SPECTRUMID=CCMSLIB00000006879
SCANS=354
ID=CCMSLIB00000006879
244.9981678767 	 1.38
267.0440554368 	 1.98
284.0751351065 	 1.09
285.0546201231 	 5.57
286.0543996644 	 1.13
302.0255048392 	 3.71
303.0571393186 	 1.86
326.0308649886 	 3.01
327.0571393186 	 2.89
329.0489799355 	 1.23
344.0234934665 	 25.75
345.0677040049 	 17.82
346.0835745278 	 2.47
361.0580880588 	 1.34
386.0156088549 	 3.24
387.0499286757 	 1.62
402.073403772 	 5.68
438.0653582812 	 1.42
439.1050382514 	 1.98
440.1074978674 	 1.26
441.1530510765 	 1.06
456.1077779056 	 5.87
457.1241562513 	 1.83
459.0948674956 	 8.42
474.1493626821 	 5.28
481.0585958816 	 1.77
498.1632814118 	 6.2
499.1459543259 	 2.38
516.1037551602 	 100
517.1426002825 	 19.94
533.14153765 	 4.13
558.0977210421 	 6.81
574.1541732885 	 2.92
575.1242701436 	 1.92
578.1630013736 	 1.67
593.1977098582 	 1.5
610.1892161241 	 6.13
611.2082745445 	 3.76
643.2106798477 	 0.93
646.221578885 	 13.77
647.2181705288 	 3.87
688.3260439565 	 0
END IONS

BEGIN IONS
PEPMASS=245.128
CHARGE=1
MSLEVEL=2
RT=0
SOURCE_INSTRUMENT=qTOF
FILENAME=CCMSLIB00000007041.ms
IONMODE=Positive
ORGANISM=Natural
NAME=cyclo(L-Phe-L-Pro)
PI=GNPS
DATACOLLECTOR=GNPS
SMILES=c1ccc(cc1)C[C@H]1C(=O)N2CCC[C@H]2C(=N1)O
INCHI=InChI=1S/C14H16N2O2/c17-13-12-7-4-8-16(12)14(18)11(15-13)9-10-5-2-1-3-6-10/h1-3,5-6,11-12H,4,7-9H2,(H,15,17)/t11-,12-/m0/s1
FORMULA=C14H16N2O2
PUBMED=N/A
SUBMITUSER=BIOADREM
LIBRARYQUALITY=0
SPECTRUMID=CCMSLIB00000007041
SCANS=355
ID=CCMSLIB00000007041
41.0385761284 	 0.347614898311055
43.0178406863 	 0.110309794397375
43.0542261926 	 1.64723113146332
44.0494751657 	 0.379131982424591
54.0338251015 	 0.530228591557129
55.0542261926 	 0.262333376592076
57.0209146915 	 0.290142568456961
57.0698762568 	 0.492222696008454
60.0443897878 	 0.709134392554552
62.060039852 	 6.44802462040453
65.0385761284 	 0.0723038988486995
68.0494751657 	 0.580285136913921
69.0698762568 	 0.670201523943714
70.0651252299 	 28.0464969687981
71.085526321 	 1.03079404512505
77.0385761284 	 0.185394612432563
78.0338251015 	 0.495930588257105
79.0542261926 	 0.155731474443353
81.0698762568 	 2.56029959769369
82.0651252299 	 0.158512393629841
85.0760242672 	 1.31352082908471
86.0964253583 	 0.165001205064981
90.0464011605 	 0.290142568456961
91.0542261926 	 2.53156343276664
93.0698762568 	 0.228035373292052
96.0443897878 	 0.327221490943473
98.060039852 	 2.01987430245277
98.072615911 	 0.379131982424591
100.0756899162 	 0.304047164389403
102.0913399804 	 16.437086338271
103.0542261926 	 1.44144311166317
103.0991650125 	 0.93902371197093
105.0698762568 	 0.36244646730566
107.085526321 	 0.163147258940655
108.0807752941 	 0.774949479968112
111.0804409431 	 0.705426500305901
113.0709388893 	 0.511689130313873
113.1199004546 	 0.388401713046219
118.0651252299 	 0.57657724466527
120.0807752941 	 16.971949795139
121.0971536398 	 0.544133187489572
123.0552888251 	 0.390255659170544
123.1168264494 	 3.22215836407794
124.1120754225 	 0.216911696546098
125.0709388893 	 0.330929383192124
126.0787639214 	 0.353176736684032
130.0651252299 	 0.261406403529913
132.0807752941 	 0.176124881810935
133.0760242672 	 0.210422885110959
135.1168264494 	 0.401379335916498
137.0709388893 	 0.825006025324904
148.0756899162 	 1.12812621665214
153.0658535114 	 1.60922523591464
154.0736785435 	 4.49581935148965
155.072950262 	 0.146461743821725
160.1120754225 	 6.52681733068837
163.1117410715 	 0.488514803759803
168.125714114 	 0.587700921411224
170.0964253583 	 1.53506739094162
172.1120754225 	 1.65371994289846
173.1284537682 	 0.299412299078589
185.1073243956 	 0.699864661932924
187.1229744598 	 11.9607334210868
197.1073243956 	 0.127922282578468
215.1178890819 	 15.1513747010512
216.1144807257 	 0.191883423867702
217.1335391461 	 9.40321474257958
243.112803704 	 9.26973062162814
245.1284537682 	 100
END IONS

BEGIN IONS
PEPMASS=211.1456
CHARGE=1
MSLEVEL=2
RT=0
SOURCE_INSTRUMENT=qTOF
FILENAME=CCMSLIB00000007046.ms
IONMODE=Positive
ORGANISM=Natural
NAME=cyclo(L-Leu-L-Pro)
PI=GNPS
DATACOLLECTOR=GNPS
SMILES=CC(C)CC1C(=O)N2CCCC2C(=N1)O
INCHI=InChI=1S/C11H18N2O2/c1-7(2)6-8-11(15)13-5-3-4-9(13)10(14)12-8/h7-9H,3-6H2,1-2H3,(H,12,14)
FORMULA=C11H18N2O2
PUBMED=N/A
SUBMITUSER=BIOADREM
LIBRARYQUALITY=0
SPECTRUMID=CCMSLIB00000007046
SCANS=360
ID=CCMSLIB00000007046
30.0338251015 	 0.0941720351860968
41.0385761284 	 0.468719902403527
42.0338251015 	 0.0642082058087023
43.0178406863 	 0.404511696594825
43.0542261926 	 2.09532778289065
44.0494751657 	 2.39924662371851
45.0334907505 	 6.7097575070094
55.0178406863 	 0.0770498469704428
55.0542261926 	 0.115574770455664
57.0209146915 	 0.0941720351860968
58.0287397236 	 0.609977955182672
59.0491408147 	 0.922457890118357
68.0494751657 	 0.458018534768743
69.0698762568 	 0.451597714187873
70.0651252299 	 85.6109410782698
71.0491408147 	 0.284656379085247
72.0443897878 	 10.9432185433298
82.0651252299 	 0.271814737923507
84.0807752941 	 0.0813303940243563
85.1011763852 	 0.128416411617405
86.0964253583 	 13.1990668407422
89.059705501 	 3.90171863964215
95.085526321 	 0.383108961325257
96.0807752941 	 0.196905164480021
98.060039852 	 7.32615628277294
109.1011763852 	 0.128416411617405
110.060039852 	 0.398090876013955
111.0552888251 	 0.134837232198275
111.0916743314 	 0.145538599833059
114.0913399804 	 6.8231920039381
119.085526321 	 0.327461849624382
126.0787639214 	 0.0749095734434861
127.0865889535 	 2.92575391134987
135.1168264494 	 0.18406352331828
138.1277254867 	 6.47004687199024
154.0736785435 	 0.82186503435139
155.0815035756 	 0.346724311366993
155.1542745882 	 1.11722278107142
166.1226401088 	 0.26325364381568
183.1491892103 	 10.0614258502237
194.1175547309 	 0.207606532114804
211.1441038324 	 100
END IONS

BEGIN IONS
PEPMASS=556.3185
CHARGE=1
MSLEVEL=2
RT=0
SOURCE_INSTRUMENT=qTOF
FILENAME=CCMSLIB00000007052.ms
IONMODE=Positive
ORGANISM=Natural
NAME=pateamine
PI=GNPS
DATACOLLECTOR=GNPS
SMILES=C/C(=C\CN(C)C)/C=C/C(=C/[C@@H]1Cc2nc(cs2)[C@@H](C)C[C@H](CC(=O)O[C@@H](C)CC(=CC=CC(=O)O1)C)N)/C
INCHI=InChI=1S/C31H45N3O4S/c1-21(13-14-34(6)7)11-12-23(3)16-27-19-29-33-28(20-39-29)24(4)17-26(32)18-31(36)37-25(5)15-22(2)9-8-10-30(35)38-27/h8-13,16,20,24-27H,14-15,17-19,32H2,1-7H3/b10-8-,12-11+,21-13+,22-9+,23-16+/t24-,25-,26+,27+/m0/s1
FORMULA=C31H45N3O4S
PUBMED=N/A
SUBMITUSER=BIOADREM
LIBRARYQUALITY=0
SPECTRUMID=CCMSLIB00000007052
SCANS=364
ID=CCMSLIB00000007052
58.0651252299 	 21.1928053013569
67.0542261926 	 5.72420321868097
77.0385761284 	 2.12685389712843
79.0542261926 	 8.14768065635847
81.0698762568 	 8.56421584095929
84.0807752941 	 1.12969390975071
91.0542261926 	 17.3871883875039
93.0698762568 	 1.38845061533607
94.0651252299 	 2.61912275165667
96.0807752941 	 3.42063742505522
98.0964253583 	 6.08393815083623
105.0698762568 	 10.8330703692016
107.085526321 	 49.3720416535185
108.0807752941 	 9.51404228463238
109.1011763852 	 1.0255601136005
112.0215458557 	 4.75859892710634
115.0542261926 	 1.55885137267277
117.0698762568 	 5.24140107289366
119.085526321 	 5.23193436415273
123.1042503904 	 2.54338908172925
124.0215458557 	 2.54338908172925
126.0371959199 	 6.9958977595456
128.0528459841 	 3.72357210476491
131.085526321 	 56.6645629536131
132.0893286077 	 1.77658567371411
133.1011763852 	 8.85768381192805
135.0804409431 	 6.38056169138529
138.0371959199 	 2.23414326285895
143.085526321 	 1.94067529189019
145.1011763852 	 30.530135689492
146.0964253583 	 3.49005995582203
150.0371959199 	 2.00063111391606
152.0528459841 	 7.2704323130325
154.0810721073 	 1.81445250867782
154.0862546025 	 1.85547491322184
160.1120754225 	 6.49416219627643
161.1199004546 	 6.13442726412117
162.1277254867 	 24.4682865257179
164.0528459841 	 1.87440833070369
166.0684960483 	 1.25591669296308
169.1011763852 	 1.65036289050174
171.1076212088 	 1.75765225623225
174.1277254867 	 2.50552224676554
176.1433755509 	 100
177.151200583 	 3.2407699589776
178.0684960483 	 3.9255285579047
180.0477606062 	 4.1653518460082
186.1277254867 	 20.5080467024298
188.0739753567 	 3.35752603344904
190.1590256151 	 2.8684127485011
194.0634106704 	 2.50867781634585
198.0583252925 	 17.5828337014831
204.0841461125 	 3.37014831177027
212.0739753567 	 2.91890186178605
217.1699246524 	 6.86336383717261
224.0739753567 	 7.53550015777848
230.0997961767 	 5.65478068791417
241.1005244582 	 1.04133796150205
256.1154462409 	 24.152729567687
258.1310963051 	 1.30325023666772
273.1419953424 	 1.12022720100978
282.1310963051 	 1.37582833701483
296.1467463693 	 1.52098453770906
299.1576454066 	 5.78415904070685
315.188945535 	 1.16440517513411
316.1365756135 	 9.39413064058063
324.1416609914 	 7.84159040706848
326.1447349966 	 0.258756705585358
333.163124715 	 3.14610287156832
341.1682100929 	 2.2877879457242
342.1522256777 	 49.7791101293784
359.1787747792 	 17.85736825497
404.2366240091 	 1.12022720100978
468.2203052429 	 1.52414010728937
485.2468543444 	 3.56894919532976
494.2359553071 	 10.4354686020827
511.2625044086 	 56.0997159987378
513.2781544728 	 0.435468602082676
539.293804537 	 1.77027453455349
556.3203536385 	 55.3581571473651
END IONS

BEGIN IONS
PEPMASS=284.1394
CHARGE=1
MSLEVEL=2
RT=0
SOURCE_INSTRUMENT=qTOF
FILENAME=CCMSLIB00000007120.ms
IONMODE=Positive
ORGANISM=Natural
NAME=cyclo(L-Trp-L-Pro)
PI=GNPS
DATACOLLECTOR=GNPS
SMILES=c1ccc2c(c1)c(C[C@H]1C(=O)N3CCC[C@H]3C(=N1)O)c[nH]2
INCHI=InChI=1S/C16H17N3O2/c20-15-14-6-3-7-19(14)16(21)13(18-15)8-10-9-17-12-5-2-1-4-11(10)12/h1-2,4-5,9,13-14,17H,3,6-8H2,(H,18,20)/t13-,14-/m0/s1
FORMULA=C16H17N3O2
PUBMED=N/A
SUBMITUSER=BIOADREM
LIBRARYQUALITY=0
SPECTRUMID=CCMSLIB00000007120
SCANS=368
ID=CCMSLIB00000007120
103.0502034472 	 0.145
103.0542261926 	 0.315
115.0502034472 	 0.22
115.0865889535 	 0.7
118.0651252299 	 1.07
130.0611024845 	 100
130.0624451552 	 50
131.0689275166 	 4.78
132.0767525487 	 5.355
132.0780952194 	 4.03
142.0624451552 	 0.135
153.0658535114 	 1.395
155.0815035756 	 0.725
156.0807752941 	 0.225
159.0889942567 	 1.18
167.0815035756 	 0.175
185.1073243956 	 0.105
189.0532774524 	 0.11
239.1178890819 	 0.43
241.0971536398 	 0.16
243.1366131513 	 0.165
256.1444381834 	 0.185
265.1209630871 	 0.11
266.1287881192 	 0.105
267.1101236293 	 0.225
267.112803704 	 0.35
283.1315277734 	 1.44
284.1366727308 	 11.515
284.1393528055 	 59.815
END IONS

BEGIN IONS
PEPMASS=261.123
CHARGE=1
MSLEVEL=2
RT=0
SOURCE_INSTRUMENT=qTOF
FILENAME=CCMSLIB00000007138.ms
IONMODE=Positive
ORGANISM=Natural
NAME=cyclo(L-Tyr-L-Pro)
PI=GNPS
DATACOLLECTOR=GNPS
SMILES=C1C[C@H]2C(=N[C@@H](Cc3ccc(cc3)O)C(=O)N2C1)O
INCHI=InChI=1S/C14H16N2O3/c17-10-5-3-9(4-6-10)8-11-14(19)16-7-1-2-12(16)13(18)15-11/h3-6,11-12,17H,1-2,7-8H2,(H,15,18)/t11-,12-/m0/s1
FORMULA=C14H16N2O3
PUBMED=N/A
SUBMITUSER=BIOADREM
LIBRARYQUALITY=0
SPECTRUMID=CCMSLIB00000007138
SCANS=371
ID=CCMSLIB00000007138
107.0491408147 	 100
109.0647908789 	 0.299091222822961
113.0709388893 	 13.2750488899114
119.0491408147 	 12.2397331186012
125.034553383 	 1.85973388550174
126.0787639214 	 0.674872502780015
127.0865889535 	 0.322098239963189
132.0807752941 	 0.724721039917175
134.060039852 	 0.843590628475018
134.0964253583 	 0.893439165612178
136.0756899162 	 66.9235783580659
147.0440554368 	 1.21170290271866
153.0658535114 	 1.96709996548947
154.0736785435 	 19.0344721806818
155.0815035756 	 13.2520418727712
164.0706045383 	 0.448636834234441
170.072615911 	 0.368112274243644
173.0835149483 	 0.25691169139921
186.1039160394 	 0.893439165612178
187.1355505188 	 0.786073085624449
188.1069900446 	 1.64116722266958
243.112803704 	 0.325932742819893
245.1046443209 	 0.509988879941715
261.1233683903 	 0
END IONS

BEGIN IONS
PEPMASS=291.1967
CHARGE=1
MSLEVEL=2
RT=0
SOURCE_INSTRUMENT=qTOF
FILENAME=CCMSLIB00000068210.ms
IONMODE=Positive
ORGANISM=Natural
NAME=Ecklonialactone A
PI=GNPS
DATACOLLECTOR=GNPS
SMILES=CCC1C2CC3C(C2C=CCC=CCCCCC(=O)O1)O3
INCHI=InChI=1S/C18H26O3/c1-2-15-14-12-16-18(21-16)13(14)10-8-6-4-3-5-7-9-11-17(19)20-15/h3-4,8,10,13-16,18H,2,5-7,9,11-12H2,1H3/b4-3+,10-8+
FORMULA=C18H26O3
PUBMED=N/A
SUBMITUSER=BIOADREM
LIBRARYQUALITY=0
SPECTRUMID=CCMSLIB00000068210
SCANS=374
ID=CCMSLIB00000068210
105.0698762568 	 10.24
107.085526321 	 12.63
109.0647908789 	 6.14
117.0698762568 	 27.08
119.085526321 	 14.2
121.1011763852 	 7.21
123.0804409431 	 7.99
128.0620512247 	 6.35
129.0698762568 	 16.48
131.085526321 	 34.32
133.1011763852 	 7.38
135.0804409431 	 7.74
135.1168264494 	 6.71
141.0698762568 	 8.21
143.085526321 	 7.88
145.1011763852 	 31.86
147.1168264494 	 11.38
149.0960910073 	 44.7
157.1011763852 	 12.95
159.1168264494 	 39.53
161.0960910073 	 8.1
161.1324765136 	 5.96
163.1117410715 	 6.67
169.1011763852 	 11.42
171.1168264494 	 51.52
173.1324765136 	 7.88
175.1117410715 	 24.51
185.0960910073 	 6.64
187.1117410715 	 7.81
189.1273911357 	 11.74
197.1324765136 	 6.39
203.1066556936 	 14.73
211.1481265778 	 7.78
213.1273911357 	 12.42
213.163776642 	 9.56
215.1430411999 	 10.06
227.1794267062 	 16.45
233.1536058862 	 19.23
237.163776642 	 20.91
245.1899913925 	 6.49
255.1743413283 	 47.34
263.2005560788 	 9.03
273.1849060146 	 100
291.1954707009 	 79.84
END IONS

BEGIN IONS
PEPMASS=198.1841
CHARGE=1
MSLEVEL=2
RT=0
SOURCE_INSTRUMENT=qTOF
FILENAME=CCMSLIB00000068235.ms
IONMODE=Positive
ORGANISM=Natural
NAME=N-methylundec-10-enamide
PI=GNPS
DATACOLLECTOR=GNPS
SMILES=C=CCCCCCCCCC(=NC)O
INCHI=InChI=1S/C12H23NO/c1-3-4-5-6-7-8-9-10-11-12(14)13-2/h3H,1,4-11H2,2H3,(H,13,14)
FORMULA=C12H23NO
PUBMED=N/A
SUBMITUSER=BIOADREM
LIBRARYQUALITY=0
SPECTRUMID=CCMSLIB00000068235
SCANS=375
ID=CCMSLIB00000068235
95.085526321 	 11.79
97.0647908789 	 10.31
97.1011763852 	 5.1
100.0756899162 	 38.98
105.0698762568 	 5.56
107.085526321 	 27.96
109.1011763852 	 13.47
111.0804409431 	 29.85
114.0913399804 	 100
116.1069900446 	 3.01
121.1011763852 	 12.91
123.1168264494 	 17.19
125.0960910073 	 14.64
125.1324765136 	 16.43
128.1069900446 	 98.57
142.1226401088 	 66.73
149.1324765136 	 96.12
156.1746756793 	 35.66
180.1746756793 	 7.86
198.1852403656 	 693.37
END IONS

BEGIN IONS
PEPMASS=926.4453
CHARGE=1
MSLEVEL=2
RT=0
SOURCE_INSTRUMENT=qTOF
FILENAME=CCMSLIB00000070245.ms
IONMODE=Positive
ORGANISM=Natural
NAME=Hoiamide A
PI=GNPS
DATACOLLECTOR=GNPS
SMILES=CCC[C@@H](C)[C@@H]([C@H](C)[C@@H]1[C@@H](C)[C@H](Cc2nc(cs2)C2=N[C@](C)(CS2)C2=N[C@](C)(CS2)C(=N[C@@H]([C@@H](C)CC)[C@H]([C@@H](C)C(=O)O[C@@H](C(C)C)C(=N[C@@H]([C@@H](C)O)C(=O)O1)O)O)O)OC)O
INCHI=InChI=1S/C44H71N5O10S3/c1-14-16-23(6)33(51)25(8)36-24(7)29(57-13)17-30-45-28(18-60-30)38-48-44(12,20-61-38)42-49-43(11,19-62-42)41(56)47-31(22(5)15-2)34(52)26(9)39(54)58-35(21(3)4)37(53)46-32(27(10)50)40(55)59-36/h18,21-27,29,31-36,50-52H,14-17,19-20H2,1-13H3,(H,46,53)(H,47,56)/t22-,23+,24-,25-,26+,27+,29-,31-,32-,33-,34-,35-,36-,43+,44+/m0/s1
FORMULA=C44H71N5O10S3
PUBMED=N/A
SUBMITUSER=BIOADREM
LIBRARYQUALITY=0
SPECTRUMID=CCMSLIB00000070245
SCANS=376
ID=CCMSLIB00000070245
359.161016225 	 27.5
371.1450693476 	 14.92
377.1715809113 	 49
391.1872309755 	 12.27
409.1977956618 	 39.25
458.1770977575 	 11.81
503.1947216566 	 20.65
508.2120655175 	 17.78
521.2052863429 	 30.88
531.226021785 	 12.82
537.162472788 	 16.14
553.2335292411 	 50.3
554.2341436303 	 17.3
575.2158510292 	 18
613.3029294353 	 11.72
645.3291441858 	 13.4
651.3066941842 	 14.89
657.2941013502 	 20.89
658.2967438871 	 19.31
663.3397088721 	 42.51
664.3436940797 	 12.73
675.3046660365 	 29.48
689.3223442484 	 34.17
690.3229586376 	 11.18
707.3329089347 	 57.22
708.3335233239 	 18.88
725.343473621 	 14.65
757.2757879863 	 18.3
794.3285518383 	 69.46
795.3278235568 	 33.1
796.3244152006 	 18.33
826.3547665888 	 35.26
827.3540383073 	 19.18
830.4138989099 	 12.12
858.396237473 	 19.03
862.4401136604 	 16.2
876.4068021593 	 93.06
877.4146271914 	 46.56
878.3986427762 	 22.84
880.4506783467 	 39.92
881.4459273198 	 21.41
890.4224522235 	 16.87
891.4302772556 	 11.05
894.4173668456 	 43.24
895.4251918777 	 22.26
908.4330169098 	 100
909.4408419419 	 58.25
910.4248575267 	 28.29
926.4435815961 	 1318.36
END IONS

BEGIN IONS
PEPMASS=833.4893
CHARGE=1
MSLEVEL=2
RT=0
SOURCE_INSTRUMENT=qTOF
FILENAME=CCMSLIB00000070246.ms
IONMODE=Positive
ORGANISM=Natural
NAME=Cyanolide A
PI=GNPS
DATACOLLECTOR=GNPS
SMILES=CC[C@@H]1C[C@@H]2C[C@@H](C(C)(C)[C@H](CC(=O)O[C@H](CC)C[C@@H]3C[C@@H](C(C)(C)[C@H](CC(=O)O1)O3)O[C@H]1[C@@H]([C@H]([C@@H](CO1)OC)OC)OC)O2)O[C@H]1[C@@H]([C@H]([C@@H](CO1)OC)OC)OC
INCHI=InChI=1S/C42H72O16/c1-13-23-15-25-17-29(57-39-37(49-11)35(47-9)27(45-7)21-51-39)41(3,4)32(53-25)20-34(44)56-24(14-2)16-26-18-30(42(5,6)31(54-26)19-33(43)55-23)58-40-38(50-12)36(48-10)28(46-8)22-52-40/h23-32,35-40H,13-22H2,1-12H3/t23-,24-,25-,26-,27-,28-,29+,30+,31+,32+,35+,36+,37-,38-,39+,40+/m1/s1
FORMULA=C42H72O16
PUBMED=N/A
SUBMITUSER=BIOADREM
LIBRARYQUALITY=0
SPECTRUMID=CCMSLIB00000070246
SCANS=377
ID=CCMSLIB00000070246
99.0440554368 	 21.46
101.059705501 	 5.39
111.0440554368 	 40.62
115.0753555652 	 14.73
116.0831805973 	 5.1
137.1324765136 	 13.28
143.0702701873 	 100
169.0859202515 	 9.14
175.0964849378 	 64.2
207.137955822 	 32.92
225.1485205083 	 17.04
243.1590851946 	 28.49
331.1751291893 	 9.14
449.2897650166 	 9.43
467.3003297029 	 41.77
468.308154735 	 5.2
485.3108943892 	 99.13
486.3187194213 	 60.35
487.3112883197 	 24.06
513.3421945176 	 5.29
641.3895386407 	 11.07
659.400103327 	 34.55
833.4893122648 	 6.35
END IONS

BEGIN IONS
PEPMASS=771.3844
CHARGE=1
MSLEVEL=2
RT=0
SOURCE_INSTRUMENT=qTOF
FILENAME=CCMSLIB00000070256.ms
IONMODE=Positive
ORGANISM=Natural
NAME=Hoiamide C
PI=GNPS
DATACOLLECTOR=GNPS
SMILES=CCC[C@@H](C)[C@@H]([C@H](C)[C@H]([C@@H](C)[C@H](Cc1nc(cs1)C1=N[C@](C)(CS1)C1=N[C@](C)(CS1)C(=N[C@@H]([C@@H](C)CC)[C@H]([C@@H](C)C(=O)OCC)O)O)OC)O)O
INCHI=InChI=1S/C37H62N4O7S3/c1-12-15-21(5)29(42)23(7)30(43)22(6)26(47-11)16-27-38-25(17-49-27)32-40-37(10,19-50-32)35-41-36(9,18-51-35)34(46)39-28(20(4)13-2)31(44)24(8)33(45)48-14-3/h17,20-24,26,28-31,42-44H,12-16,18-19H2,1-11H3,(H,39,46)/t20-,21+,22-,23-,24+,26-,28-,29-,30-,31-,36+,37+/m0/s1
FORMULA=C37H62N4O7S3
PUBMED=N/A
SUBMITUSER=BIOADREM
LIBRARYQUALITY=0
SPECTRUMID=CCMSLIB00000070256
SCANS=378
ID=CCMSLIB00000070256
100.0181750373 	 28.43
172.0249166741 	 77
197.0167948288 	 27.48
239.0273595151 	 37.38
265.0430095793 	 21.09
277.082765904 	 38.02
278.0905909361 	 21.09
281.1324765136 	 26.52
310.0718668667 	 30.03
327.1617652693 	 27.8
359.1576454066 	 100
377.1682100929 	 92.65
378.176035125 	 49.84
386.1719152623 	 30.03
399.1831111128 	 20.77
409.1944248434 	 46.65
418.1902674429 	 20.77
441.1049579091 	 26.2
476.1957467513 	 36.1
477.2174852464 	 26.52
503.2066457886 	 26.2
535.2229645548 	 31.95
575.2574190307 	 35.14
576.276008445 	 24.92
583.2090510918 	 50.16
610.227812699 	 22.04
621.2563731732 	 84.66
623.2356377311 	 21.09
641.2621492948 	 37.7
652.3145192163 	 21.73
653.2825879237 	 43.13
657.3450910632 	 38.66
675.3556557495 	 59.42
676.3686632768 	 27.16
690.3791308458 	 29.07
703.3379943126 	 86.58
704.3345859564 	 20.77
705.3424109885 	 30.03
707.3870529952 	 63.58
722.3451506427 	 28.75
725.3976176815 	 32.91
735.3642090631 	 53.35
736.3720340952 	 24.28
753.3747737494 	 55.59
754.3825987815 	 23.96
771.3853384357 	 1235.46
END IONS

BEGIN IONS
PEPMASS=940.4592
CHARGE=1
MSLEVEL=2
RT=0
SOURCE_INSTRUMENT=qTOF
FILENAME=CCMSLIB00000070258.ms
IONMODE=Positive
ORGANISM=Natural
NAME=Hoiamide B
PI=GNPS
DATACOLLECTOR=GNPS
SMILES=CCC[C@@H](C)[C@@H]([C@H](C)[C@@H]1[C@@H](C)[C@H](Cc2nc(cs2)C2=N[C@](C)(CS2)C2=N[C@](C)(CS2)C(=N[C@@H]([C@@H](C)CC)[C@H]([C@@H](C)C(=O)O[C@@H]([C@@H](C)CC)C(=N[C@@H]([C@@H](C)O)C(=O)O1)O)O)O)OC)O
INCHI=InChI=1S/C45H73N5O10S3/c1-14-17-24(6)34(52)26(8)37-25(7)30(58-13)18-31-46-29(19-61-31)39-49-45(12,21-62-39)43-50-44(11,20-63-43)42(57)48-32(22(4)15-2)35(53)27(9)40(55)59-36(23(5)16-3)38(54)47-33(28(10)51)41(56)60-37/h19,22-28,30,32-37,51-53H,14-18,20-21H2,1-13H3,(H,47,54)(H,48,57)/t22-,23-,24+,25-,26-,27+,28+,30-,32-,33-,34-,35-,36-,37-,44+,45+/m0/s1
FORMULA=C45H73N5O10S3
PUBMED=N/A
SUBMITUSER=BIOADREM
LIBRARYQUALITY=0
SPECTRUMID=CCMSLIB00000070258
SCANS=379
ID=CCMSLIB00000070258
163.1481265778 	 9.4
281.1318245866 	 12.24
299.1423892729 	 14.01
359.161016225 	 36.13
371.1457600913 	 10.2
377.1715809113 	 40.51
391.1872309755 	 10.77
409.1977956618 	 46.21
503.1940697296 	 19.61
508.2093854428 	 14.25
521.2046344159 	 19.95
535.2202844801 	 11.17
553.2308491664 	 37.15
554.2328009596 	 9.56
575.2151991022 	 14.88
607.2414138527 	 12.54
613.3063002537 	 15.53
651.3107169296 	 11.54
657.2961294979 	 29.33
658.2954012164 	 10.47
663.3403996158 	 18.37
675.3066941842 	 15.06
689.3196641737 	 32.67
690.3216159669 	 9.51
707.33022886 	 39.19
708.3321806532 	 18.86
725.3407935463 	 9.73
790.3376599616 	 9.66
808.3482246479 	 59.24
809.343473621 	 23.34
840.3744393984 	 22.55
841.3696883715 	 9.31
844.4295489741 	 9.63
872.4118875372 	 12.44
876.4557637246 	 15.45
890.4224522235 	 74.7
891.4190438673 	 39.41
892.4268688994 	 16.77
894.4663284109 	 37.74
904.4381022877 	 15.06
908.4330169098 	 38.22
909.4296085536 	 21.38
910.4374335857 	 9.9
922.448666974 	 100
923.4564920061 	 46.4
940.4592316603 	 1061.56
END IONS

BEGIN IONS
PEPMASS=672.3852
CHARGE=1
MSLEVEL=2
RT=0
SOURCE_INSTRUMENT=qTOF
FILENAME=CCMSLIB00000070260.ms
IONMODE=Positive
ORGANISM=Natural
NAME=Palmyramide A
PI=GNPS
DATACOLLECTOR=GNPS
SMILES=CCC[C@@H]1C(C)(C)C(=O)O[C@@H](C)C(=O)O[C@@H](Cc2ccccc2)C(=O)N2CCC[C@H]2C(=O)N(C)[C@H](C(C)C)C(=N[C@@H](C(C)C)C(=O)O1)O
INCHI=InChI=1S/C36H53N3O9/c1-10-15-27-36(7,8)35(45)46-23(6)33(43)47-26(20-24-16-12-11-13-17-24)32(42)39-19-14-18-25(39)31(41)38(9)29(22(4)5)30(40)37-28(21(2)3)34(44)48-27/h11-13,16-17,21-23,25-29H,10,14-15,18-20H2,1-9H3,(H,37,40)/t23-,25-,26-,27+,28-,29+/m0/s1
FORMULA=C36H53N3O9
PUBMED=N/A
SUBMITUSER=BIOADREM
LIBRARYQUALITY=0
SPECTRUMID=CCMSLIB00000070260
SCANS=380
ID=CCMSLIB00000070260
131.0491408147 	 20.66
133.007276 	 15.13
143.1066556936 	 19.93
172.0730098415 	 15.87
194.1148746562 	 22.51
197.1172203799 	 84.87
201.1107923313 	 14.39
215.0550140536 	 20.66
215.1277850662 	 18.45
228.1019046667 	 100
229.1057069534 	 46.49
230.0996185225 	 14.76
246.0913399804 	 19.56
246.112469353 	 16.61
279.0314793778 	 18.08
293.1324765136 	 15.5
313.1573485934 	 23.62
333.1543937472 	 18.08
345.1782031945 	 32.84
346.1761322423 	 19.93
393.2900397881 	 31.73
405.1319217039 	 14.76
413.1257736935 	 17.34
432.2281678128 	 18.82
445.2849544102 	 69.37
446.2927794423 	 23.99
465.2357180734 	 17.34
513.2747836544 	 16.24
531.2727722817 	 14.39
555.3064777133 	 48.34
556.3169828201 	 38.01
573.3170423996 	 25.09
574.3275475064 	 16.24
672.3854563158 	 131
END IONS

BEGIN IONS
PEPMASS=456.2521
CHARGE=1
MSLEVEL=2
RT=0
SOURCE_INSTRUMENT=qTOF
FILENAME=CCMSLIB00000070262.ms
IONMODE=Positive
ORGANISM=Natural
NAME=Malyngamide C
PI=GNPS
DATACOLLECTOR=GNPS
SMILES=CCCCCCC[C@@H](C/C=C/CCC(=NC/C(=C/Cl)/[C@@]12C(=O)CC[C@@H]([C@@H]1O2)O)O)OC
INCHI=InChI=1S/C24H38ClNO5/c1-3-4-5-6-8-11-19(30-2)12-9-7-10-13-22(29)26-17-18(16-25)24-21(28)15-14-20(27)23(24)31-24/h7,9,16,19-20,23,27H,3-6,8,10-15,17H2,1-2H3,(H,26,29)/b9-7+,18-16-/t19-,20-,23-,24+/m0/s1
FORMULA=C24H38ClNO5
PUBMED=N/A
SUBMITUSER=BIOADREM
LIBRARYQUALITY=0
SPECTRUMID=CCMSLIB00000070262
SCANS=381
ID=CCMSLIB00000070262
107.085526321 	 0.53
109.0284053726 	 0.87
109.0647908789 	 0.86
118.0651252299 	 0.64
119.0491408147 	 1.73
128.0261529078 	 0.92
133.1011763852 	 0.94
136.0756899162 	 3.13
137.059705501 	 3.45
145.0050831147 	 0.86
146.060039852 	 1.31
147.0440554368 	 3.17
154.041802972 	 1.13
155.0258185568 	 5.44
164.0706045383 	 6.6
165.0546201231 	 4.23
172.0523676583 	 1.27
182.0367175941 	 1.48
182.0811692246 	 1.14
183.0207331789 	 10.16
189.163776642 	 2.15
200.0472822804 	 7.48
201.0312978652 	 3.54
207.1743413283 	 1.33
218.0578469667 	 16.51
236.2008904298 	 1.32
314.1153618456 	 2.44
370.2376698666 	 3.46
378.2194329866 	 1.62
388.2482345529 	 1.31
406.2143476087 	 2.35
424.224912295 	 100
425.2327373271 	 44.03
456.2511270455 	 29.91
END IONS

BEGIN IONS
PEPMASS=785.5001
CHARGE=1
MSLEVEL=2
RT=0
SOURCE_INSTRUMENT=qTOF
FILENAME=CCMSLIB00000070272.ms
IONMODE=Positive
ORGANISM=Natural
NAME=Dolastatin 10
PI=GNPS
DATACOLLECTOR=GNPS
SMILES=CCC(C)C(C(CC(=O)N1CCCC1C(C(C)C(=NC(Cc1ccccc1)c1nccs1)O)OC)OC)N(C)C(=O)C(C(C)C)N=C(C(C(C)C)N(C)C)O
INCHI=InChI=1S/C42H68N6O6S/c1-13-28(6)37(47(10)42(52)35(26(2)3)45-40(51)36(27(4)5)46(8)9)33(53-11)25-34(49)48-22-17-20-32(48)38(54-12)29(7)39(50)44-31(41-43-21-23-55-41)24-30-18-15-14-16-19-30/h14-16,18-19,21,23,26-29,31-33,35-38H,13,17,20,22,24-25H2,1-12H3,(H,44,50)(H,45,51)
FORMULA=C42H68N6O6S
PUBMED=N/A
SUBMITUSER=BIOADREM
LIBRARYQUALITY=0
SPECTRUMID=CCMSLIB00000070272
SCANS=382
ID=CCMSLIB00000070272
100.1120754225 	 41.31
138.0913399804 	 4.13
154.1226401088 	 19.24
170.1175547309 	 12.34
171.1201972678 	 4.28
186.1488548593 	 5.84
188.0528459841 	 100
189.0546201231 	 10.08
199.1804893387 	 6.5
205.0793950856 	 90.38
206.0811692246 	 10.08
209.1318245866 	 5.04
227.1754039608 	 8.77
228.1780464977 	 5.14
242.1624935508 	 3.93
260.1645049235 	 10.93
292.190719674 	 15.52
293.1933622109 	 6.65
324.150214305 	 4.03
356.1764290555 	 5.14
374.1869937418 	 13.1
464.2366240091 	 21.06
465.2417689665 	 10.38
496.2628387596 	 51.08
497.267983717 	 24.03
498.2632326901 	 4.84
555.2999525474 	 3.78
559.3272299304 	 53.5
559.413228929 	 4.13
560.3350549625 	 35.97
602.4428520357 	 3.22
721.4469511356 	 3.48
748.4915556045 	 3.22
753.4731658861 	 72.19
754.4809909182 	 38.34
755.465006503 	 15.62
756.4728315351 	 7.51
785.4993806366 	 723.68
END IONS

BEGIN IONS
PEPMASS=316.1179
CHARGE=1
MSLEVEL=2
RT=0
SOURCE_INSTRUMENT=qTOF
FILENAME=CCMSLIB00000070275.ms
IONMODE=Positive
ORGANISM=Natural
NAME=Renierone
PI=GNPS
DATACOLLECTOR=GNPS
SMILES=C/C=C(\C)/C(=O)OCc1c2c(ccn1)C(=O)C(=C(C2=O)OC)C
INCHI=InChI=1S/C17H17NO5/c1-5-9(2)17(21)23-8-12-13-11(6-7-18-12)14(19)10(3)16(22-4)15(13)20/h5-7H,8H2,1-4H3/b9-5+
FORMULA=C17H17NO5
PUBMED=N/A
SUBMITUSER=BIOADREM
LIBRARYQUALITY=0
SPECTRUMID=CCMSLIB00000070275
SCANS=383
ID=CCMSLIB00000070275
99.0440554368 	 5.23
129.0573001978 	 4.91
145.0495347452 	 3.94
158.060039852 	 11.91
159.0440554368 	 3.94
186.0549544741 	 11.26
188.0706045383 	 10.78
202.0498690962 	 24.7
216.0655191604 	 100
217.0733441925 	 11.58
220.0604337825 	 19.31
234.0760838467 	 4.75
316.1179486614 	 53.5
END IONS

BEGIN IONS
PEPMASS=427.2857
CHARGE=1
MSLEVEL=2
RT=0
SOURCE_INSTRUMENT=qTOF
FILENAME=CCMSLIB00000070283.ms
IONMODE=Positive
ORGANISM=Natural
NAME=Stypoldione
PI=GNPS
DATACOLLECTOR=GNPS
SMILES=CC1=CC(=O)C(=O)C2=C1O[C@@]1(C2)[C@@H](C)CC[C@@H]2[C@@]3(C)CC[C@@H](C(C)(C)[C@@H]3CC[C@@]12C)O
INCHI=InChI=1S/C27H38O4/c1-15-13-18(28)22(30)17-14-27(31-23(15)17)16(2)7-8-20-25(5)11-10-21(29)24(3,4)19(25)9-12-26(20,27)6/h13,16,19-21,29H,7-12,14H2,1-6H3/t16-,19-,20+,21-,25-,26+,27-/m0/s1
FORMULA=C27H38O4
PUBMED=N/A
SUBMITUSER=BIOADREM
LIBRARYQUALITY=0
SPECTRUMID=CCMSLIB00000070283
SCANS=384
ID=CCMSLIB00000070283
107.085526321 	 8.66
119.085526321 	 7.35
121.1011763852 	 4.5
123.1168264494 	 8.85
133.1011763852 	 3.64
145.1011763852 	 4.73
147.1168264494 	 6.94
149.1324765136 	 7.28
153.0546201231 	 100
163.1481265778 	 7.73
164.046795091 	 3.75
165.0546201231 	 3.98
167.0702701873 	 5.96
173.1324765136 	 6.34
175.1481265778 	 7.01
177.163776642 	 3.34
179.0702701873 	 11.22
181.0859202515 	 6.53
187.1481265778 	 7.91
189.163776642 	 6.34
191.1066556936 	 5.81
191.1430411999 	 5.25
193.0859202515 	 13.2
201.163776642 	 4.58
203.1794267062 	 9.19
205.0859202515 	 8.55
215.1794267062 	 3.75
219.1015703157 	 7.01
229.1950767704 	 3.71
233.1172203799 	 6.79
247.1328704441 	 3.6
257.2263768988 	 24.34
275.2369415851 	 25.24
287.1641705725 	 3.71
391.2631563356 	 5.03
409.2737210219 	 58.21
427.2842857082 	 48.84
END IONS

BEGIN IONS
PEPMASS=828.494
CHARGE=1
MSLEVEL=2
RT=0
SOURCE_INSTRUMENT=qTOF
FILENAME=CCMSLIB00000070287.ms
IONMODE=Positive
ORGANISM=Natural
NAME=Apratoxin F
PI=GNPS
DATACOLLECTOR=GNPS
SMILES=CC[C@H](C)[C@H]1C(=O)N(C)[C@@H](C)C(=O)O[C@@H](C[C@@H](C)C[C@@H]([C@H](C)C2=N[C@@H](C=C(C)C(=N[C@@H](Cc3ccc(cc3)OC)C(=O)N(C)[C@@H](C)C(=O)N1C)O)CS2)O)C(C)(C)C
INCHI=InChI=1S/C44H69N5O8S/c1-15-26(3)37-42(54)48(12)30(7)43(55)57-36(44(8,9)10)21-25(2)20-35(50)28(5)39-45-32(24-58-39)22-27(4)38(51)46-34(23-31-16-18-33(56-14)19-17-31)41(53)47(11)29(6)40(52)49(37)13/h16-19,22,25-26,28-30,32,34-37,50H,15,20-21,23-24H2,1-14H3,(H,46,51)/b27-22+/t25-,26-,28-,29-,30-,32-,34-,35-,36-,37-/m0/s1
FORMULA=C44H69N5O8S
PUBMED=N/A
SUBMITUSER=BIOADREM
LIBRARYQUALITY=0
SPECTRUMID=CCMSLIB00000070287
SCANS=385
ID=CCMSLIB00000070287
104.0706045383 	 40.71
128.1069900446 	 22.57
133.0607681335 	 19.03
137.1324765136 	 16.81
150.0886599057 	 17.26
156.150866232 	 16.37
158.9620791836 	 17.7
182.0607305957 	 28.32
182.1175547309 	 80.53
189.1233683903 	 16.37
213.1597538966 	 20.35
230.2226885044 	 19.47
231.1743413283 	 19.03
244.178143615 	 19.47
258.2124206313 	 100
259.2056414567 	 17.26
264.1190112939 	 29.2
327.2464604139 	 21.68
331.1573706351 	 33.19
332.0798485956 	 16.81
332.1690354917 	 16.81
343.2577909195 	 17.7
359.1522852572 	 19.91
385.3087638575 	 59.29
386.3125661442 	 17.26
389.1502738845 	 30.97
444.2037064385 	 87.61
445.1989554116 	 35.84
446.1955470554 	 30.53
467.281228478 	 28.76
468.2890535101 	 29.2
470.3588476348 	 18.58
485.2917931643 	 32.74
495.3237619947 	 24.78
513.2867077864 	 32.74
571.3034204831 	 61.5
572.3112455152 	 16.81
580.3163308931 	 17.26
683.3922354904 	 17.7
725.439185683 	 29.65
828.4939609077 	 253.54
END IONS

BEGIN IONS
PEPMASS=995.556
CHARGE=1
MSLEVEL=2
RT=0
SOURCE_INSTRUMENT=qTOF
FILENAME=CCMSLIB00000071748.ms
IONMODE=Positive
ORGANISM=Natural
NAME=Microcystin LR
PI=GNPS
DATACOLLECTOR=GNPS
SMILES=CC(C)C[C@H]1C(=N[C@H]([C@H](C)C(=N[C@@H](CCCNC(=N)N)C(=N[C@@H](/C=C/C(=C/[C@H](C)[C@H](Cc2ccccc2)OC)/C)[C@H](C)C(=N[C@H](CCC(=O)N(C)C(=C)C(=N[C@H](C)C(=N1)O)O)C(=O)O)O)O)O)C(=O)O)O
INCHI=InChI=1S/C49H74N10O12/c1-26(2)23-37-46(66)58-40(48(69)70)30(6)42(62)55-35(17-14-22-52-49(50)51)45(65)54-34(19-18-27(3)24-28(4)38(71-10)25-33-15-12-11-13-16-33)29(5)41(61)56-36(47(67)68)20-21-39(60)59(9)32(8)44(64)53-31(7)43(63)57-37/h11-13,15-16,18-19,24,26,28-31,34-38,40H,8,14,17,20-23,25H2,1-7,9-10H3,(H,53,64)(H,54,65)(H,55,62)(H,56,61)(H,57,63)(H,58,66)(H,67,68)(H,69,70)(H4,50,51,52)/b19-18+,27-24+/t28-,29-,30-,31+,34-,35-,36+,37-,38-,40+/m0/s1
FORMULA=C49H74N10O12
PUBMED=N/A
SUBMITUSER=BIOADREM
LIBRARYQUALITY=0
SPECTRUMID=CCMSLIB00000071748
SCANS=386
ID=CCMSLIB00000071748
374.9645816041 	 57.22
397.0217025525 	 7.41
414.035675595 	 6.52
445.1295164007 	 10.91
452.3747724705 	 4.81
470.0255048392 	 14.17
477.1193456449 	 7.04
505.0428319251 	 22.33
535.1612104596 	 14.37
552.4272019715 	 34.4
553.1043642827 	 16.74
571.3867341403 	 22.05
582.0779343402 	 12.4
599.1997212309 	 94.02
668.1497566126 	 12.52
681.3017809992 	 14.13
710.1477452399 	 12.66
725.3279957497 	 28.75
744.5660411766 	 8.61
838.482150668 	 8.95
861.416810757 	 9.3
865.5182018233 	 28.84
866.4195504112 	 48.12
890.5624123617 	 14.91
894.4144650333 	 19.63
907.3620951118 	 25.51
910.4093796554 	 7.4
923.3358803613 	 41.53
928.2685290776 	 15.06
936.4012202723 	 23.81
995.5560438926 	 0
END IONS

BEGIN IONS
PEPMASS=981.5404
CHARGE=1
MSLEVEL=2
RT=0
SOURCE_INSTRUMENT=qTOF
FILENAME=CCMSLIB00000071749.ms
IONMODE=Positive
ORGANISM=Natural
NAME=[D-Asp3]microcystin-LR
PI=GNPS
DATACOLLECTOR=GNPS
SMILES=CC(C)C[C@H]1C(=N[C@H](CC(=N[C@@H](CCCNC(=N)N)C(=N[C@@H](/C=C/C(=C/[C@H](C)[C@H](Cc2ccccc2)OC)/C)[C@H](C)C(=N[C@H](CCC(=O)N(C)C(=C)C(=N[C@H](C)C(=N1)O)O)C(=O)O)O)O)O)C(=O)O)O
INCHI=InChI=1S/C48H72N10O12/c1-26(2)22-36-45(65)57-37(47(68)69)25-39(59)53-34(16-13-21-51-48(49)50)44(64)54-33(18-17-27(3)23-28(4)38(70-9)24-32-14-11-10-12-15-32)29(5)41(61)55-35(46(66)67)19-20-40(60)58(8)31(7)43(63)52-30(6)42(62)56-36/h10-12,14-15,17-18,23,26,28-30,33-38H,7,13,16,19-22,24-25H2,1-6,8-9H3,(H,52,63)(H,53,59)(H,54,64)(H,55,61)(H,56,62)(H,57,65)(H,66,67)(H,68,69)(H4,49,50,51)/b18-17+,27-23+/t28-,29-,30+,33-,34-,35+,36-,37+,38-/m0/s1
FORMULA=C48H72N10O12
PUBMED=N/A
SUBMITUSER=BIOADREM
LIBRARYQUALITY=0
SPECTRUMID=CCMSLIB00000071749
SCANS=387
ID=CCMSLIB00000071749
456.1917823065 	 8.77
520.2190596895 	 4.81
538.2296243758 	 20.32
539.2401294826 	 36.83
554.1378492556 	 5.34
556.3183202241 	 23.34
557.3558279424 	 4.82
559.15399455 	 4.54
571.286130935 	 18.27
572.3217881598 	 6.14
580.1700981242 	 6.97
582.2347097537 	 4.62
599.2698121688 	 100
600.2035235176 	 21.69
668.2589131315 	 8.46
683.3704153741 	 4.25
696.2412516946 	 12.73
697.2814394876 	 7.49
711.2224680457 	 4.01
714.2518163809 	 15.74
724.2923385249 	 7.16
752.2099515662 	 4.23
753.3633186235 	 4.32
769.3820426929 	 8.04
795.4637609496 	 4.72
812.2059288208 	 4.48
830.4109970976 	 20.66
838.3882502828 	 5.82
847.4137367518 	 19.03
851.324646973 	 21.65
852.3198959461 	 20.99
853.4117253791 	 6.2
866.3705888459 	 10.57
880.443753789 	 8.11
883.3620951118 	 15.73
902.5134507964 	 4.44
909.4253640706 	 32.32
910.4331891027 	 24.94
924.4012202723 	 4.21
936.2947438281 	 13.96
981.5403938284 	 0
END IONS

BEGIN IONS
PEPMASS=535.2156
CHARGE=1
MSLEVEL=2
RT=0
SOURCE_INSTRUMENT=qTOF
FILENAME=CCMSLIB00000071750.ms
IONMODE=Positive
ORGANISM=Natural
NAME=Aerucyclamide A
PI=GNPS
DATACOLLECTOR=GNPS
SMILES=CC[C@H](C)[C@H]1C2=N[C@@H]([C@@H](C)O2)C(=NCc2nc(cs2)C(=N[C@H]([C@@H](C)CC)C2=N[C@H](CS2)C(=N1)O)O)O
INCHI=InChI=1S/C24H34N6O4S2/c1-6-11(3)17-23-30-19(13(5)34-23)22(33)25-8-16-26-14(9-35-16)20(31)29-18(12(4)7-2)24-27-15(10-36-24)21(32)28-17/h9,11-13,15,17-19H,6-8,10H2,1-5H3,(H,25,33)(H,28,32)(H,29,31)/t11-,12-,13+,15+,17-,18+,19-/m0/s1
FORMULA=C24H34N6O4S2
PUBMED=N/A
SUBMITUSER=BIOADREM
LIBRARYQUALITY=0
SPECTRUMID=CCMSLIB00000071750
SCANS=388
ID=CCMSLIB00000071750
225.0692243298 	 3.38
269.0167948288 	 6.57
270.0205971155 	 0.92
282.9742780871 	 0.61
293.1668674222 	 0.72
321.0216054352 	 0.55
337.1771352953 	 1.53
354.2196312742 	 1.12
361.1818487844 	 1.01
377.1702382406 	 0.64
378.1144975007 	 2.18
382.0678441213 	 1.19
390.0543025471 	 2.38
404.109708936 	 0.72
405.0586764185 	 0.54
406.0426920033 	 3.93
407.1331840323 	 0.96
416.1638529965 	 0.75
420.2189625722 	 0.82
422.0263732371 	 3.78
424.0896421959 	 12.27
425.1549821069 	 2.86
432.0761006217 	 3.11
433.0535910406 	 1.16
439.0893078449 	 0.81
446.2346126364 	 2.26
450.0450973065 	 32.14
460.2013011353 	 0.82
461.097467228 	 4.16
462.1230508143 	 1.1
464.1672238149 	 2.26
473.2039436722 	 2.07
489.2226677416 	 0.92
491.1529707342 	 7.01
507.1029465364 	 8.4
535.215570991 	 0
END IONS

BEGIN IONS
PEPMASS=533.1999
CHARGE=1
MSLEVEL=2
RT=0
SOURCE_INSTRUMENT=qTOF
FILENAME=CCMSLIB00000071751.ms
IONMODE=Positive
ORGANISM=Natural
NAME=Aerucyclamide B
PI=GNPS
DATACOLLECTOR=GNPS
SMILES=CC[C@H](C)[C@H]1C2=N[C@@H]([C@@H](C)O2)C(=NCc2nc(cs2)C(=N[C@H]([C@@H](C)CC)c2nc(cs2)C(=N1)O)O)O
INCHI=InChI=1S/C24H32N6O4S2/c1-6-11(3)17-23-30-19(13(5)34-23)22(33)25-8-16-26-14(9-35-16)20(31)29-18(12(4)7-2)24-27-15(10-36-24)21(32)28-17/h9-13,17-19H,6-8H2,1-5H3,(H,25,33)(H,28,32)(H,29,31)/t11-,12-,13+,17-,18+,19-/m0/s1
FORMULA=C24H32N6O4S2
PUBMED=N/A
SUBMITUSER=BIOADREM
LIBRARYQUALITY=0
SPECTRUMID=CCMSLIB00000071751
SCANS=389
ID=CCMSLIB00000071751
224.1559516099 	 1.16
264.9888655188 	 100
281.1536058862 	 2.76
332.0739753567 	 2.85
336.9974188324 	 19.01
338.1123722357 	 8.53
348.0325044725 	 0.77
351.0593503872 	 3.41
377.1318245866 	 2.03
394.0763974349 	 4.49
402.1832457679 	 2.42
419.9729949959 	 8.37
421.2710356805 	 5.36
432.2301959605 	 2.37
449.1689008366 	 2.42
450.0828254835 	 5.77
461.1549821069 	 1.63
462.0814828128 	 1
465.0937245208 	 2.14
489.149896729 	 27.77
516.0668953811 	 16.45
533.1999209268 	 0
END IONS

BEGIN IONS
PEPMASS=517.2228
CHARGE=1
MSLEVEL=2
RT=0
SOURCE_INSTRUMENT=qTOF
FILENAME=CCMSLIB00000071752.ms
IONMODE=Positive
ORGANISM=Natural
NAME=Aerucyclamide C
PI=GNPS
DATACOLLECTOR=GNPS
SMILES=CC[C@H](C)[C@@H]1c2nc(cs2)C(=N[C@@H](C)C2=N[C@@H]([C@@H](C)O2)C(=N[C@@H](C(C)C)c2nc(co2)C(=N1)O)O)O
INCHI=InChI=1S/C24H32N6O5S/c1-7-11(4)17-24-27-15(9-36-24)20(32)25-12(5)22-30-18(13(6)35-22)21(33)28-16(10(2)3)23-26-14(8-34-23)19(31)29-17/h8-13,16-18H,7H2,1-6H3,(H,25,32)(H,28,33)(H,29,31)/t11-,12-,13+,16-,17+,18-/m0/s1
FORMULA=C24H32N6O5S
PUBMED=N/A
SUBMITUSER=BIOADREM
LIBRARYQUALITY=0
SPECTRUMID=CCMSLIB00000071752
SCANS=390
ID=CCMSLIB00000071752
167.0815035756 	 3.4
222.9900084936 	 100
224.1393528055 	 4.82
277.0118065682 	 3.95
332.9930824988 	 1.1
351.075075527 	 2.93
352.1206287361 	 11.27
389.084205692 	 9.16
406.0206942328 	 29.17
446.0553651796 	 8.38
447.124727836 	 1.35
472.9849398907 	 21.82
517.2227648589 	 0
END IONS

BEGIN IONS
PEPMASS=957.5404
CHARGE=1
MSLEVEL=2
RT=0
SOURCE_INSTRUMENT=qTOF
FILENAME=CCMSLIB00000071754.ms
IONMODE=Positive
ORGANISM=Natural
NAME=Cyanopeptolin A
PI=GNPS
DATACOLLECTOR=GNPS
SMILES=CCCCCC(=NC(CC(=O)O)C(=NC1C(C)OC(=O)C(C(C)C)N=C(C(Cc2ccccc2)N(C)C(=O)C(CC(C)C)N2C(CCC(C2=O)N=C(C(CCCNC(=N)N)N=C1O)O)O)O)O)O
INCHI=InChI=1S/C46H72N10O12/c1-8-9-11-18-34(57)50-31(24-36(59)60)40(62)54-38-27(6)68-45(67)37(26(4)5)53-41(63)32(23-28-15-12-10-13-16-28)55(7)44(66)33(22-25(2)3)56-35(58)20-19-30(43(56)65)52-39(61)29(51-42(38)64)17-14-21-49-46(47)48/h10,12-13,15-16,25-27,29-33,35,37-38,58H,8-9,11,14,17-24H2,1-7H3,(H,50,57)(H,51,64)(H,52,61)(H,53,63)(H,54,62)(H,59,60)(H4,47,48,49)
FORMULA=C46H72N10O12
PUBMED=N/A
SUBMITUSER=BIOADREM
LIBRARYQUALITY=0
SPECTRUMID=CCMSLIB00000071754
SCANS=391
ID=CCMSLIB00000071754
322.1716016741 	 0.31
453.1782031945 	 0.68
627.2462827597 	 0.21
661.310614351 	 0.31
691.2987122607 	 0.43
708.4277097943 	 2.86
726.3708688841 	 21.35
727.4011606928 	 2.38
731.4324608212 	 0.31
744.3378374212 	 15.9
745.4283241835 	 1.34
754.3657835062 	 0.23
822.415807704 	 1.32
831.4723142632 	 0.63
957.5403938284 	 0
END IONS

BEGIN IONS
PEPMASS=867.44
CHARGE=1
MSLEVEL=2
RT=0
SOURCE_INSTRUMENT=qTOF
FILENAME=CCMSLIB00000071761.ms
IONMODE=Positive
ORGANISM=Natural
NAME=Ferintoic acid A
PI=GNPS
DATACOLLECTOR=GNPS
SMILES=CC(C)[C@H]1C(=N[C@@H](CCc2ccc(cc2)O)C(=O)N(C)[C@@H](C)C(=N[C@@H](Cc2ccccc2)C(=NCCCC[C@H](C(=N1)O)N=C(N[C@@H](Cc1c[nH]c2ccccc12)C(=O)O)O)O)O)O
INCHI=InChI=1S/C46H58N8O9/c1-27(2)39-43(59)49-36(22-19-29-17-20-32(55)21-18-29)44(60)54(4)28(3)40(56)50-37(24-30-12-6-5-7-13-30)41(57)47-23-11-10-16-35(42(58)53-39)51-46(63)52-38(45(61)62)25-31-26-48-34-15-9-8-14-33(31)34/h5-9,12-15,17-18,20-21,26-28,35-39,48,55H,10-11,16,19,22-25H2,1-4H3,(H,47,57)(H,49,59)(H,50,56)(H,53,58)(H,61,62)(H2,51,52,63)/t28-,35+,36-,37-,38-,39-/m0/s1
FORMULA=C46H58N8O9
PUBMED=N/A
SUBMITUSER=BIOADREM
LIBRARYQUALITY=0
SPECTRUMID=CCMSLIB00000071761
SCANS=392
ID=CCMSLIB00000071761
379.0376273882 	 6.21
387.0386900207 	 1.68
404.9971052442 	 6.07
460.0029189036 	 1.99
486.1600882476 	 3.59
488.1393528055 	 0.98
503.1098435911 	 4.98
509.1482404701 	 1.21
520.1246514815 	 2.03
545.1522632155 	 2.79
547.9978335257 	 4.38
550.1509801243 	 1.32
561.1153228995 	 1.15
563.1416985292 	 3.32
573.0896629587 	 24.41
574.0862546025 	 4.36
591.0274566324 	 8.87
596.1968676844 	 3.2
607.0587567608 	 0.83
609.1921166575 	 0.89
617.1972020354 	 0.97
618.4166372852 	 2.51
619.1890426523 	 5.18
635.2077667217 	 29.13
637.1704324752 	 100
644.0863684948 	 2.07
663.1213570176 	 74.2
681.1602617194 	 5.15
690.1646188158 	 22.34
695.1475717681 	 2.99
821.1864764699 	 9.8
867.4399515023 	 0
END IONS

BEGIN IONS
PEPMASS=881.4556
CHARGE=1
MSLEVEL=2
RT=0
SOURCE_INSTRUMENT=qTOF
FILENAME=CCMSLIB00000071762.ms
IONMODE=Positive
ORGANISM=Natural
NAME=Ferintoic acid B
PI=GNPS
DATACOLLECTOR=GNPS
SMILES=CC[C@@H](C)[C@H]1C(=N[C@@H](CCc2ccc(cc2)O)C(=O)N(C)[C@@H](C)C(=N[C@@H](Cc2ccccc2)C(=NCCCC[C@H](C(=N1)O)N=C(N[C@@H](Cc1c[nH]c2ccccc12)C(=O)O)O)O)O)O
INCHI=InChI=1S/C47H60N8O9/c1-5-28(2)40-44(60)50-37(23-20-30-18-21-33(56)22-19-30)45(61)55(4)29(3)41(57)51-38(25-31-13-7-6-8-14-31)42(58)48-24-12-11-17-36(43(59)54-40)52-47(64)53-39(46(62)63)26-32-27-49-35-16-10-9-15-34(32)35/h6-10,13-16,18-19,21-22,27-29,36-40,49,56H,5,11-12,17,20,23-26H2,1-4H3,(H,48,58)(H,50,60)(H,51,57)(H,54,59)(H,62,63)(H2,52,53,64)/t28-,29+,36-,37+,38+,39+,40+/m1/s1
FORMULA=C47H60N8O9
PUBMED=N/A
SUBMITUSER=BIOADREM
LIBRARYQUALITY=0
SPECTRUMID=CCMSLIB00000071762
SCANS=393
ID=CCMSLIB00000071762
467.3056898523 	 7.49
482.1863029981 	 10.28
499.9785546466 	 34.63
572.9863796787 	 44.98
602.2285617433 	 15.05
651.0697153776 	 72.41
677.0112517585 	 100
686.2133056096 	 8.68
704.3541561874 	 12.7
810.454873285 	 9.83
853.4243014381 	 47.36
881.4556015665 	 0
END IONS

BEGIN IONS
PEPMASS=585.271
CHARGE=1
MSLEVEL=2
RT=0
SOURCE_INSTRUMENT=qTOF
FILENAME=CCMSLIB00000072068.ms
IONMODE=Positive
ORGANISM=Natural
NAME=Bilirubin
PI=GNPS
DATACOLLECTOR=GNPS
SMILES=C=CC1=C(C)C(=N/C/1=C\c1c(C)c(CCC(=O)O)c(Cc2c(CCC(=O)O)c(C)c(/C=C\3/C(=C(C=C)C(=N3)O)C)[nH]2)[nH]1)O
INCHI=InChI=1S/C33H36N4O6/c1-7-20-19(6)32(42)37-27(20)14-25-18(5)23(10-12-31(40)41)29(35-25)15-28-22(9-11-30(38)39)17(4)24(34-28)13-26-16(3)21(8-2)33(43)36-26/h7-8,13-14,34-35H,1-2,9-12,15H2,3-6H3,(H,36,43)(H,37,42)(H,38,39)(H,40,41)/b26-13-,27-14-
FORMULA=C33H36N4O6
PUBMED=N/A
SUBMITUSER=BIOADREM
LIBRARYQUALITY=0
SPECTRUMID=CCMSLIB00000072068
SCANS=394
ID=CCMSLIB00000072068
210.0913399804 	 1.43
227.0913995599 	 1.07
237.0910056294 	 1.15
238.1801549877 	 1.54
253.1825007114 	 1.28
255.0889942567 	 0.83
270.1825602909 	 3.14
284.0917339109 	 1.76
297.1835633439 	 37.18
298.1801549877 	 41.26
299.1794267062 	 100
300.1805489182 	 7.47
301.1825007114 	 2.32
309.0910056294 	 0.97
451.0012418819 	 1.82
461.1819459017 	 0.98
462.1785375455 	 10.49
463.1863625776 	 3.06
467.269304346 	 1.64
468.2731066327 	 0.95
471.0036471851 	 7.72
471.9988961582 	 1.1
489.0016358124 	 4.22
489.9968847855 	 0.88
490.996156504 	 10.85
492.0039815361 	 1.96
511.1863625776 	 3.5
512.1816115507 	 2.16
525.2747836544 	 3.15
526.2700326275 	 1.77
539.0047098176 	 1.51
540.2731066327 	 5.94
556.2680212548 	 1.22
585.270760909 	 0
END IONS

BEGIN IONS
PEPMASS=566.28
CHARGE=1
MSLEVEL=2
RT=0
SOURCE_INSTRUMENT=qTOF
FILENAME=CCMSLIB00000072094.ms
IONMODE=Positive
ORGANISM=Natural
NAME=Coelichelin
PI=GNPS
DATACOLLECTOR=GNPS
SMILES=C[C@H]([C@H](C(=O)N(CCC[C@@H](C(=O)O)N=C([C@@H](CCCN(C=O)O)N)O)O)N=C([C@@H](CCCN(C=O)O)N)O)O
INCHI=InChI=1S/C21H39N7O11/c1-13(31)17(25-19(33)15(23)6-3-9-27(38)12-30)20(34)28(39)10-4-7-16(21(35)36)24-18(32)14(22)5-2-8-26(37)11-29/h11-17,31,37-39H,2-10,22-23H2,1H3,(H,24,32)(H,25,33)(H,35,36)/t13-,14-,15-,16+,17-/m1/s1
FORMULA=C21H39N7O11
PUBMED=N/A
SUBMITUSER=BIOADREM
LIBRARYQUALITY=0
SPECTRUMID=CCMSLIB00000072094
SCANS=395
ID=CCMSLIB00000072094
187.0865889535 	 0.51
198.0846371603 	 0.67
214.0849119318 	 2
232.0842432298 	 5.1
242.1665162962 	 2.12
250.1675789287 	 15.32
260.0850310908 	 8.06
271.165233205 	 11.31
289.1672445777 	 8.5
307.0839088788 	 29.81
372.2479545147 	 0.38
386.167024119 	 0.22
390.2486284834 	 5.07
404.2503598179 	 0.32
408.2466171107 	 100
418.2534338231 	 7.36
419.0846967398 	 0.28
435.1636157628 	 0.3
436.1674180495 	 6.74
446.2483484452 	 0.45
449.1653470973 	 0.37
494.2470110412 	 0.22
504.2538277536 	 0.29
520.2487423757 	 0.44
523.1657410278 	 0.28
550.246731003 	 0.21
566.2780311314 	 0
END IONS

BEGIN IONS
PEPMASS=655.2756
CHARGE=1
MSLEVEL=2
RT=0
SOURCE_INSTRUMENT=qTOF
FILENAME=CCMSLIB00000072097.ms
IONMODE=Positive
ORGANISM=Natural
NAME=Coproporphyrin III
PI=GNPS
DATACOLLECTOR=GNPS
SMILES=CC1=C(CCC(=O)O)C2=NC1=Cc1c(C)c(CCC(=O)O)c(C=c3c(CCC(=O)O)c(C)c(=CC4=NC(=C2)C(=C4CCC(=O)O)C)[nH]3)[nH]1
INCHI=InChI=1S/C36H38N4O8/c1-17-21(5-9-33(41)42)29-14-27-19(3)22(6-10-34(43)44)30(39-27)15-28-20(4)24(8-12-36(47)48)32(40-28)16-31-23(7-11-35(45)46)18(2)26(38-31)13-25(17)37-29/h13-16,38,40H,5-12H2,1-4H3,(H,41,42)(H,43,44)(H,45,46)(H,47,48)
FORMULA=C36H38N4O8
PUBMED=N/A
SUBMITUSER=BIOADREM
LIBRARYQUALITY=0
SPECTRUMID=CCMSLIB00000072097
SCANS=396
ID=CCMSLIB00000072097
505.2234167859 	 0.27
523.2339814722 	 18.78
536.2418065043 	 0.77
537.2496315364 	 8.56
550.2574565685 	 0.23
551.2652816006 	 1.52
564.2367211264 	 0.31
565.2445461585 	 0.94
577.2445461585 	 1.97
578.2523711906 	 0.56
581.2394607806 	 1.87
582.2472858127 	 6.26
583.2551108448 	 2.58
595.2551108448 	 12.92
596.2629358769 	 100
597.270760909 	 5.71
609.270760909 	 0.74
619.2551108448 	 0.23
637.2656755311 	 17.39
640.2527651211 	 0.75
655.2762402174 	 11.01
END IONS

BEGIN IONS
PEPMASS=655.2756
CHARGE=1
MSLEVEL=2
RT=0
SOURCE_INSTRUMENT=qTOF
FILENAME=CCMSLIB00000072099.ms
IONMODE=Positive
ORGANISM=Natural
NAME=Coproporphyrin I
PI=GNPS
DATACOLLECTOR=GNPS
SMILES=Cc1c(CCC(=O)O)c2C=C3C(=C(CCC(=O)O)C(=N3)C=C3C(=C(CCC(=O)O)C(=N3)C=c3c(C)c(CCC(=O)O)c(=Cc1[nH]2)[nH]3)C)C
INCHI=InChI=1S/C36H38N4O8/c1-17-21(5-9-33(41)42)29-14-26-19(3)23(7-11-35(45)46)31(39-26)16-28-20(4)24(8-12-36(47)48)32(40-28)15-27-18(2)22(6-10-34(43)44)30(38-27)13-25(17)37-29/h13-16,37-38H,5-12H2,1-4H3,(H,41,42)(H,43,44)(H,45,46)(H,47,48)
FORMULA=C36H38N4O8
PUBMED=N/A
SUBMITUSER=BIOADREM
LIBRARYQUALITY=0
SPECTRUMID=CCMSLIB00000072099
SCANS=397
ID=CCMSLIB00000072099
523.2339814722 	 19.3
536.2418065043 	 0.61
537.2496315364 	 8.75
551.2652816006 	 1.41
565.2445461585 	 0.29
577.2445461585 	 0.73
578.2523711906 	 0.29
581.2394607806 	 2.07
582.2472858127 	 7.2
583.2551108448 	 1.83
595.2551108448 	 9.98
596.2629358769 	 100
597.270760909 	 7.22
609.270760909 	 0.53
637.2656755311 	 3.25
640.2527651211 	 0.79
655.2762402174 	 10.42
END IONS

BEGIN IONS
PEPMASS=561.3606
CHARGE=1
MSLEVEL=2
RT=0
SOURCE_INSTRUMENT=qTOF
FILENAME=CCMSLIB00000072100.ms
IONMODE=Positive
ORGANISM=Natural
NAME=Desferrioxamine B
PI=GNPS
DATACOLLECTOR=GNPS
SMILES=CC(=O)N(CCCCCN=C(CCC(=O)N(CCCCCN=C(CCC(=O)N(CCCCCN)O)O)O)O)O
INCHI=InChI=1S/C25H48N6O8/c1-21(32)29(37)18-9-3-6-16-27-22(33)12-14-25(36)31(39)20-10-4-7-17-28-23(34)11-13-24(35)30(38)19-8-2-5-15-26/h37-39H,2-20,26H2,1H3,(H,27,33)(H,28,34)
FORMULA=C25H48N6O8
PUBMED=N/A
SUBMITUSER=BIOADREM
LIBRARYQUALITY=0
SPECTRUMID=CCMSLIB00000072100
SCANS=398
ID=CCMSLIB00000072100
100.0393044099 	 4.54677795031056
102.0913399804 	 20.0844332298137
103.0991650125 	 2.13994565217391
112.0393044099 	 4.21195652173913
113.047129442 	 0.587150621118012
119.1178890819 	 1.65469720496894
126.0913399804 	 0.684200310559006
128.034219032 	 0.553183229813665
130.0624451552 	 0.723020186335404
137.1073243956 	 3.72670807453416
138.0913399804 	 5.14363354037267
140.0706045383 	 1.67895962732919
142.0862546025 	 0.441576086956522
144.1019046667 	 23.9858307453416
154.0862546025 	 6.54114906832298
165.1022390177 	 9.62732919254658
166.0862546025 	 2.47961956521739
166.1073839751 	 0.907414596273292
168.1019046667 	 2.67371894409938
183.112803704 	 5.19215838509317
184.0968192888 	 4.7360248447205
201.1233683903 	 100
243.1339330766 	 94.9728260869565
245.1370070818 	 0.946234472049689
319.2339814722 	 69.2158385093168
320.2345958614 	 6.84685559006211
320.2418065043 	 3.62965838509317
321.2383981481 	 1.00446428571429
332.1982103551 	 2.08171583850932
343.3669474384 	 0.194099378881988
361.2445461585 	 28.416149068323
362.2397951316 	 0.635675465838509
362.2451605477 	 3.99844720496894
362.2523711906 	 0.849184782608696
380.255725234 	 2.26125776397516
383.230238765 	 1.05298913043478
389.9992900887 	 0.606560559006211
401.2408034513 	 15.5425077639752
425.3611933585 	 0.329968944099379
443.2513681376 	 33.8800465838509
444.257850499 	 1.27620341614907
459.3415205489 	 2.12538819875776
476.2714891905 	 0.237771739130435
477.0915134522 	 0.179541925465838
498.3524195862 	 3.17837732919255
502.3599102673 	 0.164984472049689
514.1806628105 	 0.208656832298137
515.3677352994 	 0.402756211180124
561.3606385488 	 11.0830745341615
END IONS

BEGIN IONS
PEPMASS=244.17
CHARGE=1
MSLEVEL=2
RT=0
SOURCE_INSTRUMENT=qTOF
FILENAME=CCMSLIB00000072121.ms
IONMODE=Positive
ORGANISM=Natural
NAME=HHQ
PI=GNPS
DATACOLLECTOR=GNPS
SMILES=CCCCCCCc1cc(=O)c2ccccc2[nH]1
INCHI=InChI=1S/C16H21NO/c1-2-3-4-5-6-9-13-12-16(18)14-10-7-8-11-15(14)17-13/h7-8,10-12H,2-6,9H2,1H3,(H,17,18)
FORMULA=C16H21NO
PUBMED=N/A
SUBMITUSER=BIOADREM
LIBRARYQUALITY=0
SPECTRUMID=CCMSLIB00000072121
SCANS=400
ID=CCMSLIB00000072121
198.0913399804 	 0.49
244.1695903014 	 0
END IONS

BEGIN IONS
PEPMASS=225.066
CHARGE=1
MSLEVEL=2
RT=0
SOURCE_INSTRUMENT=qTOF
FILENAME=CCMSLIB00000072150.ms
IONMODE=Positive
ORGANISM=Natural
NAME=Phenazine-1-carboxylic acid
PI=GNPS
DATACOLLECTOR=GNPS
SMILES=c1ccc2c(c1)nc1cccc(c1n2)C(=O)O
INCHI=InChI=1S/C13H8N2O2/c16-13(17)8-4-3-7-11-12(8)15-10-6-2-1-5-9(10)14-11/h1-7H,(H,16,17)
FORMULA=C13H8N2O2
PUBMED=N/A
SUBMITUSER=BIOADREM
LIBRARYQUALITY=0
SPECTRUMID=CCMSLIB00000072150
SCANS=401
ID=CCMSLIB00000072150
102.0338251015 	 2.32
120.0443897878 	 0.44
128.0494751657 	 2.88
146.060039852 	 0.57
152.0494751657 	 18.59
153.0447241388 	 8.6
170.060039852 	 4.04
171.0552888251 	 4.8
179.0001792494 	 0.26
179.060374203 	 100
197.0709388893 	 1.93
207.0552888251 	 13.75
225.0658535114 	 1.02
END IONS

BEGIN IONS
PEPMASS=324.208
CHARGE=1
MSLEVEL=2
RT=0
SOURCE_INSTRUMENT=qTOF
FILENAME=CCMSLIB00000072234.ms
IONMODE=Positive
ORGANISM=Natural
NAME=Prodigiosin
PI=GNPS
DATACOLLECTOR=GNPS
SMILES=CCCCCc1cc(/C=c/2\c(c/c(=C/3\C=CC=N3)/[nH]2)OC)[nH]c1C
INCHI=InChI=1S/C20H25N3O/c1-4-5-6-8-15-11-16(22-14(15)2)12-19-20(24-3)13-18(23-19)17-9-7-10-21-17/h7,9-13,22-23H,4-6,8H2,1-3H3/b18-17-,19-12+
FORMULA=C20H25N3O
PUBMED=N/A
SUBMITUSER=BIOADREM
LIBRARYQUALITY=0
SPECTRUMID=CCMSLIB00000072234
SCANS=402
ID=CCMSLIB00000072234
150.0913399804 	 0.2
162.0913399804 	 1.77
235.1804893387 	 0.68
237.0896629587 	 0.36
253.1825007114 	 4.74
268.1808236897 	 0.77
292.1808236897 	 6.32
324.2070384402 	 0
END IONS

BEGIN IONS
PEPMASS=563.2656
CHARGE=1
MSLEVEL=2
RT=0
SOURCE_INSTRUMENT=qTOF
FILENAME=CCMSLIB00000072235.ms
IONMODE=Positive
ORGANISM=Natural
NAME=Protoporphyrin IX
PI=GNPS
DATACOLLECTOR=GNPS
SMILES=C=Cc1c(C)c2=CC3=NC(=CC4=NC(=Cc5c(C=C)c(C)c(C=c1[nH]2)[nH]5)C(=C4CCC(=O)O)C)C(=C3C)CCC(=O)O
INCHI=InChI=1S/C34H34N4O4/c1-7-21-17(3)25-13-26-19(5)23(9-11-33(39)40)31(37-26)16-32-24(10-12-34(41)42)20(6)28(38-32)15-30-22(8-2)18(4)27(36-30)14-29(21)35-25/h7-8,13-16,35-36H,1-2,9-12H2,3-6H3,(H,39,40)(H,41,42)
FORMULA=C34H34N4O4
PUBMED=N/A
SUBMITUSER=BIOADREM
LIBRARYQUALITY=0
SPECTRUMID=CCMSLIB00000072235
SCANS=403
ID=CCMSLIB00000072235
430.2151978233 	 0.37
431.2230228554 	 13.61
444.2308478875 	 0.38
445.2386729196 	 11.3
459.2543229838 	 3.16
472.2257625096 	 0.94
473.2335875417 	 1.96
475.2128520996 	 1.87
485.2335875417 	 3.99
489.2285021638 	 8.15
490.2363271959 	 15.06
491.244152228 	 4.73
503.244152228 	 22.65
504.2519772601 	 100
517.2598022922 	 1.36
527.244152228 	 0.46
533.218331408 	 0.28
545.2547169143 	 27.1
548.2418065043 	 4.49
563.2652816006 	 11.89
END IONS

BEGIN IONS
PEPMASS=373.2082
CHARGE=1
MSLEVEL=2
RT=0
SOURCE_INSTRUMENT=qTOF
FILENAME=CCMSLIB00000072236.ms
IONMODE=Positive
ORGANISM=Natural
NAME=Putrebactin
PI=GNPS
DATACOLLECTOR=GNPS
SMILES=C1CCN(C(=O)CCC(=NCCCCN(C(=O)CCC(=NC1)O)O)O)O
INCHI=InChI=1S/C16H28N4O6/c21-13-5-7-16(24)20(26)12-4-2-10-18-14(22)6-8-15(23)19(25)11-3-1-9-17-13/h25-26H,1-12H2,(H,17,21)(H,18,22)
FORMULA=C16H28N4O6
PUBMED=N/A
SUBMITUSER=BIOADREM
LIBRARYQUALITY=0
SPECTRUMID=CCMSLIB00000072236
SCANS=404
ID=CCMSLIB00000072236
151.0839088788 	 1.55
154.0009075309 	 5.72
169.9998448984 	 1.26
187.0839088788 	 100
205.1672445777 	 1.73
214.0009075309 	 0.65
228.0853058623 	 0.99
240.1679728592 	 0.89
258.0846371603 	 1.34
270.0846371603 	 2.72
287.1713812154 	 4.88
288.0853058623 	 1.13
296.1690354917 	 0.6
300.0853058623 	 0.84
315.1662958375 	 1.05
327.1676385082 	 0.59
329.0880455165 	 0.83
356.1690354917 	 12.33
373.2081606522 	 0
END IONS

BEGIN IONS
PEPMASS=394.286
CHARGE=1
MSLEVEL=2
RT=0
SOURCE_INSTRUMENT=qTOF
FILENAME=CCMSLIB00000072310.ms
IONMODE=Positive
ORGANISM=Natural
NAME=Undecylprodiginine
PI=GNPS
DATACOLLECTOR=GNPS
SMILES=CCCCCCCCCCCc1ccc(/C=c\2/c(c/c(=C/3\C=CC=N3)/[nH]2)OC)[nH]1
INCHI=InChI=1S/C25H35N3O/c1-3-4-5-6-7-8-9-10-11-13-20-15-16-21(27-20)18-24-25(29-2)19-23(28-24)22-14-12-17-26-22/h12,14-19,27-28H,3-11,13H2,1-2H3/b23-22-,24-18-
FORMULA=C25H35N3O
PUBMED=N/A
SUBMITUSER=BIOADREM
LIBRARYQUALITY=0
SPECTRUMID=CCMSLIB00000072310
SCANS=407
ID=CCMSLIB00000072310
221.0835149483 	 3.15
239.085526321 	 47.6
266.1651736255 	 2.79
281.1648392745 	 1.78
308.2498519951 	 5.09
309.163776642 	 2.25
323.2481749734 	 1.74
337.2512489786 	 2.43
362.2478406224 	 10.31
394.2852887612 	 0
END IONS

BEGIN IONS
PEPMASS=197.0709
CHARGE=1
MSLEVEL=2
RT=0
SOURCE_INSTRUMENT=qTOF
FILENAME=CCMSLIB00000072552.ms
IONMODE=Positive
ORGANISM=Natural
NAME=1-hydroxyphenazine
PI=GNPS
DATACOLLECTOR=GNPS
SMILES=c1ccc2c(c1)[nH]c1cccc(=O)c1n2
INCHI=InChI=1S/C12H8N2O/c15-11-7-3-6-10-12(11)14-9-5-2-1-4-8(9)13-10/h1-7,13H
FORMULA=C12H8N2O
PUBMED=N/A
SUBMITUSER=BIOADREM
LIBRARYQUALITY=0
SPECTRUMID=CCMSLIB00000072552
SCANS=408
ID=CCMSLIB00000072552
120.0443897878 	 5.76
169.0760242672 	 39.45
179.060374203 	 100
197.0709388893 	 0
END IONS

BEGIN IONS
PEPMASS=843.3342
CHARGE=1
MSLEVEL=2
RT=0
SOURCE_INSTRUMENT=qTOF
FILENAME=CCMSLIB00000075009.ms
IONMODE=Positive
ORGANISM=Natural
NAME=Mureidomycin B
PI=GNPS
DATACOLLECTOR=GNPS
SMILES=CC(C(C(=N/C=C/1\CC(C(N2CCC(=NC2=O)O)O1)O)O)N=C(C(CCSC)N=C(NC(Cc1cccc(c1)O)C(=O)O)O)O)N(C)C(=O)C(Cc1cccc(c1)O)N
INCHI=InChI=1S/C38H50N8O12S/c1-20(45(2)34(53)26(39)16-21-6-4-8-23(47)14-21)31(33(52)40-19-25-18-29(49)35(58-25)46-12-10-30(50)43-38(46)57)44-32(51)27(11-13-59-3)41-37(56)42-28(36(54)55)17-22-7-5-9-24(48)15-22/h4-9,14-15,19-20,26-29,31,35,47-49H,10-13,16-18,39H2,1-3H3,(H,40,52)(H,44,51)(H,54,55)(H2,41,42,56)(H,43,50,57)/b25-19+
FORMULA=C38H50N8O12S
PUBMED=N/A
SUBMITUSER=BIOADREM
LIBRARYQUALITY=0
SPECTRUMID=CCMSLIB00000075009
SCANS=411
ID=CCMSLIB00000075009
316.0802204844 	 1.2
321.1458351669 	 0.99
339.0723954523 	 7.22
373.1771352953 	 5.41
391.2214054132 	 2.64
394.2489032549 	 1.15
409.1955845932 	 2.09
422.1247653738 	 4.77
435.2880284154 	 1.38
450.2513085581 	 0.63
487.1850199069 	 4.31
499.2021265341 	 2.54
504.2427720195 	 13
505.2359928449 	 4.62
512.281562829 	 0.75
513.1616043901 	 0.54
522.2288365148 	 5.36
530.2081231144 	 20.99
548.1499342668 	 16.97
566.1604989531 	 0.63
570.2322073332 	 0.92
598.1027093027 	 2.07
603.2647267909 	 0.66
616.1224792296 	 16.34
617.1303042617 	 0.7
618.3245873935 	 2.97
626.2881047699 	 0.69
631.1857106506 	 0.9
634.2170483168 	 0.55
635.2129880336 	 1.42
636.2987665735 	 15.35
643.2333295452 	 1.07
644.2200252047 	 9.6
662.2119629389 	 54.84
663.2647267909 	 1.97
676.3300667019 	 0.97
680.1497566126 	 3.9
693.2125941031 	 7.43
694.2177390605 	 2.83
711.2330547737 	 100
712.2521131941 	 1.26
723.1980066714 	 2.37
729.1245669568 	 99.96
781.2735769177 	 0.62
794.1636921173 	 0.49
825.193315224 	 34.28
843.3341658018 	 0
END IONS

BEGIN IONS
PEPMASS=841.3185
CHARGE=1
MSLEVEL=2
RT=0
SOURCE_INSTRUMENT=qTOF
FILENAME=CCMSLIB00000075010.ms
IONMODE=Positive
ORGANISM=Natural
NAME=Mureidomycin A
PI=GNPS
DATACOLLECTOR=GNPS
SMILES=CC(C(C(=O)N(/C=C/1\CC(C(n2ccc(nc2=O)O)O1)O)C(=O)[C@H](CCSC)N=C(NC(Cc1cccc(c1)O)C(=O)O)O)N)N(C)C(=O)[C@H](Cc1cccc(c1)O)N
INCHI=InChI=1S/C38H48N8O12S/c1-20(44(2)32(51)26(39)16-21-6-4-8-23(47)14-21)31(40)34(53)46(19-25-18-29(49)35(58-25)45-12-10-30(50)43-38(45)57)33(52)27(11-13-59-3)41-37(56)42-28(36(54)55)17-22-7-5-9-24(48)15-22/h4-10,12,14-15,19-20,26-29,31,35,47-49H,11,13,16-18,39-40H2,1-3H3,(H,54,55)(H2,41,42,56)(H,43,50,57)/b25-19+/t20?,26-,27-,28?,29?,31?,35?/m0/s1
FORMULA=C38H48N8O12S
PUBMED=N/A
SUBMITUSER=BIOADREM
LIBRARYQUALITY=0
SPECTRUMID=CCMSLIB00000075010
SCANS=412
ID=CCMSLIB00000075010
339.0274566324 	 11.49
396.0853058623 	 3.83
422.1009559265 	 14.09
435.086999659 	 6.52
503.0774808302 	 9.33
530.0883798675 	 15.47
558.1745148001 	 5.33
587.25607636 	 11.68
588.1725034274 	 4.07
594.086665308 	 4.99
595.247065354 	 4.28
597.1398230905 	 3.98
602.0129287802 	 10.42
603.073086196 	 3.19
609.2085713577 	 4.3
616.1285301227 	 21.48
617.1752430816 	 4.83
634.2017921831 	 43.06
642.1255532348 	 35.3
643.2232559067 	 9.93
647.0343925038 	 3.12
660.0819738606 	 100
693.022113258 	 5.76
704.2582612045 	 2.89
709.0534133864 	 11.7
711.2806736683 	 19.1
721.1347377126 	 50.29
722.1477452399 	 16.68
727.1895504751 	 9.57
732.3073198871 	 2.98
765.0432426306 	 3.77
781.2735769177 	 2.98
823.1776651598 	 61.39
824.2919666361 	 14.01
841.3185157376 	 0
END IONS

BEGIN IONS
PEPMASS=853.3185
CHARGE=1
MSLEVEL=2
RT=0
SOURCE_INSTRUMENT=qTOF
FILENAME=CCMSLIB00000075013.ms
IONMODE=Positive
ORGANISM=Natural
NAME=Napsamycin A
PI=GNPS
DATACOLLECTOR=GNPS
SMILES=CC(C(C(=O)N(/C=C/1\CC(C(n2ccc(nc2=O)O)O1)O)C(=O)[C@H](CCSC)N=C(NC(Cc1cccc(c1)O)C(=O)O)O)N)N(C)C(=O)C1Cc2cc(ccc2CN1)O
INCHI=InChI=1S/C39H48N8O12S/c1-20(45(2)33(52)28-16-23-15-25(49)8-7-22(23)18-41-28)32(40)35(54)47(19-26-17-30(50)36(59-26)46-11-9-31(51)44-39(46)58)34(53)27(10-12-60-3)42-38(57)43-29(37(55)56)14-21-5-4-6-24(48)13-21/h4-9,11,13,15,19-20,27-30,32,36,41,48-50H,10,12,14,16-18,40H2,1-3H3,(H,55,56)(H2,42,43,57)(H,44,51,58)/b26-19+/t20?,27-,28?,29?,30?,32?,36?/m0/s1
FORMULA=C39H48N8O12S
PUBMED=N/A
SUBMITUSER=BIOADREM
LIBRARYQUALITY=0
SPECTRUMID=CCMSLIB00000075013
SCANS=413
ID=CCMSLIB00000075013
300.1746756793 	 1.18
396.1091153096 	 1.46
396.2043583655 	 1.1
420.1190112939 	 1.63
421.0540653134 	 1.6
422.1036360012 	 3.26
422.1624935508 	 1.81
422.1869937418 	 3.21
453.1656271355 	 1.09
458.2835742017 	 0.63
471.2073948329 	 0.73
471.2298616095 	 0.72
472.1563623154 	 1.41
479.2540482123 	 1.28
497.0563734993 	 6.86
497.0853654418 	 5.62
497.1832833057 	 4.62
498.1282333095 	 5.49
499.1950935454 	 3.28
515.153445007 	 1.15
515.2448429717 	 1.14
517.1156029377 	 0.75
542.1492655648 	 0.81
545.2594304034 	 1.91
546.258519201 	 1.17
558.1594363206 	 0.48
558.1956441727 	 1.3
560.1108686858 	 7.36
560.1948730867 	 1.03
560.3026922016 	 1.69
580.1826741832 	 4.38
587.2401294826 	 23.83
595.2975472442 	 0.79
601.2769089194 	 6.54
602.3237995325 	 5.36
603.1822427149 	 0.58
603.2171078963 	 0.79
610.1595334379 	 2.64
614.0989665955 	 0.86
626.1630013736 	 0.41
626.2153337573 	 3.3
628.1422659315 	 3.88
628.1436086022 	 3.73
628.1483168246 	 5.48
629.1713979904 	 4.61
629.1826366454 	 0.41
630.1917990815 	 2.05
644.1735660599 	 1.18
645.2952611 	 1.92
646.1714575699 	 20
646.1966096879 	 21.18
646.2091857469 	 22.55
647.1819626767 	 19.89
654.1527335005 	 5.06
654.1592586664 	 5.02
654.283019392 	 10.21
655.1354064146 	 4.92
656.2285785183 	 5.36
660.1884503048 	 0.93
670.112605287 	 1.6
670.1892161241 	 3.31
672.1044459039 	 100
672.1394887395 	 100
672.2122597521 	 98.23
673.1459711009 	 100
673.2901757221 	 1.07
674.1630013736 	 66.58
675.1894533578 	 3.78
675.1953265967 	 1.83
676.138426107 	 2.49
678.2016950658 	 8.99
678.2466338857 	 11.47
679.2081774272 	 8.63
680.127975313 	 6.79
688.2184077625 	 0.75
690.257867274 	 1.5
692.192193012 	 1.43
693.2364035504 	 1.72
711.1993493421 	 1.51
721.2412141568 	 1.47
723.2079026557 	 0.7
723.2105827304 	 2.83
731.2969924345 	 0.76
732.2167903203 	 0.97
733.1810192032 	 0.61
734.1749255056 	 2.16
739.1578784579 	 7.79
739.2180734115 	 1.86
739.2293067998 	 2.69
741.2878675362 	 0.75
763.323207185 	 1.04
771.1840932084 	 1.34
780.2293663793 	 0.5
787.2504361724 	 0.4
788.2106423099 	 5.12
788.3045426951 	 0.83
789.231043401 	 12.75
792.2895613329 	 0.76
792.3198959461 	 0.66
809.3464450476 	 0.68
811.2140506661 	 1.53
817.297386365 	 1.05
836.2793905771 	 1.1
836.2919666361 	 0.76
853.3185157376 	 0
END IONS

BEGIN IONS
PEPMASS=855.3342
CHARGE=1
MSLEVEL=2
RT=0
SOURCE_INSTRUMENT=qTOF
FILENAME=CCMSLIB00000075016.ms
IONMODE=Positive
ORGANISM=Natural
NAME=Napsamycin C
PI=GNPS
DATACOLLECTOR=GNPS
SMILES=CC(C(C(=N/C=C\1/CC(C(N2CCC(=NC2=O)O)O1)O)O)N=C(C(CCSC)N=C(NC(Cc1cccc(c1)O)C(=O)O)O)O)N(C)C(=O)C1Cc2cc(ccc2CN1)O
INCHI=InChI=1S/C39H50N8O12S/c1-20(46(2)35(54)28-16-23-15-25(49)8-7-22(23)18-40-28)32(34(53)41-19-26-17-30(50)36(59-26)47-11-9-31(51)44-39(47)58)45-33(52)27(10-12-60-3)42-38(57)43-29(37(55)56)14-21-5-4-6-24(48)13-21/h4-8,13,15,19-20,27-30,32,36,40,48-50H,9-12,14,16-18H2,1-3H3,(H,41,53)(H,45,52)(H,55,56)(H2,42,43,57)(H,44,51,58)/b26-19-
FORMULA=C39H50N8O12S
PUBMED=N/A
SUBMITUSER=BIOADREM
LIBRARYQUALITY=0
SPECTRUMID=CCMSLIB00000075016
SCANS=416
ID=CCMSLIB00000075016
300.138290173 	 0.99
392.1903425185 	 0.93
422.2272190726 	 2.22
442.1761322423 	 1.02
442.2336471212 	 0.97
447.023433887 	 0.91
455.2124802108 	 0.89
473.2547169143 	 1.43
473.2758462869 	 1.61
474.2461260629 	 0.7
475.2452148605 	 0.89
480.1223821123 	 0.77
481.1969272639 	 1.11
481.2631731106 	 0.6
497.1781060772 	 2.88
498.2638846171 	 0.65
498.27109526 	 1.14
499.189733396 	 8.97
499.1975959659 	 6.19
500.2227052794 	 2.71
501.1577645656 	 1.15
515.2976443615 	 0.82
516.2605305737 	 0.78
517.2445461585 	 1.59
517.3121346759 	 1.73
518.2835742017 	 0.73
523.3101233032 	 0.56
534.27109526 	 3.52
534.3148743301 	 2.43
535.2512710203 	 1.11
542.2874140262 	 0.68
560.229921189 	 14.53
560.2867453242 	 13.12
561.2390836251 	 6.48
562.2621700576 	 2.69
587.3340298678 	 4.17
610.2309670465 	 1.24
628.2415317328 	 4.3
628.2878079567 	 3.59
629.1898472883 	 1.82
629.1952127044 	 0.97
630.2493139604 	 2.67
631.3676381821 	 1.04
646.3433114629 	 6.22
647.2221932742 	 0.86
647.2309295087 	 3.73
648.2208130657 	 18.21
648.2598786467 	 19.45
649.2517620681 	 7.8
649.2616527857 	 1.16
650.241828546 	 2.49
654.1163479942 	 1.84
655.1996293803 	 0.97
656.178279549 	 8.47
657.2211474167 	 4.5
658.2303151195 	 1.79
662.178948251 	 0.88
663.1589410904 	 0.72
672.1970036184 	 1.34
672.2075515297 	 36.08
673.2101940666 	 20.09
674.2106255349 	 100
674.2238870709 	 100
675.1953265967 	 45.4
675.2006920128 	 3.59
676.2031516288 	 14.29
680.2020889963 	 8.66
680.203431667 	 9.96
681.2238327581 	 4.37
682.2905100731 	 1.46
688.1582128089 	 4.03
689.2341006312 	 2.01
690.1824161867 	 2.45
690.2003576618 	 3.53
713.166037841 	 3.42
714.2929153763 	 1.93
715.3245498557 	 0.7
723.256864221 	 3.65
723.2919070566 	 3.33
724.2296464175 	 1.68
725.2235527199 	 0.63
735.2218213854 	 0.81
739.2755882904 	 0.8
741.1609524631 	 33.63
741.205891283 	 42.16
742.2137163151 	 21.71
743.3194644778 	 6.53
855.3341658018 	 0
END IONS

BEGIN IONS
PEPMASS=485.2453
CHARGE=1
MSLEVEL=2
RT=0
SOURCE_INSTRUMENT=qTOF
FILENAME=CCMSLIB00000075307.ms
IONMODE=Positive
ORGANISM=Natural
NAME=Kanamycin A
PI=GNPS
DATACOLLECTOR=GNPS
SMILES=C1[C@H]([C@@H]([C@H]([C@@H]([C@H]1N)O[C@@H]1[C@@H]([C@H]([C@@H]([C@@H](CN)O1)O)O)O)O)O[C@@H]1[C@@H]([C@H]([C@@H]([C@@H](CO)O1)O)N)O)N
INCHI=InChI=1S/C18H36N4O11/c19-2-6-10(25)12(27)13(28)18(30-6)33-16-5(21)1-4(20)15(14(16)29)32-17-11(26)8(22)9(24)7(3-23)31-17/h4-18,23-29H,1-3,19-22H2/t4-,5+,6-,7-,8+,9-,10-,11-,12+,13-,14-,15+,16-,17-,18-/m1/s1
FORMULA=C18H36N4O11
PUBMED=N/A
SUBMITUSER=BIOADREM
LIBRARYQUALITY=0
SPECTRUMID=CCMSLIB00000075307
SCANS=420
ID=CCMSLIB00000075307
145.0971536398 	 0.31
163.1077183261 	 5.93
169.1209630871 	 0.41
180.0655191604 	 0.35
187.1077183261 	 0.6
203.9774920141 	 1.38
205.1182830124 	 5.44
222.0158888931 	 0.56
263.1237623208 	 0.64
264.1315873529 	 0.58
270.0329955203 	 0.22
271.1288476987 	 0.61
281.0166171746 	 0.31
281.1343270071 	 0.3
287.0959301281 	 0.62
289.139412385 	 0.39
305.0404266219 	 2.85
305.1343270071 	 1.9
307.1499770713 	 0.54
323.0595446218 	 4.78
323.1448916934 	 2.76
324.0588163403 	 100
324.1765261728 	 100
325.1605417576 	 2.41
330.1659614865 	 0.49
330.2023469928 	 0.22
348.1765261728 	 9.09
366.1870908591 	 15.71
402.1870908591 	 0.27
414.1870908591 	 0.4
431.140868948 	 0.31
432.1976555454 	 4.21
450.1592586664 	 7.47
450.2082202317 	 6.45
468.218784918 	 1.15
485.2453340195 	 1.01
END IONS

BEGIN IONS
PEPMASS=582.2729
CHARGE=1
MSLEVEL=2
RT=0
SOURCE_INSTRUMENT=qTOF
FILENAME=CCMSLIB00000075309.ms
IONMODE=Positive
ORGANISM=Natural
NAME=Streptomycin
PI=GNPS
DATACOLLECTOR=GNPS
SMILES=C[C@H]1[C@](C=O)([C@H]([C@@H](O1)O[C@@H]1[C@H]([C@@H]([C@H]([C@@H]([C@H]1O)O)NC(=N)N)O)NC(=N)N)O[C@H]1[C@H]([C@@H]([C@H]([C@H](CO)O1)O)O)NC)O
INCHI=InChI=1S/C21H39N7O12/c1-5-21(36,4-30)16(40-17-9(26-2)13(34)10(31)6(3-29)38-17)18(37-5)39-15-8(28-20(24)25)11(32)7(27-19(22)23)12(33)14(15)35/h4-18,26,29,31-36H,3H2,1-2H3,(H4,22,23,27)(H4,24,25,28)/t5-,6-,7+,8-,9-,10-,11+,12-,13-,14+,15+,16-,17-,18-,21+/m0/s1
FORMULA=C21H39N7O12
PUBMED=N/A
SUBMITUSER=BIOADREM
LIBRARYQUALITY=0
SPECTRUMID=CCMSLIB00000075309
SCANS=422
ID=CCMSLIB00000075309
186.087317235 	 1.35
203.008732563 	 5.4
203.1138663365 	 2.36
203.9927481478 	 8.38
204.0978819213 	 4.07
221.0192972493 	 12.44
221.1244310228 	 8.01
229.0931308944 	 1.46
245.1356644111 	 0.8
246.0145462224 	 42.91
246.1196799959 	 48.9
249.1193456449 	 1.02
263.0496486375 	 81.32
263.1462290974 	 87.29
273.9982274562 	 3
274.114594618 	 3.18
284.1128632835 	 1.51
288.0502630267 	 1.87
291.0445632596 	 13.28
291.1411437195 	 12.29
302.0407609729 	 6.8
302.1234279698 	 9.47
312.0462402813 	 1.38
312.1190112939 	 2.09
320.0234934665 	 7.79
320.1339926561 	 9.74
330.0568049676 	 5.49
330.1295759802 	 7.65
345.0717267503 	 0.47
346.1357239906 	 0.8
347.0986102028 	 2.18
347.1561250817 	 3.35
348.0826257876 	 1.07
348.1387979958 	 2.38
363.1622730921 	 0.92
365.1091748891 	 6.31
365.166689768 	 12.27
372.0547935949 	 1.12
372.1513740548 	 1.08
373.0778747607 	 1.65
373.1353896396 	 2.57
379.0969927606 	 0.47
390.0931904739 	 33.32
390.1619387411 	 58.39
407.128292889 	 51.52
407.1884878426 	 74.63
445.1439429532 	 1.73
446.1068291654 	 3.46
446.1643440443 	 3.96
463.1095688196 	 0.7
487.2034692048 	 3.04
488.1048177927 	 2.86
488.1874847896 	 2.73
504.2174422473 	 1.8
504.2300183063 	 1.55
505.2140338911 	 12.27
506.115382479 	 0.77
522.1916214273 	 17.18
522.2405829926 	 13.59
523.2245985774 	 5.4
540.2511476789 	 100
547.2358319657 	 5.69
548.2198475505 	 3.26
564.2385716199 	 31.87
564.2623810672 	 9.74
565.246396652 	 30.17
582.2729457535 	 0
END IONS

BEGIN IONS
PEPMASS=924.4951
CHARGE=1
MSLEVEL=2
RT=0
SOURCE_INSTRUMENT=qTOF
FILENAME=CCMSLIB00000075331.ms
IONMODE=Positive
ORGANISM=Natural
NAME=Amphotericin B
PI=GNPS
DATACOLLECTOR=GNPS
SMILES=C[C@H]1C=CC=CC=CC=CC=CC=CC=C[C@@H](C[C@H]2[C@@H]([C@H](C[C@](C[C@H](C[C@H]([C@@H](CC[C@H](C[C@H](CC(=O)O[C@@H](C)[C@H](C)[C@@H]1O)O)O)O)O)O)(O)O2)O)C(=O)O)O[C@H]1[C@H]([C@H]([C@@H]([C@@H](C)O1)O)N)O
INCHI=InChI=1S/C47H73NO17/c1-27-17-15-13-11-9-7-5-6-8-10-12-14-16-18-34(64-46-44(58)41(48)43(57)30(4)63-46)24-38-40(45(59)60)37(54)26-47(61,65-38)25-33(51)22-36(53)35(52)20-19-31(49)21-32(50)23-39(55)62-29(3)28(2)42(27)56/h5-18,27-38,40-44,46,49-54,56-58,61H,19-26,48H2,1-4H3,(H,59,60)/b6-5+,9-7+,10-8+,13-11+,14-12+,17-15+,18-16+/t27-,28-,29-,30+,31+,32+,33-,34-,35+,36+,37-,38-,40+,41-,42+,43+,44-,46-,47+/m0/s1
FORMULA=C47H73NO17
PUBMED=N/A
SUBMITUSER=BIOADREM
LIBRARYQUALITY=0
SPECTRUMID=CCMSLIB00000075331
SCANS=426
ID=CCMSLIB00000075331
322.2138604193 	 4.83665676707679
338.1935189077 	 3.4365719134493
569.2017378703 	 1.18795078489605
573.1782031945 	 13.9584217225286
575.0913995599 	 4.7942299533305
580.1238219003 	 7.84896054306322
583.3840593323 	 5.5154857870174
597.0690466756 	 8.95205770046669
603.1312530019 	 3.52142554094188
604.3902669222 	 8.95205770046669
615.2647320576 	 4.36996181586763
617.3922187154 	 11.3703860840051
619.0295871641 	 12.0067882901994
629.3253209417 	 32.4565125159101
630.9806255988 	 20.2800169707255
641.9728005667 	 13.2371658888417
651.0405457809 	 3.56385235468816
653.2592527492 	 2.20619431480696
655.0897821177 	 9.03691132795927
671.2698174355 	 5.17607127704709
673.2432087545 	 15.6554942723801
682.3644461022 	 15.0190920661858
689.3041915691 	 6.36402206194315
701.3167676281 	 3.60627916843445
706.1680920182 	 11.8370810352143
707.2334319292 	 8.52778956300382
711.3586324428 	 3.47899872719559
722.0776595687 	 6.06703436571913
725.3980919543 	 6.23674162070428
737.4106680133 	 16.1221892235893
742.3644461022 	 3.22443784471786
743.139531544 	 100
743.4086566406 	 38.5659736953755
760.4477818011 	 4.1154009333899
761.1500962303 	 21.2558336868901
761.4192213269 	 16.2494696648282
772.1085657666 	 4.62452269834535
802.2341602107 	 9.54603309291472
825.4505214553 	 0.933389902418328
879.2368998649 	 7.50954603309291
924.4951259242 	 0
END IONS

BEGIN IONS
PEPMASS=277.04
CHARGE=1
MSLEVEL=2
RT=0
SOURCE_INSTRUMENT=qTOF
FILENAME=CCMSLIB00000076963.ms
IONMODE=Positive
ORGANISM=Natural
NAME=94-20-2
PI=GNPS
DATACOLLECTOR=GNPS
SMILES=CCCN=C(NS(=O)(=O)c1ccc(cc1)Cl)O
INCHI=InChI=1S/C10H13ClN2O3S/c1-2-7-12-10(14)13-17(15,16)9-5-3-8(11)4-6-9/h3-6H,2,7H2,1H3,(H2,12,13,14)
FORMULA=C10H13ClN2O3S
PUBMED=N/A
SUBMITUSER=BIOADREM
LIBRARYQUALITY=0
SPECTRUMID=CCMSLIB00000076963
SCANS=428
ID=CCMSLIB00000076963
86.9996038063 	 0.559956296093963
87.0314793778 	 1.49549303468998
93.0334907505 	 2.27396886096695
98.9996038063 	 1.77547118273696
110.9996038063 	 71.4968587817536
112.9999977368 	 23.7708276427206
113.9866933963 	 3.71483201311117
114.9945184284 	 14.5998361103524
126.0105028436 	 2.58126195028681
126.9945184284 	 5.35372848948375
129.0101684926 	 16.6962578530456
139.0057518167 	 77.49248839115
140.0108967741 	 3.74214695438405
142.0083010947 	 2.13739415460257
174.9615037405 	 100
191.988052842 	 74.7473367932259
277.040816694 	 19.4550669216061
END IONS

BEGIN IONS
PEPMASS=300.1473
CHARGE=1
MSLEVEL=2
RT=0
SOURCE_INSTRUMENT=qTOF
FILENAME=CCMSLIB00000076965.ms
IONMODE=Positive
ORGANISM=Natural
NAME=4-amino-5-chloro-N-[2-(diethylamino)ethyl]-2-methoxybenzamide
PI=GNPS
DATACOLLECTOR=GNPS
SMILES=CCN(CC)CCN=C(c1cc(c(cc1OC)N)Cl)O
INCHI=InChI=1S/C14H22ClN3O2/c1-4-18(5-2)7-6-17-14(19)10-8-11(15)12(16)9-13(10)20-3/h8-9H,4-7,16H2,1-3H3,(H,17,19)
FORMULA=C14H22ClN3O2
PUBMED=N/A
SUBMITUSER=BIOADREM
LIBRARYQUALITY=0
SPECTRUMID=CCMSLIB00000076965
SCANS=429
ID=CCMSLIB00000076965
93.0573001978 	 0.624102852150034
98.9996038063 	 0.274605254946015
113.0026778115 	 0.461836110591025
120.0443897878 	 0.461836110591025
126.0105028436 	 1.34806216064407
128.0261529078 	 0.855020907445547
129.0101684926 	 0.411907882419023
140.9975924336 	 7.13973662859639
147.0552888251 	 0.262123197903014
148.0631138572 	 2.85839106284716
154.0054174657 	 1.25444673282157
156.0210675299 	 3.89440179741621
168.0084914709 	 6.40329526305935
168.9925070557 	 4.15652499531923
170.0003320878 	 0.36822068276852
183.0319665672 	 21.7062971977782
184.015982152 	 97.6720963614804
185.0238071841 	 2.94576546214816
211.0268811893 	 0.942395306746552
212.0347062214 	 27.7476128065905
227.0581813177 	 100
300.147330676 	 34.0073644136554
END IONS

BEGIN IONS
PEPMASS=363.2171
CHARGE=1
MSLEVEL=2
RT=0
SOURCE_INSTRUMENT=qTOF
FILENAME=CCMSLIB00000076968.ms
IONMODE=Positive
ORGANISM=Natural
NAME=HYDROCORTISONE
PI=GNPS
DATACOLLECTOR=GNPS
SMILES=C[C@]12CCC(=O)C=C1CC[C@H]1[C@@H]3CC[C@](C(=O)CO)([C@@]3(C)C[C@@H]([C@H]21)O)O
INCHI=InChI=1S/C21H30O5/c1-19-7-5-13(23)9-12(19)3-4-14-15-6-8-21(26,17(25)11-22)20(15,2)10-16(24)18(14)19/h9,14-16,18,22,24,26H,3-8,10-11H2,1-2H3/t14-,15-,16-,18+,19-,20-,21-/m0/s1
FORMULA=C21H30O5
PUBMED=N/A
SUBMITUSER=BIOADREM
LIBRARYQUALITY=0
SPECTRUMID=CCMSLIB00000076968
SCANS=430
ID=CCMSLIB00000076968
97.0647908789 	 2.57437968960934
105.0698762568 	 4.72388208085227
107.085526321 	 1.52160490597235
109.0647908789 	 4.71341712276443
117.0698762568 	 2.82449218790879
119.085526321 	 5.03364484025241
121.0647908789 	 17.4042717958915
123.0804409431 	 4.01749740992287
128.0620512247 	 3.73494354155112
129.0698762568 	 4.19644819322499
131.085526321 	 4.60039557541572
133.1011763852 	 3.2765783773036
135.0804409431 	 3.29227581443536
137.0960910073 	 1.20660966752828
143.085526321 	 6.47466956894838
145.1011763852 	 7.40709733457518
147.0804409431 	 3.60099207802673
147.1168264494 	 7.84662557426457
149.0960910073 	 1.12079701120797
154.0777012889 	 1.2118421465722
155.085526321 	 3.8961038961039
157.1011763852 	 5.96502611007043
159.0804409431 	 2.10031708823006
159.1168264494 	 7.38198143516435
161.0960910073 	 3.7223855918457
163.1117410715 	 6.83361763136139
169.1011763852 	 5.61235702251013
171.0804409431 	 1.6450914114089
171.1168264494 	 5.80595874713522
173.0960910073 	 4.14307690697699
173.1324765136 	 3.87622047573699
175.1117410715 	 5.24399049781806
183.1168264494 	 2.71774961541279
185.1324765136 	 3.44506420251787
187.1117410715 	 3.83750013081198
193.1011763852 	 1.70683466412717
195.1168264494 	 3.73075755831598
197.1324765136 	 3.09239511495756
201.1273911357 	 1.14905239804515
207.1168264494 	 1.39811840053581
208.1246514815 	 1.7779963791245
209.1324765136 	 2.44042822608495
211.1481265778 	 1.47765208200341
213.1273911357 	 4.57318668438733
223.1481265778 	 1.39811840053581
225.1273911357 	 3.80296576912209
239.1430411999 	 1.83032116956372
241.1586912641 	 3.99028851889448
242.1665162962 	 1.0789371788566
251.1430411999 	 3.23262555333466
251.1794267062 	 1.6450914114089
253.1586912641 	 1.45986165325408
267.1743413283 	 4.37749196814467
268.1821663604 	 2.31275573741327
269.1899913925 	 3.55494626244022
281.1536058862 	 1.42637378737298
281.1899913925 	 3.70982764214029
291.1743413283 	 2.66751781659114
297.1849060146 	 2.76693491842565
299.2005560788 	 1.41486233347635
309.1849060146 	 7.35058656090082
327.1954707009 	 13.1094529966407
345.2060353872 	 5.56945069434997
363.2166000735 	 100
END IONS

BEGIN IONS
PEPMASS=310.2031
CHARGE=1
MSLEVEL=2
RT=0
SOURCE_INSTRUMENT=qTOF
FILENAME=CCMSLIB00000076969.ms
IONMODE=Positive
ORGANISM=Natural
NAME=(2R,3S)-5-[3-(tert-butylamino)-2-hydroxypropoxy]-1,2,3,4-tetrahydronaphthalene-2,3-diol
PI=GNPS
DATACOLLECTOR=GNPS
SMILES=CC(C)(C)NCC(COc1cccc2C[C@H]([C@H](Cc12)O)O)O
INCHI=InChI=1S/C17H27NO4/c1-17(2,3)18-9-12(19)10-22-16-6-4-5-11-7-14(20)15(21)8-13(11)16/h4-6,12,14-15,18-21H,7-10H2,1-3H3/t12?,14-,15+/m1/s1
FORMULA=C17H27NO4
PUBMED=N/A
SUBMITUSER=BIOADREM
LIBRARYQUALITY=0
SPECTRUMID=CCMSLIB00000076969
SCANS=431
ID=CCMSLIB00000076969
91.0542261926 	 3.81121078795497
103.0542261926 	 3.42837552139878
105.0698762568 	 2.50271413062111
107.0491408147 	 2.77698417233301
115.0542261926 	 10.8908062396434
117.0698762568 	 12.6735615107708
119.085526321 	 2.13130678246957
127.0542261926 	 2.18844637449289
128.0620512247 	 15.5648248671504
129.0698762568 	 10.5251128506942
131.0491408147 	 7.87383578081252
131.085526321 	 3.89120621678761
132.0569658468 	 4.77686989314896
133.0647908789 	 10.5308268098966
141.0698762568 	 3.67978972630135
143.085526321 	 12.7535569396034
144.0569658468 	 4.43974630021142
145.0647908789 	 50.1742757556711
147.0804409431 	 31.4096337352151
153.0698762568 	 7.76527055596823
155.085526321 	 23.2900977087024
157.0647908789 	 14.8448660076567
159.0804409431 	 30.5868236100794
160.0518804689 	 0.234272327295583
161.059705501 	 2.93697502999829
161.0960910073 	 1.5884806582481
163.0753555652 	 1.63990629106908
165.0698762568 	 5.38254956859608
168.0569658468 	 3.67978972630135
169.0647908789 	 1.94274612879264
171.0804409431 	 40.98051539912
173.059705501 	 1.9541740471973
173.0960910073 	 9.55373978629792
174.0913399804 	 2.5369978858351
175.0753555652 	 6.46248785783669
183.0804409431 	 41.8833209530884
189.0910056294 	 1.71990171990172
200.1069900446 	 1.95988800639963
201.0910056294 	 69.8131535340838
218.1175547309 	 4.55973944346037
219.1015703157 	 2.47985829381178
236.1281194172 	 33.4266613336381
254.1386841035 	 72.5672818696074
310.2012843603 	 100
END IONS

BEGIN IONS
PEPMASS=404.1575
CHARGE=1
MSLEVEL=2
RT=0
SOURCE_INSTRUMENT=qTOF
FILENAME=CCMSLIB00000076970.ms
IONMODE=Positive
ORGANISM=Natural
NAME=2-[4-[3-(2-chlorophenothiazin-10-yl)propyl]piperazin-1-yl]ethanol
PI=GNPS
DATACOLLECTOR=GNPS
SMILES=c1ccc2c(c1)N(CCCN1CCN(CC1)CCO)c1cc(ccc1S2)Cl
INCHI=InChI=1S/C21H26ClN3OS/c22-17-6-7-21-19(16-17)25(18-4-1-2-5-20(18)27-21)9-3-8-23-10-12-24(13-11-23)14-15-26/h1-2,4-7,16,26H,3,8-15H2
FORMULA=C21H26ClN3OS
PUBMED=N/A
SUBMITUSER=BIOADREM
LIBRARYQUALITY=0
SPECTRUMID=CCMSLIB00000076970
SCANS=432
ID=CCMSLIB00000076970
97.0760242672 	 1.15085426064718
98.0838492993 	 8.27975704187831
100.0756899162 	 13.5864739104181
112.0994993635 	 1.04429368095762
113.1073243956 	 1.9571626469648
125.1073243956 	 0.586083188292544
126.1151494277 	 0.323233758391646
128.0944139856 	 2.92686392213974
141.1022390177 	 0.578979149646574
141.138624524 	 1.90033033779704
143.1178890819 	 71.0403864597023
171.1491892103 	 56.8394132064078
211.045020952 	 4.06706212481796
212.0528459841 	 0.134976734273434
214.041802972 	 10.1694313217064
224.0528459841 	 0.223777217348062
233.0060486299 	 1.04784570028061
238.0684960483 	 1.02298156501971
239.0763210804 	 9.08251340887294
246.013873662 	 19.2910169431322
259.0216986941 	 0.14563279224239
274.0451737904 	 2.04241111071644
404.1557868723 	 100
END IONS

BEGIN IONS
PEPMASS=823.413
CHARGE=1
MSLEVEL=2
RT=0
SOURCE_INSTRUMENT=qTOF
FILENAME=CCMSLIB00000076971.ms
IONMODE=Positive
ORGANISM=Natural
NAME=RIFAMPICIN
PI=GNPS
DATACOLLECTOR=GNPS
SMILES=C[C@H]1C=CC=C(C)C(=NC2=C(c3c(c4c(c(C)c3O)O[C@@](C)(C4=O)OC=C[C@@H]([C@@H](C)[C@@H]([C@H](C)[C@@H]([C@H](C)[C@H]1O)O)OC(=O)C)OC)C(=O)/C/2=C/NN1CCN(C)CC1)O)O
INCHI=InChI=1S/C43H58N4O12/c1-21-12-11-13-22(2)42(55)45-33-28(20-44-47-17-15-46(9)16-18-47)37(52)30-31(38(33)53)36(51)26(6)40-32(30)41(54)43(8,59-40)57-19-14-29(56-10)23(3)39(58-27(7)48)25(5)35(50)24(4)34(21)49/h11-14,19-21,23-25,29,34-35,39,44,49-51,53H,15-18H2,1-10H3,(H,45,55)/b12-11+,19-14+,22-13+,28-20+/t21-,23+,24+,25+,29-,34-,35+,39-,43-/m0/s1
FORMULA=C43H58N4O12
PUBMED=N/A
SUBMITUSER=BIOADREM
LIBRARYQUALITY=0
SPECTRUMID=CCMSLIB00000076971
SCANS=433
ID=CCMSLIB00000076971
95.085526321 	 1.68
107.085526321 	 3.03
109.0647908789 	 1.66
119.085526321 	 1.35
121.1011763852 	 1.14
123.0804409431 	 5.08
125.0960910073 	 1.67
133.1011763852 	 1.67
135.0804409431 	 3.08
135.1168264494 	 1.76
137.0960910073 	 2.57
145.1011763852 	 3.25
147.1168264494 	 3.39
149.0960910073 	 1.28
151.0753555652 	 22.02
153.0910056294 	 3.32
159.1168264494 	 2.11
161.0960910073 	 5.09
163.1117410715 	 18.15
165.1273911357 	 1.89
171.1168264494 	 1.03
173.0960910073 	 3.66
173.1324765136 	 2.21
175.1117410715 	 3.8
177.1273911357 	 0.98
179.1066556936 	 8.04
181.1223057578 	 0.98
185.1324765136 	 1.7
191.1066556936 	 6.68
193.1223057578 	 2.08
201.1273911357 	 2.02
203.1430411999 	 1.4
209.1172203799 	 3.35
213.1273911357 	 1.08
219.137955822 	 1.93
231.137955822 	 1.62
269.1899913925 	 1.13
271.1692559504 	 0.96
279.1743413283 	 1.46
289.1798206367 	 1
297.1849060146 	 3.43
315.1954707009 	 3.3
333.2060353872 	 2.19
791.3861845973 	 100
792.3940096294 	 84.17
793.3906012732 	 29.68
823.4123993478 	 59.94
END IONS

BEGIN IONS
PEPMASS=249.0702
CHARGE=1
MSLEVEL=2
RT=0
SOURCE_INSTRUMENT=qTOF
FILENAME=CCMSLIB00000076972.ms
IONMODE=Positive
ORGANISM=Natural
NAME=80-08-0
PI=GNPS
DATACOLLECTOR=GNPS
SMILES=c1cc(ccc1N)S(=O)(=O)c1ccc(cc1)N
INCHI=InChI=1S/C12H12N2O2S/c13-9-1-5-11(6-2-9)17(15,16)12-7-3-10(14)4-8-12/h1-8H,13-14H2
FORMULA=C12H12N2O2S
PUBMED=N/A
SUBMITUSER=BIOADREM
LIBRARYQUALITY=0
SPECTRUMID=CCMSLIB00000076972
SCANS=434
ID=CCMSLIB00000076972
47.0001792494 	 3.6431784107946
82.0413157826 	 0.164917541229385
92.0494751657 	 15.2848575712144
93.0573001978 	 12.0614692653673
108.0443897878 	 93.7181409295352
124.0215458557 	 2.27886056971514
156.0113750999 	 88.2383808095952
167.0763210804 	 5.76461769115442
249.0692243298 	 100
END IONS

BEGIN IONS
PEPMASS=331.9971
CHARGE=1
MSLEVEL=2
RT=0
SOURCE_INSTRUMENT=qTOF
FILENAME=CCMSLIB00000076973.ms
IONMODE=Positive
ORGANISM=Natural
NAME=1,1-dioxo-6-(trifluoromethyl)-3,4-dihydro-2H-1$l^{6},2,4-benzothiadiazine-7-sulfonamide
PI=GNPS
DATACOLLECTOR=GNPS
SMILES=c1c(c(cc2c1NCNS2(=O)=O)S(=O)(=O)N)C(F)(F)F
INCHI=InChI=1S/C8H8F3N3O4S2/c9-8(10,11)4-1-5-7(2-6(4)19(12,15)16)20(17,18)14-3-13-5/h1-2,13-14H,3H2,(H2,12,15,16)
FORMULA=C8H8F3N3O4S2
PUBMED=N/A
SUBMITUSER=BIOADREM
LIBRARYQUALITY=0
SPECTRUMID=CCMSLIB00000076973
SCANS=435
ID=CCMSLIB00000076973
126.0149814373 	 2.94
140.034219032 	 2.63
147.004515583 	 2.63
148.044270193 	 2.5
159.0252117726 	 4.88
159.0460835845 	 2.5
160.0368597336 	 2.63
163.0046127003 	 2.94
168.0340994372 	 2.75
169.9884116936 	 2.81
170.0048106815 	 3.06
172.0330368047 	 3.13
174.0161242915 	 12.13
181.0151773866 	 2.69
186.0361108099 	 13.75
187.0477587709 	 48.63
188.0317743557 	 3.44
214.9806667626 	 2.88
218.0259400541 	 2.5
237.9780242257 	 3.06
239.0028981408 	 4.81
240.0248941966 	 3.19
240.9963168268 	 2.44
251.0096587051 	 12.25
267.0045733272 	 20.94
282.9994879493 	 4.38
285.0151380135 	 2.69
314.9715586393 	 100
331.9981077408 	 6.44
END IONS

BEGIN IONS
PEPMASS=310.2748
CHARGE=1
MSLEVEL=2
RT=0
SOURCE_INSTRUMENT=qTOF
FILENAME=CCMSLIB00000076974.ms
IONMODE=Positive
ORGANISM=Natural
NAME=Bentyl
PI=GNPS
DATACOLLECTOR=GNPS
SMILES=CCN(CC)CCOC(=O)C1(CCCCC1)C1CCCCC1
INCHI=InChI=1S/C19H35NO2/c1-3-20(4-2)15-16-22-18(21)19(13-9-6-10-14-19)17-11-7-5-8-12-17/h17H,3-16H2,1-2H3
FORMULA=C19H35NO2
PUBMED=N/A
SUBMITUSER=BIOADREM
LIBRARYQUALITY=0
SPECTRUMID=CCMSLIB00000076974
SCANS=436
ID=CCMSLIB00000076974
47.0491408147 	 0.0164038733024477
91.0542261926 	 0.0576621000934524
93.0698762568 	 0.142166901954546
95.085526321 	 2.13648022587636
97.1011763852 	 0.208279482234108
99.0440554368 	 0.0606446225120792
100.1120754225 	 1.11496629749667
107.085526321 	 0.052691229395741
109.1011763852 	 6.42584455093154
111.0804409431 	 0.0362873560932933
118.1226401088 	 0.36585608335156
119.085526321 	 0.0198834827908456
123.1168264494 	 0.856481021215676
125.059705501 	 0.0661125802795618
133.1011763852 	 0.0700892768377309
155.1066556936 	 9.17225061141709
163.1481265778 	 0.590539438888116
165.163776642 	 7.10933927186686
175.1481265778 	 0.284333803909093
193.1586912641 	 0.0661125802795618
237.1849060146 	 7.43294295428787
239.1879800198 	 0.191378521861889
310.2740553729 	 100
END IONS

BEGIN IONS
PEPMASS=405.2285
CHARGE=1
MSLEVEL=2
RT=0
SOURCE_INSTRUMENT=qTOF
FILENAME=CCMSLIB00000076975.ms
IONMODE=Positive
ORGANISM=Natural
NAME=Cortell
PI=GNPS
DATACOLLECTOR=GNPS
SMILES=CC(=O)OCC(=O)[C@]1(CC[C@H]2[C@@H]3CCC4=CC(=O)CC[C@]4(C)[C@H]3[C@H](C[C@]12C)O)O
INCHI=InChI=1S/C23H32O6/c1-13(24)29-12-19(27)23(28)9-7-17-16-5-4-14-10-15(25)6-8-21(14,2)20(16)18(26)11-22(17,23)3/h10,16-18,20,26,28H,4-9,11-12H2,1-3H3/t16-,17-,18-,20+,21-,22-,23-/m0/s1
FORMULA=C23H32O6
PUBMED=N/A
SUBMITUSER=BIOADREM
LIBRARYQUALITY=0
SPECTRUMID=CCMSLIB00000076975
SCANS=437
ID=CCMSLIB00000076975
97.0647908789 	 8.50686752326096
105.0698762568 	 9.93021710234825
107.085526321 	 5.92416186678482
109.0647908789 	 8.12287697533599
117.0698762568 	 6.48722492984788
119.085526321 	 16.9657362280313
121.0647908789 	 39.5325653522375
123.0804409431 	 12.2267759562842
128.0620512247 	 4.061438487668
129.0698762568 	 7.42504799881849
130.0777012889 	 2.96854231280461
131.085526321 	 13.4138236597253
133.1011763852 	 8.4016393442623
135.0804409431 	 8.06380150642446
141.0698762568 	 5.81524147097918
142.0777012889 	 6.3192290651307
143.085526321 	 19.98412346773
145.1011763852 	 21.3133215182396
147.0804409431 	 9.17146654851573
147.1168264494 	 8.65086397873283
155.085526321 	 10.2422094225373
157.1011763852 	 19.3933687786147
159.0804409431 	 9.19361984935755
159.1168264494 	 16.3546743464776
161.0960910073 	 9.68653079308817
163.1117410715 	 16.1682173977256
167.085526321 	 6.69029685423128
169.1011763852 	 13.5781273076355
171.0804409431 	 4.63927041795894
171.1168264494 	 12.6661497563137
173.0960910073 	 10.591123910796
175.1117410715 	 8.22441293752769
181.1011763852 	 7.91611283414562
183.1168264494 	 7.80903854674346
185.0960910073 	 9.6699158174568
185.1324765136 	 11.9793974302171
187.1117410715 	 10.404666962044
195.1168264494 	 9.41884507458278
197.0960910073 	 3.37837837837838
197.1324765136 	 3.23992024811697
199.1117410715 	 6.27492246344705
199.1481265778 	 5.63801506424457
201.1273911357 	 1.55811549254172
207.1168264494 	 5.51617190961453
209.1324765136 	 9.34315463003987
211.1117410715 	 2.73962487077241
211.1481265778 	 0.827056564761483
213.1273911357 	 10.2735932653965
221.1324765136 	 4.061438487668
223.1481265778 	 9.50561216954659
225.1273911357 	 8.90008861320337
227.1430411999 	 3.3377639935017
239.1430411999 	 12.5129227588244
241.1586912641 	 28.6460640968838
249.163776642 	 2.59009009009009
251.1430411999 	 3.81405996160094
253.1586912641 	 7.47673903411608
267.1743413283 	 14.5861024959386
268.1821663604 	 3.46329936493871
269.1899913925 	 8.20779796189632
281.1899913925 	 4.77588243981687
285.1849060146 	 0.821518239551027
291.1743413283 	 10.3695909023778
297.1849060146 	 0.875055383252105
299.2005560788 	 0.972899128636833
309.1849060146 	 32.7204253433762
327.1954707009 	 33.7044011224339
345.2060353872 	 6.22876975335992
369.2060353872 	 4.07620735489588
387.2166000735 	 4.77772854822035
405.2271647598 	 100
END IONS

BEGIN IONS
PEPMASS=270.1845
CHARGE=1
MSLEVEL=2
RT=0
SOURCE_INSTRUMENT=qTOF
FILENAME=CCMSLIB00000076976.ms
IONMODE=Positive
ORGANISM=Natural
NAME=Disipal
PI=GNPS
DATACOLLECTOR=GNPS
SMILES=Cc1ccccc1C(c1ccccc1)OCCN(C)C
INCHI=InChI=1S/C18H23NO/c1-15-9-7-8-12-17(15)18(20-14-13-19(2)3)16-10-5-4-6-11-16/h4-12,18H,13-14H2,1-3H3
FORMULA=C18H23NO
PUBMED=N/A
SUBMITUSER=BIOADREM
LIBRARYQUALITY=0
SPECTRUMID=CCMSLIB00000076976
SCANS=438
ID=CCMSLIB00000076976
103.0542261926 	 0.772185324477875
115.0542261926 	 0.828198767704249
129.0698762568 	 0.156037448987757
139.0542261926 	 0.12803072737457
141.0698762568 	 6.53356805633352
153.0698762568 	 3.30479315035609
165.0698762568 	 47.0312875090022
166.0777012889 	 83.3560054413059
181.1011763852 	 100
270.1852403656 	 0.568136352724654
END IONS

BEGIN IONS
PEPMASS=303.0185
CHARGE=1
MSLEVEL=2
RT=0
SOURCE_INSTRUMENT=qTOF
FILENAME=CCMSLIB00000076981.ms
IONMODE=Positive
ORGANISM=Natural
NAME=2-[2,3-dichloro-4-(2-methylidenebutanoyl)phenoxy]acetic acid
PI=GNPS
DATACOLLECTOR=GNPS
SMILES=CCC(=C)C(=O)c1ccc(c(c1Cl)Cl)OCC(=O)O
INCHI=InChI=1S/C13H12Cl2O4/c1-3-7(2)13(18)8-4-5-9(12(15)11(8)14)19-6-10(16)17/h4-5H,2-3,6H2,1H3,(H,16,17)
FORMULA=C13H12Cl2O4
PUBMED=N/A
SUBMITUSER=BIOADREM
LIBRARYQUALITY=0
SPECTRUMID=CCMSLIB00000076981
SCANS=441
ID=CCMSLIB00000076981
115.0542261926 	 18.3247936236835
116.0620512247 	 9.13037290065471
125.0152538705 	 10.7884998576715
128.0620512247 	 16.0617705664674
129.0698762568 	 21.1428978081412
130.0777012889 	 11.3649302590379
131.085526321 	 6.00626245374324
132.0569658468 	 7.53629376601195
132.9606314842 	 6.31226871619698
137.0152538705 	 8.21235411329348
141.0698762568 	 31.6609735269001
145.0284053726 	 5.63620836891546
146.072615911 	 6.68232280102476
150.0230789026 	 5.9422146313692
151.0309039347 	 11.1229718189582
152.0023434605 	 5.45829775120979
158.072615911 	 12.3185311699402
158.9762815484 	 6.49729575861087
159.0804409431 	 16.1542840876744
165.0101684926 	 17.6273840022773
165.0465539989 	 4.46199829205807
166.0179935247 	 13.2436663820097
167.0258185568 	 7.72132080842585
172.9555461063 	 28.1739254198691
174.0675305331 	 10.9094790777114
176.0387289668 	 32.8992314261315
177.0101684926 	 6.56134358098491
179.0258185568 	 95.979220039852
184.9919316126 	 2.40535155138059
193.0050831147 	 13.4002277255907
193.041468621 	 3.52974665528039
194.0129081468 	 17.1007685738685
194.0492936531 	 40.8767435240535
195.0207331789 	 62.5177910617706
207.0207331789 	 3.80728721890122
211.0075816768 	 7.01679476231141
211.9790212026 	 18.5809849131796
212.9868462347 	 7.23028750355821
215.0024962989 	 3.51551380586393
227.0024962989 	 4.03501280956448
228.9817608568 	 32.1235411329348
229.0181463631 	 10.646171363507
242.997410921 	 5.5152291488756
244.0052359531 	 10.6248220893823
250.0391228973 	 2.22744093367492
253.0262124873 	 100
257.0130609852 	 71.1642470822659
268.0496875836 	 27.1278109877597
303.0185402936 	 1.53003131226872
END IONS

BEGIN IONS
PEPMASS=207.138
CHARGE=1
MSLEVEL=2
RT=0
SOURCE_INSTRUMENT=qTOF
FILENAME=CCMSLIB00000076982.ms
IONMODE=Positive
ORGANISM=Natural
NAME=15687-27-1
PI=GNPS
DATACOLLECTOR=GNPS
SMILES=CC(C)Cc1ccc(cc1)C(C)C(=O)O
INCHI=InChI=1S/C13H18O2/c1-9(2)8-11-4-6-12(7-5-11)10(3)13(14)15/h4-7,9-10H,8H2,1-3H3,(H,14,15)
FORMULA=C13H18O2
PUBMED=N/A
SUBMITUSER=BIOADREM
LIBRARYQUALITY=0
SPECTRUMID=CCMSLIB00000076982
SCANS=442
ID=CCMSLIB00000076982
74.0362304047 	 2.99
105.0698762568 	 7.84
117.0698762568 	 2.24
119.085526321 	 17.38
161.1324765136 	 100
207.137955822 	 0
END IONS

BEGIN IONS
PEPMASS=362.1511
CHARGE=1
MSLEVEL=2
RT=0
SOURCE_INSTRUMENT=qTOF
FILENAME=CCMSLIB00000076983.ms
IONMODE=Positive
ORGANISM=Natural
NAME=Ofloxacin
PI=GNPS
DATACOLLECTOR=GNPS
SMILES=CC1COc2c3c(cc(c2N2CCN(C)CC2)F)c(=O)c(cn13)C(=O)O
INCHI=InChI=1S/C18H20FN3O4/c1-10-9-26-17-14-11(16(23)12(18(24)25)8-22(10)14)7-13(19)15(17)21-5-3-20(2)4-6-21/h7-8,10H,3-6,9H2,1-2H3,(H,24,25)
FORMULA=C18H20FN3O4
PUBMED=N/A
SUBMITUSER=BIOADREM
LIBRARYQUALITY=0
SPECTRUMID=CCMSLIB00000076983
SCANS=443
ID=CCMSLIB00000076983
122.0400533336 	 0.424442261821243
150.0349679557 	 0.645432860951312
158.0236543457 	 0.568261540620177
164.0494751657 	 0.441981198260137
164.0506180199 	 0.273607408446752
165.045866993 	 0.280622983022309
171.0552888251 	 0.855900098218044
178.0298825778 	 2.19236705486179
179.0365647557 	 1.50133295916936
188.0506180199 	 0.515644731303494
191.0615170572 	 0.15434264066227
192.0443897878 	 0.922548056685842
192.045532642 	 0.768205416023572
193.0407816151 	 2.4238810158552
195.0552888251 	 0.452504560123474
195.0564316793 	 0.168373789813386
199.0502034472 	 1.91525185912726
200.0580284793 	 0.203451662691174
203.060374203 	 0.438473410972359
204.045532642 	 1.427669426126
205.0407816151 	 7.39792338992564
205.0771671214 	 4.59520134699032
206.047463793 	 0.71208081941911
207.0564316793 	 0.631401711800196
213.0658535114 	 0.301669706748983
217.0407816151 	 0.445488985547916
219.0564316793 	 11.0635611056546
220.0642567114 	 3.87259716570787
221.0709388893 	 8.66072681352603
221.0720817435 	 7.90304475936579
231.0564316793 	 0.810298863476919
231.0928171856 	 0.399887750806791
233.0720817435 	 4.54960011224919
235.0877318077 	 0.147327066086712
241.0971536398 	 1.75740143117721
243.0928171856 	 0.129788129647818
244.0768327704 	 0.561245966044619
245.0720817435 	 1.70127683457275
246.0799067756 	 0.578784902483513
247.0877318077 	 5.8264346850007
248.0917339109 	 0.263084046583415
255.100227645 	 0.547214816893504
261.1033818719 	 100
262.1073839751 	 7.57331275431458
270.1237027413 	 0.575277115195734
273.1033818719 	 2.46246667602077
274.1073839751 	 0.189420513540059
276.1142809092 	 1.23123333801038
288.1142809092 	 0.164866002525607
298.1550028697 	 0.982180440578083
301.1221059413 	 2.36775641925074
302.1261080445 	 0.175389364388943
316.1455810376 	 5.95271502736074
317.1495831408 	 0.30868528132454
318.1612311018 	 82.2997053458678
320.1041101534 	 8.28890136102147
344.1404956597 	 4.02693980637014
362.151060346 	 70.6889294233198
END IONS

BEGIN IONS
PEPMASS=249.1598
CHARGE=1
MSLEVEL=2
RT=0
SOURCE_INSTRUMENT=qTOF
FILENAME=CCMSLIB00000076992.ms
IONMODE=Positive
ORGANISM=Natural
NAME=PINDOLOL
PI=GNPS
DATACOLLECTOR=GNPS
SMILES=CC(C)NCC(COc1cccc2c1cc[nH]2)O
INCHI=InChI=1S/C14H20N2O2/c1-10(2)16-8-11(17)9-18-14-5-3-4-13-12(14)6-7-15-13/h3-7,10-11,15-17H,8-9H2,1-2H3
FORMULA=C14H20N2O2
PUBMED=N/A
SUBMITUSER=BIOADREM
LIBRARYQUALITY=0
SPECTRUMID=CCMSLIB00000076992
SCANS=444
ID=CCMSLIB00000076992
91.0542261926 	 0.96
98.0964253583 	 5.05
103.0542261926 	 0.92
104.0494751657 	 2.85
106.0651252299 	 1.26
115.0542261926 	 1.34
116.1069900446 	 100
117.0698762568 	 3.82
118.0651252299 	 11.41
127.0542261926 	 1.03
128.0620512247 	 0.87
130.0651252299 	 3.44
132.0443897878 	 2.01
132.0807752941 	 1.63
134.060039852 	 32.21
144.0807752941 	 37.71
145.0647908789 	 1.67
146.060039852 	 31.7
154.0651252299 	 2.67
157.0522148199 	 0.78
160.0756899162 	 3.9
172.0756899162 	 72.43
190.0862546025 	 1.13
207.112803704 	 6.45
231.1491892103 	 1.72
249.1597538966 	 413.93
END IONS

BEGIN IONS
PEPMASS=359.1868
CHARGE=1
MSLEVEL=2
RT=0
SOURCE_INSTRUMENT=qTOF
FILENAME=CCMSLIB00000076993.ms
IONMODE=Positive
ORGANISM=Natural
NAME=Prednisone
PI=GNPS
DATACOLLECTOR=GNPS
SMILES=C[C@]12C=CC(=O)C=C1CC[C@H]1[C@@H]3CC[C@](C(=O)CO)([C@@]3(C)CC(=O)[C@H]21)O
INCHI=InChI=1S/C21H26O5/c1-19-7-5-13(23)9-12(19)3-4-14-15-6-8-21(26,17(25)11-22)20(15,2)10-16(24)18(14)19/h5,7,9,14-15,18,22,26H,3-4,6,8,10-11H2,1-2H3/t14-,15-,18+,19-,20-,21-/m0/s1
FORMULA=C21H26O5
PUBMED=N/A
SUBMITUSER=BIOADREM
LIBRARYQUALITY=0
SPECTRUMID=CCMSLIB00000076993
SCANS=445
ID=CCMSLIB00000076993
119.085526321 	 5.165
121.0647908789 	 14.46
131.085526321 	 3.27
135.0804409431 	 15.415
145.0647908789 	 13.445
146.072615911 	 5.565
147.0804409431 	 83.96
153.0698762568 	 4.365
158.072615911 	 10.99
159.0804409431 	 38.705
161.0960910073 	 16.895
171.0804409431 	 53.375
173.0960910073 	 24.88
179.085526321 	 13.195
181.1011763852 	 4.695
182.072615911 	 4.575
183.0804409431 	 10.89
185.0960910073 	 11.24
187.0753555652 	 2.64
187.1117410715 	 9.535
189.0910056294 	 4.485
194.072615911 	 5.73
195.0804409431 	 6.58
196.0882659752 	 7.29
197.0960910073 	 30.96
199.1117410715 	 15.28
208.0882659752 	 13.09
209.0960910073 	 25.3
210.1039160394 	 11.2
211.1117410715 	 4.95
213.1273911357 	 9.275
219.0804409431 	 5.07
221.0960910073 	 12.99
222.1039160394 	 23.11
223.1117410715 	 18.1
224.1195661036 	 2.765
225.1273911357 	 14.655
234.1039160394 	 4.93
235.1117410715 	 15.02
237.1273911357 	 38.215
239.1066556936 	 3.325
239.1430411999 	 12.315
248.1195661036 	 1.69
249.1273911357 	 20.295
253.1223057578 	 10.295
255.137955822 	 7.425
261.1273911357 	 8.395
263.1430411999 	 11.975
265.1586912641 	 21.905
267.137955822 	 28.495
275.1430411999 	 2.485
277.1586912641 	 12.15
281.1536058862 	 8.71
282.1614309183 	 3.57
283.1692559504 	 8.715
287.1430411999 	 6.75
293.1536058862 	 8.17
295.1692559504 	 30.215
297.1485205083 	 2.125
305.1536058862 	 18.42
311.1641705725 	 6.395
313.1798206367 	 40.79
323.1641705725 	 43.165
341.1747352588 	 100
359.1852999451 	 76.735
END IONS

BEGIN IONS
PEPMASS=291.1456
CHARGE=1
MSLEVEL=2
RT=0
SOURCE_INSTRUMENT=qTOF
FILENAME=CCMSLIB00000076995.ms
IONMODE=Positive
ORGANISM=Natural
NAME=5-[(3,4,5-trimethoxyphenyl)methyl]pyrimidine-2,4-diamine
PI=GNPS
DATACOLLECTOR=GNPS
SMILES=COc1cc(Cc2c[nH]c(=N)[nH]c2=N)cc(c1OC)OC
INCHI=InChI=1S/C14H18N4O3/c1-19-10-5-8(6-11(20-2)12(10)21-3)4-9-7-17-14(16)18-13(9)15/h5-7H,4H2,1-3H3,(H4,15,16,17,18)
FORMULA=C14H18N4O3
PUBMED=N/A
SUBMITUSER=BIOADREM
LIBRARYQUALITY=0
SPECTRUMID=CCMSLIB00000076995
SCANS=447
ID=CCMSLIB00000076995
110.060039852 	 1.07389910578708
111.0678648841 	 0.916146448456217
123.0678648841 	 4.16652606715033
135.0427127661 	 0.177998987683482
135.0638421387 	 0.194027332545976
135.0665222134 	 0.204150497722288
137.0583628303 	 0.204994094820314
137.059705501 	 0.2142736628986
142.0624451552 	 0.200776109330184
145.0508721492 	 0.202463303526236
146.0685931656 	 0.152691074742703
146.0712732403 	 0.227771216467015
149.0709388893 	 0.31297452336764
151.0376273882 	 0.445419267757719
151.0389700589 	 0.413362578032732
161.0794922029 	 0.490973511051122
161.0821722776 	 0.70355997975367
162.0913399804 	 0.442044879365615
173.0821722776 	 0.187278555761768
174.0661878624 	 0.98279061920027
175.0614368355 	 0.204994094820314
175.0627795062 	 0.157752657330859
175.0978223418 	 0.358528766661043
181.0845775808 	 0.223553230976885
181.0859202515 	 0.28766661042686
184.0842432298 	 0.196558123840054
184.0869233045 	 0.134131938586131
185.0794922029 	 0.177998987683482
187.0951422671 	 1.00809853214105
187.0978223418 	 2.26168381980766
190.0862546025 	 0.50615825881559
191.0927369639 	 0.868061413868736
199.0951422671 	 0.258140711995951
199.0978223418 	 0.573646026657668
201.0770868997 	 0.191496541251898
201.1107923313 	 1.66610426860132
201.113472406 	 3.37860637759406
202.1186173634 	 0.515437826893875
202.1212974381 	 1.66272988020921
203.0927369639 	 0.749957820145098
204.100561996 	 0.124008773409819
205.1083870281 	 0.0902648894887802
215.0927369639 	 0.904336089083853
216.100561996 	 0.212586468702548
217.1083870281 	 1.12367133457061
218.0798265539 	 0.238737978741353
229.1083870281 	 10.6647545132445
230.1162120602 	 15.876497384849
231.087651586 	 1.45351779989877
232.0954766181 	 4.17664923232664
233.1033016502 	 10.2842922220348
244.0716671708 	 0.444575670659693
245.1033016502 	 16.6635734773072
247.0825662081 	 2.01872785557618
247.1189517144 	 4.46769023114561
257.1033016502 	 15.0126539564704
259.0825662081 	 2.17479331871098
259.1189517144 	 0.232832799055171
260.0903912402 	 0.269107474270288
260.1267767465 	 0.151847477644677
261.0982162723 	 33.7438839210393
275.1138663365 	 20.2488611439177
291.1451664649 	 100
END IONS

BEGIN IONS
PEPMASS=170.0005
CHARGE=1
MSLEVEL=2
RT=0
SOURCE_INSTRUMENT=qTOF
FILENAME=CCMSLIB00000076996.ms
IONMODE=Positive
ORGANISM=Natural
NAME=Chlorzoxazone
PI=GNPS
DATACOLLECTOR=GNPS
SMILES=c1cc2c(cc1Cl)nc(O)o2
INCHI=InChI=1S/C7H4ClNO2/c8-4-1-2-6-5(3-4)9-7(10)11-6/h1-3H,(H,9,10)
FORMULA=C7H4ClNO2
PUBMED=N/A
SUBMITUSER=BIOADREM
LIBRARYQUALITY=0
SPECTRUMID=CCMSLIB00000076996
SCANS=448
ID=CCMSLIB00000076996
98.9996038063 	 21.83
114.0105028436 	 100
126.0105028436 	 13.62
126.9945184284 	 12.21
142.0054174657 	 34.04
170.0003320878 	 962.21
END IONS

BEGIN IONS
PEPMASS=361.1211
CHARGE=1
MSLEVEL=2
RT=0
SOURCE_INSTRUMENT=qTOF
FILENAME=CCMSLIB00000076999.ms
IONMODE=Positive
ORGANISM=Natural
NAME=49562-28-9
PI=GNPS
DATACOLLECTOR=GNPS
SMILES=CC(C)OC(=O)C(C)(C)Oc1ccc(cc1)C(=O)c1ccc(cc1)Cl
INCHI=InChI=1S/C20H21ClO4/c1-13(2)24-19(23)20(3,4)25-17-11-7-15(8-12-17)18(22)14-5-9-16(21)10-6-14/h5-13H,1-4H3
FORMULA=C20H21ClO4
PUBMED=N/A
SUBMITUSER=BIOADREM
LIBRARYQUALITY=0
SPECTRUMID=CCMSLIB00000076999
SCANS=449
ID=CCMSLIB00000076999
93.0334907505 	 0.315525587828492
110.9996038063 	 1.69000691562932
121.0284053726 	 32.3348893499308
138.9945184284 	 73.923755186722
233.0363832431 	 100
273.0676833715 	 0.315525587828492
301.0625979936 	 0.133990318118949
319.0731626799 	 0.946576763485477
361.1201128725 	 47.9036998616874
END IONS

BEGIN IONS
PEPMASS=313.1919
CHARGE=1
MSLEVEL=2
RT=0
SOURCE_INSTRUMENT=qTOF
FILENAME=CCMSLIB00000077003.ms
IONMODE=Positive
ORGANISM=Natural
NAME=55268-74-1
PI=GNPS
DATACOLLECTOR=GNPS
SMILES=C1CCC(CC1)C(=O)N1CC2c3ccccc3CCN2C(=O)C1
INCHI=InChI=1S/C19H24N2O2/c22-18-13-20(19(23)15-7-2-1-3-8-15)12-17-16-9-5-4-6-14(16)10-11-21(17)18/h4-6,9,15,17H,1-3,7-8,10-13H2
FORMULA=C19H24N2O2
PUBMED=N/A
SUBMITUSER=BIOADREM
LIBRARYQUALITY=0
SPECTRUMID=CCMSLIB00000077003
SCANS=450
ID=CCMSLIB00000077003
91.0542261926 	 0.121922626025791
103.0542261926 	 0.107854630715123
105.0698762568 	 0.173505275498242
117.0698762568 	 0.314185228604924
129.0698762568 	 1.4630715123095
130.0651252299 	 0.253223915592028
131.072950262 	 0.211019929660023
132.0807752941 	 7.47948417350528
144.0807752941 	 0.389214536928488
146.0964253583 	 5.86166471277843
158.0964253583 	 2.26494724501759
174.0913399804 	 16.5298944900352
175.1229744598 	 2.90269636576788
185.1073243956 	 0.117233294255569
203.1178890819 	 93.7866354044549
285.1961394029 	 1.8757327080891
313.191054025 	 100
END IONS

BEGIN IONS
PEPMASS=167.0642
CHARGE=1
MSLEVEL=2
RT=0
SOURCE_INSTRUMENT=qTOF
FILENAME=CCMSLIB00000077005.ms
IONMODE=Positive
ORGANISM=Natural
NAME=536-33-4
PI=GNPS
DATACOLLECTOR=GNPS
SMILES=CCc1cc(ccn1)C(=N)S
INCHI=InChI=1S/C8H10N2S/c1-2-7-5-6(8(9)11)3-4-10-7/h3-5H,2H2,1H3,(H2,9,11)
FORMULA=C8H10N2S
PUBMED=N/A
SUBMITUSER=BIOADREM
LIBRARYQUALITY=0
SPECTRUMID=CCMSLIB00000077005
SCANS=451
ID=CCMSLIB00000077005
106.0651252299 	 7.2
107.072950262 	 30.16
118.0525491709 	 5.62
124.0215458557 	 2.04
125.0293708878 	 28.76
133.0760242672 	 29.23
134.0838492993 	 16.64
140.0528459841 	 100
150.0371959199 	 3.76
167.0637450214 	 378.76
END IONS

BEGIN IONS
PEPMASS=777.6959
CHARGE=1
MSLEVEL=2
RT=0
SOURCE_INSTRUMENT=qTOF
FILENAME=CCMSLIB00000077006.ms
IONMODE=Positive
ORGANISM=Natural
NAME=L-THYROXINE
PI=GNPS
DATACOLLECTOR=GNPS
SMILES=c1c(cc(c(c1I)Oc1cc(c(c(c1)I)O)I)I)C[C@@H](C(=O)O)N
INCHI=InChI=1S/C15H11I4NO4/c16-8-4-7(5-9(17)13(8)21)24-14-10(18)1-6(2-11(14)19)3-12(20)15(22)23/h1-2,4-5,12,21H,3,20H2,(H,22,23)/t12-/m0/s1
FORMULA=C15H11I4NO4
PUBMED=N/A
SUBMITUSER=BIOADREM
LIBRARYQUALITY=0
SPECTRUMID=CCMSLIB00000077006
SCANS=452
ID=CCMSLIB00000077006
183.0440554368 	 0.87
183.0440554368 	 1.92
195.0440554368 	 1.16
196.0518804689 	 0.45
196.0518804689 	 1.6
196.0518804689 	 1.79
197.059705501 	 7.6
197.059705501 	 0.47
197.059705501 	 1.68
197.059705501 	 2.8
207.0440554368 	 12.44
208.0518804689 	 6.93
208.0518804689 	 1.99
210.0311450268 	 0.89
211.0389700589 	 3.61
211.0389700589 	 0.39
211.0389700589 	 0.89
211.0389700589 	 2.2
223.0627795062 	 1.24
223.0627795062 	 0.82
223.0627795062 	 1.03
224.0706045383 	 1.48
224.0706045383 	 3.01
224.0706045383 	 2.55
224.0706045383 	 1.07
224.0706045383 	 0.42
225.0546201231 	 2.37
235.0389700589 	 0.67
253.0495347452 	 16.44
253.0495347452 	 8.93
253.0495347452 	 3.76
253.0495347452 	 100
253.0495347452 	 7.4
255.0526087504 	 0.42
270.0760838467 	 132.8
END IONS

BEGIN IONS
PEPMASS=242.1179
CHARGE=1
MSLEVEL=2
RT=0
SOURCE_INSTRUMENT=qTOF
FILENAME=CCMSLIB00000077010.ms
IONMODE=Positive
ORGANISM=Natural
NAME=61-68-7
PI=GNPS
DATACOLLECTOR=GNPS
SMILES=Cc1cccc(c1C)Nc1ccccc1C(=O)O
INCHI=InChI=1S/C15H15NO2/c1-10-6-5-9-13(11(10)2)16-14-8-4-3-7-12(14)15(17)18/h3-9,16H,1-2H3,(H,17,18)
FORMULA=C15H15NO2
PUBMED=N/A
SUBMITUSER=BIOADREM
LIBRARYQUALITY=0
SPECTRUMID=CCMSLIB00000077010
SCANS=455
ID=CCMSLIB00000077010
154.0651252299 	 0.28794284881178
166.0651252299 	 0.218690771249453
180.0807752941 	 23.1520629829421
181.0886003262 	 1.61102201487097
183.0678648841 	 0.200466540311999
190.0651252299 	 0.153083539874617
194.060039852 	 0.331681003061671
206.0964253583 	 0.298877387374253
208.0756899162 	 20.3455314185741
209.0835149483 	 59.9978130922875
224.1069900446 	 100
242.1175547309 	 8.17174515235457
END IONS

BEGIN IONS
PEPMASS=227.1197
CHARGE=1
MSLEVEL=2
RT=0
SOURCE_INSTRUMENT=qTOF
FILENAME=CCMSLIB00000077012.ms
IONMODE=Positive
ORGANISM=Natural
NAME=METYRAPONE
PI=GNPS
DATACOLLECTOR=GNPS
SMILES=CC(C)(c1cccnc1)C(=O)c1cccnc1
INCHI=InChI=1S/C14H14N2O/c1-14(2,12-6-4-8-16-10-12)13(17)11-5-3-7-15-9-11/h3-10H,1-2H3
FORMULA=C14H14N2O
PUBMED=N/A
SUBMITUSER=BIOADREM
LIBRARYQUALITY=0
SPECTRUMID=CCMSLIB00000077012
SCANS=456
ID=CCMSLIB00000077012
93.0573001978 	 1.00194724730041
106.0651252299 	 33.5032749159143
118.0651252299 	 0.71517082669499
120.0807752941 	 55.1389626482563
121.0886003262 	 43.8343069569835
168.0681992351 	 0.506284298105859
199.1229744598 	 0.361125862984599
212.0944139856 	 0.187643830766507
227.1178890819 	 100
END IONS

BEGIN IONS
PEPMASS=325.1921
CHARGE=1
MSLEVEL=2
RT=0
SOURCE_INSTRUMENT=qTOF
FILENAME=CCMSLIB00000077015.ms
IONMODE=Positive
ORGANISM=Natural
NAME=Quinidine hydrochloride monohydrate
PI=GNPS
DATACOLLECTOR=GNPS
SMILES=C=C[C@H]1CN2CC[C@H]1C[C@@H]2[C@H](c1ccnc2ccc(cc12)OC)O
INCHI=InChI=1S/C20H24N2O2/c1-3-13-12-22-9-7-14(13)10-19(22)20(23)16-6-8-21-18-5-4-15(24-2)11-17(16)18/h3-6,8,11,13-14,19-20,23H,1,7,9-10,12H2,2H3/t13-,14-,19+,20-/m0/s1
FORMULA=C20H24N2O2
PUBMED=N/A
SUBMITUSER=BIOADREM
LIBRARYQUALITY=0
SPECTRUMID=CCMSLIB00000077015
SCANS=458
ID=CCMSLIB00000077015
95.072950262 	 0.295366506387438
105.0698762568 	 0.282222879403571
108.0807752941 	 0.94122973234464
110.0964253583 	 0.799205540768975
117.0573001978 	 1.50896139789775
124.1120754225 	 0.343924906077832
131.072950262 	 0.376053772038394
134.0964253583 	 0.308145032621752
136.0756899162 	 0.382625585530327
136.1120754225 	 0.997820348525175
138.1277254867 	 0.573938378295491
142.0651252299 	 0.361814842805872
144.0807752941 	 0.598400128515464
145.0522148199 	 1.10735057339073
154.0651252299 	 1.34868216884449
155.072950262 	 1.33736404560839
157.0522148199 	 0.289524894394608
158.060039852 	 1.21761099975538
160.0756899162 	 14.4598151860006
161.0835149483 	 0.569192068551317
162.0913399804 	 0.503473933631986
166.0651252299 	 0.289524894394608
166.1226401088 	 1.66522451870594
167.072950262 	 0.649149132703169
169.0522148199 	 1.16430629032081
170.060039852 	 0.61154375549933
171.0678648841 	 0.570652471549524
172.0756899162 	 11.7639112513098
173.0835149483 	 1.64295337298327
174.0549544741 	 1.21980160425269
174.0913399804 	 1.08946063666269
182.060039852 	 1.23732644023118
183.0678648841 	 0.9233397956166
184.0756899162 	 8.42944610565285
186.0913399804 	 4.41589356582949
188.0706045383 	 0.34940141732111
189.0784295704 	 2.13656958637736
193.0886003262 	 0.249363811943906
196.0756899162 	 1.07157069993465
197.0835149483 	 0.560794751311624
198.0913399804 	 4.52870969744101
199.0865889535 	 1.21980160425269
200.1069900446 	 0.261412136679117
210.0913399804 	 0.62943369222737
212.0944139856 	 0.234029580462729
212.1069900446 	 0.33954369708321
213.1022390177 	 0.330051077594862
214.0862546025 	 0.2979222116343
224.1069900446 	 0.263967841925979
225.1022390177 	 0.642212218461684
226.1226401088 	 0.902529052892146
227.1178890819 	 1.6382070632391
232.1120754225 	 0.268714151670153
234.0913399804 	 0.290620196643264
236.1069900446 	 0.671785379175383
239.1178890819 	 0.312161140866822
240.138290173 	 0.360719540557217
251.1178890819 	 3.51701552043286
252.125714114 	 1.13801903635308
253.1335391461 	 5.59589918838103
264.138290173 	 1.08617472991672
265.1335391461 	 0.432279287469377
266.1539402372 	 0.813444470001497
279.1491892103 	 2.7002851436854
280.1570142424 	 0.343924906077832
281.1648392745 	 0.78241090628959
282.1488548593 	 0.324574566351585
297.1961394029 	 0.264698043425083
307.1804893387 	 12.462714085952
325.191054025 	 100
END IONS

BEGIN IONS
PEPMASS=233.0932
CHARGE=1
MSLEVEL=2
RT=0
SOURCE_INSTRUMENT=qTOF
FILENAME=CCMSLIB00000077017.ms
IONMODE=Positive
ORGANISM=Natural
NAME=389-08-2
PI=GNPS
DATACOLLECTOR=GNPS
SMILES=CCn1cc(c(=O)c2ccc(C)nc12)C(=O)O
INCHI=InChI=1S/C12H12N2O3/c1-3-14-6-9(12(16)17)10(15)8-5-4-7(2)13-11(8)14/h4-6H,3H2,1-2H3,(H,16,17)
FORMULA=C12H12N2O3
PUBMED=N/A
SUBMITUSER=BIOADREM
LIBRARYQUALITY=0
SPECTRUMID=CCMSLIB00000077017
SCANS=459
ID=CCMSLIB00000077017
104.0494751657 	 6.82748223131596
118.0651252299 	 2.95067844066336
131.060374203 	 21.7101012276545
143.060374203 	 2.57592074090028
147.0552888251 	 0.46090889511092
159.0552888251 	 39.3280206762869
164.0706045383 	 4.46693947878527
187.0502034472 	 100
205.0607681335 	 6.55179840620289
215.0815035756 	 97.7342235623519
233.0920682619 	 41.1888864958001
END IONS

BEGIN IONS
PEPMASS=261.1795
CHARGE=1
MSLEVEL=2
RT=0
SOURCE_INSTRUMENT=qTOF
FILENAME=CCMSLIB00000077018.ms
IONMODE=Positive
ORGANISM=Natural
NAME=[2-(carbamoyloxymethyl)-2-methylpentyl] N-propan-2-ylcarbamate
PI=GNPS
DATACOLLECTOR=GNPS
SMILES=CCCC(C)(COC(=N)O)COC(=NC(C)C)O
INCHI=InChI=1S/C12H24N2O4/c1-5-6-12(4,7-17-10(13)15)8-18-11(16)14-9(2)3/h9H,5-8H2,1-4H3,(H2,13,15)(H,14,16)
FORMULA=C12H24N2O4
PUBMED=N/A
SUBMITUSER=BIOADREM
LIBRARYQUALITY=0
SPECTRUMID=CCMSLIB00000077018
SCANS=460
ID=CCMSLIB00000077018
97.1011763852 	 12.06
104.0706045383 	 5.33
115.1117410715 	 16.19
158.1175547309 	 65.51
176.1281194172 	 100
200.1645049235 	 47.29
261.1808832692 	 2.84
END IONS

BEGIN IONS
PEPMASS=297.9705
CHARGE=1
MSLEVEL=2
RT=0
SOURCE_INSTRUMENT=qTOF
FILENAME=CCMSLIB00000077019.ms
IONMODE=Positive
ORGANISM=Natural
NAME=58-93-5
PI=GNPS
DATACOLLECTOR=GNPS
SMILES=c1c(c(cc2c1NCNS2(=O)=O)S(=O)(=O)N)Cl
INCHI=InChI=1S/C7H8ClN3O4S2/c8-4-1-5-7(2-6(4)16(9,12)13)17(14,15)11-3-10-5/h1-2,10-11H,3H2,(H2,9,12,13)
FORMULA=C7H8ClN3O4S2
PUBMED=N/A
SUBMITUSER=BIOADREM
LIBRARYQUALITY=0
SPECTRUMID=CCMSLIB00000077019
SCANS=461
ID=CCMSLIB00000077019
101.0026778115 	 3.36
125.0026778115 	 2.63
129.0214018809 	 2.19
139.9913083598 	 13.01
141.9831489767 	 3.97
142.0054174657 	 2.84
142.9564183626 	 4.78
151.9897674015 	 2.84
152.9975924336 	 5.47
155.0006664388 	 3.32
155.9846820236 	 4.98
157.016316503 	 3.4
157.9825735336 	 3.28
158.0018730461 	 4.5
159.0081571199 	 2.63
159.9618380915 	 3.04
169.9461880273 	 2.59
171.9618380915 	 9.24
172.9458536763 	 7.25
187.9567527136 	 5.55
188.9645777457 	 2.11
189.9501342888 	 2.8
198.9727371288 	 2.71
203.9545509647 	 6.97
204.9543098726 	 3.28
204.9833018151 	 12.68
206.9811933251 	 7.05
216.9833018151 	 7.86
220.9811000662 	 9.4
221.9734654103 	 2.03
232.9782164372 	 20.91
233.9860414693 	 4.29
234.9761079472 	 7.54
252.9502871272 	 7.86
268.9452017493 	 13.57
280.9452017493 	 100
297.9717508508 	 10.53
END IONS

BEGIN IONS
PEPMASS=237.161
CHARGE=1
MSLEVEL=2
RT=0
SOURCE_INSTRUMENT=qTOF
FILENAME=CCMSLIB00000077021.ms
IONMODE=Positive
ORGANISM=Natural
NAME=2-(diethylamino)ethyl 4-aminobenzoate
PI=GNPS
DATACOLLECTOR=GNPS
SMILES=CCN(CC)CCOC(=O)c1ccc(cc1)N
INCHI=InChI=1S/C13H20N2O2/c1-3-15(4-2)9-10-17-13(16)11-5-7-12(14)8-6-11/h5-8H,3-4,9-10,14H2,1-2H3
FORMULA=C13H20N2O2
PUBMED=N/A
SUBMITUSER=BIOADREM
LIBRARYQUALITY=0
SPECTRUMID=CCMSLIB00000077021
SCANS=462
ID=CCMSLIB00000077021
92.0494751657 	 0.87995617338903
100.1120754225 	 40.4779839758954
101.1199004546 	 1.91056632198863
118.1226401088 	 0.31500376634938
120.0443897878 	 68.3318496199411
164.0706045383 	 62.7268369513114
237.1597538966 	 100
END IONS

BEGIN IONS
PEPMASS=236.1764
CHARGE=1
MSLEVEL=2
RT=0
SOURCE_INSTRUMENT=qTOF
FILENAME=CCMSLIB00000077022.ms
IONMODE=Positive
ORGANISM=Natural
NAME=Pronestyl
PI=GNPS
DATACOLLECTOR=GNPS
SMILES=CCN(CC)CCNC(=O)c1ccc(cc1)N
INCHI=InChI=1S/C13H21N3O/c1-3-16(4-2)10-9-15-13(17)11-5-7-12(14)8-6-11/h5-8H,3-4,9-10,14H2,1-2H3,(H,15,17)
FORMULA=C13H21N3O
PUBMED=N/A
SUBMITUSER=BIOADREM
LIBRARYQUALITY=0
SPECTRUMID=CCMSLIB00000077022
SCANS=463
ID=CCMSLIB00000077022
92.0494751657 	 1.4
120.0443897878 	 20.63
122.047463793 	 1.61
163.0865889535 	 100
236.1757383118 	 65.96
END IONS

BEGIN IONS
PEPMASS=271.1118
CHARGE=1
MSLEVEL=2
RT=0
SOURCE_INSTRUMENT=qTOF
FILENAME=CCMSLIB00000077024.ms
IONMODE=Positive
ORGANISM=Natural
NAME=64-77-7
PI=GNPS
DATACOLLECTOR=GNPS
SMILES=CCCCN=C(NS(=O)(=O)c1ccc(C)cc1)O
INCHI=InChI=1S/C12H18N2O3S/c1-3-4-9-13-12(15)14-18(16,17)11-7-5-10(2)6-8-11/h5-8H,3-4,9H2,1-2H3,(H2,13,14,15)
FORMULA=C12H18N2O3S
PUBMED=N/A
SUBMITUSER=BIOADREM
LIBRARYQUALITY=0
SPECTRUMID=CCMSLIB00000077024
SCANS=464
ID=CCMSLIB00000077024
91.0542261926 	 7.23
92.0580284793 	 1.84
93.0658535114 	 0.75
109.0647908789 	 1.6
154.032110542 	 2.81
155.0161261268 	 80.46
166.0810721073 	 0.95
172.0426752283 	 100
196.1206287361 	 0.81
239.097450453 	 0.87
271.1110891445 	 49.79
END IONS

BEGIN IONS
PEPMASS=467.1988
CHARGE=1
MSLEVEL=2
RT=0
SOURCE_INSTRUMENT=qTOF
FILENAME=CCMSLIB00000077025.ms
IONMODE=Positive
ORGANISM=Natural
NAME=[(8S,9R,10S,11S,13S,14S,16S,17R)-17-(2-chloroacetyl)-9-fluoro-11-hydroxy-10,13,16-trimethyl-3-oxo-6,7,8,11,12,14,15,16-octahydrocyclopenta[a]phenanthren-17-yl] propanoate
PI=GNPS
DATACOLLECTOR=GNPS
SMILES=CCC(=O)O[C@@]1([C@@H](C)C[C@H]2[C@@H]3CCC4=CC(=O)C=C[C@]4(C)[C@]3([C@H](C[C@]12C)O)F)C(=O)CCl
INCHI=InChI=1S/C25H32ClFO5/c1-5-21(31)32-25(20(30)13-26)14(2)10-18-17-7-6-15-11-16(28)8-9-22(15,3)24(17,27)19(29)12-23(18,25)4/h8-9,11,14,17-19,29H,5-7,10,12-13H2,1-4H3/t14-,17-,18-,19-,22-,23-,24-,25-/m0/s1
FORMULA=C25H32ClFO5
PUBMED=N/A
SUBMITUSER=BIOADREM
LIBRARYQUALITY=0
SPECTRUMID=CCMSLIB00000077025
SCANS=465
ID=CCMSLIB00000077025
105.0698762568 	 8.1174438687392
107.085526321 	 10.4531622666338
119.085526321 	 20.5937988321408
121.0647908789 	 36.6559749979439
121.1011763852 	 12.2296241467226
128.0620512247 	 8.82473887655235
135.0804409431 	 16.5227403569372
135.0815837973 	 9.72119417715273
143.085526321 	 10.8232584916523
145.0647908789 	 13.0767332839872
145.1011763852 	 18.4225676453656
147.0804409431 	 100
158.072615911 	 11.2673739616745
159.0804409431 	 59.3634344929682
161.0960910073 	 18.2005099103545
161.0972338615 	 10.1324122049511
169.0625979936 	 7.3772514187022
171.0804409431 	 45.04482276503
171.1179693036 	 8.75071963154865
173.0960910073 	 32.683608849412
185.0960910073 	 25.2652356279299
185.0972338615 	 18.068920141459
193.0989834999 	 7.8953861337281
197.0960910073 	 10.4860597088576
198.1017231541 	 8.0434246237355
203.1077985478 	 11.5058804177975
205.0989834999 	 8.78361707377251
208.0860730899 	 11.5470022205773
208.0882659752 	 12.7230857800806
209.093898122 	 15.4453491241056
210.1017231541 	 7.4759437453738
211.1095481862 	 10.6012007566412
211.1117410715 	 12.6408421745209
213.1273911357 	 38.2597253063574
221.093898122 	 14.0801052718151
222.1017231541 	 10.8561559338761
223.1095481862 	 12.130931820051
223.1117410715 	 12.8875729911999
233.093898122 	 7.56641171148943
234.1017231541 	 8.0680977054034
235.1095481862 	 13.6853359651287
235.1481265778 	 8.0680977054034
237.1251982504 	 8.30660416152644
241.1223057578 	 9.23595690435069
247.1095481862 	 9.12081585656715
248.1173732183 	 23.0528826383749
248.1195661036 	 12.2378485072786
249.1251982504 	 18.2416317131343
253.1586912641 	 12.4516818817337
253.1598341183 	 24.1467225923184
261.1251982504 	 9.65539929270499
261.1615837567 	 9.52380952380952
262.1330232825 	 11.0288675055514
262.1352161678 	 10.8561559338761
263.1408483146 	 82.2436055596677
263.1430411999 	 60.9342873591578
264.1486733467 	 20.4951065054692
273.1251982504 	 10.9548482605477
276.1486733467 	 8.80829015544042
277.1586912641 	 23.8259725306357
278.1643234109 	 42.1745209309976
278.1665162962 	 38.9752446747265
279.1754841825 	 56.2299531211448
286.136359022 	 7.22921292869479
288.1486733467 	 7.8953861337281
291.1357629367 	 10.6012007566412
291.1754841825 	 18.315650958138
296.1770809825 	 9.72119417715273
301.1586912641 	 18.6364010198207
301.1598341183 	 12.6737396167448
306.159238033 	 7.50884118759766
309.1860488688 	 8.0187515420676
319.1692559504 	 25.6846780162842
327.1510190704 	 23.4969981083971
337.1353690062 	 27.8723579241714
337.1809634909 	 11.6703676289169
339.131032552 	 9.96792499383173
345.1627266109 	 12.7230857800806
347.1572473025 	 10.4531622666338
355.1459336925 	 82.2436055596677
357.1415972383 	 39.2959947364092
373.157641233 	 64.7421662965704
375.1521619246 	 43.8358417633029
447.1932778156 	 13.0438358417633
467.1995060477 	 12.1556049017189
END IONS

BEGIN IONS
PEPMASS=781.437
CHARGE=1
MSLEVEL=2
RT=0
SOURCE_INSTRUMENT=qTOF
FILENAME=CCMSLIB00000077027.ms
IONMODE=Positive
ORGANISM=Natural
NAME=DIGOXIN
PI=GNPS
DATACOLLECTOR=GNPS
SMILES=C[C@@H]1[C@H]([C@H](C[C@@H](O1)O[C@@H]1[C@@H](C)O[C@H](C[C@@H]1O)O[C@@H]1[C@@H](C)O[C@H](C[C@@H]1O)O[C@H]1CC[C@@]2(C)[C@H](CC[C@@H]3[C@@H]2C[C@H]([C@]2(C)[C@H](CC[C@]32O)C2=CC(=O)OC2)O)C1)O)O
INCHI=InChI=1S/C41H64O14/c1-19-36(47)28(42)15-34(50-19)54-38-21(3)52-35(17-30(38)44)55-37-20(2)51-33(16-29(37)43)53-24-8-10-39(4)23(13-24)6-7-26-27(39)14-31(45)40(5)25(9-11-41(26,40)48)22-12-32(46)49-18-22/h12,19-21,23-31,33-38,42-45,47-48H,6-11,13-18H2,1-5H3/t19-,20-,21-,23-,24+,25-,26-,27+,28+,29+,30+,31-,33+,34+,35+,36-,37-,38-,39+,40+,41+/m1/s1
FORMULA=C41H64O14
PUBMED=N/A
SUBMITUSER=BIOADREM
LIBRARYQUALITY=0
SPECTRUMID=CCMSLIB00000077027
SCANS=466
ID=CCMSLIB00000077027
95.0491408147 	 8.7
97.0647908789 	 55.15
113.059705501 	 28.79
131.0702701873 	 49.78
147.0651848094 	 11.45
147.1168264494 	 4.22
153.0546201231 	 4.16
191.1066556936 	 5.82
225.112135002 	 17.21
243.1226996883 	 56.88
261.1332643746 	 8.77
319.2115146956 	 4.35
337.216206143 	 28.92
355.2267708293 	 21.69
373.2373355156 	 23.16
391.2479002019 	 63.34
467.2850735692 	 7.81
468.2870253624 	 5.25
485.2897650166 	 13.5
486.2975900487 	 6.08
503.3003297029 	 7.42
521.3108943892 	 50.1
522.3187194213 	 14.59
633.3633238902 	 5.31
651.3738885765 	 100
652.3817136086 	 36.66
781.4368827638 	 0
END IONS

BEGIN IONS
PEPMASS=463.2341
CHARGE=1
MSLEVEL=2
RT=0
SOURCE_INSTRUMENT=qTOF
FILENAME=CCMSLIB00000077028.ms
IONMODE=Positive
ORGANISM=Natural
NAME=HYDROCORTISONE HEMISUCCINATE
PI=GNPS
DATACOLLECTOR=GNPS
SMILES=C[C@]12CCC(=O)C=C1CC[C@H]1[C@@H]3CC[C@](C(=O)COC(=O)CCC(=O)O)([C@@]3(C)C[C@@H]([C@H]21)O)O
INCHI=InChI=1S/C25H34O8/c1-23-9-7-15(26)11-14(23)3-4-16-17-8-10-25(32,24(17,2)12-18(27)22(16)23)19(28)13-33-21(31)6-5-20(29)30/h11,16-18,22,27,32H,3-10,12-13H2,1-2H3,(H,29,30)/t16-,17-,18-,22+,23-,24-,25-/m0/s1
FORMULA=C25H34O8
PUBMED=N/A
SUBMITUSER=BIOADREM
LIBRARYQUALITY=0
SPECTRUMID=CCMSLIB00000077028
SCANS=467
ID=CCMSLIB00000077028
105.0698762568 	 15.074879909579
107.085526321 	 19.0661203729867
109.0647908789 	 33.6394461712348
119.085526321 	 41.7702740887256
121.0647908789 	 75.445040972026
123.0804409431 	 23.2692851087878
129.0698762568 	 22.6970895733258
131.085526321 	 27.6914382593953
133.1011763852 	 21.884713195818
135.0804409431 	 23.3257982480927
143.085526321 	 53.49675049449
145.1011763852 	 32.890647075445
147.0804409431 	 22.6123198643685
149.0960910073 	 2.23226900254309
155.085526321 	 25.7841198078553
157.1011763852 	 47.77479513987
159.1168264494 	 34.3670528397853
163.1117410715 	 42.1588019214467
169.1011763852 	 4.4786662899124
171.1168264494 	 29.7753602712631
173.0960910073 	 3.68748233964397
181.1011763852 	 15.6188188753885
183.1168264494 	 20.5213337100876
185.1324765136 	 35.2783272110766
187.1117410715 	 4.9237072619384
189.1273911357 	 3.03758123763775
193.1011763852 	 22.520486012998
195.1168264494 	 3.79344447584063
199.1117410715 	 2.40887256287087
201.1273911357 	 2.6843741169822
209.1324765136 	 22.9160779881322
213.1273911357 	 3.89234246962419
221.1324765136 	 24.2441367617971
223.1481265778 	 18.4444758406329
225.1273911357 	 24.1523029104267
225.163776642 	 20.3376660073467
227.1430411999 	 24.4560610341905
239.1430411999 	 4.35151172647641
241.1586912641 	 77.0839220118678
251.1430411999 	 21.439672223792
253.1586912641 	 24.0251483469907
267.1743413283 	 20.1893190166714
269.1899913925 	 6.71799943486861
273.163776642 	 2.99519638315908
279.1743413283 	 2.57134783837242
281.1899913925 	 34.5719129697655
285.1849060146 	 7.57276066685504
287.2005560788 	 3.15060751624753
291.1743413283 	 26.3209946312518
297.1849060146 	 6.25883017801639
299.2005560788 	 3.29895450692286
309.1849060146 	 100
315.1954707009 	 3.62390505792597
327.1954707009 	 70.6414241311105
345.2060353872 	 35.8010737496468
363.2166000735 	 2.50070641424131
409.2009500093 	 2.23226900254309
427.2115146956 	 23.1068098332862
445.2220793819 	 52.7126306866346
463.2326440682 	 97.1178298954507
END IONS

BEGIN IONS
PEPMASS=341.2111
CHARGE=1
MSLEVEL=2
RT=0
SOURCE_INSTRUMENT=qTOF
FILENAME=CCMSLIB00000077029.ms
IONMODE=Positive
ORGANISM=Natural
NAME=19-NORETHINDRONE ACETATE
PI=GNPS
DATACOLLECTOR=GNPS
SMILES=C#C[C@@]1(CC[C@H]2[C@@H]3CCC4=CC(=O)CC[C@@H]4[C@H]3CC[C@]12C)OC(=O)C
INCHI=InChI=1S/C22H28O3/c1-4-22(25-14(2)23)12-10-20-19-7-5-15-13-16(24)6-8-17(15)18(19)9-11-21(20,22)3/h1,13,17-20H,5-12H2,2-3H3/t17-,18+,19+,20-,21-,22-/m0/s1
FORMULA=C22H28O3
PUBMED=N/A
SUBMITUSER=BIOADREM
LIBRARYQUALITY=0
SPECTRUMID=CCMSLIB00000077029
SCANS=468
ID=CCMSLIB00000077029
109.0647908789 	 26.99
119.085526321 	 15.79
128.0620512247 	 9.18
129.0698762568 	 10.33
130.0777012889 	 5.3
131.085526321 	 16.07
135.0804409431 	 10.22
137.0960910073 	 4.86
143.085526321 	 10.87
145.1011763852 	 9.07
147.1168264494 	 4.92
154.0777012889 	 6.34
155.085526321 	 7.16
157.1011763852 	 8.8
159.0804409431 	 7.76
163.1117410715 	 5.41
167.085526321 	 5.03
169.1011763852 	 20.55
171.1168264494 	 16.67
173.1324765136 	 7.54
181.1011763852 	 6.23
185.1324765136 	 11.04
189.1273911357 	 6.07
193.1011763852 	 5.52
223.1481265778 	 10.16
239.1794267062 	 7.27
255.1743413283 	 5.36
257.1899913925 	 28.74
263.1794267062 	 19.51
281.1899913925 	 100
299.2005560788 	 15.41
341.2111207651 	 585.3
END IONS

BEGIN IONS
PEPMASS=435.2177
CHARGE=1
MSLEVEL=2
RT=0
SOURCE_INSTRUMENT=qTOF
FILENAME=CCMSLIB00000077030.ms
IONMODE=Positive
ORGANISM=Natural
NAME=76-25-5
PI=GNPS
DATACOLLECTOR=GNPS
SMILES=CC1(C)O[C@@H]2C[C@H]3[C@@H]4CCC5=CC(=O)C=C[C@]5(C)[C@]4([C@H](C[C@]3(C)C2(C(=O)CO)O1)O)F
INCHI=InChI=1S/C24H31FO6/c1-20(2)30-19-10-16-15-6-5-13-9-14(27)7-8-21(13,3)23(15,25)17(28)11-22(16,4)24(19,31-20)18(29)12-26/h7-9,15-17,19,26,28H,5-6,10-12H2,1-4H3/t15-,16-,17-,19+,21-,22-,23-,24?/m0/s1
FORMULA=C24H31FO6
PUBMED=N/A
SUBMITUSER=BIOADREM
LIBRARYQUALITY=0
SPECTRUMID=CCMSLIB00000077030
SCANS=469
ID=CCMSLIB00000077030
145.0659337331 	 10.19
147.0815837973 	 30.65
151.0753555652 	 7.72
159.0815837973 	 22.03
161.0960910073 	 13.71
171.0815837973 	 21.66
173.0972338615 	 17.12
179.0866691752 	 7.98
185.0960910073 	 7.91
187.0764984194 	 10
197.0972338615 	 11.69
199.1128839257 	 8.88
209.0972338615 	 12.25
211.1117410715 	 10.04
213.1285339899 	 43.84
223.1128839257 	 25.96
225.1285339899 	 35.89
235.1128839257 	 12.33
237.1273911357 	 25.44
239.1441840541 	 14.69
241.123448612 	 11.61
249.1273911357 	 7.94
251.1441840541 	 8.13
253.123448612 	 9.55
253.1586912641 	 12.96
261.1285339899 	 14.28
263.1430411999 	 27.58
265.1598341183 	 18.58
267.1390986762 	 9.07
275.1430411999 	 16.82
279.1390986762 	 11.35
281.1536058862 	 15.74
283.1703988046 	 7.79
291.137955822 	 8.62
293.1547487404 	 27.09
295.1340132983 	 8.88
297.1496633625 	 15.44
303.137955822 	 12.29
311.1653134267 	 37.88
321.1485205083 	 28.77
329.175878113 	 9.89
339.1590851946 	 91.79
357.1707927351 	 70.21
359.1653134267 	 10.75
397.2009500093 	 88.95
415.2115146956 	 100
435.2177429277 	 17.95
END IONS

BEGIN IONS
PEPMASS=345.2432
CHARGE=1
MSLEVEL=2
RT=0
SOURCE_INSTRUMENT=qTOF
FILENAME=CCMSLIB00000077031.ms
IONMODE=Positive
ORGANISM=Natural
NAME=6ALPHA-METHYL-11BETA-HYDROXYPROGESTERONE
PI=GNPS
DATACOLLECTOR=GNPS
SMILES=C[C@H]1C[C@H]2[C@@H]3CC[C@H](C(=O)C)[C@@]3(C)C[C@@H]([C@@H]2[C@@]2(C)CCC(=O)C=C12)O
INCHI=InChI=1S/C22H32O3/c1-12-9-15-17-6-5-16(13(2)23)22(17,4)11-19(25)20(15)21(3)8-7-14(24)10-18(12)21/h10,12,15-17,19-20,25H,5-9,11H2,1-4H3/t12-,15-,16+,17-,19-,20+,21-,22+/m0/s1
FORMULA=C22H32O3
PUBMED=N/A
SUBMITUSER=BIOADREM
LIBRARYQUALITY=0
SPECTRUMID=CCMSLIB00000077031
SCANS=470
ID=CCMSLIB00000077031
97.0647908789 	 20.053702981204
105.0698762568 	 15.3856746150139
107.085526321 	 4.84015330594634
109.0647908789 	 2.71039405136208
109.1011763852 	 2.83202900878985
115.0542261926 	 3.7110137011452
116.0620512247 	 2.12287425699401
117.0698762568 	 5.06047322883437
119.085526321 	 11.7458058889679
121.0647908789 	 4.78048332683084
121.1011763852 	 3.61921373327519
123.0804409431 	 9.56096665366167
131.085526321 	 12.195625731531
133.1011763852 	 10.24717141349
135.0804409431 	 21.0887476189383
135.1168264494 	 3.33922383127166
137.0960910073 	 25.9449659192619
141.0698762568 	 2.90317398388911
142.0777012889 	 3.2864388497464
143.085526321 	 7.7639822826062
145.1011763852 	 11.4956509765222
147.0804409431 	 2.8664539967411
147.1168264494 	 7.86266724806646
149.0960910073 	 4.64966837261607
155.085526321 	 0.527849815252565
157.1011763852 	 6.96302756294035
159.1168264494 	 9.88915153879696
161.0960910073 	 3.95657861519748
161.1324765136 	 5.06276822803112
163.1117410715 	 2.27204920478278
169.1011763852 	 2.65072407224657
171.1168264494 	 7.97053221031373
173.0960910073 	 2.39368416221054
173.1324765136 	 7.34170243040415
175.1117410715 	 5.22571317100039
177.1273911357 	 6.26764280632502
181.1011763852 	 2.40515915819429
183.1168264494 	 5.15686319509788
185.1324765136 	 3.75691368508021
187.1117410715 	 2.99726895095587
187.1481265778 	 0.837674706813853
188.1195661036 	 2.17795423771602
189.1273911357 	 8.02102219264223
191.1430411999 	 0.966194661831868
197.1324765136 	 3.38282881600991
199.1481265778 	 2.94907396782411
203.1430411999 	 3.61462373488169
209.1324765136 	 2.59564409152457
211.1481265778 	 3.32315883689441
215.1430411999 	 0.523259816859064
225.163776642 	 3.41725380396117
231.1743413283 	 0.803249718862598
241.1586912641 	 0.722924746976338
243.1743413283 	 1.17503958873614
251.1794267062 	 0.642599775090079
257.1536058862 	 2.75170403690359
267.1743413283 	 0.679319762238083
267.2107268346 	 3.91756362885273
269.1899913925 	 4.18148853647901
285.2212915209 	 5.21653317421339
291.2107268346 	 0.851444701994354
309.2212915209 	 10.6878112592661
327.2318562072 	 26.7757556284855
345.2424208935 	 100
END IONS

BEGIN IONS
PEPMASS=268.0757
CHARGE=1
MSLEVEL=2
RT=0
SOURCE_INSTRUMENT=qTOF
FILENAME=CCMSLIB00000077033.ms
IONMODE=Positive
ORGANISM=Natural
NAME=Sulfisoxazole
PI=GNPS
DATACOLLECTOR=GNPS
SMILES=Cc1c(C)noc1NS(=O)(=O)c1ccc(cc1)N
INCHI=InChI=1S/C11H13N3O3S/c1-7-8(2)13-17-11(7)14-18(15,16)10-5-3-9(12)4-6-10/h3-6,14H,12H2,1-2H3
FORMULA=C11H13N3O3S
PUBMED=N/A
SUBMITUSER=BIOADREM
LIBRARYQUALITY=0
SPECTRUMID=CCMSLIB00000077033
SCANS=472
ID=CCMSLIB00000077033
61.9933197325 	 0.493330897131372
90.0338251015 	 0.105061209574274
92.0494751657 	 8.62415494244473
95.060374203 	 0.835921797917047
96.0443897878 	 1.46628905536269
108.0443897878 	 60.044765211036
113.0709388893 	 53.6862780924539
140.0164604778 	 2.56714781655399
156.0113750999 	 100
173.0141147541 	 0.278640599305682
174.0219397862 	 0.182715147085693
251.0484888877 	 0.114196966928558
268.0750379892 	 53.786771423351
END IONS

BEGIN IONS
PEPMASS=254.1166
CHARGE=1
MSLEVEL=2
RT=0
SOURCE_INSTRUMENT=qTOF
FILENAME=CCMSLIB00000077034.ms
IONMODE=Positive
ORGANISM=Natural
NAME=Triamterene
PI=GNPS
DATACOLLECTOR=GNPS
SMILES=c1ccc(cc1)c1c(=N)nc2c(c(N)[nH]c(=N)[nH]2)n1
INCHI=InChI=1S/C12H11N7/c13-9-7(6-4-2-1-3-5-6)16-8-10(14)18-12(15)19-11(8)17-9/h1-5H,(H6,13,14,15,17,18,19)
FORMULA=C12H11N7
PUBMED=N/A
SUBMITUSER=BIOADREM
LIBRARYQUALITY=0
SPECTRUMID=CCMSLIB00000077034
SCANS=473
ID=CCMSLIB00000077034
104.0494751657 	 0.922476778205887
131.060374203 	 0.0495611440630546
141.0447241388 	 0.364514220850853
158.0712732403 	 0.0975235415434299
168.0556231761 	 2.18548657852244
183.0665222134 	 0.431661577323378
185.0821722776 	 0.605924954835409
193.0508721492 	 0.127899726614334
195.0665222134 	 4.58840269228925
210.0774212507 	 2.18388783193976
212.0930713149 	 2.4572734975779
227.1039703522 	 0.439655310236774
237.088320288 	 31.9749316535836
254.1148693895 	 100
END IONS

BEGIN IONS
PEPMASS=317.1642
CHARGE=1
MSLEVEL=2
RT=0
SOURCE_INSTRUMENT=qTOF
FILENAME=CCMSLIB00000077038.ms
IONMODE=Positive
ORGANISM=Natural
NAME=S(-)-Timolol maleate
PI=GNPS
DATACOLLECTOR=GNPS
SMILES=CC(C)(C)NC[C@@H](COc1c(nsn1)N1CCOCC1)O
INCHI=InChI=1S/C13H24N4O3S/c1-13(2,3)14-8-10(18)9-20-12-11(15-21-16-12)17-4-6-19-7-5-17/h10,14,18H,4-9H2,1-3H3/t10-/m0/s1
FORMULA=C13H24N4O3S
PUBMED=N/A
SUBMITUSER=BIOADREM
LIBRARYQUALITY=0
SPECTRUMID=CCMSLIB00000077038
SCANS=475
ID=CCMSLIB00000077038
95.060374203 	 0.24
99.0011447646 	 2.255
104.0164604778 	 0.515
111.0552888251 	 0.415
113.0709388893 	 44.26
118.032110542 	 2.035
124.0505377982 	 0.44
126.9960593867 	 3.75
127.9926510305 	 2.49
132.0113750999 	 0.495
142.0083010947 	 0.5
143.0161261268 	 0.245
144.0226084882 	 39.41
144.0239511589 	 62.88
145.0430095793 	 15.62
154.0611024845 	 0.49
154.0624451552 	 0.585
158.0382585524 	 0.44
158.0396012231 	 0.64
159.0222741372 	 6.965
160.018865781 	 0.345
170.0382585524 	 3.42
170.0396012231 	 4.025
172.0539086166 	 6.03
180.0780952194 	 0.29
186.0331731745 	 0.43
186.0345158452 	 0.725
188.0488232387 	 66.65
188.0501659094 	 100
200.0488232387 	 5.96
214.0658159736 	 0.26
226.0644733029 	 0.44
243.0910224044 	 6.665
244.0750379892 	 95.07
261.1015870907 	 75.075
317.1641873475 	 71.175
END IONS

BEGIN IONS
PEPMASS=259.0708
CHARGE=1
MSLEVEL=2
RT=0
SOURCE_INSTRUMENT=qTOF
FILENAME=CCMSLIB00000077039.ms
IONMODE=Positive
ORGANISM=Natural
NAME=Thalidomide
PI=GNPS
DATACOLLECTOR=GNPS
SMILES=c1ccc2c(c1)C(=O)N(C1CCC(=NC1=O)O)C2=O
INCHI=InChI=1S/C13H10N2O4/c16-10-6-5-9(11(17)14-10)15-12(18)7-3-1-2-4-8(7)13(15)19/h1-4,9H,5-6H2,(H,14,16,17)
FORMULA=C13H10N2O4
PUBMED=N/A
SUBMITUSER=BIOADREM
LIBRARYQUALITY=0
SPECTRUMID=CCMSLIB00000077039
SCANS=476
ID=CCMSLIB00000077039
94.0413157826 	 1.20666666666667
103.0542261926 	 1.84333333333333
104.0256657184 	 3.34
115.0542261926 	 1.62333333333333
130.0287397236 	 20.78
130.0651252299 	 4.69333333333333
131.0491408147 	 2.14
133.0284053726 	 1.51333333333333
140.0494751657 	 1.44666666666667
143.0491408147 	 0.916666666666667
144.0443897878 	 6.54
148.0393044099 	 7.37
158.0236543457 	 2.22
158.060039852 	 4.49666666666667
159.0440554368 	 4.16
160.0393044099 	 4.58666666666667
171.0804409431 	 1.96
174.0549544741 	 0.5
186.0549544741 	 100
188.0580284793 	 1.20666666666667
214.0498690962 	 11.1233333333333
215.0576941283 	 0.993333333333333
215.0815035756 	 1.28666666666667
231.0764181977 	 11.23
259.0713328198 	 7.04666666666667
END IONS

BEGIN IONS
PEPMASS=286.1108
CHARGE=1
MSLEVEL=2
RT=0
SOURCE_INSTRUMENT=qTOF
FILENAME=CCMSLIB00000077042.ms
IONMODE=Positive
ORGANISM=Natural
NAME=57-66-9
PI=GNPS
DATACOLLECTOR=GNPS
SMILES=CCCN(CCC)S(=O)(=O)c1ccc(cc1)C(=O)O
INCHI=InChI=1S/C13H19NO4S/c1-3-9-14(10-4-2)19(17,18)12-7-5-11(6-8-12)13(15)16/h5-8H,3-4,9-10H2,1-2H3,(H,15,16)
FORMULA=C13H19NO4S
PUBMED=N/A
SUBMITUSER=BIOADREM
LIBRARYQUALITY=0
SPECTRUMID=CCMSLIB00000077042
SCANS=478
ID=CCMSLIB00000077042
77.059705501 	 7.805
93.0368615689 	 7.95
103.0178406863 	 12.715
105.0334907505 	 0.675
105.0698762568 	 5.78
107.0161261268 	 7.66
108.0205803405 	 8.38
121.0284053726 	 43.295
128.034219032 	 6.215
139.0389700589 	 14.475
160.1154462409 	 6.935
184.1154462409 	 6.645
184.9903053068 	 65.155
186.993379312 	 11.415
202.0168544083 	 78.285
204.0325044725 	 6.07
244.0638046009 	 100
286.1107547935 	 70.085
END IONS

BEGIN IONS
PEPMASS=314.107
CHARGE=1
MSLEVEL=2
RT=0
SOURCE_INSTRUMENT=qTOF
FILENAME=CCMSLIB00000077043.ms
IONMODE=Positive
ORGANISM=Natural
NAME=AMOXAPINE
PI=GNPS
DATACOLLECTOR=GNPS
SMILES=c1ccc2c(c1)N=C(c1cc(ccc1O2)Cl)N1CCNCC1
INCHI=InChI=1S/C17H16ClN3O/c18-12-5-6-15-13(11-12)17(21-9-7-19-8-10-21)20-14-3-1-2-4-16(14)22-15/h1-6,11,19H,7-10H2
FORMULA=C17H16ClN3O
PUBMED=N/A
SUBMITUSER=BIOADREM
LIBRARYQUALITY=0
SPECTRUMID=CCMSLIB00000077043
SCANS=479
ID=CCMSLIB00000077043
104.0494751657 	 0.565
164.0494751657 	 3.47
165.0573001978 	 0.195
173.0152538705 	 0.67
174.0105028436 	 0.375
181.0886003262 	 0.485
192.0443897878 	 1.835
193.0522148199 	 42
200.0261529078 	 4.15
207.0916743314 	 1.2
208.0994993635 	 1.335
228.0210675299 	 20.96
235.0865889535 	 1.865
243.0683520735 	 0.805
245.0476166314 	 7.255
253.0527020093 	 0.345
261.1022390177 	 0.275
271.0632666956 	 100
297.0789167598 	 14.7
314.1054658613 	 96.295
END IONS

BEGIN IONS
PEPMASS=218.0844
CHARGE=1
MSLEVEL=2
RT=0
SOURCE_INSTRUMENT=qTOF
FILENAME=CCMSLIB00000077045.ms
IONMODE=Positive
ORGANISM=Natural
NAME=CAPTOPRIL
PI=GNPS
DATACOLLECTOR=GNPS
SMILES=C[C@H](CS)C(=O)N1CCC[C@H]1C(=O)O
INCHI=InChI=1S/C9H15NO3S/c1-6(5-14)8(11)10-4-2-3-7(10)9(12)13/h6-7,14H,2-5H2,1H3,(H,12,13)/t6-,7+/m1/s1
FORMULA=C9H15NO3S
PUBMED=N/A
SUBMITUSER=BIOADREM
LIBRARYQUALITY=0
SPECTRUMID=CCMSLIB00000077045
SCANS=480
ID=CCMSLIB00000077045
113.0960910073 	 12.63
116.0706045383 	 86.01
133.0733441925 	 12.29
172.0790607346 	 100
218.084540043 	 126.96
END IONS

BEGIN IONS
PEPMASS=453.2089
CHARGE=1
MSLEVEL=2
RT=0
SOURCE_INSTRUMENT=qTOF
FILENAME=CCMSLIB00000077046.ms
IONMODE=Positive
ORGANISM=Natural
NAME=Fluocinolone Acetonide
PI=GNPS
DATACOLLECTOR=GNPS
SMILES=CC1(C)O[C@@H]2C[C@H]3[C@@H]4C[C@@H](C5=CC(=O)C=C[C@]5(C)[C@]4([C@H](C[C@]3(C)[C@]2(C(=O)CO)O1)O)F)F
INCHI=InChI=1S/C24H30F2O6/c1-20(2)31-19-9-13-14-8-16(25)15-7-12(28)5-6-21(15,3)23(14,26)17(29)10-22(13,4)24(19,32-20)18(30)11-27/h5-7,13-14,16-17,19,27,29H,8-11H2,1-4H3/t13-,14-,16-,17-,19+,21-,22-,23-,24+/m0/s1
FORMULA=C24H30F2O6
PUBMED=N/A
SUBMITUSER=BIOADREM
LIBRARYQUALITY=0
SPECTRUMID=CCMSLIB00000077046
SCANS=481
ID=CCMSLIB00000077046
105.0698762568 	 5.46939817473993
115.0542261926 	 13.6703044227455
117.0698762568 	 6.5224328291531
121.0647908789 	 100
133.0647908789 	 7.42229880656073
135.0804409431 	 6.17142127768205
137.0725921715 	 6.5224328291531
139.0542261926 	 9.60495245388985
141.0698762568 	 6.16503924947348
145.0647908789 	 14.1425745101793
145.0659337331 	 5.5651285978684
147.0804409431 	 6.68198353436722
151.0753555652 	 6.31182589827047
159.0804409431 	 20.0587146595188
169.0624214157 	 7.88180483757738
171.0804409431 	 13.4788435764886
171.0815837973 	 8.96036760482481
181.0624214157 	 6.66921947795009
183.0804409431 	 6.78409598570426
187.0753555652 	 11.6472014806305
195.0780714799 	 5.52045440040845
195.0815837973 	 5.52045440040845
195.1144569862 	 6.33097198289617
196.085896512 	 8.02859148637437
197.0937215441 	 9.24755887421022
197.0960910073 	 7.42229880656073
207.0780714799 	 5.87784798008807
208.085896512 	 13.9064394664624
208.0882659752 	 5.84593783904525
209.0920682619 	 10.9898525751484
209.0960910073 	 8.81996298423639
211.1093716083 	 14.6467547386559
211.1117410715 	 10.9260322930627
213.1273911357 	 6.42032037781607
220.0842432298 	 6.23524155976769
221.0937215441 	 8.26472653009126
221.0972338615 	 7.74778224519752
222.1015465762 	 11.8769544961389
222.1039160394 	 11.3025719573681
223.1093716083 	 20.0714787159359
223.1117410715 	 22.7264024506988
225.1250216725 	 6.90535452166699
233.0920682619 	 7.60099559640054
234.1015465762 	 8.96036760482481
235.1077183261 	 12.6172697683324
235.1117410715 	 13.223562448146
236.1171966404 	 6.80962409853852
237.1250216725 	 12.13861765269
237.1273911357 	 11.9024826089731
241.1223057578 	 10.0325483438637
246.1015465762 	 13.9064394664624
247.1077183261 	 8.43704129172251
247.1117410715 	 5.53321845682558
248.1155433582 	 5.83317378262812
249.1250216725 	 9.60495245388985
249.1273911357 	 11.098347054694
251.1066556936 	 6.74580381645287
251.1406717367 	 10.4409981492118
251.1430411999 	 6.74580381645287
253.1223057578 	 18.4312974663348
258.099893294 	 7.52441125789776
259.1093716083 	 10.4665262620461
261.1250216725 	 17.3974088965473
261.1273911357 	 14.7871593592444
262.0964611983 	 5.66085902099687
263.1390184545 	 8.93483949199056
263.1430411999 	 7.37762460910077
267.1355863588 	 6.30544387006191
273.1233683903 	 8.64764822260515
273.1273911357 	 15.7189354776948
275.1026329482 	 5.66085902099687
277.1199362946 	 10.4154700363776
277.1223057578 	 13.8745293254196
279.1355863588 	 7.90733295041164
279.137955822 	 23.6262684281065
291.1339330766 	 7.09681536792393
291.137955822 	 28.4319356691557
295.1305009809 	 5.68638713383113
295.1328704441 	 10.1091326823665
299.1441840541 	 9.45816580509286
301.1223057578 	 7.05214117046397
307.1292829136 	 10.1857170208692
309.1485205083 	 17.8760610121897
310.1527580099 	 5.673623077414
319.1328704441 	 32.4015572148829
320.1371079457 	 7.77969238624035
329.1547487404 	 9.78364924372966
337.1434351304 	 61.6503924947348
338.147672632 	 17.3591167272959
339.1390986762 	 14.8637436977471
355.1539998167 	 33.5120301231731
356.1582373183 	 9.00504180228477
357.1496633625 	 22.7072563660731
375.1602280488 	 24.2134150232944
413.1958646314 	 63.8202820856468
415.1915281772 	 17.5952517710128
416.1993532093 	 6.85429829599847
433.2020928635 	 57.5403663284192
453.1996431786 	 0.40844980534814
453.2083210956 	 67.6622630672028
END IONS

BEGIN IONS
PEPMASS=295.2031
CHARGE=1
MSLEVEL=2
RT=0
SOURCE_INSTRUMENT=qTOF
FILENAME=CCMSLIB00000077047.ms
IONMODE=Positive
ORGANISM=Natural
NAME=Proxymetacaine
PI=GNPS
DATACOLLECTOR=GNPS
SMILES=CCCOc1ccc(cc1N)C(=O)OCCN(CC)CC
INCHI=InChI=1S/C16H26N2O3/c1-4-10-20-15-8-7-13(12-14(15)17)16(19)21-11-9-18(5-2)6-3/h7-8,12H,4-6,9-11,17H2,1-3H3
FORMULA=C16H26N2O3
PUBMED=N/A
SUBMITUSER=BIOADREM
LIBRARYQUALITY=0
SPECTRUMID=CCMSLIB00000077047
SCANS=482
ID=CCMSLIB00000077047
74.0151010321 	 0.0702385300480432
94.0287397236 	 0.140477060096086
100.1120754225 	 31.6045289804175
108.0443897878 	 1.92453572331638
111.0314793778 	 0.0758576124518866
112.0393044099 	 0.092714859663417
126.0549544741 	 0.112381648076869
136.0393044099 	 33.9392577192145
178.0862546025 	 56.1908240384345
179.0576941283 	 0.767004748124631
180.0655191604 	 18.1945888236451
182.0685931656 	 0.0870957772595735
222.112469353 	 38.8840502345967
224.1155433582 	 0.182620178124912
295.2016187113 	 100
END IONS

BEGIN IONS
PEPMASS=405.1285
CHARGE=1
MSLEVEL=2
RT=0
SOURCE_INSTRUMENT=qTOF
FILENAME=CCMSLIB00000077050.ms
IONMODE=Positive
ORGANISM=Natural
NAME=Sulfinpyrazone
PI=GNPS
DATACOLLECTOR=GNPS
SMILES=c1ccc(cc1)N1C(=O)C(CCS(=O)c2ccccc2)C(=O)N1c1ccccc1
INCHI=InChI=1S/C23H20N2O3S/c26-22-21(16-17-29(28)20-14-8-3-9-15-20)23(27)25(19-12-6-2-7-13-19)24(22)18-10-4-1-5-11-18/h1-15,21H,16-17H2
FORMULA=C23H20N2O3S
PUBMED=N/A
SUBMITUSER=BIOADREM
LIBRARYQUALITY=0
SPECTRUMID=CCMSLIB00000077050
SCANS=483
ID=CCMSLIB00000077050
93.0573001978 	 3.81299992234216
103.0542261926 	 3.29269239729751
104.0494751657 	 21.037508736507
105.0573001978 	 2.55494292148792
106.0651252299 	 3.84406305816572
115.0542261926 	 3.59555797157723
116.0494751657 	 4.52745204628407
117.0573001978 	 13.7299060340141
118.0651252299 	 20.0590199580648
119.0365647557 	 3.68098159509202
120.0443897878 	 4.80702026869613
128.0494751657 	 7.19111594315446
129.0573001978 	 40.4830317620564
130.0651252299 	 53.187854313893
132.0443897878 	 5.42051720121146
132.0807752941 	 15.2830628251922
135.0262968826 	 8.56565970334705
142.0651252299 	 0.45041546944164
144.0443897878 	 4.11586549662188
146.060039852 	 2.98982682301778
158.060039852 	 90.3315989749165
160.0756899162 	 11.6642075017473
162.0549544741 	 4.80702026869613
166.0684960483 	 4.88467810825503
174.0549544741 	 3.64991845926846
183.0916743314 	 18.9329812844607
185.047129442 	 58.8025161140017
186.0549544741 	 67.2905179777898
211.0865889535 	 41.0809971266599
219.0950451498 	 3.2150345577386
221.1073243956 	 0.698920556030131
231.0950451498 	 2.96652947115011
232.0994993635 	 0.512541741088763
233.1073243956 	 14.1104294478528
249.1022390177 	 0.768812611633144
250.1100640498 	 0.434883901529859
251.1178890819 	 9.10926458025938
253.0971536398 	 7.03580026403665
259.0865889535 	 0.535839092956434
259.0899597719 	 2.93546633532655
260.0944139856 	 1.24252543294246
261.1022390177 	 20.6181564028889
265.1005244582 	 3.34705288498874
266.0634106704 	 5.4671119049468
277.0971536398 	 1.81719344567834
278.1049786719 	 4.2634153917838
279.112803704 	 100
294.0583252925 	 4.71383086122544
387.1161745224 	 14.8171157878388
405.1267392087 	 71.4141492583676
END IONS

BEGIN IONS
PEPMASS=304.0879
CHARGE=1
MSLEVEL=2
RT=0
SOURCE_INSTRUMENT=qTOF
FILENAME=CCMSLIB00000077052.ms
IONMODE=Positive
ORGANISM=Natural
NAME=305-03-3
PI=GNPS
DATACOLLECTOR=GNPS
SMILES=C(Cc1ccc(cc1)N(CCCl)CCCl)CC(=O)O
INCHI=InChI=1S/C14H19Cl2NO2/c15-8-10-17(11-9-16)13-6-4-12(5-7-13)2-1-3-14(18)19/h4-7H,1-3,8-11H2,(H,18,19)
FORMULA=C14H19Cl2NO2
PUBMED=N/A
SUBMITUSER=BIOADREM
LIBRARYQUALITY=0
SPECTRUMID=CCMSLIB00000077052
SCANS=484
ID=CCMSLIB00000077052
118.0651252299 	 0.96
119.072950262 	 1.16
132.0807752941 	 1.79
156.0807752941 	 1.19
168.0574530362 	 72.52
174.0913399804 	 9.91
181.0652780683 	 2.69
192.1019046667 	 100
196.0887531646 	 0.89
241.0864074409 	 28.76
268.0654309067 	 0.57
286.075995593 	 1.14
304.0865602793 	 267.61
END IONS

BEGIN IONS
PEPMASS=229.1222
CHARGE=1
MSLEVEL=2
RT=0
SOURCE_INSTRUMENT=qTOF
FILENAME=CCMSLIB00000077055.ms
IONMODE=Positive
ORGANISM=Natural
NAME=NABUMETONE
PI=GNPS
DATACOLLECTOR=GNPS
SMILES=CC(=O)CCc1ccc2cc(ccc2c1)OC
INCHI=InChI=1S/C15H16O2/c1-11(16)3-4-12-5-6-14-10-15(17-2)8-7-13(14)9-12/h5-10H,3-4H2,1-2H3
FORMULA=C15H16O2
PUBMED=N/A
SUBMITUSER=BIOADREM
LIBRARYQUALITY=0
SPECTRUMID=CCMSLIB00000077055
SCANS=486
ID=CCMSLIB00000077055
102.0464011605 	 1.25333333333333
115.0542261926 	 1.49
117.0698762568 	 0.706666666666667
126.0464011605 	 0.146666666666667
127.0542261926 	 1.39333333333333
128.0620512247 	 19.99
141.0698762568 	 0.83
155.085526321 	 0.133333333333333
156.0569658468 	 5.25
171.0804409431 	 100
185.0960910073 	 0.316666666666667
229.1223057578 	 1.93666666666667
END IONS

BEGIN IONS
PEPMASS=465.1067
CHARGE=1
MSLEVEL=2
RT=0
SOURCE_INSTRUMENT=qTOF
FILENAME=CCMSLIB00000077057.ms
IONMODE=Positive
ORGANISM=Natural
NAME=Demeclocycline
PI=GNPS
DATACOLLECTOR=GNPS
SMILES=CN(C)C1C2CC3C(=C(c4c(ccc(c4C3O)Cl)O)O)C(=O)C2(C(=C(C1=O)C(=N)O)O)O
INCHI=InChI=1S/C21H21ClN2O8/c1-24(2)14-7-5-6-10(16(27)12-9(25)4-3-8(22)11(12)15(6)26)18(29)21(7,32)19(30)13(17(14)28)20(23)31/h3-4,6-7,14-15,25-27,30,32H,5H2,1-2H3,(H2,23,31)
FORMULA=C21H21ClN2O8
PUBMED=N/A
SUBMITUSER=BIOADREM
LIBRARYQUALITY=0
SPECTRUMID=CCMSLIB00000077057
SCANS=487
ID=CCMSLIB00000077057
98.060039852 	 1.15
126.0549544741 	 1.49
154.0498690962 	 3.1
232.9999977368 	 0.81
259.015647801 	 3.48
261.0312978652 	 4.32
262.0351001519 	 0.97
273.0312978652 	 1.29
287.0105624231 	 4.12
289.0262124873 	 6.81
290.030014774 	 1
299.0105624231 	 1.29
301.0262124873 	 1.79
311.0105624231 	 1.36
313.0262124873 	 3.22
317.0211271094 	 3.34
329.0211271094 	 2.07
334.0471890215 	 0.59
339.0054770452 	 2.97
341.0211271094 	 4.31
342.0249293961 	 1.09
357.0160417315 	 2.24
367.0003916673 	 3.29
369.0160417315 	 2.14
384.0633262751 	 1.28
385.0109563536 	 1.75
412.0582408972 	 1.32
430.0688055835 	 17.65
431.0766306156 	 4.03
447.095354685 	 0.88
448.0793702698 	 100
449.0871953019 	 23.57
450.082444275 	 31.33
465.1059193713 	 63.25
END IONS

BEGIN IONS
PEPMASS=219.1133
CHARGE=1
MSLEVEL=2
RT=0
SOURCE_INSTRUMENT=qTOF
FILENAME=CCMSLIB00000077058.ms
IONMODE=Positive
ORGANISM=Natural
NAME=125-33-7
PI=GNPS
DATACOLLECTOR=GNPS
SMILES=CCC1(c2ccccc2)C(=NCN=C1O)O
INCHI=InChI=1S/C12H14N2O2/c1-2-12(9-6-4-3-5-7-9)10(15)13-8-14-11(12)16/h3-7H,2,8H2,1H3,(H,13,15)(H,14,16)
FORMULA=C12H14N2O2
PUBMED=N/A
SUBMITUSER=BIOADREM
LIBRARYQUALITY=0
SPECTRUMID=CCMSLIB00000077058
SCANS=488
ID=CCMSLIB00000077058
65.0021906221 	 4.07310939464703
91.0542261926 	 53.3905155379917
104.0494751657 	 4.25723010598168
106.0651252299 	 25.5748158792887
107.0491408147 	 3.52074726064308
107.072950262 	 4.72426800790372
115.0542261926 	 37.9109035387103
117.0698762568 	 47.1483743488414
119.085526321 	 17.1816058918628
133.0522148199 	 33.7973774025508
134.060039852 	 3.24232081911263
134.0964253583 	 14.2356745105084
135.1042503904 	 5.46075085324232
143.072950262 	 0.493982396263697
144.0807752941 	 1.20352074726064
145.0647908789 	 2.17352254356027
147.0678648841 	 0.907131309502425
158.0964253583 	 0.642177115142806
162.0913399804 	 100
219.112803704 	 17.630680797557
END IONS

BEGIN IONS
PEPMASS=267.1719
CHARGE=1
MSLEVEL=2
RT=0
SOURCE_INSTRUMENT=qTOF
FILENAME=CCMSLIB00000077060.ms
IONMODE=Positive
ORGANISM=Natural
NAME=29122-68-7
PI=GNPS
DATACOLLECTOR=GNPS
SMILES=CC(C)NCC(COc1ccc(cc1)CC(=N)O)O
INCHI=InChI=1S/C14H22N2O3/c1-10(2)16-8-12(17)9-19-13-5-3-11(4-6-13)7-14(15)18/h3-6,10,12,16-17H,7-9H2,1-2H3,(H2,15,18)
FORMULA=C14H22N2O3
PUBMED=N/A
SUBMITUSER=BIOADREM
LIBRARYQUALITY=0
SPECTRUMID=CCMSLIB00000077060
SCANS=490
ID=CCMSLIB00000077060
91.0542261926 	 0.199799494500219
93.0698762568 	 0.176501320229875
98.0964253583 	 0.457491422035837
105.0698762568 	 0.631874726422954
106.0651252299 	 0.291580181019754
107.0491408147 	 0.677059064401802
115.0542261926 	 0.677059064401802
116.1069900446 	 1.23550924160913
117.0334907505 	 0.201917510342977
117.0698762568 	 0.766015729797659
119.0491408147 	 1.10984030160546
121.0647908789 	 0.619166631366403
128.0580284793 	 0.182855367758151
131.0491408147 	 0.270400022592169
133.0647908789 	 4.48736956552435
136.0756899162 	 0.357944677426187
144.0569658468 	 0.193445446971943
145.0647908789 	 14.12010561839
146.0685931656 	 0.644582821479505
147.0440554368 	 0.97711130879259
152.0706045383 	 0.334646503155844
161.059705501 	 0.3402945454032
162.0675305331 	 0.362180709111704
162.0913399804 	 1.41624659352452
163.0753555652 	 0.667174990468929
164.0706045383 	 1.94716256477598
166.0736785435 	 0.196975473376541
173.059705501 	 1.14796458677511
178.0862546025 	 2.62916366614422
180.1019046667 	 0.97640530351167
190.0862546025 	 6.2523827678231
207.112803704 	 0.217449626523206
208.0968192888 	 1.26516146340775
225.1233683903 	 3.5406164838113
249.1597538966 	 1.03076771014247
267.1703185829 	 100
END IONS

BEGIN IONS
PEPMASS=285.161
CHARGE=1
MSLEVEL=2
RT=0
SOURCE_INSTRUMENT=qTOF
FILENAME=CCMSLIB00000077068.ms
IONMODE=Positive
ORGANISM=Natural
NAME=N-ethyl-3-hydroxy-2-phenyl-N-(pyridin-4-ylmethyl)propanamide
PI=GNPS
DATACOLLECTOR=GNPS
SMILES=CCN(Cc1ccncc1)C(=O)C(CO)c1ccccc1
INCHI=InChI=1S/C17H20N2O2/c1-2-19(12-14-8-10-18-11-9-14)17(21)16(13-20)15-6-4-3-5-7-15/h3-11,16,20H,2,12-13H2,1H3
FORMULA=C17H20N2O2
PUBMED=N/A
SUBMITUSER=BIOADREM
LIBRARYQUALITY=0
SPECTRUMID=CCMSLIB00000077068
SCANS=493
ID=CCMSLIB00000077068
91.0542261926 	 0.559111445783133
92.0494751657 	 0.61558734939759
93.0573001978 	 3.9859437751004
103.0542261926 	 4.99184236947791
104.0620512247 	 0.220883534136546
106.0651252299 	 0.625627510040161
107.060374203 	 10.0941265060241
108.0681992351 	 1.34914658634538
109.0760242672 	 0.187625502008032
110.0964253583 	 0.0589859437751004
117.0698762568 	 0.122991967871486
118.0413157826 	 0.161270080321285
118.0651252299 	 1.40687751004016
119.060374203 	 0.314382530120482
120.0681992351 	 0.574171686746988
121.0647908789 	 2.14984939759036
131.0491408147 	 0.167545180722892
134.047463793 	 0.252886546184739
135.0916743314 	 13.0377761044177
136.0994993635 	 0.670180722891566
137.1073243956 	 3.86985441767068
141.0698762568 	 0.0721636546184739
146.0964253583 	 0.358935742971887
149.0709388893 	 0.0621234939759036
164.0944139856 	 0.359563253012048
168.0807752941 	 0.259161646586345
169.0886003262 	 0.0796937751004016
175.0865889535 	 0.291792168674699
176.0944139856 	 0.328815261044177
182.0964253583 	 1.91578815261044
184.1120754225 	 0.19515562248996
194.0964253583 	 0.179467871485944
195.1042503904 	 0.490712851405622
196.1120754225 	 1.3058483935743
210.0913399804 	 0.102911646586345
222.0913399804 	 0.0759287148594378
225.1022390177 	 0.101656626506024
226.1100640498 	 1.55559738955823
227.1178890819 	 1.80660140562249
239.1178890819 	 0.14620983935743
239.1542745882 	 0.536521084337349
240.1620996203 	 0.0602409638554217
255.1491892103 	 16.3635793172691
257.1284537682 	 0.377761044176707
267.1491892103 	 2.89093875502008
285.1597538966 	 100
END IONS

BEGIN IONS
PEPMASS=862.5174
CHARGE=1
MSLEVEL=2
RT=0
SOURCE_INSTRUMENT=qTOF
FILENAME=CCMSLIB00000077069.ms
IONMODE=Positive
ORGANISM=Natural
NAME=Eryped
PI=GNPS
DATACOLLECTOR=GNPS
SMILES=CCC1C(C)(C(C(C)C(=O)C(C)CC(C)(C(C(C)C(C(C)C(=O)O1)OC1CC(C)(C(C(C)O1)O)OC)OC1C(C(CC(C)O1)N(C)C)OC(=O)CCC(=O)OCC)O)O)O
INCHI=InChI=1S/C43H75NO16/c1-15-29-43(11,52)36(48)24(5)33(47)22(3)20-41(9,51)38(25(6)34(26(7)39(50)57-29)59-32-21-42(10,53-14)37(49)27(8)56-32)60-40-35(28(44(12)13)19-23(4)55-40)58-31(46)18-17-30(45)54-16-2/h22-29,32,34-38,40,48-49,51-52H,15-21H2,1-14H3
FORMULA=C43H75NO16
PUBMED=N/A
SUBMITUSER=BIOADREM
LIBRARYQUALITY=0
SPECTRUMID=CCMSLIB00000077069
SCANS=494
ID=CCMSLIB00000077069
97.0284053726 	 2.96
98.0964253583 	 9.37
101.0233199947 	 5.77
116.0706045383 	 2.59
116.1069900446 	 9.9
127.0753555652 	 1.65
129.0546201231 	 38.55
140.1069900446 	 6.56
158.1175547309 	 19.65
241.1070496241 	 1.91
244.1179486614 	 1.72
286.164898854 	 100
687.3950179491 	 2.02
862.5158613663 	 154.33
END IONS

BEGIN IONS
PEPMASS=188.1443
CHARGE=1
MSLEVEL=2
RT=0
SOURCE_INSTRUMENT=qTOF
FILENAME=CCMSLIB00000077070.ms
IONMODE=Positive
ORGANISM=Natural
NAME=(2R)-N-methyl-1-phenyl-N-prop-2-ynylpropan-2-amine
PI=GNPS
DATACOLLECTOR=GNPS
SMILES=C#CCN(C)[C@H](C)Cc1ccccc1
INCHI=InChI=1S/C13H17N/c1-4-10-14(3)12(2)11-13-8-6-5-7-9-13/h1,5-9,12H,10-11H2,2-3H3/t12-/m1/s1
FORMULA=C13H17N
PUBMED=N/A
SUBMITUSER=BIOADREM
LIBRARYQUALITY=0
SPECTRUMID=CCMSLIB00000077070
SCANS=495
ID=CCMSLIB00000077070
91.0542261926 	 34.5496189235083
96.0807752941 	 0.616040753465229
119.085526321 	 78.9795837775935
148.1120754225 	 1.51245902934092
188.1433755509 	 100
END IONS

BEGIN IONS
PEPMASS=181.0723
CHARGE=1
MSLEVEL=2
RT=0
SOURCE_INSTRUMENT=qTOF
FILENAME=CCMSLIB00000077071.ms
IONMODE=Positive
ORGANISM=Natural
NAME=Theophylline
PI=GNPS
DATACOLLECTOR=GNPS
SMILES=Cn1c2c(c(=O)n(C)c1=O)nc[nH]2
INCHI=InChI=1S/C7H8N4O2/c1-10-5-4(8-3-9-5)6(12)11(2)7(10)13/h3H,1-2H3,(H,8,9)
FORMULA=C7H8N4O2
PUBMED=N/A
SUBMITUSER=BIOADREM
LIBRARYQUALITY=0
SPECTRUMID=CCMSLIB00000077071
SCANS=496
ID=CCMSLIB00000077071
96.0556231761 	 6.19425645774044
109.0270627019 	 3.68877571862362
110.0236543457 	 1.45699151676902
122.0586971813 	 3.99242909081006
124.0505377982 	 27.233486294748
181.0720015218 	 100
END IONS

BEGIN IONS
PEPMASS=494.1511
CHARGE=1
MSLEVEL=2
RT=0
SOURCE_INSTRUMENT=qTOF
FILENAME=CCMSLIB00000077074.ms
IONMODE=Positive
ORGANISM=Natural
NAME=Glyburide
PI=GNPS
DATACOLLECTOR=GNPS
SMILES=COc1ccc(cc1C(=NCCc1ccc(cc1)S(=O)(=O)NC(=NC1CCCCC1)O)O)Cl
INCHI=InChI=1S/C23H28ClN3O5S/c1-32-21-12-9-17(24)15-20(21)22(28)25-14-13-16-7-10-19(11-8-16)33(30,31)27-23(29)26-18-5-3-2-4-6-18/h7-12,15,18H,2-6,13-14H2,1H3,(H,25,28)(H2,26,27,29)
FORMULA=C23H28ClN3O5S
PUBMED=N/A
SUBMITUSER=BIOADREM
LIBRARYQUALITY=0
SPECTRUMID=CCMSLIB00000077074
SCANS=498
ID=CCMSLIB00000077074
101.0260000694 	 0.157335512872906
103.0542261926 	 0.800980792807519
105.0698762568 	 0.347364119329792
107.0491408147 	 0.412750306497752
113.0152538705 	 0.0858193706579485
119.047798144 	 0.151205557825909
119.0491408147 	 0.529219452390682
125.9866933963 	 0.382100531262771
127.9800749715 	 0.063342868818962
131.060374203 	 0.063342868818962
134.0964253583 	 0.110339190845934
139.0086354457 	 0.157335512872906
141.0083386325 	 0.138945647731917
145.0634482082 	 0.0960359624029424
149.0167948288 	 0.727421332243564
153.9816080184 	 0.224765018389865
155.9749895936 	 0.0674295055169595
162.0497719789 	 0.138945647731917
166.0260596489 	 0.138945647731917
166.029226913 	 0.224765018389865
167.0132424978 	 0.645688598283613
167.0161261268 	 0.647731916632611
168.0210675299 	 0.253371475275848
169.0050831147 	 42.4274621986105
170.008398212 	 3.87617490805067
171.0011447646 	 7.18226399673069
171.0029746247 	 8.11606048222313
172.0029189036 	 0.408663669799755
172.006289722 	 0.447486718430731
184.0397915993 	 0.157335512872906
186.0316322162 	 0.0878626890069473
197.0419469468 	 0.422966898242746
198.0298023561 	 0.480179812014712
198.0311450268 	 0.410706988148754
198.0316322162 	 0.343277482631794
199.032444893 	 0.120555782590928
200.0261529078 	 0.104209235798937
200.0295237262 	 0.140988966080915
208.0887531646 	 0.110339190845934
208.0916367936 	 0.237024928483858
209.0947483366 	 0.124642419288925
209.0960910073 	 0.112382509194933
210.0219397862 	 0.140988966080915
210.0316322162 	 0.0653861871679608
210.1039160394 	 0.68246832856559
217.0374458756 	 0.0653861871679608
217.041468621 	 0.163465467919902
224.0831805973 	 0.0878626890069473
227.1668506472 	 0.474049856967716
228.0325044725 	 0.145075602778913
237.0676833715 	 0.527176134041684
244.0523676583 	 0.0796894156109522
245.0379242014 	 0.320800980792807
245.068746004 	 0.0735594605639559
245.0727687494 	 0.134859011033919
245.9952467099 	 0.0756027789129546
246.0401855298 	 0.063342868818962
246.0442082752 	 0.114425827543931
247.9931382199 	 0.0858193706579485
247.9978335257 	 0.190028606456886
258.1059441871 	 0.386187167960768
259.0508941909 	 2.01062525541479
259.0520333073 	 1.09317531671434
260.055835594 	 0.396403759705762
260.0580284793 	 0.427053534940744
261.0459020719 	 0.320800980792807
261.0499248173 	 0.288107887208827
261.0505973777 	 0.324887617490805
262.0611024845 	 0.447486718430731
262.0617932282 	 0.281977932161831
262.0629323446 	 0.339190845933796
263.0610649467 	 0.190028606456886
263.0662474419 	 0.10012259910094
264.0608238546 	 0.247241520228852
271.0520333073 	 0.0980792807519411
287.1754039608 	 0.369840621168778
288.0767525487 	 0.592562321209644
288.0774432924 	 0.553739272578668
288.0785824088 	 0.678381691867593
289.0767150109 	 0.185941969758888
289.0818975061 	 0.0980792807519411
290.071963984 	 0.169595422966898
290.0764739188 	 0.220678381691868
290.081656414 	 0.155292194523907
292.0319290294 	 0.163465467919902
303.0638421387 	 0.234981610134859
304.0734970309 	 3.29791581528402
304.0750379892 	 0.823457294646506
305.0761395678 	 0.339190845933796
305.0794922029 	 0.206375153248876
306.0680177225 	 0.439313445034736
306.0713885409 	 1.18103800572129
307.0718200092 	 0.0878626890069473
313.065968812 	 0.378013894564773
324.0608238546 	 0.363710666121782
347.0853615834 	 0.386187167960768
350.081656414 	 0.541479362484675
352.040482343 	 0.713118103800572
354.0276094708 	 0.185941969758888
354.0350030346 	 0.081732733959951
368.0830158597 	 0.145075602778913
369.0670314445 	 62.3212096444626
370.066303163 	 3.80261544748672
371.0615521361 	 7.58684102983245
371.0667346313 	 5.95014303228443
372.0666970935 	 1.21986105435227
372.0693771682 	 0.474049856967716
373.0619460666 	 1.3322435635472
374.0697710987 	 0.570085819370658
376.1451289271 	 0.392317123007765
392.0353969651 	 0.941969758888435
395.0462960024 	 13.334695545566
396.0541210345 	 2.23947691050266
397.040816694 	 3.87208827135268
398.0486417261 	 0.668165100122599
399.1974988486 	 0.392317123007765
412.0728451039 	 0.0653861871679608
494.1510954249 	 100
END IONS

BEGIN IONS
PEPMASS=387.2534
CHARGE=1
MSLEVEL=2
RT=0
SOURCE_INSTRUMENT=qTOF
FILENAME=CCMSLIB00000077075.ms
IONMODE=Positive
ORGANISM=Natural
NAME=Medroxyprogesterone 17-acetate
PI=GNPS
DATACOLLECTOR=GNPS
SMILES=C[C@H]1C[C@@H]2[C@H](CC[C@@]3(C)[C@H]2CC[C@@]3(C(=O)C)OC(=O)C)[C@@]2(C)CCC(=O)C=C12
INCHI=InChI=1S/C24H34O4/c1-14-12-18-19(22(4)9-6-17(27)13-21(14)22)7-10-23(5)20(18)8-11-24(23,15(2)25)28-16(3)26/h13-14,18-20H,6-12H2,1-5H3/t14-,18+,19-,20-,22+,23-,24-/m0/s1
FORMULA=C24H34O4
PUBMED=N/A
SUBMITUSER=BIOADREM
LIBRARYQUALITY=0
SPECTRUMID=CCMSLIB00000077075
SCANS=499
ID=CCMSLIB00000077075
91.0542261926 	 1.62703941750191
93.0698762568 	 1.45624522450447
95.085526321 	 1.28545103150703
97.0647908789 	 17.5378668704211
105.0698762568 	 12.3870735763405
107.085526321 	 5.97779675491033
109.0647908789 	 6.02723717919906
109.1011763852 	 2.62483707132905
117.0698762568 	 1.44276147242573
119.085526321 	 12.7511348824666
123.0804409431 	 100
128.0620512247 	 1.48321272866196
129.0698762568 	 3.87882601465234
130.0777012889 	 1.38882646411075
131.085526321 	 8.61162299429188
133.1011763852 	 9.22738100588791
135.1168264494 	 1.62703941750191
137.0960910073 	 20.2840577104589
143.085526321 	 5.00247202121444
145.1011763852 	 17.5693289586049
147.1168264494 	 20.8908265540024
155.085526321 	 3.54173221268372
156.0933513531 	 2.54393455885658
157.1011763852 	 10.3465324284238
159.1168264494 	 13.2230662052227
161.0960910073 	 1.6540069216594
161.1324765136 	 11.5375971953796
163.1117410715 	 1.59557732931817
169.1011763852 	 5.04292327745067
171.1168264494 	 11.7937884848757
173.1324765136 	 16.7827767540114
175.1117410715 	 5.76655130567666
175.1481265778 	 21.0526315789474
183.1168264494 	 5.36653332734056
185.1324765136 	 6.86772439210751
186.1403015457 	 0.728122612252236
187.1117410715 	 1.42927772034698
187.1481265778 	 5.42945750370803
189.1273911357 	 5.33507123915682
191.1430411999 	 0.894422221223426
197.1324765136 	 6.63850060676884
199.1481265778 	 8.03631623893209
201.163776642 	 1.9236819632343
205.1586912641 	 2.9079958649827
209.1324765136 	 1.52815856892445
211.1481265778 	 5.91487257854286
214.1352161678 	 2.72821250393276
215.1430411999 	 9.12400557328419
217.1586912641 	 2.05402489999551
225.163776642 	 6.04521551530406
227.1794267062 	 7.17785068991865
237.163776642 	 0.818014292777204
251.1794267062 	 6.00476425906782
265.1950767704 	 1.57759899321318
266.2029018025 	 6.53961975819138
267.2107268346 	 13.2590228774327
269.1899913925 	 4.19794148051598
283.2056414567 	 4.05860937570228
284.2134664888 	 7.55989033214976
285.2212915209 	 31.2778102386624
291.2107268346 	 0.894422221223426
309.2212915209 	 11.3488246662771
327.2318562072 	 49.4763809609421
387.2529855798 	 56.9553687806194
END IONS

BEGIN IONS
PEPMASS=389.1115
CHARGE=1
MSLEVEL=2
RT=0
SOURCE_INSTRUMENT=qTOF
FILENAME=CCMSLIB00000077079.ms
IONMODE=Positive
ORGANISM=Natural
NAME=Eszopiclone
PI=GNPS
DATACOLLECTOR=GNPS
SMILES=CN1CCN(CC1)C(=O)O[C@H]1c2c(C(=O)N1c1ccc(cn1)Cl)nccn2
INCHI=InChI=1S/C17H17ClN6O3/c1-22-6-8-23(9-7-22)17(26)27-16-14-13(19-4-5-20-14)15(25)24(16)12-3-2-11(18)10-21-12/h2-5,10,16H,6-9H2,1H3/t16-/m0/s1
FORMULA=C17H17ClN6O3
PUBMED=N/A
SUBMITUSER=BIOADREM
LIBRARYQUALITY=0
SPECTRUMID=CCMSLIB00000077079
SCANS=500
ID=CCMSLIB00000077079
99.0916743314 	 0.71
111.9948527794 	 1.32
130.0054174657 	 0.82
139.0052646273 	 5.34
143.0815035756 	 2.13
163.0057518167 	 0.23
190.016650854 	 0.97
217.0275498913 	 48.75
220.0272155403 	 0.98
245.0224645134 	 100
246.0230789026 	 14.47
247.0183278757 	 36.85
248.0221301624 	 3.19
249.0339779399 	 0.46
263.0330291997 	 4.29
264.0336435889 	 0.93
265.028892562 	 1.31
345.122512909 	 9.07
347.1143535259 	 2.82
389.1123421532 	 0.3
END IONS

BEGIN IONS
PEPMASS=353.0789
CHARGE=1
MSLEVEL=2
RT=0
SOURCE_INSTRUMENT=qTOF
FILENAME=CCMSLIB00000077081.ms
IONMODE=Positive
ORGANISM=Natural
NAME=Griseofulvin
PI=GNPS
DATACOLLECTOR=GNPS
SMILES=C[C@@H]1CC(=O)C=C([C@@]21C(=O)c1c(cc(c(c1O2)Cl)OC)OC)OC
INCHI=InChI=1S/C17H17ClO6/c1-8-5-9(19)6-12(23-4)17(8)16(20)13-10(21-2)7-11(22-3)14(18)15(13)24-17/h6-8H,5H2,1-4H3/t8-,17+/m1/s1
FORMULA=C17H17ClO6
PUBMED=N/A
SUBMITUSER=BIOADREM
LIBRARYQUALITY=0
SPECTRUMID=CCMSLIB00000077081
SCANS=502
ID=CCMSLIB00000077081
107.0491408147 	 1.64148250233794
122.0362304047 	 3.9105182851799
129.0101684926 	 0.445439779495004
133.0284053726 	 0.305163163852931
137.059705501 	 0.59802136142147
150.0311450268 	 4.79401486439927
156.9686976084 	 0.890879558990008
157.0050831147 	 0.386375941329921
165.0546201231 	 73.8297977063543
170.9843476726 	 0.671851159127824
171.9921727047 	 6.67421371265443
183.0651848094 	 0.344539055962987
197.0363832431 	 0.33961706944923
199.9870873268 	 9.89811487916523
215.0105624231 	 54.4617807747207
224.0234728331 	 3.68410690554708
241.0262124873 	 0.821971747797411
250.0391228973 	 0.354383028990501
252.0183874552 	 0.440517792981247
253.0262124873 	 0.509425604173845
255.0054770452 	 0.543879509770143
257.0575126157 	 0.568489442338928
263.0105624231 	 0.674312152384703
265.0262124873 	 0.455283752522518
265.0625979936 	 0.381453954816164
270.0289521415 	 2.6750996702269
277.0262124873 	 1.02377319486145
278.0340375194 	 2.18782300536497
283.0367771736 	 0.396219914357435
285.0524272378 	 23.694443077226
293.0575126157 	 1.74238322586996
306.0289521415 	 0.878574592705616
311.068077302 	 2.126298173943
321.0524272378 	 3.50199340453807
335.068077302 	 0.605404341192105
353.0786419883 	 100
END IONS

BEGIN IONS
PEPMASS=266.1662
CHARGE=1
MSLEVEL=2
RT=0
SOURCE_INSTRUMENT=qTOF
FILENAME=CCMSLIB00000077088.ms
IONMODE=Positive
ORGANISM=Natural
NAME=mirtazapine
PI=GNPS
DATACOLLECTOR=GNPS
SMILES=CN1CCN2C(C1)c1ccccc1Cc1cccnc21
INCHI=InChI=1S/C17H19N3/c1-19-9-10-20-16(12-19)15-7-3-2-5-13(15)11-14-6-4-8-18-17(14)20/h2-8,16H,9-12H2,1H3
FORMULA=C17H19N3
PUBMED=N/A
SUBMITUSER=BIOADREM
LIBRARYQUALITY=0
SPECTRUMID=CCMSLIB00000077088
SCANS=505
ID=CCMSLIB00000077088
115.0542261926 	 0.353261536197041
130.0651252299 	 0.483281407158453
141.0698762568 	 0.22569487034811
153.0698762568 	 0.110394230061575
165.0698762568 	 0.22324166523563
167.072950262 	 1.60930255378652
168.0807752941 	 0.755587174643672
178.0651252299 	 0.760493584868631
179.072950262 	 0.753133969531192
180.0807752941 	 1.63138139979884
182.0964253583 	 1.94293844908373
194.0838492993 	 11.0026249294704
195.0916743314 	 98.1282044991782
206.0838492993 	 0.338542305522165
207.0916743314 	 1.59703652822412
208.0994993635 	 0.208522434560754
209.1073243956 	 11.7655717194515
220.0994993635 	 0.26985256237274
221.1073243956 	 0.218335255010671
223.1229744598 	 1.60684934867404
235.1229744598 	 3.08613203149915
266.1651736255 	 100
END IONS

BEGIN IONS
PEPMASS=422.0456
CHARGE=1
MSLEVEL=2
RT=0
SOURCE_INSTRUMENT=qTOF
FILENAME=CCMSLIB00000077089.ms
IONMODE=Positive
ORGANISM=Natural
NAME=Bendrofluazide
PI=GNPS
DATACOLLECTOR=GNPS
SMILES=c1ccc(cc1)CC1Nc2cc(c(cc2S(=O)(=O)N1)S(=O)(=O)N)C(F)(F)F
INCHI=InChI=1S/C15H14F3N3O4S2/c16-15(17,18)10-7-11-13(8-12(10)26(19,22)23)27(24,25)21-14(20-11)6-9-4-2-1-3-5-9/h1-5,7-8,14,20-21H,6H2,(H2,19,22,23)
FORMULA=C15H14F3N3O4S2
PUBMED=N/A
SUBMITUSER=BIOADREM
LIBRARYQUALITY=0
SPECTRUMID=CCMSLIB00000077089
SCANS=506
ID=CCMSLIB00000077089
91.0542261926 	 15.0919111580476
103.0542261926 	 4.73581729975908
105.0334907505 	 14.9103989967328
118.0651252299 	 10.3428929738292
119.072950262 	 33.3850367974654
120.0807752941 	 35.3750701296987
128.0290365368 	 2.14184350351474
136.0756899162 	 1.21448137025181
143.0399355741 	 2.5378700372925
144.0244032694 	 2.95369789775915
158.0212096694 	 4.67971354080723
159.0240689184 	 1.83492293983697
163.0461638062 	 4.82492326985908
163.0477587709 	 0.834955942048117
174.0145293268 	 2.23094947361473
175.0427929878 	 2.10554107125177
180.0055596052 	 1.76561829642586
189.9932803594 	 1.92732913105178
190.0651252299 	 4.04937130787763
191.0410784283 	 4.78862083759612
191.042673393 	 1.29038645589254
191.0702701873 	 2.46526517276658
192.0217231947 	 2.46526517276658
192.0780952194 	 3.18801359691099
207.0198294609 	 2.91739546549619
208.0968192888 	 1.98013266888882
210.071353462 	 2.03293620672585
211.0764984194 	 3.65334477409986
216.0688899788 	 7.25718623147751
217.0733441925 	 4.82492326985908
217.0744870467 	 1.43889640605921
218.0775816941 	 1.85472426652586
221.0720817435 	 3.47513283389987
233.0572608247 	 0.815154615359229
235.0603348299 	 3.54773769842579
235.0688881435 	 0.805253952014785
237.0795724246 	 2.55767136398139
237.0807152788 	 1.23758291805551
239.0085158509 	 11.8510940232996
241.0129325268 	 0.739249529718491
242.0735589487 	 0.85805748985182
242.0771295836 	 1.7293158641629
249.0669963656 	 3.02630276228507
249.0721619652 	 0.666644665192568
250.002918783 	 1.21448137025181
255.003430473 	 2.6962806508036
255.0045733272 	 5.20444869806277
260.068159862 	 6.08560773571829
261.0759848941 	 46.2955017986205
262.0132668778 	 4.2671859014554
262.0781922161 	 6.51793670175902
262.0797871808 	 2.16824527243325
270.9805865409 	 19.7749249199696
271.9823606799 	 1.49169994389624
272.0751182109 	 1.62040856737401
272.977609653 	 2.16824527243325
273.0833953535 	 1.76561829642586
276.028916942 	 1.26728490808884
277.0947089635 	 1.62700900960364
279.0324055199 	 6.77865416982938
281.9927480272 	 1.85142404541104
282.0394816283 	 0.887759479885152
282.9817293951 	 1.70291409524438
286.975501163 	 8.6927824164219
286.9766440172 	 5.74238473977756
295.0511295893 	 0.897660143229597
301.0491182166 	 1.30028711923699
302.9704157851 	 0.844856605392561
311.0192971287 	 2.38936008712584
311.0222347641 	 3.87115936767763
312.0262368673 	 1.122075179037
320.9809804714 	 1.8184218342629
340.0487838656 	 1.65671099963698
341.0527859688 	 8.15154615359229
342.0552286892 	 1.14187650572588
344.9935565304 	 1.54450348173328
344.9973794593 	 1.87122537209993
356.016951405 	 1.80852117091845
357.0515235198 	 1.21448137025181
359.0130295235 	 10.6663146430811
360.0096211673 	 2.01643510115178
360.0170316267 	 2.35965809709251
361.0122805998 	 2.5840731328999
376.0157691777 	 2.24085013695918
387.0079441456 	 4.72591663641464
402.0388297013 	 0.772251740866638
405.0185088319 	 33.0022111481469
422.0450579334 	 100
END IONS

BEGIN IONS
PEPMASS=445.1622
CHARGE=1
MSLEVEL=2
RT=0
SOURCE_INSTRUMENT=qTOF
FILENAME=CCMSLIB00000077090.ms
IONMODE=Positive
ORGANISM=Natural
NAME=DOXYCYCLINE
PI=GNPS
DATACOLLECTOR=GNPS
SMILES=C[C@H]1c2cccc(c2C(=C2[C@@H]1[C@@H]([C@H]1[C@@H](C(=O)C(=C([C@]1(C2=O)O)O)C(=N)O)N(C)C)O)O)O
INCHI=InChI=1S/C22H24N2O8/c1-7-8-5-4-6-9(25)11(8)16(26)12-10(7)17(27)14-15(24(2)3)18(28)13(21(23)31)20(30)22(14,32)19(12)29/h4-7,10,14-15,17,25-27,30,32H,1-3H3,(H2,23,31)/t7-,10+,14+,15-,17-,22-/m0/s1
FORMULA=C22H24N2O8
PUBMED=N/A
SUBMITUSER=BIOADREM
LIBRARYQUALITY=0
SPECTRUMID=CCMSLIB00000077090
SCANS=507
ID=CCMSLIB00000077090
98.060039852 	 1.375
126.0549544741 	 1.575
154.0498690962 	 3.9
173.059705501 	 0.28
182.0811692246 	 0.37
192.0655191604 	 0.32
201.0546201231 	 4.47
210.0760838467 	 0.325
211.0753555652 	 1.14
213.0910056294 	 0.65
223.0753555652 	 0.35
225.0910056294 	 0.29
227.0702701873 	 0.66
237.0546201231 	 0.38
239.0702701873 	 1.395
241.0859202515 	 2.615
251.0702701873 	 1.05
252.0417097131 	 0.755
253.0859202515 	 1.36
255.0651848094 	 0.395
257.0808348736 	 1.135
265.0859202515 	 0.43
267.0651848094 	 7.725
268.0689870961 	 1.59
269.0808348736 	 4.005
279.061162064 	 0.61
281.0808348736 	 0.85
285.0757494957 	 2.405
291.0651848094 	 0.93
293.0808348736 	 2.675
294.0846371603 	 0.575
297.0757494957 	 0.89
303.0651848094 	 0.655
306.0522743994 	 0.915
309.0757494957 	 0.4
311.0913995599 	 0.565
319.0600994315 	 1.19
321.0757494957 	 7.62
322.0795517824 	 1.82
334.0471890215 	 1.015
337.0706641178 	 1.49
339.086314182 	 4.44
340.0901164687 	 0.84
349.0706641178 	 1.605
364.1179486614 	 0.815
365.0655787399 	 0.32
367.0812288041 	 1.5
382.1285133477 	 0.41
392.1128632835 	 1.585
410.1234279698 	 4.1
428.1339926561 	 100
430.1370666613 	 4.095
445.1605417576 	 43.36
END IONS

BEGIN IONS
PEPMASS=407.222
CHARGE=1
MSLEVEL=2
RT=0
SOURCE_INSTRUMENT=qTOF
FILENAME=CCMSLIB00000077092.ms
IONMODE=Positive
ORGANISM=Natural
NAME=(2S,4R)-N-[(1R,2R)-2-hydroxy-1-[(2R,3S,4S,5R,6R)-3,4,5-trihydroxy-6-methylsulfanyloxan-2-yl]propyl]-1-methyl-4-propylpyrrolidine-2-carboxamide
PI=GNPS
DATACOLLECTOR=GNPS
SMILES=CCC[C@@H]1C[C@@H](C(=N[C@H]([C@@H](C)O)[C@@H]2[C@H]([C@@H]([C@H]([C@H](O2)SC)O)O)O)O)N(C)C1
INCHI=InChI=1S/C18H34N2O6S/c1-5-6-10-7-11(20(3)8-10)17(25)19-12(9(2)21)16-14(23)13(22)15(24)18(26-16)27-4/h9-16,18,21-24H,5-8H2,1-4H3,(H,19,25)/t9-,10-,11+,12-,13+,14+,15-,16-,18-/m1/s1
FORMULA=C18H34N2O6S
PUBMED=N/A
SUBMITUSER=BIOADREM
LIBRARYQUALITY=0
SPECTRUMID=CCMSLIB00000077092
SCANS=509
ID=CCMSLIB00000077092
124.1120754225 	 2.66
126.1277254867 	 100
139.1355505188 	 1.13
206.097116102 	 0.88
234.0920307241 	 1.62
359.217662706 	 15.86
360.2203052429 	 2.46
389.2104688381 	 5.38
407.2210335244 	 269.08
END IONS

BEGIN IONS
PEPMASS=286.0952
CHARGE=1
MSLEVEL=2
RT=0
SOURCE_INSTRUMENT=qTOF
FILENAME=CCMSLIB00000077094.ms
IONMODE=Positive
ORGANISM=Natural
NAME=FLUDARABINE
PI=GNPS
DATACOLLECTOR=GNPS
SMILES=C([C@@H]1[C@H]([C@@H]([C@H](n2cnc3c(N)nc(F)nc23)O1)O)O)O
INCHI=InChI=1S/C10H12FN5O4/c11-10-14-7(12)4-8(15-10)16(2-13-4)9-6(19)5(18)3(1-17)20-9/h2-3,5-6,9,17-19H,1H2,(H2,12,14,15)/t3-,5-,6+,9-/m1/s1
FORMULA=C10H12FN5O4
PUBMED=N/A
SUBMITUSER=BIOADREM
LIBRARYQUALITY=0
SPECTRUMID=CCMSLIB00000077094
SCANS=510
ID=CCMSLIB00000077094
103.0389700589 	 2.58
107.033884681 	 3.21
115.0389700589 	 1.9
133.0495347452 	 4.17
134.0447837183 	 48.01
134.047463793 	 15.08
154.0510119504 	 100
154.0536920251 	 100
286.0946080996 	 15.24
END IONS

BEGIN IONS
PEPMASS=245.1271
CHARGE=1
MSLEVEL=2
RT=0
SOURCE_INSTRUMENT=qTOF
FILENAME=CCMSLIB00000077095.ms
IONMODE=Positive
ORGANISM=Natural
NAME=Etomidate
PI=GNPS
DATACOLLECTOR=GNPS
SMILES=CCOC(=O)c1cncn1[C@H](C)c1ccccc1
INCHI=InChI=1S/C14H16N2O2/c1-3-18-14(17)13-9-15-10-16(13)11(2)12-7-5-4-6-8-12/h4-11H,3H2,1-2H3/t11-/m1/s1
FORMULA=C14H16N2O2
PUBMED=N/A
SUBMITUSER=BIOADREM
LIBRARYQUALITY=0
SPECTRUMID=CCMSLIB00000077095
SCANS=511
ID=CCMSLIB00000077095
95.0239886967 	 40.15
97.0284053726 	 0.135
103.0542261926 	 2.83
105.0698762568 	 32.36
113.034553383 	 3.505
141.0658535114 	 100
143.072950262 	 0.34
245.1284537682 	 0.695
END IONS

BEGIN IONS
PEPMASS=521.2301
CHARGE=1
MSLEVEL=2
RT=0
SOURCE_INSTRUMENT=qTOF
FILENAME=CCMSLIB00000077098.ms
IONMODE=Positive
ORGANISM=Natural
NAME=Beclomethasone dipropionate
PI=GNPS
DATACOLLECTOR=GNPS
SMILES=CCC(=O)OCC(=O)[C@]1([C@@H](C)C[C@H]2[C@@H]3CCC4=CC(=O)C=C[C@]4(C)[C@]3([C@H](C[C@]12C)O)Cl)OC(=O)CC
INCHI=InChI=1S/C28H37ClO7/c1-6-23(33)35-15-22(32)28(36-24(34)7-2)16(3)12-20-19-9-8-17-13-18(30)10-11-25(17,4)27(19,29)21(31)14-26(20,28)5/h10-11,13,16,19-21,31H,6-9,12,14-15H2,1-5H3/t16-,19-,20-,21-,25-,26-,27-,28-/m0/s1
FORMULA=C28H37ClO7
PUBMED=N/A
SUBMITUSER=BIOADREM
LIBRARYQUALITY=0
SPECTRUMID=CCMSLIB00000077098
SCANS=512
ID=CCMSLIB00000077098
107.085526321 	 13.1642411642412
119.085526321 	 15.5675675675676
121.0647908789 	 30.4449064449064
133.1011763852 	 11.95841995842
135.0804409431 	 62.02079002079
143.085526321 	 9.35550935550936
145.0647908789 	 15.7255717255717
145.1011763852 	 9.6049896049896
147.0804409431 	 95.0602910602911
153.0910056294 	 4.12474012474012
157.1011763852 	 13.2557172557173
159.0804409431 	 30.1954261954262
161.0960910073 	 13.7380457380457
171.0804409431 	 60.6735966735967
173.0960910073 	 35.1101871101871
185.0960910073 	 58.0623700623701
197.0960910073 	 19.1268191268191
208.0882659752 	 11.3679833679834
209.093898122 	 19.4428274428274
211.1117410715 	 10.7525987525988
221.093898122 	 40.3243243243243
223.1117410715 	 36.6735966735967
224.1173732183 	 12.0748440748441
233.0960910073 	 9.14760914760915
234.1017231541 	 14.2869022869023
235.1095481862 	 25.3056133056133
235.1117410715 	 3.98336798336798
237.1273911357 	 19.0769230769231
247.1095481862 	 13.2141372141372
248.1195661036 	 19.6257796257796
249.1251982504 	 30.7193347193347
249.1273911357 	 6.004158004158
250.1330232825 	 10.02079002079
259.1095481862 	 12.1663201663202
260.1173732183 	 17.8877338877339
261.1251982504 	 24.8316008316008
261.1273911357 	 5.43035343035343
262.1330232825 	 41.7214137214137
263.1430411999 	 80.2494802494803
271.1095481862 	 11.7754677754678
273.1251982504 	 10.8607068607069
274.1330232825 	 10.5446985446985
275.1408483146 	 19.1018711018711
275.1430411999 	 5.67151767151767
276.1486733467 	 23.8503118503119
276.150866232 	 5.37214137214137
277.1564983788 	 38.0873180873181
277.1586912641 	 13.9293139293139
278.1643234109 	 7.54261954261954
279.1743413283 	 100
286.1330232825 	 23.2349272349272
289.1564983788 	 13.0727650727651
289.1586912641 	 3.64241164241164
291.172148443 	 38.2286902286902
291.1743413283 	 18.0873180873181
292.1799734751 	 4.86486486486486
297.1849060146 	 3.70893970893971
301.1564983788 	 61.8711018711019
301.1586912641 	 27.5758835758836
302.1643234109 	 4.7983367983368
309.1849060146 	 4.28274428274428
313.1353690062 	 3.70893970893971
319.1670630651 	 28.4573804573805
319.1692559504 	 43.2182952182952
320.1748880972 	 9.85446985446985
337.1353690062 	 13.2723492723493
337.1776277514 	 18.5530145530146
337.1798206367 	 30.3866943866944
338.1854527835 	 9.04781704781705
339.1357629367 	 3.20997920997921
355.1459336925 	 8.86486486486486
355.190385323 	 9.28066528066528
373.1564983788 	 11.5592515592516
375.1954707009 	 3.50935550935551
391.1670630651 	 4.78170478170478
393.2060353872 	 31.3097713097713
394.211667534 	 9.48856548856549
411.2166000735 	 18.5114345114345
412.2222322203 	 4.5987525987526
429.1827131293 	 19.1933471933472
485.2533795103 	 3.16008316008316
503.2194925661 	 83.1600831600832
521.2300572524 	 4.78170478170478
END IONS

BEGIN IONS
PEPMASS=431.2428
CHARGE=1
MSLEVEL=2
RT=0
SOURCE_INSTRUMENT=qTOF
FILENAME=CCMSLIB00000077100.ms
IONMODE=Positive
ORGANISM=Natural
NAME=51333-22-3
PI=GNPS
DATACOLLECTOR=GNPS
SMILES=CCC[C@H]1O[C@@H]2C[C@H]3[C@@H]4CCC5=CC(=O)C=C[C@]5(C)[C@H]4[C@H](C[C@]3(C)[C@]2(C(=O)CO)O1)O
INCHI=InChI=1S/C25H34O6/c1-4-5-21-30-20-11-17-16-7-6-14-10-15(27)8-9-23(14,2)22(16)18(28)12-24(17,3)25(20,31-21)19(29)13-26/h8-10,16-18,20-22,26,28H,4-7,11-13H2,1-3H3/t16-,17-,18-,20+,21-,22+,23-,24-,25+/m0/s1
FORMULA=C25H34O6
PUBMED=N/A
SUBMITUSER=BIOADREM
LIBRARYQUALITY=0
SPECTRUMID=CCMSLIB00000077100
SCANS=513
ID=CCMSLIB00000077100
121.0647908789 	 9
135.0804409431 	 3.48
147.0804409431 	 33.52
158.072615911 	 4.45
159.0804409431 	 6.33
161.0960910073 	 7.19
171.0804409431 	 21.17
173.0960910073 	 30.32
185.0960910073 	 5.04
187.1117410715 	 3.65
197.0960910073 	 8.01
199.1117410715 	 5.59
211.1117410715 	 6.89
213.1273911357 	 3.85
222.1039160394 	 4.47
223.1117410715 	 8.74
225.1273911357 	 20.58
227.1430411999 	 13.34
235.1117410715 	 6.07
237.1273911357 	 8.07
239.1430411999 	 6.54
248.1195661036 	 3.76
249.1273911357 	 3.82
261.1273911357 	 3.56
263.1430411999 	 9.95
265.1586912641 	 12.31
275.1430411999 	 3.06
277.1586912641 	 7.89
279.137955822 	 4.03
281.1536058862 	 4.03
287.1430411999 	 6.33
293.1536058862 	 6.36
295.1692559504 	 10.06
305.1536058862 	 13.04
306.1614309183 	 2.91
307.1692559504 	 6.83
323.1641705725 	 38.23
324.1719956046 	 10.06
325.1798206367 	 8.03
341.1747352588 	 18.78
343.190385323 	 3.42
395.2216854514 	 6.27
413.2322501377 	 100
431.242814824 	 5.47
END IONS

BEGIN IONS
PEPMASS=289.2162
CHARGE=1
MSLEVEL=2
RT=0
SOURCE_INSTRUMENT=qTOF
FILENAME=CCMSLIB00000077101.ms
IONMODE=Positive
ORGANISM=Natural
NAME=Testosterone
PI=GNPS
DATACOLLECTOR=GNPS
SMILES=C[C@]12CCC(=O)C=C1CC[C@H]1[C@@H]3CC[C@@H]([C@@]3(C)CC[C@H]21)O
INCHI=InChI=1S/C19H28O2/c1-18-9-7-13(20)11-12(18)3-4-14-15-5-6-17(21)19(15,2)10-8-16(14)18/h11,14-17,21H,3-10H2,1-2H3/t14-,15-,16-,17-,18-,19-/m0/s1
FORMULA=C19H28O2
PUBMED=N/A
SUBMITUSER=BIOADREM
LIBRARYQUALITY=0
SPECTRUMID=CCMSLIB00000077101
SCANS=514
ID=CCMSLIB00000077101
91.0542261926 	 1.96
97.0647908789 	 78.61
105.0698762568 	 2.15
107.085526321 	 3
109.0647908789 	 100
119.085526321 	 3.52
121.1011763852 	 2.83
123.0804409431 	 18.28
135.1168264494 	 5.24
137.0960910073 	 3.83
143.085526321 	 6.73
147.1168264494 	 10.01
149.0960910073 	 2.05
149.1324765136 	 3.35
155.085526321 	 3.09
157.1011763852 	 6.3
158.1090014173 	 3.47
159.1168264494 	 7.77
161.1324765136 	 9.54
163.1117410715 	 3.9
163.1481265778 	 3
168.0933513531 	 2.15
173.1324765136 	 7.04
175.1481265778 	 6.28
177.1273911357 	 4.46
183.1168264494 	 2.43
187.1481265778 	 5.53
189.163776642 	 5.74
197.1324765136 	 4.65
198.1403015457 	 2.81
199.1481265778 	 5.03
201.163776642 	 4.06
213.163776642 	 10.11
215.1430411999 	 2.62
219.1743413283 	 2.53
227.1794267062 	 5.05
253.1950767704 	 28.55
271.2056414567 	 35.68
289.216206143 	 958.16
END IONS

BEGIN IONS
PEPMASS=307.1128
CHARGE=1
MSLEVEL=2
RT=0
SOURCE_INSTRUMENT=qTOF
FILENAME=CCMSLIB00000077102.ms
IONMODE=Positive
ORGANISM=Natural
NAME=Fluconazole
PI=GNPS
DATACOLLECTOR=GNPS
SMILES=c1cc(c(cc1F)F)C(Cn1cncn1)(Cn1cncn1)O
INCHI=InChI=1S/C13H12F2N6O/c14-10-1-2-11(12(15)3-10)13(22,4-20-8-16-6-18-20)5-21-9-17-7-19-21/h1-3,6-9,22H,4-5H2
FORMULA=C13H12F2N6O
PUBMED=N/A
SUBMITUSER=BIOADREM
LIBRARYQUALITY=0
SPECTRUMID=CCMSLIB00000077102
SCANS=515
ID=CCMSLIB00000077102
91.0542261926 	 0.632867376034495
101.0385761284 	 3.72418109743376
107.0291542963 	 1.29007580499339
119.0291542963 	 2.25676333541971
119.0491408147 	 0.907573544752765
121.0448043605 	 16.8683496766117
127.0353825284 	 36.6367619445024
128.0368991067 	 2.02378468600042
139.0353825284 	 40.4443980805341
141.0146470863 	 8.93316642325614
141.0510325926 	 21.4583767994993
142.0525491709 	 1.56130468043675
146.0400533336 	 1.1753251269212
147.0353023067 	 2.37499130676681
148.0431273388 	 0.806732039780235
149.0397189826 	 0.253842409068781
151.0353825284 	 37.9824744418944
152.0368991067 	 4.22838862229641
166.0462815657 	 3.5468391404131
169.0459472147 	 56.2313095486473
170.047463793 	 2.41671882606579
173.0509523709 	 5.54628277348912
174.058777403 	 0.907573544752765
193.057180603 	 4.50657208428959
200.0618514082 	 9.05139439460324
220.0680796403 	 100
238.0786443266 	 79.4005146394047
289.1007767522 	 8.02559287850337
307.1113414385 	 99.9965227067251
END IONS

BEGIN IONS
PEPMASS=180.139
CHARGE=1
MSLEVEL=2
RT=0
SOURCE_INSTRUMENT=qTOF
FILENAME=CCMSLIB00000077103.ms
IONMODE=Positive
ORGANISM=Natural
NAME=1-(2,6-dimethylphenoxy)propan-2-amine
PI=GNPS
DATACOLLECTOR=GNPS
SMILES=Cc1cccc(C)c1OCC(C)N
INCHI=InChI=1S/C11H17NO/c1-8-5-4-6-9(2)11(8)13-7-10(3)12/h4-6,10H,7,12H2,1-3H3
FORMULA=C11H17NO
PUBMED=N/A
SUBMITUSER=BIOADREM
LIBRARYQUALITY=0
SPECTRUMID=CCMSLIB00000077103
SCANS=516
ID=CCMSLIB00000077103
91.0542261926 	 3.80293533098915
93.0698762568 	 0.772053202874178
103.0542261926 	 15.5557254242471
105.0698762568 	 46.5945574071243
107.0491408147 	 2.28940528971105
107.085526321 	 3.84879987769454
119.085526321 	 2.40406665647455
120.0569658468 	 1.2192325332518
121.0647908789 	 49.2661672527137
123.0804409431 	 0.703256382816083
130.0777012889 	 0.760587066197829
133.0647908789 	 1.64347959027672
135.0804409431 	 21.6213117260358
145.1011763852 	 3.02706008255618
148.0882659752 	 0.840850022932274
163.1117410715 	 76.4409111756612
180.138290173 	 100
END IONS

BEGIN IONS
PEPMASS=412.1917
CHARGE=1
MSLEVEL=2
RT=0
SOURCE_INSTRUMENT=qTOF
FILENAME=CCMSLIB00000077106.ms
IONMODE=Positive
ORGANISM=Natural
NAME=fluvastatin
PI=GNPS
DATACOLLECTOR=GNPS
SMILES=CC(C)n1c2ccccc2c(c2ccc(cc2)F)c1/C=C/[C@H](C[C@H](CC(=O)O)O)O
INCHI=InChI=1S/C24H26FNO4/c1-15(2)26-21-6-4-3-5-20(21)24(16-7-9-17(25)10-8-16)22(26)12-11-18(27)13-19(28)14-23(29)30/h3-12,15,18-19,27-28H,13-14H2,1-2H3,(H,29,30)/b12-11+/t18-,19-/m1/s1
FORMULA=C24H26FNO4
PUBMED=N/A
SUBMITUSER=BIOADREM
LIBRARYQUALITY=0
SPECTRUMID=CCMSLIB00000077106
SCANS=519
ID=CCMSLIB00000077106
116.034219032 	 2.76
119.085526321 	 3.04
123.0440554368 	 2.76
159.0604544247 	 2.26
212.0843234515 	 6.84
222.0760838467 	 6.07
223.0764984194 	 18.38
224.0870035262 	 100
225.0910056294 	 19.81
229.0886003262 	 2.48
236.0843234515 	 4.75
238.0999735157 	 9.11
244.1257943357 	 2.43
249.099558943 	 2.59
250.1026535904 	 4.69
254.1386841035 	 4.14
262.1073839751 	 2.98
264.1156235799 	 3.81
265.1387047457 	 2.37
266.1339537188 	 56.68
267.1390986762 	 7.89
274.1073839751 	 3.64
280.149603783 	 13.52
281.1547487404 	 4.3
282.1499977135 	 5.57
289.123448612 	 2.32
290.1312736441 	 3.86
306.1699842319 	 2.81
334.1226401088 	 2.48
352.1332047951 	 5.13
352.1918625282 	 2.65
370.1437694814 	 4.8
376.1707331556 	 4.58
394.1812978419 	 15.56
395.189122874 	 10.1
412.1918625282 	 59.38
END IONS

BEGIN IONS
PEPMASS=415.1387
CHARGE=1
MSLEVEL=2
RT=0
SOURCE_INSTRUMENT=qTOF
FILENAME=CCMSLIB00000077107.ms
IONMODE=Positive
ORGANISM=Natural
NAME=Podofilox
PI=GNPS
DATACOLLECTOR=GNPS
SMILES=COc1cc(cc(c1OC)OC)[C@@H]1c2cc3c(cc2[C@@H]([C@H]2COC(=O)[C@H]12)O)OCO3
INCHI=InChI=1S/C22H22O8/c1-25-16-4-10(5-17(26-2)21(16)27-3)18-11-6-14-15(30-9-29-14)7-12(11)20(23)13-8-28-22(24)19(13)18/h4-7,13,18-20,23H,8-9H2,1-3H3/t13-,18+,19-,20-/m0/s1
FORMULA=C22H22O8
PUBMED=N/A
SUBMITUSER=BIOADREM
LIBRARYQUALITY=0
SPECTRUMID=CCMSLIB00000077107
SCANS=520
ID=CCMSLIB00000077107
115.0542261926 	 31.9707303852929
117.0698762568 	 50.9598446180948
122.0362304047 	 6.90636433443245
129.0698762568 	 5.92619359501332
131.0491408147 	 15.4659198699128
133.0647908789 	 15.1678034238222
135.0440554368 	 42.5809657166087
143.0491408147 	 11.9788608338227
145.0647908789 	 94.7784452775645
147.0440554368 	 0.745291115226523
151.0389700589 	 4.57563575590587
155.0491408147 	 10.0907900085821
159.0440554368 	 8.55955553548037
161.059705501 	 26.794344821356
173.059705501 	 37.7117304304621
174.0675305331 	 4.23235015131668
175.0753555652 	 37.4407154794706
185.059705501 	 100
188.046795091 	 9.48100636885135
189.0546201231 	 38.9041962148245
191.0702701873 	 4.20073174036768
201.0546201231 	 26.8124124847554
203.0702701873 	 12.2905280274628
219.0651848094 	 38.5654275260852
229.0495347452 	 37.395546320972
237.0546201231 	 4.40850986946113
239.0702701873 	 5.78165228781788
247.0600994315 	 67.1304033605854
248.0679244636 	 4.7427616423506
253.0859202515 	 4.38140837436199
267.0651848094 	 11.2200189710466
268.0730098415 	 3.88454763087764
269.0808348736 	 6.36885134829938
282.0886599057 	 65.7572609422286
283.0600994315 	 23.0091693391752
289.0859202515 	 3.61353267988617
297.0757494957 	 10.7367089751118
298.0835745278 	 24.477166990379
305.0808348736 	 13.1261574596865
306.0886599057 	 14.3366909074484
307.0964849378 	 5.42029901982926
308.1043099699 	 5.2125208907358
312.099224592 	 11.5452369122363
313.1070496241 	 18.3928813406206
320.1043099699 	 20.1454446903654
321.112135002 	 1.71191110709608
322.1199600341 	 4.7427616423506
335.0913995599 	 0.849180179773251
338.1148746562 	 5.38868060888026
351.1226996883 	 1.60350512669949
366.1097892783 	 5.09056416278965
379.1176143104 	 1.72546185464565
397.1281789967 	 40.2005510637337
415.138743683 	 0
END IONS

BEGIN IONS
PEPMASS=501.304
CHARGE=1
MSLEVEL=2
RT=0
SOURCE_INSTRUMENT=qTOF
FILENAME=CCMSLIB00000077108.ms
IONMODE=Positive
ORGANISM=Natural
NAME=Mupirocin
PI=GNPS
DATACOLLECTOR=GNPS
SMILES=C/C(=C\C(=O)OCCCCCCCCC(=O)O)/C[C@H]1[C@@H]([C@@H]([C@@H](C[C@H]2[C@H]([C@@H](C)[C@H](C)O)O2)CO1)O)O
INCHI=InChI=1S/C26H44O9/c1-16(13-23(30)33-11-9-7-5-4-6-8-10-22(28)29)12-20-25(32)24(31)19(15-34-20)14-21-26(35-21)17(2)18(3)27/h13,17-21,24-27,31-32H,4-12,14-15H2,1-3H3,(H,28,29)/b16-13+/t17-,18-,19-,20-,21-,24+,25-,26-/m0/s1
FORMULA=C26H44O9
PUBMED=N/A
SUBMITUSER=BIOADREM
LIBRARYQUALITY=0
SPECTRUMID=CCMSLIB00000077108
SCANS=521
ID=CCMSLIB00000077108
95.0491408147 	 18.1942295440066
97.0284053726 	 15.9552198052244
97.0647908789 	 26.9409301902248
99.0804409431 	 16.6014380631656
105.0698762568 	 46.8280695367252
107.085526321 	 32.2654045690361
109.0647908789 	 39.7924820242104
111.0440554368 	 100
111.0804409431 	 21.7256757986712
113.059705501 	 21.7256757986712
117.0698762568 	 19.8325293528716
119.085526321 	 37.8265222535724
121.0647908789 	 36.3793574224083
121.1011763852 	 17.4478929644125
123.0440554368 	 16.6014380631656
123.0804409431 	 23.7644488941476
125.059705501 	 45.8814963138254
129.0546201231 	 3.48593792664058
129.0910056294 	 36.0425957950305
131.085526321 	 42.4046600527897
133.0647908789 	 47.6108127787385
133.1011763852 	 18.3398561936834
135.0804409431 	 41.5764084827523
137.059705501 	 29.9717848366251
137.0960910073 	 38.3817238554656
139.0389700589 	 17.4934012924365
141.0546201231 	 31.9104396104487
141.0910056294 	 18.6948211522709
143.085526321 	 27.0956585055065
145.0647908789 	 20.0782743242013
145.1011763852 	 51.3424956767088
147.0804409431 	 88.4590880131064
149.0960910073 	 36.4066624192227
151.0753555652 	 19.1863110949304
153.0546201231 	 17.6481296077182
155.1066556936 	 23.0727223081824
159.0804409431 	 41.2123418585601
161.059705501 	 39.7469736961864
161.0960910073 	 35.0505142441067
163.0753555652 	 29.7715481933194
163.1117410715 	 32.5111495403659
165.0910056294 	 27.5689451169564
167.1066556936 	 34.4498043141895
171.0804409431 	 23.1637389642305
173.0960910073 	 17.9484845726768
175.0753555652 	 40.2475653044507
177.0910056294 	 40.4113952853372
179.0702701873 	 53.0809138072267
179.1066556936 	 17.6936379357422
181.1223057578 	 4.06844452534814
189.0910056294 	 24.8748520979339
191.1066556936 	 40.7572585783198
193.0859202515 	 34.9959042504778
195.1015703157 	 3.19468462728679
207.1015703157 	 4.8056794393374
209.1172203799 	 68.9269136251934
217.0859202515 	 18.8859561299718
223.0964849378 	 4.06844452534814
227.1277850662 	 44.6800764539911
235.0964849378 	 25.0386820788204
245.1536058862 	 4.168562847001
247.1328704441 	 21.6710658050423
253.1070496241 	 9.89351051242377
255.137955822 	 3.75898789478475
265.1434351304 	 19.950851005734
271.1176143104 	 6.74433421316101
273.1485205083 	 29.3164649130791
291.1590851946 	 74.615454628197
309.1696498809 	 91.0166560480568
327.1802145672 	 76.8362610357696
447.2741149524 	 4.31418949667789
465.2846796387 	 9.12897060162009
483.295244325 	 4.21407117502503
501.3058090113 	 6.59870756348412
END IONS

BEGIN IONS
PEPMASS=417.2285
CHARGE=1
MSLEVEL=2
RT=0
SOURCE_INSTRUMENT=qTOF
FILENAME=CCMSLIB00000077109.ms
IONMODE=Positive
ORGANISM=Natural
NAME=DEPO-MEDROL
PI=GNPS
DATACOLLECTOR=GNPS
SMILES=C[C@H]1C[C@H]2[C@@H]3CC[C@](C(=O)COC(=O)C)([C@@]3(C)C[C@@H]([C@@H]2[C@@]2(C)C=CC(=O)C=C12)O)O
INCHI=InChI=1S/C24H32O6/c1-13-9-16-17-6-8-24(29,20(28)12-30-14(2)25)23(17,4)11-19(27)21(16)22(3)7-5-15(26)10-18(13)22/h5,7,10,13,16-17,19,21,27,29H,6,8-9,11-12H2,1-4H3/t13-,16-,17-,19-,21+,22-,23-,24-/m0/s1
FORMULA=C24H32O6
PUBMED=N/A
SUBMITUSER=BIOADREM
LIBRARYQUALITY=0
SPECTRUMID=CCMSLIB00000077109
SCANS=522
ID=CCMSLIB00000077109
105.0698762568 	 9.965
107.085526321 	 6.155
115.0542261926 	 5.245
117.0698762568 	 7.695
119.085526321 	 5.875
121.0647908789 	 24.39
133.1011763852 	 5.9
135.0804409431 	 63.435
142.0777012889 	 4.455
143.085526321 	 6.155
145.0647908789 	 8.885
145.1011763852 	 10.295
146.072615911 	 4.105
147.0804409431 	 12.04
149.0960910073 	 1.51
157.1011763852 	 5.86
159.0804409431 	 25.595
161.0960910073 	 85.165
170.072615911 	 3.66
171.0804409431 	 5.665
172.0882659752 	 4.645
173.0960910073 	 15.92
175.1117410715 	 5.46
183.0804409431 	 3.75
185.0960910073 	 68.27
187.1117410715 	 27.955
193.1011763852 	 4.06
195.0804409431 	 6.37
196.0882659752 	 9.475
197.0960910073 	 7.56
199.1117410715 	 13.33
209.0960910073 	 21.015
210.1039160394 	 8.43
211.1117410715 	 59.105
213.1273911357 	 15.845
222.1039160394 	 8.385
223.1117410715 	 21.29
224.1195661036 	 11.985
225.1273911357 	 18.28
235.1117410715 	 9.68
236.1195661036 	 11.115
237.1273911357 	 26.76
238.1352161678 	 13.335
239.1430411999 	 12.69
241.1586912641 	 2.03
249.1273911357 	 6.86
251.1430411999 	 34.47
253.1586912641 	 62.13
261.1273911357 	 1.85
263.1430411999 	 11.31
265.1586912641 	 11.135
277.1586912641 	 5.485
279.137955822 	 6.245
279.1743413283 	 20.28
280.1821663604 	 4.685
288.150866232 	 2.025
293.1536058862 	 5.22
293.1899913925 	 10.2
297.1485205083 	 2.43
297.1849060146 	 2.165
303.1743413283 	 22.79
311.2005560788 	 3.625
321.1849060146 	 42.885
339.1954707009 	 53.545
363.1954707009 	 1.445
381.2060353872 	 14.275
399.2166000735 	 100
417.2271647598 	 5.125
END IONS

BEGIN IONS
PEPMASS=278.0464
CHARGE=1
MSLEVEL=2
RT=0
SOURCE_INSTRUMENT=qTOF
FILENAME=CCMSLIB00000077117.ms
IONMODE=Positive
ORGANISM=Natural
NAME=Azathioprine
PI=GNPS
DATACOLLECTOR=GNPS
SMILES=Cn1cnc(c1Sc1c2c([nH]cn2)ncn1)N(=O)=O
INCHI=InChI=1S/C9H7N7O2S/c1-15-4-14-7(16(17)18)9(15)19-8-5-6(11-2-10-5)12-3-13-8/h2-4H,1H3,(H,10,11,12,13)
FORMULA=C9H7N7O2S
PUBMED=N/A
SUBMITUSER=BIOADREM
LIBRARYQUALITY=0
SPECTRUMID=CCMSLIB00000077117
SCANS=529
ID=CCMSLIB00000077117
109.0270627019 	 0.546480197438007
113.0167948288 	 1.2398636737572
119.035222085 	 3.42578446350923
120.0430471171 	 1.19285462451522
121.0508721492 	 0.969561640615818
125.0042187698 	 0.78740157480315
134.0586971813 	 0.693383476319191
136.0379617392 	 1.7980961335057
137.0457867713 	 1.44552826419086
142.006958424 	 58.7613115524738
144.0028217863 	 3.1378540369021
146.0461211223 	 0.998942296392055
152.0151178071 	 3.77247620166882
164.0164604778 	 5.99365377835233
165.0229428392 	 4.55400164531672
167.022646026 	 0.440709836643554
172.0617711865 	 6.7340463039135
177.0229428392 	 8.73193089669761
185.0570201596 	 0.916676460218592
190.0307678713 	 0.904924197908097
191.0260168444 	 0.734516394405923
192.0113750999 	 0.705135738629686
199.0726702238 	 21.7005523563286
204.0338418765 	 14.5022916911505
205.0416669086 	 18.1572452697144
215.0260168444 	 0.681631214008697
217.0290908496 	 0.446585967798801
231.0447409138 	 15.4718533317664
232.0525659459 	 100
248.047480568 	 2.45034669173816
249.0427295411 	 0.564108590903749
278.0454691953 	 20.166882124809
END IONS

BEGIN IONS
PEPMASS=503.2437
CHARGE=1
MSLEVEL=2
RT=0
SOURCE_INSTRUMENT=qTOF
FILENAME=CCMSLIB00000077119.ms
IONMODE=Positive
ORGANISM=Natural
NAME=AMCINONIDE
PI=GNPS
DATACOLLECTOR=GNPS
SMILES=CC(=O)OCC(=O)[C@@]12[C@@H](C[C@H]3[C@@H]4CCC5=CC(=O)C=C[C@]5(C)[C@]4([C@H](C[C@]13C)O)F)OC1(CCCC1)O2
INCHI=InChI=1S/C28H35FO7/c1-16(30)34-15-22(33)28-23(35-26(36-28)9-4-5-10-26)13-20-19-7-6-17-12-18(31)8-11-24(17,2)27(19,29)21(32)14-25(20,28)3/h8,11-12,19-21,23,32H,4-7,9-10,13-15H2,1-3H3/t19-,20-,21-,23+,24-,25-,27-,28+/m0/s1
FORMULA=C28H35FO7
PUBMED=N/A
SUBMITUSER=BIOADREM
LIBRARYQUALITY=0
SPECTRUMID=CCMSLIB00000077119
SCANS=530
ID=CCMSLIB00000077119
105.0698762568 	 14.8031368744442
121.0647908789 	 64.1361468186596
133.0647908789 	 11.2054329371817
135.0804409431 	 20.5594631740642
143.085526321 	 12.5879214164443
145.0647908789 	 23.9065405449107
147.0804409431 	 94.0658096855041
159.0804409431 	 58.9700056593096
161.059705501 	 17.3255719945024
161.0960910073 	 21.8206807340933
171.0804409431 	 83.1029185867896
173.0960910073 	 38.8390330665373
183.0804409431 	 11.682431886167
185.0960910073 	 30.2449672568518
187.0753555652 	 28.3612256447571
195.0804409431 	 15.8784056916485
197.0960910073 	 25.8872988923923
207.1168264494 	 12.9032258064516
209.0960910073 	 34.46519524618
210.1039160394 	 16.7192173983345
211.1117410715 	 23.4780499636187
213.1273911357 	 94.9066213921902
221.0960910073 	 14.2937990136632
222.1039160394 	 16.5736922952543
223.1117410715 	 61.3388309483386
225.1273911357 	 65.3407712830463
234.1039160394 	 11.1973482092328
235.1117410715 	 42.5660926509823
237.1273911357 	 40.5772495755518
239.1430411999 	 17.7298083919476
247.1117410715 	 12.9759883579918
248.1195661036 	 12.4666504972108
249.1273911357 	 28.0216670709031
250.1352161678 	 14.5444255800792
251.1430411999 	 44.0860215053763
253.1223057578 	 17.1719621634732
253.1586912641 	 16.4362519201229
260.1195661036 	 25.2566901123777
261.1273911357 	 35.0472956585011
262.1352161678 	 12.0785835556634
263.1430411999 	 57.6198560918425
265.1586912641 	 28.1914463578301
267.137955822 	 5.62697065243755
275.1430411999 	 57.9270757539009
277.1223057578 	 17.446842913736
278.1301307899 	 14.7142048670062
279.137955822 	 32.2257256043334
281.1536058862 	 26.8170426065163
283.1692559504 	 6.33034198399224
293.1536058862 	 74.3390734901771
303.137955822 	 46.398253698763
311.1641705725 	 41.8627213194276
321.1485205083 	 96.1112458565769
339.1590851946 	 100
353.1747352588 	 10.5424852453715
357.1696498809 	 13.9865793516048
363.1590851946 	 5.22273425499232
381.1696498809 	 26.841296790363
399.1802145672 	 59.8189020939445
465.2271647598 	 30.9483385884065
483.2377294461 	 28.8948176893848
503.2439576782 	 6.45969763117471
END IONS

BEGIN IONS
PEPMASS=292.02
CHARGE=1
MSLEVEL=2
RT=0
SOURCE_INSTRUMENT=qTOF
FILENAME=CCMSLIB00000077120.ms
IONMODE=Positive
ORGANISM=Natural
NAME=5-bromo-N-(4,5-dihydro-1H-imidazol-2-yl)quinoxalin-6-amine
PI=GNPS
DATACOLLECTOR=GNPS
SMILES=c1cc2c(c(c1NC1=NCCN1)Br)nccn2
INCHI=InChI=1S/C11H10BrN5/c12-9-7(17-11-15-5-6-16-11)1-2-8-10(9)14-4-3-13-8/h1-4H,5-6H2,(H2,15,16,17)
FORMULA=C11H10BrN5
PUBMED=N/A
SUBMITUSER=BIOADREM
LIBRARYQUALITY=0
SPECTRUMID=CCMSLIB00000077120
SCANS=531
ID=CCMSLIB00000077120
156.0556231761 	 5.17
158.0712732403 	 9.4
185.0821722776 	 3.39
194.9552367067 	 2.68
212.0930713149 	 100
233.966135744 	 2.21
248.9770347813 	 22.14
249.9974358724 	 5.45
274.9926848455 	 4.37
292.019233947 	 390.69
END IONS

BEGIN IONS
PEPMASS=261.033
CHARGE=1
MSLEVEL=2
RT=0
SOURCE_INSTRUMENT=qTOF
FILENAME=CCMSLIB00000077121.ms
IONMODE=Positive
ORGANISM=Natural
NAME=Cytoxan
PI=GNPS
DATACOLLECTOR=GNPS
SMILES=C1CNP(=O)(N(CCCl)CCCl)OC1
INCHI=InChI=1S/C7H15Cl2N2O2P/c8-2-5-11(6-3-9)14(12)10-4-1-7-13-14/h1-7H2,(H,10,12)
FORMULA=C7H15Cl2N2O2P
PUBMED=N/A
SUBMITUSER=BIOADREM
LIBRARYQUALITY=0
SPECTRUMID=CCMSLIB00000077121
SCANS=532
ID=CCMSLIB00000077121
84.0569658468 	 0.123293217032866
86.060039852 	 0.0521389226258388
91.9897674015 	 0.212849484131366
94.0054174657 	 0.224504066835965
102.0105028436 	 0.556966373461902
104.0259763299 	 0.226957663194828
106.0054174657 	 0.500533657208053
106.0416263941 	 1.26728251935274
106.041802972 	 1.33046262559346
120.0210675299 	 4.92804828677634
138.0316322162 	 1.01333529621042
140.002654072 	 12.267981794315
140.0028306499 	 6.13399089715751
142.0184807141 	 2.11009286862218
155.997745272 	 0.0944634598162256
167.997745272 	 0.250880227693742
185.0241177956 	 0.263148209488057
199.0399444377 	 0.264375007667489
225.055417924 	 0.126360212481445
233.0007955377 	 6.57931863629114
261.0320956661 	 100
END IONS

BEGIN IONS
PEPMASS=366.112
CHARGE=1
MSLEVEL=2
RT=0
SOURCE_INSTRUMENT=qTOF
FILENAME=CCMSLIB00000077122.ms
IONMODE=Positive
ORGANISM=Natural
NAME=AMOXICILLIN CRYSTALLINE
PI=GNPS
DATACOLLECTOR=GNPS
SMILES=CC1(C)[C@H](C(=O)O)N2C(=O)[C@H]([C@H]2S1)N=C([C@@H](c1ccc(cc1)O)N)O
INCHI=InChI=1S/C16H19N3O5S/c1-16(2)11(15(23)24)19-13(22)10(14(19)25-16)18-12(21)9(17)7-3-5-8(20)6-4-7/h3-6,9-11,14,20H,17H2,1-2H3,(H,18,21)(H,23,24)/t9-,10-,11+,14-/m1/s1
FORMULA=C16H19N3O5S
PUBMED=N/A
SUBMITUSER=BIOADREM
LIBRARYQUALITY=0
SPECTRUMID=CCMSLIB00000077122
SCANS=533
ID=CCMSLIB00000077122
114.0371959199 	 8.71
115.0212115047 	 4.9
122.060039852 	 12.49
151.0502034472 	 5.2
152.034219032 	 2.72
160.0426752283 	 100
161.047129442 	 8.16
162.0549544741 	 6.5
165.0117094509 	 6.17
167.0273595151 	 6.05
168.0113750999 	 3.02
179.0451180693 	 7.17
189.0658535114 	 5.81
193.006624073 	 13.58
200.0375898504 	 10.77
211.0171887593 	 21.41
217.0607681335 	 14.67
231.0764181977 	 3.75
234.0271222814 	 4.26
243.0434035098 	 5.65
244.0512285419 	 3.3
259.0423408773 	 2.6
275.0662474419 	 7.59
276.0688899788 	 3.33
318.0543025471 	 12.85
321.0903537024 	 4.02
336.0648672334 	 24.83
349.0852683245 	 91.29
351.0883423297 	 6.65
366.111817426 	 53.64
END IONS

BEGIN IONS
PEPMASS=322.067
CHARGE=1
MSLEVEL=2
RT=0
SOURCE_INSTRUMENT=qTOF
FILENAME=CCMSLIB00000077124.ms
IONMODE=Positive
ORGANISM=Natural
NAME=clopidogrel
PI=GNPS
DATACOLLECTOR=GNPS
SMILES=COC(=O)[C@H](c1ccccc1Cl)N1CCc2c(ccs2)C1
INCHI=InChI=1S/C16H16ClNO2S/c1-20-16(19)15(12-4-2-3-5-13(12)17)18-8-6-14-11(10-18)7-9-21-14/h2-5,7,9,15H,6,8,10H2,1H3/t15-/m0/s1
FORMULA=C16H16ClNO2S
PUBMED=N/A
SUBMITUSER=BIOADREM
LIBRARYQUALITY=0
SPECTRUMID=CCMSLIB00000077124
SCANS=535
ID=CCMSLIB00000077124
91.0542261926 	 1.25060762738079
105.0334907505 	 3.10663308144416
111.0262968826 	 0.256308276989703
112.0074288384 	 0.176764328958416
117.0573001978 	 0.225374519421981
125.0152538705 	 19.6606124883998
133.0284053726 	 0.494940121083565
138.0371959199 	 0.256308276989703
138.9945184284 	 0.702638207609704
140.0023434605 	 0.287242034557426
148.0518804689 	 1.65274647576119
152.0261529078 	 42.520659330947
155.0258185568 	 100
167.9972580826 	 0.119315922046931
183.0207331789 	 45.4063370011932
184.0523676583 	 58.9685801405276
185.0186246889 	 4.89637191214813
186.0497719789 	 9.14755402359804
212.0472822804 	 92.4256485041319
213.0499248173 	 8.30792346104556
214.044686601 	 34.8048963719122
264.0370144073 	 0.136992354942773
322.066303163 	 90.4591453444695
END IONS

BEGIN IONS
PEPMASS=389.1636
CHARGE=1
MSLEVEL=2
RT=0
SOURCE_INSTRUMENT=qTOF
FILENAME=CCMSLIB00000077127.ms
IONMODE=Positive
ORGANISM=Natural
NAME=Cetirizine
PI=GNPS
DATACOLLECTOR=GNPS
SMILES=c1ccc(cc1)C(c1ccc(cc1)Cl)N1CCN(CC1)CCOCC(=O)O
INCHI=InChI=1S/C21H25ClN2O3/c22-19-8-6-18(7-9-19)21(17-4-2-1-3-5-17)24-12-10-23(11-13-24)14-15-27-16-20(25)26/h1-9,21H,10-16H2,(H,25,26)
FORMULA=C21H25ClN2O3
PUBMED=N/A
SUBMITUSER=BIOADREM
LIBRARYQUALITY=0
SPECTRUMID=CCMSLIB00000077127
SCANS=537
ID=CCMSLIB00000077127
141.0698762568 	 0.11
147.0804409431 	 0.165
159.0804409431 	 0.12
165.0698762568 	 12.365
166.0777012889 	 25.38
167.0815035756 	 3.325
171.0804409431 	 0.15
183.0804409431 	 0.46
183.0809281325 	 0.35
187.1077183261 	 1.505
193.0733441925 	 0.72
199.0309039347 	 0.12
201.0465539989 	 100
202.0503562856 	 15.095
203.0451180693 	 33.81
237.1273911357 	 0.19
279.1743413283 	 0.305
291.1703185829 	 0.17
307.1692559504 	 0.1
309.1849060146 	 0.16
319.1697431398 	 0.14
389.1626463892 	 22.56
END IONS

BEGIN IONS
PEPMASS=749.5158
CHARGE=1
MSLEVEL=2
RT=0
SOURCE_INSTRUMENT=qTOF
FILENAME=CCMSLIB00000077129.ms
IONMODE=Positive
ORGANISM=Natural
NAME=Azithromycin
PI=GNPS
DATACOLLECTOR=GNPS
SMILES=CC[C@@H]1[C@](C)([C@@H]([C@@H](C)N(C)C[C@H](C)C[C@](C)([C@@H]([C@@H](C)[C@@H]([C@@H](C)C(=O)O1)O[C@H]1C[C@](C)([C@H]([C@H](C)O1)O)OC)O[C@H]1[C@@H]([C@H](C[C@@H](C)O1)N(C)C)O)O)O)O
INCHI=InChI=1S/C38H72N2O12/c1-15-27-38(10,46)31(42)24(6)40(13)19-20(2)17-36(8,45)33(52-35-29(41)26(39(11)12)16-21(3)48-35)22(4)30(23(5)34(44)50-27)51-28-18-37(9,47-14)32(43)25(7)49-28/h20-33,35,41-43,45-46H,15-19H2,1-14H3/t20-,21-,22+,23-,24-,25+,26+,27-,28+,29-,30+,31-,32+,33-,35+,36-,37-,38-/m1/s1
FORMULA=C38H72N2O12
PUBMED=N/A
SUBMITUSER=BIOADREM
LIBRARYQUALITY=0
SPECTRUMID=CCMSLIB00000077129
SCANS=538
ID=CCMSLIB00000077129
98.0964253583 	 3.725782414307
100.0756899162 	 0.516157173494239
113.059705501 	 0.726981934498928
114.0913399804 	 0.54887136054669
115.0753555652 	 3.54403693068227
116.0706045383 	 6.11391806913598
116.1069900446 	 15.6264766820545
127.0753555652 	 2.27908836465414
156.138290173 	 1.97739086183708
158.1175547309 	 70.4263749045836
174.1488548593 	 1.18498055323325
186.1488548593 	 2.38450074515648
195.137955822 	 0.428919341354367
256.190719674 	 0.494347715459271
358.2587992392 	 0.443458980044346
380.2795346813 	 0.494347715459271
398.2900993676 	 7.08080404201956
399.2920511608 	 1.25767874668314
399.2979243997 	 0.378030605939442
416.3006640539 	 2.82432481552833
417.3026158471 	 0.607029915306605
417.308489086 	 0.461633528406819
434.3112287402 	 5.74679219221402
435.3131805334 	 2.31180255170659
457.3272131554 	 1.54483661081022
458.3238047992 	 0.766965940896369
475.3377778417 	 0.865108502053724
573.4109427848 	 22.7981534658864
574.4075344286 	 3.17327614408782
574.412894578 	 4.09654320090146
575.4027834017 	 0.50161753480426
591.4215074711 	 56.3120206462869
592.4180991149 	 10.6175711533568
592.4234592643 	 9.832430664098
731.5052371005 	 0.418014612336883
749.5158017868 	 100
END IONS

BEGIN IONS
PEPMASS=388.1987
CHARGE=1
MSLEVEL=2
RT=0
SOURCE_INSTRUMENT=qTOF
FILENAME=CCMSLIB00000077132.ms
IONMODE=Positive
ORGANISM=Natural
NAME=Terazosin
PI=GNPS
DATACOLLECTOR=GNPS
SMILES=COc1cc2c(cc1OC)nc([nH]c2=N)N1CCN(CC1)C(=O)C1CCCO1
INCHI=InChI=1S/C19H25N5O4/c1-26-15-10-12-13(11-16(15)27-2)21-19(22-17(12)20)24-7-5-23(6-8-24)18(25)14-4-3-9-28-14/h10-11,14H,3-9H2,1-2H3,(H2,20,21,22)
FORMULA=C19H25N5O4
PUBMED=N/A
SUBMITUSER=BIOADREM
LIBRARYQUALITY=0
SPECTRUMID=CCMSLIB00000077132
SCANS=540
ID=CCMSLIB00000077132
98.060039852 	 0.0585099466909375
116.0706045383 	 0.656611623976076
142.0862546025 	 0.20153426082434
158.1175547309 	 0.624106098036666
168.1019046667 	 0.0793134832921597
175.0740128945 	 0.574697698608764
191.0927369639 	 0.0650110518788194
202.0849119318 	 0.113119230269146
203.0927369639 	 1.28266805356911
204.0767525487 	 0.27369652840983
205.0720015218 	 0.661162397607593
206.0798265539 	 0.62995709270576
209.1033016502 	 0.0507086204654791
217.0720015218 	 0.25549343388376
219.087651586 	 0.0520088415030555
221.1033016502 	 8.34676895072162
229.0720015218 	 0.0663112729163958
229.1011763852 	 0.722272786373684
229.1083870281 	 0.247041997139514
230.0798265539 	 0.106618125081264
231.0678648841 	 0.590950461578468
231.087651586 	 5.52984007281238
232.0954766181 	 4.06839162657652
233.1033016502 	 0.254193212846184
243.087651586 	 0.070211936029125
243.0889942567 	 0.0526589520218437
245.1033016502 	 1.13639318684176
245.1073243956 	 0.952411910024704
246.1349361296 	 0.205434923937069
247.1189517144 	 29.5897802626446
248.1182234329 	 0.804186711740996
249.1233683903 	 0.10076713041217
257.1033016502 	 1.01352229879079
258.1039160394 	 0.722272786373684
260.1142006875 	 0.0721622675854895
260.1155433582 	 0.0754128201794305
271.1189517144 	 0.0851644779612534
272.1142006875 	 0.0962163567806527
273.1346017786 	 2.64659992198674
274.1226401088 	 0.640358861006371
274.1298507517 	 1.08958522948901
275.1376757838 	 0.523338967624496
275.1390184545 	 0.211285918606163
284.1142006875 	 0.0565596151345729
287.1866373491 	 0.640358861006371
288.1455008159 	 1.44974645689767
290.1611508801 	 24.7724613184241
290.1624935508 	 6.09283578208295
291.1604225986 	 1.14939539721753
300.1091153096 	 0.0630607203224548
300.1455008159 	 0.405668963723833
302.1247653738 	 0.0624106098036666
316.140415438 	 0.425172279287479
317.1608165291 	 0.0643609413600312
342.1560655022 	 0.248992328695878
344.1717155664 	 0.139773761539462
360.2030156948 	 0.85294500065011
370.1873656306 	 0.299050838642569
372.1666301885 	 1.13054219217267
373.1744552206 	 0.639708750487583
388.1979303169 	 100
END IONS

BEGIN IONS
PEPMASS=405.2648
CHARGE=1
MSLEVEL=2
RT=0
SOURCE_INSTRUMENT=qTOF
FILENAME=CCMSLIB00000077133.ms
IONMODE=Positive
ORGANISM=Natural
NAME=Lovastatin
PI=GNPS
DATACOLLECTOR=GNPS
SMILES=CC[C@H](C)C(=O)O[C@H]1C[C@@H](C)C=C2C=C[C@H](C)[C@H](CC[C@@H]3C[C@H](CC(=O)O3)O)[C@@H]12
INCHI=InChI=1S/C24H36O5/c1-5-15(3)24(27)29-21-11-14(2)10-17-7-6-16(4)20(23(17)21)9-8-19-12-18(25)13-22(26)28-19/h6-7,10,14-16,18-21,23,25H,5,8-9,11-13H2,1-4H3/t14-,15-,16-,18+,19+,20-,21-,23-/m0/s1
FORMULA=C24H36O5
PUBMED=N/A
SUBMITUSER=BIOADREM
LIBRARYQUALITY=0
SPECTRUMID=CCMSLIB00000077133
SCANS=541
ID=CCMSLIB00000077133
105.0698762568 	 2.64666666666667
107.085526321 	 2.43333333333333
119.085526321 	 10.6466666666667
128.0620512247 	 7.56666666666667
129.0698762568 	 6.48333333333333
131.085526321 	 21.82
133.1011763852 	 5.74666666666667
142.0777012889 	 4.92
143.085526321 	 35.06
144.0933513531 	 6.47
145.1011763852 	 29.2
155.085526321 	 15.3666666666667
156.0933513531 	 2.55333333333333
157.1011763852 	 29.7166666666667
158.1090014173 	 12.24
159.1168264494 	 28.1033333333333
163.0753555652 	 1.09
168.0933513531 	 5.92666666666667
169.1011763852 	 25.6766666666667
170.1090014173 	 0.91
171.1168264494 	 26.54
172.1246514815 	 3.95
173.1324765136 	 82.3833333333333
181.1011763852 	 2.93333333333333
182.1090014173 	 4.15333333333333
183.1168264494 	 7.35666666666667
184.1246514815 	 1.5
185.1324765136 	 3.62666666666667
191.1066556936 	 2.65
193.1011763852 	 7.23333333333333
194.1090014173 	 3.19
195.1168264494 	 1.39333333333333
197.1324765136 	 14.58
199.1481265778 	 100
201.163776642 	 7.19333333333333
207.1168264494 	 5.36333333333333
211.1481265778 	 3.43333333333333
215.1794267062 	 6.7
223.1481265778 	 12.74
224.1559516099 	 8.15666666666667
225.163776642 	 61.1533333333333
239.1794267062 	 14.6533333333333
243.1743413283 	 44.43
249.163776642 	 11.09
267.1743413283 	 21.3466666666667
285.1849060146 	 58.49
303.1954707009 	 24.7333333333333
405.2635502661 	 0.973333333333333
END IONS

BEGIN IONS
PEPMASS=339.021
CHARGE=1
MSLEVEL=2
RT=0
SOURCE_INSTRUMENT=qTOF
FILENAME=CCMSLIB00000077136.ms
IONMODE=Positive
ORGANISM=Natural
NAME=Chlorthalidone
PI=GNPS
DATACOLLECTOR=GNPS
SMILES=c1ccc2c(c1)C(=NC2(c1ccc(c(c1)S(=O)(=O)N)Cl)O)O
INCHI=InChI=1S/C14H11ClN2O4S/c15-11-6-5-8(7-12(11)22(16,20)21)14(19)10-4-2-1-3-9(10)13(18)17-14/h1-7,19H,(H,17,18)(H2,16,20,21)
FORMULA=C14H11ClN2O4S
PUBMED=N/A
SUBMITUSER=BIOADREM
LIBRARYQUALITY=0
SPECTRUMID=CCMSLIB00000077136
SCANS=544
ID=CCMSLIB00000077136
126.0464011605 	 5.74055519537927
130.0260596489 	 2.33983615253138
139.0542261926 	 7.7621264808157
144.0113750999 	 4.08439912771851
148.0426752283 	 7.23757882949254
150.0423784151 	 0.683680084870631
150.0464011605 	 9.1707432074026
151.0542261926 	 7.76802027465079
152.0620512247 	 22.5555490068957
153.0334907505 	 2.52843755525432
153.0698762568 	 4.5853716037013
158.0270251641 	 0.43024694996169
161.0107439357 	 1.77992573819768
161.0167948288 	 9.35934461012554
163.0138179409 	 0.719042847881181
167.0491408147 	 0.64242352802499
167.072950262 	 2.77597689632817
168.0569658468 	 5.30441445158248
177.0480949572 	 3.83685978664466
179.0491408147 	 5.14528201803501
180.0569658468 	 3.46555077503389
181.0284053726 	 3.05887900041257
182.9984646899 	 0.442034537631874
185.0112311251 	 2.84670242234927
185.0152538705 	 20.3100135557258
186.0219397862 	 0.477397300642424
186.0230789026 	 10.0135557258207
187.0138179409 	 1.03141392114104
189.0117094509 	 9.35934461012554
191.008732563 	 0.954794601284847
195.0440554368 	 0.57169800200389
195.0678648841 	 4.39677020097837
196.0518804689 	 3.30641834148641
203.0273595151 	 8.23952378145813
204.0325044725 	 2.87027759768963
205.0243826272 	 0.518653857488065
205.0284053726 	 3.27694937231096
207.0440554368 	 9.35934461012554
208.0518804689 	 3.15317970177403
213.0101684926 	 17.9996463723699
214.0168544083 	 0.819237343077739
214.0179935247 	 7.95662167737373
215.0132424978 	 4.33783226262745
222.0549544741 	 3.12371073259857
223.0342747531 	 3.90169151883067
223.0627795062 	 9.8072729415925
225.0546201231 	 2.52843755525432
231.0207331789 	 5.78770554606
241.0050831147 	 10.9742441209406
241.006624073 	 58.9379383509165
242.0088854014 	 1.07267047798668
243.0207331789 	 72.1400365415218
245.0186246889 	 25.4494017799257
258.0316322162 	 8.49295691636706
259.015647801 	 2.88206518535982
259.0171887593 	 9.83084811693287
261.013539311 	 5.94683797960747
274.002737391 	 2.89974656686509
304.9669830489 	 15.5714033123121
305.974808081 	 3.08834796958802
306.9700570541 	 3.05887900041257
321.9935321504 	 100
323.0013571825 	 6.05882006247421
339.0200812519 	 0
END IONS

BEGIN IONS
PEPMASS=352.0425
CHARGE=1
MSLEVEL=2
RT=0
SOURCE_INSTRUMENT=qTOF
FILENAME=CCMSLIB00000077137.ms
IONMODE=Positive
ORGANISM=Natural
NAME=Meloxicam
PI=GNPS
DATACOLLECTOR=GNPS
SMILES=Cc1cnc(N=C(C2=C(c3ccccc3S(=O)(=O)N2C)O)O)s1
INCHI=InChI=1S/C14H13N3O4S2/c1-8-7-15-14(22-8)16-13(19)11-12(18)9-5-3-4-6-10(9)23(20,21)17(11)2/h3-7,18H,1-2H3,(H,15,16,19)
FORMULA=C14H13N3O4S2
PUBMED=N/A
SUBMITUSER=BIOADREM
LIBRARYQUALITY=0
SPECTRUMID=CCMSLIB00000077137
SCANS=545
ID=CCMSLIB00000077137
88.0215458557 	 0.22
91.0542261926 	 0.08
96.9854947004 	 0.1725
97.0106468184 	 0.235
104.0243230477 	 0.0625
104.0494751657 	 0.08
105.0334907505 	 0.4875
109.0106468184 	 0.99
113.0167948288 	 1.02
114.0008104136 	 1.005
115.032444893 	 100
118.0651252299 	 0.1725
120.0192376698 	 0.06
121.0284053726 	 0.19
125.0055614405 	 0.26
127.032444893 	 0.31
135.9963937377 	 0.1275
137.0055614405 	 1.0275
141.0117094509 	 67.45
146.060039852 	 0.4475
153.0004760626 	 3.6975
154.006958424 	 0.185
156.0589939945 	 0.0625
164.0164604778 	 1.0025
176.0164604778 	 0.0725
184.0539086166 	 3.1475
194.0270251641 	 0.59
210.0219397862 	 0.735
265.0099948914 	 0.2775
306.0365439929 	 0.0525
334.031458615 	 0.8225
335.0392836471 	 0.235
352.0420233013 	 47.2525
END IONS

BEGIN IONS
PEPMASS=233.1301
CHARGE=1
MSLEVEL=2
RT=0
SOURCE_INSTRUMENT=qTOF
FILENAME=CCMSLIB00000077138.ms
IONMODE=Positive
ORGANISM=Natural
NAME=Aminoglutethimide
PI=GNPS
DATACOLLECTOR=GNPS
SMILES=CCC1(CCC(=NC1=O)O)c1ccc(cc1)N
INCHI=InChI=1S/C13H16N2O2/c1-2-13(8-7-11(16)15-12(13)17)9-3-5-10(14)6-4-9/h3-6H,2,7-8,14H2,1H3,(H,15,16,17)
FORMULA=C13H16N2O2
PUBMED=N/A
SUBMITUSER=BIOADREM
LIBRARYQUALITY=0
SPECTRUMID=CCMSLIB00000077138
SCANS=546
ID=CCMSLIB00000077138
92.0494751657 	 1.49557862360631
93.0573001978 	 10.5151864667436
94.0651252299 	 12.5028835063437
95.0491408147 	 0.296039984621299
103.0542261926 	 2.35678585159554
106.0651252299 	 13.3794694348328
107.072950262 	 0.488273740868897
112.0756899162 	 5.88235294117647
115.0542261926 	 5.60553633217993
116.0620512247 	 5.72087658592849
117.0573001978 	 6.46674356016917
118.0651252299 	 15.3094963475586
119.072950262 	 4.2560553633218
120.0807752941 	 5.42868127643214
122.060039852 	 0.299884659746251
128.0620512247 	 10.6189926951173
130.0651252299 	 41.9492502883506
131.072950262 	 42.1837754709727
132.0807752941 	 24.8289119569396
133.0886003262 	 1.60707420222991
140.0706045383 	 4.50595924644368
142.0651252299 	 1.95309496347559
144.0807752941 	 7.82006920415225
145.0886003262 	 3.48327566320646
146.0964253583 	 78.4621299500192
148.0756899162 	 0.184544405997693
153.0698762568 	 0.161476355247982
157.0760242672 	 2.04921184159938
158.0838492993 	 6.0322952710496
159.0678648841 	 10.4229142637447
160.0756899162 	 5.70549788542868
160.1120754225 	 24.3829296424452
170.0964253583 	 1.34948096885813
172.0756899162 	 0.976547481737793
174.0913399804 	 0.288350634371396
175.0865889535 	 1.49557862360631
176.0944139856 	 0.25759323337178
186.0787639214 	 1.26105344098424
187.1229744598 	 0.219146482122261
188.1069900446 	 80.8112264513649
190.1100640498 	 0.611303344867359
203.0815035756 	 32.0569011918493
204.0893286077 	 1.56478277585544
205.1335391461 	 62.2722029988466
215.1178890819 	 7.23567858515955
216.1019046667 	 4.63667820069204
233.1284537682 	 100
END IONS

BEGIN IONS
PEPMASS=327.1945
CHARGE=1
MSLEVEL=2
RT=0
SOURCE_INSTRUMENT=qTOF
FILENAME=CCMSLIB00000077146.ms
IONMODE=Positive
ORGANISM=Natural
NAME=(2E,4E,6E,8E)-9-(4-methoxy-2,3,6-trimethylphenyl)-3,7-dimethylnona-2,4,6,8-tetraenoic acid
PI=GNPS
DATACOLLECTOR=GNPS
SMILES=C/C(=C\C=C\C(=C\C(=O)O)\C)/C=C/c1c(C)cc(c(C)c1C)OC
INCHI=InChI=1S/C21H26O3/c1-14(8-7-9-15(2)12-21(22)23)10-11-19-16(3)13-20(24-6)18(5)17(19)4/h7-13H,1-6H3,(H,22,23)/b9-7+,11-10+,14-8+,15-12+
FORMULA=C21H26O3
PUBMED=N/A
SUBMITUSER=BIOADREM
LIBRARYQUALITY=0
SPECTRUMID=CCMSLIB00000077146
SCANS=550
ID=CCMSLIB00000077146
105.0698762568 	 3.56
115.0542261926 	 1.525
116.0620512247 	 1.99
117.0698762568 	 1.295
121.0647908789 	 1.665
129.0698762568 	 1.74
131.085526321 	 19.82
133.1011763852 	 10.175
135.0804409431 	 11.925
141.0698762568 	 1.685
149.0960910073 	 10.05
150.1039160394 	 5.845
151.1117410715 	 18.13
159.0804409431 	 40.965
163.1117410715 	 3.27
171.0804409431 	 2.175
173.0960910073 	 3.755
174.1039160394 	 2.62
175.1117410715 	 1.58
177.0910056294 	 100
186.1039160394 	 7.765
187.1117410715 	 4.38
189.1273911357 	 1.17
199.1117410715 	 1.305
201.1273911357 	 10.525
203.1430411999 	 5.395
213.1273911357 	 11.655
225.1273911357 	 1.24
227.1430411999 	 4.655
228.150866232 	 2.34
237.1273911357 	 4.615
239.1430411999 	 1.57
251.1430411999 	 1.75
252.150866232 	 3.31
253.1586912641 	 1.735
266.1665162962 	 1.16
267.1743413283 	 14.225
279.137955822 	 2.325
281.1899913925 	 13.285
294.1614309183 	 2.315
309.1849060146 	 67.65
327.1954707009 	 49.785
END IONS

BEGIN IONS
PEPMASS=137.108
CHARGE=1
MSLEVEL=2
RT=0
SOURCE_INSTRUMENT=qTOF
FILENAME=CCMSLIB00000077147.ms
IONMODE=Positive
ORGANISM=Natural
NAME=Phenelzine
PI=GNPS
DATACOLLECTOR=GNPS
SMILES=c1ccc(cc1)CCNN
INCHI=InChI=1S/C8H12N2/c9-10-7-6-8-4-2-1-3-5-8/h1-5,10H,6-7,9H2
FORMULA=C8H12N2
PUBMED=N/A
SUBMITUSER=BIOADREM
LIBRARYQUALITY=0
SPECTRUMID=CCMSLIB00000077147
SCANS=551
ID=CCMSLIB00000077147
105.0698762568 	 100
137.1073243956 	 0
END IONS

BEGIN IONS
PEPMASS=377.2131
CHARGE=1
MSLEVEL=2
RT=0
SOURCE_INSTRUMENT=qTOF
FILENAME=CCMSLIB00000077149.ms
IONMODE=Positive
ORGANISM=Natural
NAME=Fluorometholone
PI=GNPS
DATACOLLECTOR=GNPS
SMILES=C[C@H]1C[C@H]2[C@@H]3CC[C@](C(=O)C)([C@@]3(C)C[C@@H]([C@@]2([C@@]2(C)C=CC(=O)C=C12)F)O)O
INCHI=InChI=1S/C22H29FO4/c1-12-9-17-15-6-8-21(27,13(2)24)20(15,4)11-18(26)22(17,23)19(3)7-5-14(25)10-16(12)19/h5,7,10,12,15,17-18,26-27H,6,8-9,11H2,1-4H3/t12-,15-,17-,18-,19-,20-,21-,22-/m0/s1
FORMULA=C22H29FO4
PUBMED=N/A
SUBMITUSER=BIOADREM
LIBRARYQUALITY=0
SPECTRUMID=CCMSLIB00000077149
SCANS=553
ID=CCMSLIB00000077149
105.071019111 	 23.5826199321596
107.085526321 	 18.0907769342594
109.0647908789 	 2.22904215797125
115.0542261926 	 10.5475690518495
119.085526321 	 10.9433047972864
121.0647908789 	 43.8701340655791
128.0620512247 	 8.13277338071394
129.0698762568 	 7.24438701340656
131.0866691752 	 8.90001615247941
133.1011763852 	 9.88531739622032
135.0804409431 	 100
145.0647908789 	 2.81860765627524
145.1011763852 	 10.684865126797
146.072615911 	 11.4117267000485
147.0804409431 	 21.5958649652722
149.0960910073 	 3.86044257793571
157.1011763852 	 9.39266677434986
159.0804409431 	 4.00581489258601
159.0815837973 	 19.3829752867065
161.0960910073 	 65.4094653529317
172.0882659752 	 6.97787110321435
173.0960910073 	 27.0877079631723
175.1117410715 	 9.87724115651753
179.0866691752 	 12.2355031497335
185.0960910073 	 8.88386367307382
185.0972338615 	 26.4900662251656
189.1273911357 	 3.63430786625747
195.0815837973 	 6.77596511064448
196.0882659752 	 7.97124858665805
197.0972338615 	 9.6268777257309
199.1117410715 	 13.2288806331772
209.0960910073 	 20.699402358262
209.1324765136 	 2.63285414311097
211.1117410715 	 2.52786302697464
211.1128839257 	 10.878694879664
213.1273911357 	 14.8683572928445
221.0972338615 	 8.66580520109837
222.1050588936 	 15.6113713455015
223.1117410715 	 3.64238410596026
223.1128839257 	 22.6215474075271
225.1285339899 	 2.60862542400258
227.1066556936 	 6.77596511064448
231.137955822 	 2.35018575351316
233.1336193678 	 2.94782749151995
235.1117410715 	 2.77015021805847
235.1128839257 	 12.8977548053626
236.1207089578 	 17.8888709416896
237.1273911357 	 11.9043773219189
237.1285339899 	 33.3387174931352
239.1430411999 	 2.54401550638023
249.1273911357 	 6.0329510579874
249.1285339899 	 12.1385882733
251.1441840541 	 33.0641253432402
253.1586912641 	 3.0124374091423
263.1430411999 	 3.0124374091423
263.1441840541 	 20.4732676465838
267.137955822 	 3.94120497496366
269.1547487404 	 5.35454692295267
274.136359022 	 7.51090292359877
277.1586912641 	 3.50508803101276
277.1598341183 	 6.64674527539978
278.1665162962 	 3.03666612825069
278.1676591504 	 8.93232111129058
279.1743413283 	 80.7623970279438
293.1899913925 	 5.15264093038281
295.1692559504 	 4.61153287029559
297.1849060146 	 12.5181715393313
303.1743413283 	 13.6165401389113
311.2005560788 	 3.06089484735907
321.1849060146 	 45.759974156033
339.1954707009 	 58.3750605717978
357.2060353872 	 34.0898077854951
377.2122636193 	 23.5987724115652
END IONS

BEGIN IONS
PEPMASS=306.0801
CHARGE=1
MSLEVEL=2
RT=0
SOURCE_INSTRUMENT=qTOF
FILENAME=CCMSLIB00000077152.ms
IONMODE=Positive
ORGANISM=Natural
NAME=Sertraline
PI=GNPS
DATACOLLECTOR=GNPS
SMILES=CN[C@H]1CC[C@@H](c2ccc(c(c2)Cl)Cl)c2ccccc12
INCHI=InChI=1S/C17H17Cl2N/c1-20-17-9-7-12(13-4-2-3-5-14(13)17)11-6-8-15(18)16(19)10-11/h2-6,8,10,12,17,20H,7,9H2,1H3/t12-,17-/m0/s1
FORMULA=C17H17Cl2N
PUBMED=N/A
SUBMITUSER=BIOADREM
LIBRARYQUALITY=0
SPECTRUMID=CCMSLIB00000077152
SCANS=555
ID=CCMSLIB00000077152
102.0464011605 	 0.07
103.0542261926 	 0.245
115.0542261926 	 0.19
122.9996038063 	 1.9525
124.0074288384 	 0.075
127.0542261926 	 0.6875
128.0620512247 	 4.2275
129.0698762568 	 18.815
132.9606314842 	 0.375
158.9762815484 	 100
162.0230789026 	 1.115
196.9919316126 	 1.3025
204.0933513531 	 0.4475
205.1011763852 	 1.8925
212.0387289668 	 0.1175
225.0465539989 	 0.36
239.0622040631 	 0.1625
240.0700290952 	 2.0075
260.0154067089 	 0.085
275.0388818052 	 70.3625
306.0810809709 	 1.69
END IONS

BEGIN IONS
PEPMASS=305.2491
CHARGE=1
MSLEVEL=2
RT=0
SOURCE_INSTRUMENT=qTOF
FILENAME=CCMSLIB00000077192.ms
IONMODE=Positive
ORGANISM=Natural
NAME=Arachidonic_acid
PI=GNPS
DATACOLLECTOR=GNPS
SMILES=CCCCCC=CCC=CCC=CCC=CCCCC(=O)O
INCHI=InChI=1S/C20H32O2/c1-2-3-4-5-6-7-8-9-10-11-12-13-14-15-16-17-18-19-20(21)22/h6-7,9-10,12-13,15-16H,2-5,8,11,14,17-19H2,1H3,(H,21,22)
FORMULA=C20H32O2
PUBMED=N/A
SUBMITUSER=BIOADREM
LIBRARYQUALITY=0
SPECTRUMID=CCMSLIB00000077192
SCANS=557
ID=CCMSLIB00000077192
95.085526321 	 13.25
105.0698762568 	 20.48
107.085526321 	 29.05
109.1011763852 	 10.44
117.0698762568 	 14.12
119.085526321 	 10.78
121.1011763852 	 29.18
123.1168264494 	 17.67
131.085526321 	 23.23
133.1011763852 	 12.32
135.0804409431 	 10.71
135.1168264494 	 20.28
137.1324765136 	 15.33
139.0753555652 	 12.32
145.1011763852 	 9.3
147.1168264494 	 16.2
149.0960910073 	 13.52
149.1324765136 	 15.8
151.1117410715 	 13.92
153.0910056294 	 16.87
157.1011763852 	 9.57
161.0960910073 	 27.11
161.1324765136 	 18.47
163.1117410715 	 12.58
163.1481265778 	 25.3
167.1066556936 	 19.14
175.1117410715 	 10.91
175.1481265778 	 14.46
177.163776642 	 41.3
179.1066556936 	 25.23
185.1324765136 	 9.17
191.1794267062 	 13.65
193.1223057578 	 37.35
203.1430411999 	 13.52
207.137955822 	 60.58
209.1536058862 	 21.62
217.1586912641 	 11.18
221.1536058862 	 86.08
223.1692559504 	 17.6
235.1692559504 	 46.52
243.2107268346 	 11.38
245.2263768988 	 22.49
249.1849060146 	 11.45
259.2056414567 	 17.94
259.242026963 	 11.65
269.2263768988 	 49.4
287.2369415851 	 100
305.2475062714 	 516.73
END IONS

BEGIN IONS
PEPMASS=361.201
CHARGE=1
MSLEVEL=2
RT=0
SOURCE_INSTRUMENT=qTOF
FILENAME=CCMSLIB00000077194.ms
IONMODE=Positive
ORGANISM=Natural
NAME=Cortisone
PI=GNPS
DATACOLLECTOR=GNPS
SMILES=CC12CCC(=O)C=C1CCC1C3CCC(C(=O)CO)(C3(C)CC(=O)C21)O
INCHI=InChI=1S/C21H28O5/c1-19-7-5-13(23)9-12(19)3-4-14-15-6-8-21(26,17(25)11-22)20(15,2)10-16(24)18(14)19/h9,14-15,18,22,26H,3-8,10-11H2,1-2H3
FORMULA=C21H28O5
PUBMED=N/A
SUBMITUSER=BIOADREM
LIBRARYQUALITY=0
SPECTRUMID=CCMSLIB00000077194
SCANS=558
ID=CCMSLIB00000077194
105.0698762568 	 23.95
107.0491408147 	 5.54
107.085526321 	 6.65
115.0542261926 	 7.29
117.0698762568 	 8.19
119.085526321 	 9.7
121.0647908789 	 22.68
128.0620512247 	 5.11
129.0698762568 	 12.4
131.085526321 	 10.25
135.0804409431 	 9.73
135.1168264494 	 9.51
143.085526321 	 6.25
145.0647908789 	 5.23
145.1011763852 	 8.06
147.0804409431 	 11.54
148.0882659752 	 12.65
155.085526321 	 5.45
157.1011763852 	 9.97
159.0804409431 	 5.72
163.1117410715 	 100
171.1168264494 	 5.32
175.1117410715 	 6.93
199.1117410715 	 5.94
239.1430411999 	 9.48
241.1586912641 	 9.7
243.137955822 	 11.82
249.163776642 	 7.33
255.1743413283 	 4.96
257.1536058862 	 9.39
265.1586912641 	 17.7
267.1743413283 	 15.6
283.1692559504 	 15.76
285.1849060146 	 16.1
295.1692559504 	 5.48
297.1849060146 	 9.57
299.1641705725 	 11.79
301.1798206367 	 22.41
307.1692559504 	 11.08
313.1798206367 	 30.53
325.1798206367 	 30.04
343.190385323 	 53.34
361.2009500093 	 900.22
END IONS

BEGIN IONS
PEPMASS=496.3411
CHARGE=1
MSLEVEL=2
RT=0
SOURCE_INSTRUMENT=qTOF
FILENAME=CCMSLIB00000077195.ms
IONMODE=Positive
ORGANISM=Natural
NAME=LysoPhosphatidylcholine_16_0
PI=GNPS
DATACOLLECTOR=GNPS
SMILES=CCCCCCCCCCCCCCCC(=O)OCC(COP(=O)([O-])OCC[N+](C)(C)C)O
INCHI=InChI=1S/C24H50NO7P/c1-5-6-7-8-9-10-11-12-13-14-15-16-17-18-24(27)30-21-23(26)22-32-33(28,29)31-20-19-25(2,3)4/h23,26H,5-22H2,1-4H3
FORMULA=C24H50NO7P
PUBMED=N/A
SUBMITUSER=BIOADREM
LIBRARYQUALITY=0
SPECTRUMID=CCMSLIB00000077195
SCANS=559
ID=CCMSLIB00000077195
98.9841710947 	 3.97
104.1069900446 	 35.67
124.9998211589 	 20.57
184.073320453 	 100
258.1100998898 	 4
340.3699671308 	 1.48
367.3570567208 	 1.48
478.3292007886 	 25.61
479.3370258207 	 7
495.3319404428 	 2.16
496.3397654749 	 560.49
END IONS

BEGIN IONS
PEPMASS=522.3563
CHARGE=1
MSLEVEL=2
RT=0
SOURCE_INSTRUMENT=qTOF
FILENAME=CCMSLIB00000077196.ms
IONMODE=Positive
ORGANISM=Natural
NAME=1_18_1_lysophosphatidylcholine
PI=GNPS
DATACOLLECTOR=GNPS
SMILES=CCCCCCCCC=CCCCCCCCC(=O)OCC(COP(=O)([O-])OCC[N+](C)(C)C)O
INCHI=InChI=1S/C26H52NO7P/c1-5-6-7-8-9-10-11-12-13-14-15-16-17-18-19-20-26(29)32-23-25(28)24-34-35(30,31)33-22-21-27(2,3)4/h12-13,25,28H,5-11,14-24H2,1-4H3
FORMULA=C26H52NO7P
PUBMED=N/A
SUBMITUSER=BIOADREM
LIBRARYQUALITY=0
SPECTRUMID=CCMSLIB00000077196
SCANS=560
ID=CCMSLIB00000077196
98.9841710947 	 8.24
104.1069900446 	 39.51
124.9998211589 	 23.9
166.0627557667 	 11.04
184.073320453 	 100
504.3448508528 	 32.55
522.3554155391 	 624.4
END IONS

BEGIN IONS
PEPMASS=283.2632
CHARGE=1
MSLEVEL=2
RT=0
SOURCE_INSTRUMENT=qTOF
FILENAME=CCMSLIB00000077197.ms
IONMODE=Positive
ORGANISM=Natural
NAME=Oleic_acid
PI=GNPS
DATACOLLECTOR=GNPS
SMILES=CCCCCCCCC=CCCCCCCCC(=O)O
INCHI=InChI=1S/C18H34O2/c1-2-3-4-5-6-7-8-9-10-11-12-13-14-15-16-17-18(19)20/h9-10H,2-8,11-17H2,1H3,(H,19,20)
FORMULA=C18H34O2
PUBMED=N/A
SUBMITUSER=BIOADREM
LIBRARYQUALITY=0
SPECTRUMID=CCMSLIB00000077197
SCANS=561
ID=CCMSLIB00000077197
91.0542261926 	 5.74
95.085526321 	 12.62
97.0647908789 	 8.4
97.1011763852 	 17.5
101.059705501 	 4.48
107.085526321 	 18.42
109.1011763852 	 21.52
111.0804409431 	 13.38
111.1168264494 	 11.8
115.0753555652 	 6.03
115.1117410715 	 4.85
121.1011763852 	 27.72
123.1168264494 	 11.87
125.0960910073 	 19.08
125.1324765136 	 4.61
129.0910056294 	 8.77
135.1168264494 	 29
137.1324765136 	 11.54
139.1117410715 	 19.48
143.1066556936 	 8.54
149.1324765136 	 34.87
151.1481265778 	 5.97
153.1273911357 	 26.33
155.1794267062 	 3.56
163.1481265778 	 31.87
165.163776642 	 10.84
167.1430411999 	 26.43
171.137955822 	 11.07
177.163776642 	 21.62
179.1794267062 	 4.71
181.1586912641 	 17.7
185.1536058862 	 11.77
185.1899913925 	 4.32
191.1794267062 	 27.29
195.1743413283 	 28.54
199.1692559504 	 6.66
205.1950767704 	 9.79
209.1899913925 	 8.08
213.1849060146 	 4.42
223.2056414567 	 5.17
247.242026963 	 100
265.2525916493 	 56.2
283.2631563356 	 7.81
END IONS

BEGIN IONS
PEPMASS=318.3007
CHARGE=1
MSLEVEL=2
RT=0
SOURCE_INSTRUMENT=qTOF
FILENAME=CCMSLIB00000077198.ms
IONMODE=Positive
ORGANISM=Natural
NAME=Phytosphingosine
PI=GNPS
DATACOLLECTOR=GNPS
SMILES=CCCCCCCCCCCCCCC(C(C(CO)N)O)O
INCHI=InChI=1S/C18H39NO3/c1-2-3-4-5-6-7-8-9-10-11-12-13-14-17(21)18(22)16(19)15-20/h16-18,20-22H,2-15,19H2,1H3
FORMULA=C18H39NO3
PUBMED=N/A
SUBMITUSER=BIOADREM
LIBRARYQUALITY=0
SPECTRUMID=CCMSLIB00000077198
SCANS=562
ID=CCMSLIB00000077198
247.242026963 	 5.42
252.2685760645 	 14.33
254.2842261287 	 3.79
264.2685760645 	 23.53
270.2791407508 	 16.06
282.2791407508 	 98.47
300.2897054371 	 100
318.3002701234 	 192.04
END IONS

BEGIN IONS
PEPMASS=225.0761
CHARGE=1
MSLEVEL=2
RT=0
SOURCE_INSTRUMENT=qTOF
FILENAME=CCMSLIB00000077199.ms
IONMODE=Positive
ORGANISM=Natural
NAME=Sinapic_acid
PI=GNPS
DATACOLLECTOR=GNPS
SMILES=COc1cc(C=CC(=O)O)cc(c1O)OC
INCHI=InChI=1S/C11H12O5/c1-15-8-5-7(3-4-10(12)13)6-9(16-2)11(8)14/h3-6,14H,1-2H3,(H,12,13)
FORMULA=C11H12O5
PUBMED=N/A
SUBMITUSER=BIOADREM
LIBRARYQUALITY=0
SPECTRUMID=CCMSLIB00000077199
SCANS=563
ID=CCMSLIB00000077199
89.0385761284 	 4.78
103.0542261926 	 2.54
105.0334907505 	 3.71
107.0491408147 	 4.37
108.0569658468 	 2.68
117.0334907505 	 4.81
118.0413157826 	 5.5
119.0491408147 	 31.06
121.0284053726 	 4.87
121.0647908789 	 5.17
122.0362304047 	 1.71
123.0440554368 	 9.73
125.0233199947 	 1.94
129.0334907505 	 5.56
131.0127553084 	 1.8
135.0440554368 	 3.57
137.059705501 	 3.07
140.046795091 	 3.51
147.0440554368 	 38.25
149.0233199947 	 10.59
153.0546201231 	 1.83
155.0702701873 	 8.13
162.0311450268 	 2.82
164.046795091 	 7.47
175.0389700589 	 100
177.0182346168 	 1.74
177.0546201231 	 3.37
179.0702701873 	 11.17
183.0651848094 	 5.25
192.0417097131 	 28.1
207.0651848094 	 58.85
225.0757494957 	 1.55
END IONS

BEGIN IONS
PEPMASS=731.606
CHARGE=1
MSLEVEL=2
RT=0
SOURCE_INSTRUMENT=qTOF
FILENAME=CCMSLIB00000077200.ms
IONMODE=Positive
ORGANISM=Natural
NAME=SphingomyelinSM_d18_0_18_1_9Z
PI=GNPS
DATACOLLECTOR=GNPS
SMILES=CCCCCCCCC=CCCCCCCCC(=NC(COP(=O)([O-])OCC[N+](C)(C)C)C(CCCCCCCCCCCCCCC)O)O
INCHI=InChI=1S/C41H83N2O6P/c1-6-8-10-12-14-16-18-20-21-23-25-27-29-31-33-35-41(45)42-39(38-49-50(46,47)48-37-36-43(3,4)5)40(44)34-32-30-28-26-24-22-19-17-15-13-11-9-7-2/h20-21,39-40,44H,6-19,22-38H2,1-5H3,(H-,42,45,46,47)
FORMULA=C41H83N2O6P
PUBMED=N/A
SUBMITUSER=BIOADREM
LIBRARYQUALITY=0
SPECTRUMID=CCMSLIB00000077200
SCANS=564
ID=CCMSLIB00000077200
104.1069900446 	 2.78
184.073320453 	 100
264.2685760645 	 9.88
278.2842261287 	 3.8
388.2736972824 	 1.76
394.4533028297 	 3.98
417.3240558312 	 5.68
418.308071416 	 5.68
419.2947670755 	 1.99
419.3311525818 	 2.1
430.308071416 	 5.57
431.2947670755 	 2.5
431.3311525818 	 1.87
432.3111454212 	 4.83
445.3189704533 	 1.82
447.3346205175 	 88.76
448.333892236 	 15.73
449.3417172681 	 3.58
485.3053317618 	 2.04
528.5267783843 	 2.04
531.5373668101 	 3.8
654.5220869369 	 9.82
655.5087825964 	 2.56
656.5139275538 	 1.82
672.5452276822 	 2.67
713.595586231 	 28.96
714.6034112631 	 28.45
715.6112362952 	 8.4
731.6061509173 	 0
END IONS

BEGIN IONS
PEPMASS=286.274
CHARGE=1
MSLEVEL=2
RT=0
SOURCE_INSTRUMENT=qTOF
FILENAME=CCMSLIB00000077201.ms
IONMODE=Positive
ORGANISM=Natural
NAME=C17_Sphingosine 
PI=GNPS
DATACOLLECTOR=GNPS
SMILES=CCCCCCCCCCCCC=CC(C(CO)N)O
INCHI=InChI=1S/C17H35NO2/c1-2-3-4-5-6-7-8-9-10-11-12-13-14-17(20)16(18)15-19/h13-14,16-17,19-20H,2-12,15,18H2,1H3
FORMULA=C17H35NO2
PUBMED=N/A
SUBMITUSER=BIOADREM
LIBRARYQUALITY=0
SPECTRUMID=CCMSLIB00000077201
SCANS=565
ID=CCMSLIB00000077201
223.229450904 	 0.28
238.2529260003 	 16.37
250.2529260003 	 11.6
268.2634906866 	 100
286.2740553729 	 0
END IONS

BEGIN IONS
PEPMASS=300.29
CHARGE=1
MSLEVEL=2
RT=0
SOURCE_INSTRUMENT=qTOF
FILENAME=CCMSLIB00000077202.ms
IONMODE=Positive
ORGANISM=Natural
NAME=C18_Sphingosine
PI=GNPS
DATACOLLECTOR=GNPS
SMILES=CCCCCCCCCCCCCC=CC(C(CO)N)O
INCHI=InChI=1S/C18H37NO2/c1-2-3-4-5-6-7-8-9-10-11-12-13-14-15-18(21)17(19)16-20/h14-15,17-18,20-21H,2-13,16,19H2,1H3
FORMULA=C18H37NO2
PUBMED=N/A
SUBMITUSER=BIOADREM
LIBRARYQUALITY=0
SPECTRUMID=CCMSLIB00000077202
SCANS=566
ID=CCMSLIB00000077202
107.085526321 	 1.96
150.1403015457 	 0.75
236.2372759361 	 0.7
240.2321905582 	 0.67
252.2685760645 	 25.07
264.2685760645 	 24.16
282.2791407508 	 100
300.2897054371 	 0
END IONS

BEGIN IONS
PEPMASS=161.106
CHARGE=1
MSLEVEL=2
RT=0
SOURCE_INSTRUMENT=qTOF
FILENAME=CCMSLIB00000077203.ms
IONMODE=Positive
ORGANISM=Natural
NAME=Tryptmanine
PI=GNPS
DATACOLLECTOR=GNPS
SMILES=c1ccc2c(c1)c(CCN)c[nH]2
INCHI=InChI=1S/C10H12N2/c11-6-5-8-7-12-10-4-2-1-3-9(8)10/h1-4,7,12H,5-6,11H2
FORMULA=C10H12N2
PUBMED=N/A
SUBMITUSER=BIOADREM
LIBRARYQUALITY=0
SPECTRUMID=CCMSLIB00000077203
SCANS=567
ID=CCMSLIB00000077203
115.0542261926 	 6.77
118.0651252299 	 3.42
128.0494751657 	 3.57
132.0807752941 	 3.2
143.072950262 	 14.57
144.0807752941 	 100
161.1073243956 	 0
END IONS

BEGIN IONS
PEPMASS=311.1642
CHARGE=1
MSLEVEL=2
RT=0
SOURCE_INSTRUMENT=qTOF
FILENAME=CCMSLIB00000077204.ms
IONMODE=Positive
ORGANISM=Natural
NAME=Avobenzone
PI=GNPS
DATACOLLECTOR=GNPS
SMILES=CC(C)(C)c1ccc(cc1)C(=O)CC(=O)c1ccc(cc1)OC
INCHI=InChI=1S/C20H22O3/c1-20(2,3)16-9-5-14(6-10-16)18(21)13-19(22)15-7-11-17(23-4)12-8-15/h5-12H,13H2,1-4H3
FORMULA=C20H22O3
PUBMED=N/A
SUBMITUSER=BIOADREM
LIBRARYQUALITY=0
SPECTRUMID=CCMSLIB00000077204
SCANS=568
ID=CCMSLIB00000077204
91.0542261926 	 2.27735887507642
92.0256657184 	 2.91420419808437
93.0698762568 	 0.0840635826370491
94.0413157826 	 0.185958834318321
103.0542261926 	 1.06480538006929
105.0334907505 	 0.659771754636234
105.0698762568 	 3.79559812512737
107.0491408147 	 1.54880782555533
109.0647908789 	 0.832993682494396
115.0542261926 	 0.295496229875688
117.0698762568 	 1.75769309150194
118.0777012889 	 3.75229264316283
125.059705501 	 0.883941308335032
129.0698762568 	 0.866109639290809
130.0777012889 	 0.817709394742205
131.0491408147 	 0.993478703892399
131.085526321 	 1.04442632973303
133.1011763852 	 1.23547992663542
135.0440554368 	 59.8277970246586
146.072615911 	 10.5079478296311
150.0675305331 	 1.89525168127165
161.0960910073 	 69.06969635215
203.1066556936 	 1.99205217036886
311.1641705725 	 100
END IONS

BEGIN IONS
PEPMASS=309.0427
CHARGE=1
MSLEVEL=2
RT=0
SOURCE_INSTRUMENT=qTOF
FILENAME=CCMSLIB00000077205.ms
IONMODE=Positive
ORGANISM=Natural
NAME=Benzophenone_4
PI=GNPS
DATACOLLECTOR=GNPS
SMILES=COc1cc(c(cc1S(=O)(=O)O)C(=O)c1ccccc1)O
INCHI=InChI=1S/C14H12O6S/c1-20-12-8-11(15)10(7-13(12)21(17,18)19)14(16)9-5-3-2-4-6-9/h2-8,15H,1H3,(H,17,18,19)
FORMULA=C14H12O6S
PUBMED=N/A
SUBMITUSER=BIOADREM
LIBRARYQUALITY=0
SPECTRUMID=CCMSLIB00000077205
SCANS=569
ID=CCMSLIB00000077205
95.0127553084 	 0.61
95.0491408147 	 0.6
96.0205803405 	 0.53
105.0334907505 	 9.17
106.0049302763 	 1.01
107.0127553084 	 10.02
108.0205803405 	 1.94
109.0284053726 	 0.58
115.0542261926 	 1.27
119.0127553084 	 2.56
120.0205803405 	 3.45
121.0284053726 	 9.37
123.0076699305 	 3.24
125.0233199947 	 1.21
127.0542261926 	 1.05
128.0620512247 	 2.39
135.0076699305 	 20.6
141.0698762568 	 1.56
149.0233199947 	 6.78
151.0389700589 	 3.29
152.0104095847 	 2.82
155.0525116331 	 0.93
183.0474262552 	 0.99
184.0518804689 	 0.88
197.059705501 	 4.83
198.9695698647 	 9.4
211.0389700589 	 4.03
212.046795091 	 3.43
227.0702701873 	 3.78
228.0417097131 	 0.83
230.9957846152 	 100
232.9903053068 	 13.89
243.0651848094 	 13.51
291.0321701215 	 26.55
309.0427348078 	 129.56
END IONS

BEGIN IONS
PEPMASS=362.212
CHARGE=1
MSLEVEL=2
RT=0
SOURCE_INSTRUMENT=qTOF
FILENAME=CCMSLIB00000077208.ms
IONMODE=Positive
ORGANISM=Natural
NAME=Octocrylene
PI=GNPS
DATACOLLECTOR=GNPS
SMILES=CCCCC(CC)COC(=O)C(=C(c1ccccc1)c1ccccc1)C#N
INCHI=InChI=1S/C24H27NO2/c1-3-5-12-19(4-2)18-27-24(26)22(17-25)23(20-13-8-6-9-14-20)21-15-10-7-11-16-21/h6-11,13-16,19H,3-5,12,18H2,1-2H3
FORMULA=C24H27NO2
PUBMED=N/A
SUBMITUSER=BIOADREM
LIBRARYQUALITY=0
SPECTRUMID=CCMSLIB00000077208
SCANS=570
ID=CCMSLIB00000077208
188.0494751657 	 0.87
202.0651252299 	 7.04
203.072950262 	 53.97
204.0807752941 	 72
220.0756899162 	 1.37
232.0756899162 	 100
250.0862546025 	 62.57
362.2114551161 	 0
END IONS

BEGIN IONS
PEPMASS=303.0863
CHARGE=1
MSLEVEL=2
RT=0
SOURCE_INSTRUMENT=qTOF
FILENAME=CCMSLIB00000077213.ms
IONMODE=Positive
ORGANISM=Natural
NAME=Homoeriodictyol
PI=GNPS
DATACOLLECTOR=GNPS
SMILES=COc1cc(ccc1O)C1CC(=O)c2c(cc(cc2O1)O)O
INCHI=InChI=1S/C16H14O6/c1-21-14-4-8(2-3-10(14)18)13-7-12(20)16-11(19)5-9(17)6-15(16)22-13/h2-6,13,17-19H,7H2,1H3
FORMULA=C16H14O6
PUBMED=N/A
SUBMITUSER=BIOADREM
LIBRARYQUALITY=0
SPECTRUMID=CCMSLIB00000077213
SCANS=571
ID=CCMSLIB00000077213
106.0413157826 	 3.4
111.0076699305 	 3.26
117.0334907505 	 21.46
117.0546201231 	 2.2
134.0362304047 	 10.62
145.0284053726 	 25.42
149.059705501 	 14.87
153.0182346168 	 100
162.0311450268 	 5.88
166.9974991747 	 40.09
171.0440554368 	 4.25
177.0546201231 	 30.03
200.046795091 	 2.83
226.0624451552 	 3.05
243.0651848094 	 3.33
253.0706641178 	 2.21
303.086314182 	 0
END IONS

BEGIN IONS
PEPMASS=273.0757
CHARGE=1
MSLEVEL=2
RT=0
SOURCE_INSTRUMENT=qTOF
FILENAME=CCMSLIB00000077217.ms
IONMODE=Positive
ORGANISM=Natural
NAME=Naringenin
PI=GNPS
DATACOLLECTOR=GNPS
SMILES=c1cc(ccc1C1CC(=O)c2c(cc(cc2O1)O)O)O
INCHI=InChI=1S/C15H12O5/c16-9-3-1-8(2-4-9)13-7-12(19)15-11(18)5-10(17)6-14(15)20-13/h1-6,13,16-18H,7H2
FORMULA=C15H12O5
PUBMED=N/A
SUBMITUSER=BIOADREM
LIBRARYQUALITY=0
SPECTRUMID=CCMSLIB00000077217
SCANS=572
ID=CCMSLIB00000077217
95.0491408147 	 2.76
109.0284053726 	 1.99
111.0076699305 	 3.98
112.9869344884 	 1.51
118.0413157826 	 1.54
121.1011763852 	 2.6
123.0440554368 	 1.61
128.0620512247 	 1.93
147.0440554368 	 21.57
152.0620512247 	 1.7
153.0182346168 	 100
174.0311450268 	 1.64
207.0287993031 	 7.12
273.0757494957 	 0
END IONS

BEGIN IONS
PEPMASS=271.0965
CHARGE=1
MSLEVEL=2
RT=0
SOURCE_INSTRUMENT=qTOF
FILENAME=CCMSLIB00000077220.ms
IONMODE=Positive
ORGANISM=Natural
NAME=Pinostrobin
PI=GNPS
DATACOLLECTOR=GNPS
SMILES=COc1cc(c2C(=O)CC(c3ccccc3)Oc2c1)O
INCHI=InChI=1S/C16H14O4/c1-19-11-7-12(17)16-13(18)9-14(20-15(16)8-11)10-5-3-2-4-6-10/h2-8,14,17H,9H2,1H3
FORMULA=C16H14O4
PUBMED=N/A
SUBMITUSER=BIOADREM
LIBRARYQUALITY=0
SPECTRUMID=CCMSLIB00000077220
SCANS=574
ID=CCMSLIB00000077220
193.0647908789 	 6.6
271.0964849378 	 0
END IONS

BEGIN IONS
PEPMASS=611.197
CHARGE=1
MSLEVEL=2
RT=0
SOURCE_INSTRUMENT=qTOF
FILENAME=CCMSLIB00000077991.ms
IONMODE=Positive
ORGANISM=Natural
NAME=Hesperedin
PI=GNPS
DATACOLLECTOR=GNPS
SMILES=C[C@H]1[C@@H]([C@H]([C@H]([C@H](OC[C@@H]2[C@H]([C@@H]([C@H]([C@H](Oc3cc(c4C(=O)C[C@@H](c5ccc(c(c5)O)OC)Oc4c3)O)O2)O)O)O)O1)O)O)O
INCHI=InChI=1S/C28H34O15/c1-10-21(32)23(34)25(36)27(40-10)39-9-19-22(33)24(35)26(37)28(43-19)41-12-6-14(30)20-15(31)8-17(42-18(20)7-12)11-3-4-16(38-2)13(29)5-11/h3-7,10,17,19,21-30,32-37H,8-9H2,1-2H3/t10-,17-,19+,21-,22+,23+,24-,25+,26+,27+,28+/m0/s1
FORMULA=C28H34O15
PUBMED=N/A
SUBMITUSER=BIOADREM
LIBRARYQUALITY=0
SPECTRUMID=CCMSLIB00000077991
SCANS=575
ID=CCMSLIB00000077991
117.0334907505 	 1.42
119.0491408147 	 0.85
129.0546201231 	 2.71
135.0440554368 	 1.38
137.059705501 	 2.88
145.0284053726 	 2.88
147.0651848094 	 0.94
149.059705501 	 2.05
151.0389700589 	 1.87
153.0182346168 	 80.59
163.0389700589 	 1.3
165.0182346168 	 3.3
177.0546201231 	 56.19
179.033884681 	 9.4
191.033884681 	 1.24
195.0287993031 	 11.98
219.0287993031 	 5.54
235.0600994315 	 0.72
243.0651848094 	 1.03
245.0444493673 	 5.13
261.0757494957 	 1.67
263.0550140536 	 6.43
285.0757494957 	 3.42
301.0706641178 	 6.6
303.0651848094 	 100
303.086314182 	 100
315.086314182 	 1.28
327.086314182 	 1.7
345.0757494957 	 7.43
345.0968788683 	 1.2
369.0757494957 	 2.85
395.0913995599 	 0.68
413.1019642462 	 7.03
431.1125289325 	 7.73
449.1230936188 	 11.18
611.1970464229 	 0
END IONS

BEGIN IONS
PEPMASS=303.0499
CHARGE=1
MSLEVEL=2
RT=0
SOURCE_INSTRUMENT=qTOF
FILENAME=CCMSLIB00000077993.ms
IONMODE=Positive
ORGANISM=Natural
NAME=Quercetin
PI=GNPS
DATACOLLECTOR=GNPS
SMILES=c1cc(c(cc1c1c(c(=O)c2c(cc(cc2o1)O)O)O)O)O
INCHI=InChI=1S/C15H10O7/c16-7-4-10(19)12-11(5-7)22-15(14(21)13(12)20)6-1-2-8(17)9(18)3-6/h1-5,16-19,21H
FORMULA=C15H10O7
PUBMED=N/A
SUBMITUSER=BIOADREM
LIBRARYQUALITY=0
SPECTRUMID=CCMSLIB00000077993
SCANS=576
ID=CCMSLIB00000077993
121.0495347452 	 0.972104818258664
137.0233199947 	 23.2741617357002
138.0311450268 	 6.07682915375223
145.0647908789 	 7.50915750915751
149.0233199947 	 5.32544378698225
153.0182346168 	 46.9615854231239
155.0491408147 	 12.9707898938668
165.0182346168 	 9.28430543815159
173.059705501 	 15.4268808114962
179.033884681 	 7.71109232647694
212.0315389573 	 2.15553677092139
229.0495347452 	 35.2211890673429
246.0522743994 	 4.63980463980464
247.0600994315 	 4.50361604207758
257.0444493673 	 16.657274349582
303.0499286757 	 100
END IONS

BEGIN IONS
PEPMASS=387.1285
CHARGE=1
MSLEVEL=2
RT=0
SOURCE_INSTRUMENT=qTOF
FILENAME=CCMSLIB00000077994.ms
IONMODE=Positive
ORGANISM=Natural
NAME=Axitinib
PI=GNPS
DATACOLLECTOR=GNPS
SMILES=CN=C(c1ccccc1Sc1ccc2c(/C=C/c3ccccn3)[nH]nc2c1)O
INCHI=InChI=1S/C22H18N4OS/c1-23-22(27)18-7-2-3-8-21(18)28-16-10-11-17-19(25-26-20(17)14-16)12-9-15-6-4-5-13-24-15/h2-14H,1H3,(H,23,27)(H,25,26)/b12-9+
FORMULA=C22H18N4OS
PUBMED=N/A
SUBMITUSER=BIOADREM
LIBRARYQUALITY=0
SPECTRUMID=CCMSLIB00000077994
SCANS=577
ID=CCMSLIB00000077994
104.0494751657 	 0.93
166.032110542 	 2.51
184.0307510963 	 0.63
191.072950262 	 1.64
192.0807752941 	 4.49
198.0338251015 	 0.53
208.0341219147 	 0.79
212.0256657184 	 0.49
219.0678648841 	 3.64
220.0790607346 	 0.69
221.0419469468 	 11.12
226.0287397236 	 0.81
234.0497719789 	 0.66
249.0368615689 	 1.22
250.0433439303 	 4
253.0430095793 	 1.23
267.1042503904 	 3.73
268.1120754225 	 1.12
273.0606710162 	 1.69
284.0528459841 	 0.76
285.0606710162 	 1.16
294.0913399804 	 2.66
295.0991650125 	 4.54
296.1069900446 	 2.18
297.1056098361 	 0.57
298.0684960483 	 3.21
299.0763210804 	 10.39
300.0841461125 	 8.26
301.0793950856 	 1.61
302.0746440587 	 0.67
310.0684960483 	 9.15
313.0555856383 	 1.69
326.0634106704 	 2.19
327.0712357025 	 7.23
328.0790607346 	 27.37
339.0586596435 	 0.87
340.0664846756 	 0.73
341.0617336487 	 0.49
356.085208745 	 100
387.1274079107 	 102.39
END IONS

BEGIN IONS
PEPMASS=406.1888
CHARGE=1
MSLEVEL=2
RT=0
SOURCE_INSTRUMENT=qTOF
FILENAME=CCMSLIB00000077995.ms
IONMODE=Positive
ORGANISM=Natural
NAME=Bortezomib (Velcade)
PI=GNPS
DATACOLLECTOR=GNPS
SMILES=CC(C)C[C@@H](B(O)O)N=C([C@H](Cc1ccccc1)N=C(c1cnccn1)O)O
INCHI=InChI=1S/C19H25BN4O4/c1-13(2)10-17(20(27)28)24-18(25)15(11-14-6-4-3-5-7-14)23-19(26)16-12-21-8-9-22-16/h3-9,12-13,15,17,27-28H,10-11H2,1-2H3,(H,23,26)(H,24,25)/t15-,17-/m0/s1
FORMULA=C19H25BN4O4
PUBMED=N/A
SUBMITUSER=BIOADREM
LIBRARYQUALITY=0
SPECTRUMID=CCMSLIB00000077995
SCANS=578
ID=CCMSLIB00000077995
109.0760242672 	 3.3
161.0233199947 	 3.02
166.0685601761 	 3.02
170.060039852 	 2.95
176.0753821552 	 3.58
186.1025733687 	 3.16
204.1144807257 	 5.34
205.1083870281 	 3.23
217.1209630871 	 3.16
226.0948079161 	 7.44
230.1175547309 	 4.07
232.1206287361 	 3.65
233.0682588146 	 3.09
238.1338734971 	 3.79
244.112830294 	 5.41
253.1097296988 	 7.87
254.0971802298 	 5.55
255.100227645 	 4.21
256.1240636823 	 2.81
271.1189517144 	 5.34
272.1077449161 	 3.16
276.1230340393 	 3.23
283.1852669556 	 2.88
297.1346017786 	 3.02
341.1608165291 	 3.3
369.1968942744 	 6.88
384.2077933117 	 34.34
END IONS

BEGIN IONS
PEPMASS=394.1779
CHARGE=1
MSLEVEL=2
RT=0
SOURCE_INSTRUMENT=qTOF
FILENAME=CCMSLIB00000078001.ms
IONMODE=Positive
ORGANISM=Natural
NAME=Erlotinib HCl
PI=GNPS
DATACOLLECTOR=GNPS
SMILES=C#Cc1cccc(c1)Nc1c2cc(c(cc2ncn1)OCCOC)OCCOC
INCHI=InChI=1S/C22H23N3O4/c1-4-16-6-5-7-17(12-16)25-22-18-13-20(28-10-8-26-2)21(29-11-9-27-3)14-19(18)23-15-24-22/h1,5-7,12-15H,8-11H2,2-3H3,(H,23,24,25)
FORMULA=C22H23N3O4
PUBMED=N/A
SUBMITUSER=BIOADREM
LIBRARYQUALITY=0
SPECTRUMID=CCMSLIB00000078001
SCANS=580
ID=CCMSLIB00000078001
205.0760242672 	 0.54
207.0790982724 	 0.59
220.0869233045 	 0.84
221.0947483366 	 0.58
222.1025733687 	 0.39
231.0790982724 	 0.22
232.0869233045 	 0.52
233.0709388893 	 0.38
248.0818379266 	 1.83
249.0896629587 	 0.91
250.0974879908 	 10.38
260.0818379266 	 1.17
274.0974879908 	 0.35
276.0767525487 	 13.07
277.0845775808 	 11.02
278.0924026129 	 100
292.1080526771 	 5.62
304.1080526771 	 17.78
336.1342674276 	 40.85
394.1761322423 	 96.49
END IONS

BEGIN IONS
PEPMASS=447.1588
CHARGE=1
MSLEVEL=2
RT=0
SOURCE_INSTRUMENT=qTOF
FILENAME=CCMSLIB00000078003.ms
IONMODE=Positive
ORGANISM=Natural
NAME=Gefitinib (Iressa)
PI=GNPS
DATACOLLECTOR=GNPS
SMILES=COc1cc2c(cc1OCCCN1CCOCC1)c(ncn2)Nc1ccc(c(c1)Cl)F
INCHI=InChI=1S/C22H24ClFN4O3/c1-29-20-13-19-16(12-21(20)31-8-2-5-28-6-9-30-10-7-28)22(26-14-25-19)27-15-3-4-18(24)17(23)11-15/h3-4,11-14H,2,5-10H2,1H3,(H,25,26,27)
FORMULA=C22H24ClFN4O3
PUBMED=N/A
SUBMITUSER=BIOADREM
LIBRARYQUALITY=0
SPECTRUMID=CCMSLIB00000078003
SCANS=581
ID=CCMSLIB00000078003
100.0756899162 	 11.58
128.1069900446 	 100
224.0836677867 	 0.73
304.0318939505 	 0.46
305.034553383 	 1
320.0580284793 	 2.69
320.1047971593 	 0.46
321.058443052 	 0.79
322.0536920251 	 0.84
367.0513463014 	 1.21
400.1422452981 	 0.45
447.1593725675 	 146.81
END IONS

BEGIN IONS
PEPMASS=260.1026
CHARGE=1
MSLEVEL=2
RT=0
SOURCE_INSTRUMENT=qTOF
FILENAME=CCMSLIB00000078006.ms
IONMODE=Positive
ORGANISM=Natural
NAME=Lenalidomide
PI=GNPS
DATACOLLECTOR=GNPS
SMILES=c1cc2c(CN(C3CCC(=NC3=O)O)C2=O)c(c1)N
INCHI=InChI=1S/C13H13N3O3/c14-9-3-1-2-7-8(9)6-16(13(7)19)10-4-5-11(17)15-12(10)18/h1-3,10H,4-6,14H2,(H,15,17,18)
FORMULA=C13H13N3O3
PUBMED=N/A
SUBMITUSER=BIOADREM
LIBRARYQUALITY=0
SPECTRUMID=CCMSLIB00000078006
SCANS=583
ID=CCMSLIB00000078006
106.0651252299 	 3.97
131.060374203 	 0.88
149.0709388893 	 100
159.0916743314 	 3.81
169.0760242672 	 0.89
187.0865889535 	 34.39
215.0815035756 	 9.66
260.1029672992 	 25.77
END IONS

BEGIN IONS
PEPMASS=530.191
CHARGE=1
MSLEVEL=2
RT=0
SOURCE_INSTRUMENT=qTOF
FILENAME=CCMSLIB00000078007.ms
IONMODE=Positive
ORGANISM=Natural
NAME=Nilotinib (AMN-107)
PI=GNPS
DATACOLLECTOR=GNPS
SMILES=Cc1ccc(cc1Nc1nccc(c2cccnc2)n1)C(=Nc1cc(cc(c1)n1cc(C)nc1)C(F)(F)F)O
INCHI=InChI=1S/C28H22F3N7O/c1-17-5-6-19(10-25(17)37-27-33-9-7-24(36-27)20-4-3-8-32-14-20)26(39)35-22-11-21(28(29,30)31)12-23(13-22)38-15-18(2)34-16-38/h3-16H,1-2H3,(H,35,39)(H,33,36,37)
FORMULA=C28H22F3N7O
PUBMED=N/A
SUBMITUSER=BIOADREM
LIBRARYQUALITY=0
SPECTRUMID=CCMSLIB00000078007
SCANS=584
ID=CCMSLIB00000078007
234.1025733687 	 1.09
245.0884807314 	 0.73
246.0899973097 	 0.53
259.0978223418 	 9.51
260.1056473739 	 24.64
261.113472406 	 38.47
262.1150298329 	 6.07
289.1083870281 	 100
290.109944455 	 22.64
428.1191664706 	 0.51
470.1723842684 	 0.74
471.1739416953 	 0.38
490.1786125005 	 0.52
510.1848407326 	 1.65
530.1910689647 	 187.42
END IONS

BEGIN IONS
PEPMASS=936.5436
CHARGE=1
MSLEVEL=2
RT=0
SOURCE_INSTRUMENT=qTOF
FILENAME=CCMSLIB00000078008.ms
IONMODE=Positive
ORGANISM=Natural
NAME=Rapamycin (Sirolimus)
PI=GNPS
DATACOLLECTOR=GNPS
SMILES=C[C@@H]1C=CC=CC=C(C)[C@H](C[C@@H]2CC[C@@H](C)[C@@](C(=O)C(=O)N3CCCC[C@H]3C(=O)O[C@@H](CC(=O)[C@H](C)C=C(C)[C@H]([C@@H](C(=O)[C@H](C)C1)OC)O)[C@H](C)C[C@@H]1CC[C@H]([C@@H](C1)OC)O)(O)O2)OC
INCHI=InChI=1S/C51H79NO13/c1-30-16-12-11-13-17-31(2)42(61-8)28-38-21-19-36(7)51(60,65-38)48(57)49(58)52-23-15-14-18-39(52)50(59)64-43(33(4)26-37-20-22-40(53)44(27-37)62-9)29-41(54)32(3)25-35(6)46(56)47(63-10)45(55)34(5)24-30/h11-13,16-17,25,30,32-34,36-40,42-44,46-47,53,56,60H,14-15,18-24,26-29H2,1-10H3/b13-11+,16-12+,31-17+,35-25+/t30-,32-,33-,34-,36-,37+,38+,39+,40-,42+,43+,44-,46-,47-,51-/m1/s1
FORMULA=C51H79NO13
PUBMED=N/A
SUBMITUSER=BIOADREM
LIBRARYQUALITY=0
SPECTRUMID=CCMSLIB00000078008
SCANS=585
ID=CCMSLIB00000078008
323.2216854514 	 15.59
359.2580709577 	 20.65
387.2529855798 	 65.32
388.2608106119 	 10.59
389.256059585 	 10.59
405.2635502661 	 24.02
419.2792003303 	 47.03
420.2870253624 	 15.25
431.242814824 	 64.04
432.2380637971 	 18.15
437.2897650166 	 11.2
449.2533795103 	 16.46
452.3006640539 	 9.51
516.3234108687 	 8.64
542.3112287402 	 10.93
543.3190537723 	 10.05
560.3217934265 	 47.17
561.321065145 	 16.8
574.3374434907 	 11.27
585.4149655302 	 54.99
592.348008177 	 100
593.3472798955 	 36.77
681.4724804091 	 16.06
682.4677293822 	 9.58
709.4673950312 	 36.17
710.4626440043 	 18.29
711.4704690364 	 8.03
713.4986951596 	 8.97
727.4779597175 	 15.38
729.4810337227 	 9.78
741.4936097817 	 29.22
742.4888587548 	 11.34
743.4966837869 	 13.16
753.4572242754 	 9.85
754.4524732485 	 9.92
759.491598409 	 9.45
760.5119995001 	 12.62
771.4677889617 	 11.81
772.4630379348 	 8.7
785.4834390259 	 8.64
825.5385486016 	 7.42
843.5491132879 	 7.76
870.5725883842 	 10.93
882.5362028779 	 30.09
896.5518529421 	 7.62
914.5624176284 	 1980.77
END IONS

BEGIN IONS
PEPMASS=399.2205
CHARGE=1
MSLEVEL=2
RT=0
SOURCE_INSTRUMENT=qTOF
FILENAME=CCMSLIB00000078010.ms
IONMODE=Positive
ORGANISM=Natural
NAME=Sunitinib Malate (Sutent)
PI=GNPS
DATACOLLECTOR=GNPS
SMILES=CCN(CC)CCN=C(c1c(C)c(/C=C\2/c3cc(ccc3N=C2O)F)[nH]c1C)O
INCHI=InChI=1S/C22H27FN4O2/c1-5-27(6-2)10-9-24-22(29)20-13(3)19(25-14(20)4)12-17-16-11-15(23)7-8-18(16)26-21(17)28/h7-8,11-12,25H,5-6,9-10H2,1-4H3,(H,24,29)(H,26,28)/b17-12-
FORMULA=C22H27FN4O2
PUBMED=N/A
SUBMITUSER=BIOADREM
LIBRARYQUALITY=0
SPECTRUMID=CCMSLIB00000078010
SCANS=587
ID=CCMSLIB00000078010
190.0651252299 	 0.24
217.0760242672 	 0.35
218.060039852 	 0.55
227.0979025635 	 0.88
237.0822524993 	 1.03
238.0662680841 	 4
254.1088016008 	 2.54
255.0928171856 	 5.9
265.0771671214 	 0.48
267.0802411266 	 0.3
268.0642567114 	 0.4
282.1037162229 	 9.04
283.0877318077 	 100
326.1299309734 	 85.29
399.2190803317 	 100.01
END IONS

BEGIN IONS
PEPMASS=450.1246
CHARGE=1
MSLEVEL=2
RT=0
SOURCE_INSTRUMENT=qTOF
FILENAME=CCMSLIB00000078015.ms
IONMODE=Positive
ORGANISM=Natural
NAME=Crizotinib (PF-02341066)
PI=GNPS
DATACOLLECTOR=GNPS
SMILES=C[C@H](c1c(ccc(c1Cl)F)Cl)Oc1cc(cnc1N)c1cnn(c1)C1CCNCC1
INCHI=InChI=1S/C21H22Cl2FN5O/c1-12(19-16(22)2-3-17(24)20(19)23)30-18-8-13(9-27-21(18)25)14-10-28-29(11-14)15-4-6-26-7-5-15/h2-3,8-12,15,26H,4-7H2,1H3,(H2,25,27)/t12-/m1/s1
FORMULA=C21H22Cl2FN5O
PUBMED=N/A
SUBMITUSER=BIOADREM
LIBRARYQUALITY=0
SPECTRUMID=CCMSLIB00000078015
SCANS=589
ID=CCMSLIB00000078015
45.0334907505 	 16.25
100.0756899162 	 37.55
114.1277254867 	 18.77
128.1069900446 	 69.68
131.0058320384 	 15.16
167.0388818052 	 16.61
177.0770868997 	 62.82
178.0723358728 	 19.86
189.0948285583 	 20.94
237.0607601015 	 20.58
239.056838647 	 75.45
248.1307994919 	 21.3
249.1027262071 	 18.05
259.1427611617 	 77.98
260.1505861938 	 100
266.0928898023 	 14.44
267.1007148344 	 16.61
269.1210433088 	 20.94
283.0684322952 	 14.8
337.0491664533 	 15.16
359.0148725414 	 18.77
363.0012338499 	 15.16
367.0648967392 	 16.97
431.0836208086 	 15.16
450.1258199743 	 131.41
END IONS

BEGIN IONS
PEPMASS=421.0192
CHARGE=1
MSLEVEL=2
RT=0
SOURCE_INSTRUMENT=qTOF
FILENAME=CCMSLIB00000078016.ms
IONMODE=Positive
ORGANISM=Natural
NAME=Vismodegib (GDC-0449)
PI=GNPS
DATACOLLECTOR=GNPS
SMILES=CS(=O)(=O)c1ccc(c(c1)Cl)C(=Nc1ccc(c(c1)c1ccccn1)Cl)O
INCHI=InChI=1S/C19H14Cl2N2O3S/c1-27(25,26)13-6-7-14(17(21)11-13)19(24)23-12-5-8-16(20)15(10-12)18-4-2-3-9-22-18/h2-11H,1H3,(H,23,24)
FORMULA=C19H14Cl2N2O3S
PUBMED=N/A
SUBMITUSER=BIOADREM
LIBRARYQUALITY=0
SPECTRUMID=CCMSLIB00000078016
SCANS=590
ID=CCMSLIB00000078016
138.9945184284 	 100
154.9894330505 	 17.11
156.9873245605 	 4.91
169.0760242672 	 2.53
169.9792027152 	 1.09
177.0339779399 	 0.94
188.0261529078 	 7.97
204.0448769772 	 9.8
205.031776191 	 1.29
206.0367175941 	 6.26
207.0440554368 	 0.95
216.9720684268 	 32.08
217.9765226405 	 3.81
218.9670763078 	 7.73
219.9715305215 	 1.21
220.015982152 	 1.26
231.0314793778 	 4.5
232.0341219147 	 1.49
233.0266908131 	 1.22
277.0555856383 	 1.03
279.0683520735 	 3.38
281.0630763194 	 1.5
305.0505002604 	 1.04
306.0554416635 	 5.78
307.0632666956 	 3.72
308.0472822804 	 1.13
310.0532399146 	 1.29
313.0322633804 	 8.15
314.0372047835 	 2.36
315.0245911867 	 5.74
324.0215547193 	 1.05
338.0452709077 	 4.01
340.0431624177 	 1.59
341.0271780025 	 0.98
342.0321194056 	 32.44
345.0266025594 	 3.68
346.0299176567 	 2.12
357.0192089956 	 6.65
359.0171005056 	 4.12
374.0219486498 	 68.98
375.0245911867 	 13.14
376.0198401598 	 40.79
385.040816694 	 1.41
403.0069297498 	 4.87
404.9987703667 	 3.66
421.0174944361 	 501.07
END IONS

BEGIN IONS
PEPMASS=502.1786
CHARGE=1
MSLEVEL=2
RT=0
SOURCE_INSTRUMENT=qTOF
FILENAME=CCMSLIB00000078017.ms
IONMODE=Positive
ORGANISM=Natural
NAME=XL-184 free base (Cabozantinib)
PI=GNPS
DATACOLLECTOR=GNPS
SMILES=COc1cc2c(cc1OC)nccc2Oc1ccc(cc1)NC(=O)C1(CC1)C(=O)Nc1ccc(cc1)F
INCHI=InChI=1S/C28H24FN3O5/c1-35-24-15-21-22(16-25(24)36-2)30-14-11-23(21)37-20-9-7-19(8-10-20)32-27(34)28(12-13-28)26(33)31-18-5-3-17(29)4-6-18/h3-11,14-16H,12-13H2,1-2H3,(H,31,33)(H,32,34)
FORMULA=C28H24FN3O5
PUBMED=N/A
SUBMITUSER=BIOADREM
LIBRARYQUALITY=0
SPECTRUMID=CCMSLIB00000078017
SCANS=591
ID=CCMSLIB00000078017
253.0971536398 	 0.53
264.0893286077 	 0.43
279.0764181977 	 2.44
280.0869233045 	 0.51
281.0920682619 	 4.45
282.099893294 	 1.77
291.0764181977 	 0.54
296.1155433582 	 0.81
297.1233683903 	 52.81
307.0713328198 	 5.19
307.1077183261 	 10.45
308.0818379266 	 4.19
309.0822524993 	 1.27
320.0791578519 	 1.63
323.1053130229 	 100
324.1057275956 	 45.13
335.0662474419 	 1
337.1546685187 	 0.38
347.1026329482 	 2.42
347.1390184545 	 11.8
348.074072474 	 1.69
349.0818975061 	 0.64
349.1209630871 	 1.24
361.0818975061 	 1.43
363.1339330766 	 1.2
365.1495831408 	 6.95
375.0975475703 	 3.4
376.1053726024 	 0.98
377.1158777092 	 1.14
391.1288476987 	 58.93
472.1303249039 	 1.22
484.1667104102 	 0.74
486.1459749681 	 0.69
487.1538000002 	 0.53
502.1772750965 	 175
END IONS

BEGIN IONS
PEPMASS=980.5687
CHARGE=1
MSLEVEL=2
RT=0
SOURCE_INSTRUMENT=qTOF
FILENAME=CCMSLIB00000078018.ms
IONMODE=Positive
ORGANISM=Natural
NAME=Everolimus (RAD001)
PI=GNPS
DATACOLLECTOR=GNPS
SMILES=C[C@@H]1C=CC=CC=C(C)[C@H](C[C@@H]2CC[C@@H](C)[C@@](C(=O)C(=O)N3CCCC[C@H]3C(=O)O[C@@H](CC(=O)[C@H](C)C=C(C)[C@@H]([C@H](C(=O)[C@H](C)C1)OC)O)[C@@H](C)C[C@@H]1CC[C@H]([C@@H](C1)OC)OCCO)(O)O2)OC
INCHI=InChI=1S/C53H83NO14/c1-32-16-12-11-13-17-33(2)44(63-8)30-40-21-19-38(7)53(62,68-40)50(59)51(60)54-23-15-14-18-41(54)52(61)67-45(35(4)28-39-20-22-43(66-25-24-55)46(29-39)64-9)31-42(56)34(3)27-37(6)48(58)49(65-10)47(57)36(5)26-32/h11-13,16-17,27,32,34-36,38-41,43-46,48-49,55,58,62H,14-15,18-26,28-31H2,1-10H3/b13-11+,16-12+,33-17+,37-27+/t32-,34-,35+,36-,38-,39+,40+,41+,43-,44+,45+,46-,48+,49+,53-/m1/s1
FORMULA=C53H83NO14
PUBMED=N/A
SUBMITUSER=BIOADREM
LIBRARYQUALITY=0
SPECTRUMID=CCMSLIB00000078018
SCANS=592
ID=CCMSLIB00000078018
97.1011763852 	 30.16
113.1324765136 	 29.84
123.1168264494 	 23.81
135.1168264494 	 26.98
153.1273911357 	 43.81
175.1481265778 	 25.4
196.1457808541 	 22.54
301.2247594566 	 29.84
355.2267708293 	 28.25
367.2479002019 	 100
373.2373355156 	 29.21
387.2615388934 	 57.78
400.2760667456 	 29.21
413.2897650166 	 25.4
419.281880405 	 26.35
420.2870253624 	 25.4
431.242814824 	 55.87
474.3061433623 	 33.33
502.3163141181 	 24.13
520.3268788044 	 31.75
521.3347038365 	 28.25
546.3551049276 	 27.3
547.3656100344 	 23.17
560.3217934265 	 66.03
561.3296184586 	 28.57
592.348008177 	 91.43
629.4497335943 	 65.08
630.4423024927 	 24.44
725.5072484732 	 33.02
786.5362028779 	 29.52
792.517084878 	 27.62
797.4708629669 	 56.83
816.5018287443 	 32.06
908.5518529421 	 49.52
909.5358685269 	 42.22
914.5749936874 	 27.62
926.5624176284 	 100
927.5702426605 	 51.11
941.5858927247 	 86.67
958.5886323789 	 1861.9
END IONS

BEGIN IONS
PEPMASS=428.157
CHARGE=1
MSLEVEL=2
RT=0
SOURCE_INSTRUMENT=qTOF
FILENAME=CCMSLIB00000078020.ms
IONMODE=Positive
ORGANISM=Natural
NAME=Pemetrexed
PI=GNPS
DATACOLLECTOR=GNPS
SMILES=c1cc(ccc1CCc1c[nH]c2c1c(nc(=N)[nH]2)[O-])C(=O)N[C@H](CCC(=O)[O-])C(=O)O
INCHI=InChI=1S/C20H21N5O6/c21-20-24-16-15(18(29)25-20)12(9-22-16)6-3-10-1-4-11(5-2-10)17(28)23-13(19(30)31)7-8-14(26)27/h1-2,4-5,9,13H,3,6-8H2,(H,23,28)(H,26,27)(H,30,31)(H4,21,22,24,25,29)/p-2/t13-/m1/s1
FORMULA=C20H21N5O6
PUBMED=N/A
SUBMITUSER=BIOADREM
LIBRARYQUALITY=0
SPECTRUMID=CCMSLIB00000078020
SCANS=593
ID=CCMSLIB00000078020
146.034887734 	 2.94
163.0614368355 	 100
253.1083870281 	 1.24
281.1033016502 	 73.43
299.1138663365 	 64.07
382.1509801243 	 0.6
410.1458947464 	 1.65
428.1564594327 	 52.91
END IONS

BEGIN IONS
PEPMASS=311.0394
CHARGE=1
MSLEVEL=2
RT=0
SOURCE_INSTRUMENT=qTOF
FILENAME=CCMSLIB00000078021.ms
IONMODE=Positive
ORGANISM=Natural
NAME=Malotilate
PI=GNPS
DATACOLLECTOR=GNPS
SMILES=CC(C)OC(=O)C(=C1SC=CS1)C(=O)OC(C)C
INCHI=InChI=1S/C12H16O4S2/c1-7(2)15-10(13)9(11(14)16-8(3)4)12-17-5-6-18-12/h5-8H,1-4H3
FORMULA=C12H16O4S2
PUBMED=N/A
SUBMITUSER=BIOADREM
LIBRARYQUALITY=0
SPECTRUMID=CCMSLIB00000078021
SCANS=594
ID=CCMSLIB00000078021
142.9619820663 	 46.1168906227424
160.9725467526 	 1.09810720994076
170.9568966884 	 6.86678225689929
186.9518113105 	 41.3235081635602
204.9623759968 	 4.62722149978327
228.9987615031 	 27.6694119346915
247.0093261894 	 18.3680104031209
289.056276382 	 100
END IONS

BEGIN IONS
PEPMASS=393.2177
CHARGE=1
MSLEVEL=2
RT=0
SOURCE_INSTRUMENT=qTOF
FILENAME=CCMSLIB00000078023.ms
IONMODE=Positive
ORGANISM=Natural
NAME=Ivacaftor (VX-770)
PI=GNPS
DATACOLLECTOR=GNPS
SMILES=CC(C)(C)c1cc(c(cc1N=C(c1c[nH]c2ccccc2c1=O)O)O)C(C)(C)C
INCHI=InChI=1S/C24H28N2O3/c1-23(2,3)16-11-17(24(4,5)6)20(27)12-19(16)26-22(29)15-13-25-18-10-8-7-9-14(18)21(15)28/h7-13,27H,1-6H3,(H,25,28)(H,26,29)
FORMULA=C24H28N2O3
PUBMED=N/A
SUBMITUSER=BIOADREM
LIBRARYQUALITY=0
SPECTRUMID=CCMSLIB00000078023
SCANS=596
ID=CCMSLIB00000078023
116.0494751657 	 0.46
144.0443897878 	 1.55
172.0393044099 	 86
190.0498690962 	 20.26
319.1441038324 	 13.65
337.1546685187 	 100
393.2172687755 	 5.75
END IONS

BEGIN IONS
PEPMASS=830.3349
CHARGE=1
MSLEVEL=2
RT=0
SOURCE_INSTRUMENT=qTOF
FILENAME=CCMSLIB00000078024.ms
IONMODE=Positive
ORGANISM=Natural
NAME=Docetaxel (Taxotere)
PI=GNPS
DATACOLLECTOR=GNPS
SMILES=CC1=C2[C@H](C(=O)[C@@]3(C)[C@H](C[C@@H]4[C@](CO4)(C3[C@H]([C@@](C[C@H]1OC(=O)[C@@H]([C@H](c1ccccc1)N=C(O)OC(C)(C)C)O)(C2(C)C)O)OC(=O)c1ccccc1)OC(=O)C)O)O
INCHI=InChI=1S/C43H53NO14/c1-22-26(55-37(51)32(48)30(24-15-11-9-12-16-24)44-38(52)58-39(3,4)5)20-43(53)35(56-36(50)25-17-13-10-14-18-25)33-41(8,34(49)31(47)29(22)40(43,6)7)27(46)19-28-42(33,21-54-28)57-23(2)45/h9-18,26-28,30-33,35,46-48,53H,19-21H2,1-8H3,(H,44,52)/t26-,27+,28-,30+,31-,32-,33?,35-,41+,42-,43+/m1/s1
FORMULA=C43H53NO14
PUBMED=N/A
SUBMITUSER=BIOADREM
LIBRARYQUALITY=0
SPECTRUMID=CCMSLIB00000078024
SCANS=597
ID=CCMSLIB00000078024
105.0334907505 	 2.5368927209418
119.0491408147 	 1.33200685347925
143.085526321 	 1.07776488144586
147.0804409431 	 1.26015586138286
149.059705501 	 1.20488586746255
159.0804409431 	 1.53650583098436
163.1117410715 	 1.27673685955895
165.0546201231 	 4.08445255071022
169.0859202515 	 1.0667108826618
182.0811692246 	 41.0048084894711
183.125379763 	 0.911954899684961
187.1481265778 	 1.17172387111037
191.1066556936 	 1.2491018625988
197.1324765136 	 1.05565688387774
201.1359444493 	 1.27673685955895
207.1168264494 	 1.22146686563864
211.1117410715 	 1.03354888630962
213.1273911357 	 1.1772508705024
217.1586912641 	 1.88470679268225
223.1117410715 	 1.53650583098436
225.1273911357 	 1.2325208644227
226.0709984688 	 100
234.1488548593 	 1.26015586138286
235.1481265778 	 2.05604377383519
237.1273911357 	 1.54755982976842
238.1352161678 	 1.29331785773504
239.1430411999 	 2.4263527331012
241.1223057578 	 1.01696788813353
249.1273911357 	 1.48676283645609
251.1430411999 	 1.61941082186481
253.1586912641 	 2.48714972641353
263.1430411999 	 3.57596860664345
265.1586912641 	 1.3043718565191
267.137955822 	 1.09987287901398
279.137955822 	 1.51439783341624
281.1536058862 	 7.12430221632676
282.1335987256 	 50.3896534571381
283.138743683 	 8.83767202785608
285.1485205083 	 1.27673685955895
287.1277850662 	 3.77494058475654
287.1641705725 	 1.2491018625988
291.137955822 	 2.16105676228376
299.1641705725 	 3.63676559995578
305.1747352588 	 1.12750787597413
309.1485205083 	 9.39589896645111
310.1496427203 	 2.74139169844691
327.1590851946 	 10.9158237992594
328.1602074066 	 3.33278063339413
345.1696498809 	 7.83728513789864
345.1755231198 	 3.76941358536451
359.1852999451 	 1.14408887415022
369.1696498809 	 1.60282982368872
387.1802145672 	 3.28303763886586
388.1813367792 	 1.09987287901398
405.1907792535 	 10.3299618637042
406.1919014655 	 2.67506770574255
409.2009500093 	 1.13856187475819
431.1852999451 	 1.81838279997789
432.1864221571 	 1.2325208644227
449.1958646314 	 1.75758580666556
449.2017378703 	 0.989332891173382
467.2064293177 	 4.72558448018571
468.2142543498 	 1.18830486928646
483.2377294461 	 1.18830486928646
491.2064293177 	 2.01182777869894
509.216994004 	 32.5816614160172
510.218116216 	 11.6509147183994
511.2259412481 	 2.32133974465263
527.2275586903 	 73.5588349085282
528.2286809023 	 25.9547891449732
690.2756310949 	 1.13303487536616
752.2912811591 	 1.29331785773504
808.3538814159 	 68.9216824186149
END IONS

BEGIN IONS
PEPMASS=876.3202
CHARGE=1
MSLEVEL=2
RT=0
SOURCE_INSTRUMENT=qTOF
FILENAME=CCMSLIB00000078026.ms
IONMODE=Positive
ORGANISM=Natural
NAME=Paclitaxel (Taxol)
PI=GNPS
DATACOLLECTOR=GNPS
SMILES=CC1=C2[C@H](C(=O)[C@]3(C)[C@@H](C[C@@H]4[C@@](CO4)(C3[C@@H]([C@](C[C@@H]1OC(=O)[C@@H]([C@H](c1ccccc1)N=C(c1ccccc1)O)O)(C2(C)C)O)OC(=O)c1ccccc1)OC(=O)C)O)OC(=O)C
INCHI=InChI=1S/C47H51NO14/c1-25-31(60-43(56)36(52)35(28-16-10-7-11-17-28)48-41(54)29-18-12-8-13-19-29)23-47(57)40(61-42(55)30-20-14-9-15-21-30)38-45(6,32(51)22-33-46(38,24-58-33)62-27(3)50)39(53)37(59-26(2)49)34(25)44(47,4)5/h7-21,31-33,35-38,40,51-52,57H,22-24H2,1-6H3,(H,48,54)/t31-,32+,33+,35-,36+,37+,38?,40-,45+,46-,47+/m0/s1
FORMULA=C47H51NO14
PUBMED=N/A
SUBMITUSER=BIOADREM
LIBRARYQUALITY=0
SPECTRUMID=CCMSLIB00000078026
SCANS=599
ID=CCMSLIB00000078026
105.0334907505 	 8.575
133.0647908789 	 2.745
133.1011763852 	 2.89
149.059705501 	 3.66
159.0804409431 	 1.79
161.0960910073 	 2.515
177.0910056294 	 2.98
179.085526321 	 1.985
183.1168264494 	 2.475
189.163776642 	 1.85
199.1566798914 	 1.14
201.1273911357 	 1.365
203.1430411999 	 1.485
209.0960910073 	 2.32
211.1117410715 	 2.385
211.1481265778 	 2.76
217.1672445777 	 1.14
225.0910056294 	 1.465
225.1273911357 	 2.23
229.1223057578 	 2.22
235.1481265778 	 1.805
237.1273911357 	 2.68
239.1430411999 	 3.325
240.1019046667 	 15.24
251.1430411999 	 2.335
253.1586912641 	 2.825
263.1430411999 	 3.07
268.0968192888 	 13.215
281.1536058862 	 6.305
286.1073839751 	 100
291.137955822 	 4.395
299.1641705725 	 3.105
305.1747352588 	 1.505
306.1699842319 	 1.08
309.1485205083 	 12.545
327.1590851946 	 12.765
327.1617652693 	 2.485
328.1179486614 	 1.405
344.2008904298 	 1.14
345.1696498809 	 2.32
347.1852999451 	 1.2
359.2091093924 	 1.14
365.1958646314 	 1.28
369.1696498809 	 4.9
387.1802145672 	 11.02
403.2115146956 	 2.055
429.1934593282 	 2.125
431.1727238861 	 2.115
447.2040240145 	 7.685
448.2091689719 	 1.73
449.1958646314 	 4.925
481.2220793819 	 2.3
491.2064293177 	 6.615
492.2083811109 	 2.1
509.216994004 	 34.315
510.2189457972 	 6.355
510.2248190361 	 4.295
511.2326440682 	 1.87
551.230238765 	 10.455
552.2353837224 	 4.76
569.2381233766 	 8.1
569.2408034513 	 11.5
570.2459484087 	 6.755
655.2537734408 	 3.78
656.2642785476 	 2.09
672.2650664086 	 2.055
776.3065372928 	 3.005
854.3382313517 	 68.305
END IONS

BEGIN IONS
PEPMASS=360.157
CHARGE=1
MSLEVEL=2
RT=0
SOURCE_INSTRUMENT=qTOF
FILENAME=CCMSLIB00000078029.ms
IONMODE=Positive
ORGANISM=Natural
NAME=Capecitabine (Xeloda)
PI=GNPS
DATACOLLECTOR=GNPS
SMILES=CCCCCOC(=Nc1c(cn([C@H]2[C@H]([C@@H]([C@@H](C)O2)O)O)c(=O)n1)F)O
INCHI=InChI=1S/C15H22FN3O6/c1-3-4-5-6-24-15(23)18-12-9(16)7-19(14(22)17-12)13-11(21)10(20)8(2)25-13/h7-8,10-11,13,20-21H,3-6H2,1-2H3,(H,17,18,22,23)/t8-,10-,11+,13-/m1/s1
FORMULA=C15H22FN3O6
PUBMED=N/A
SUBMITUSER=BIOADREM
LIBRARYQUALITY=0
SPECTRUMID=CCMSLIB00000078029
SCANS=601
ID=CCMSLIB00000078029
112.0305512798 	 0.5
113.0145668646 	 1.12
130.0411159661 	 36.76
156.020380524 	 1.31
174.0309452103 	 57.63
244.1091955313 	 100
360.1565396544 	 0
END IONS

BEGIN IONS
PEPMASS=483.0859
CHARGE=1
MSLEVEL=2
RT=0
SOURCE_INSTRUMENT=qTOF
FILENAME=CCMSLIB00000078030.ms
IONMODE=Positive
ORGANISM=Natural
NAME=Regorafenib (BAY 73-4506)
PI=GNPS
DATACOLLECTOR=GNPS
SMILES=CNC(=O)c1cc(ccn1)Oc1ccc(c(c1)F)NC(=Nc1ccc(c(c1)C(F)(F)F)Cl)O
INCHI=InChI=1S/C21H15ClF4N4O3/c1-27-19(31)18-10-13(6-7-28-18)33-12-3-5-17(16(23)9-12)30-20(32)29-11-2-4-15(22)14(8-11)21(24,25)26/h2-10H,1H3,(H,27,31)(H2,29,30,32)
FORMULA=C21H15ClF4N4O3
PUBMED=N/A
SUBMITUSER=BIOADREM
LIBRARYQUALITY=0
SPECTRUMID=CCMSLIB00000078030
SCANS=602
ID=CCMSLIB00000078030
111.0478783657 	 1.07
175.0666024351 	 1.21
176.0068220542 	 3.19
178.0024856 	 0.98
188.0506180199 	 1.46
190.0662680841 	 1.03
196.0130502863 	 4.31
201.9872294663 	 36.78
203.0615170572 	 3.98
217.0771671214 	 1.43
221.0720817435 	 4.98
229.0401259503 	 13.78
230.042339042 	 1.59
243.0564316793 	 4.59
244.0880661587 	 14.25
247.0506906366 	 24.68
248.0529037283 	 4.1
270.0673307166 	 100
271.0688881435 	 15.62
275.0456052587 	 2.45
284.014719703 	 1.54
288.0778954029 	 30.43
289.0794528298 	 4.32
368.0641371166 	 1.01
388.0670296092 	 2.64
389.0781903808 	 2.79
404.0408148587 	 15.3
405.0412294314 	 2.17
406.0364784045 	 3.65
407.0341720539 	 1.36
424.0470430908 	 36.14
426.0451513129 	 11.52
427.040400286 	 1.97
443.0717004144 	 8.22
444.0732578413 	 2.43
445.0673639602 	 3.07
463.0779286465 	 3.4
465.0735921923 	 26.28
467.0654328092 	 5.87
483.0841568786 	 401.64
END IONS

BEGIN IONS
PEPMASS=535.1584
CHARGE=1
MSLEVEL=2
RT=0
SOURCE_INSTRUMENT=qTOF
FILENAME=CCMSLIB00000078035.ms
IONMODE=Positive
ORGANISM=Natural
NAME=Aprepitant (MK-0869)
PI=GNPS
DATACOLLECTOR=GNPS
SMILES=C[C@@H](c1cc(cc(c1)C(F)(F)F)C(F)(F)F)O[C@@H]1[C@H](c2ccc(cc2)F)N(CCO1)Cc1nc(n[nH]1)O
INCHI=InChI=1S/C23H21F7N4O3/c1-12(14-8-15(22(25,26)27)10-16(9-14)23(28,29)30)37-20-19(13-2-4-17(24)5-3-13)34(6-7-36-20)11-18-31-21(35)33-32-18/h2-5,8-10,12,19-20H,6-7,11H2,1H3,(H2,31,32,33,35)/t12-,19-,20+/m0/s1
FORMULA=C23H21F7N4O3
PUBMED=N/A
SUBMITUSER=BIOADREM
LIBRARYQUALITY=0
SPECTRUMID=CCMSLIB00000078035
SCANS=606
ID=CCMSLIB00000078035
98.0362304047 	 0.97
109.0448043605 	 0.74
121.0448043605 	 0.28
122.0400533336 	 1.5
123.0240689184 	 1.08
132.0807752941 	 0.26
134.0526293926 	 0.34
141.0784295704 	 1.54
148.0557033978 	 0.44
150.071353462 	 3.42
151.0553690468 	 0.73
151.0791784941 	 0.62
161.0635284299 	 0.39
162.0675305331 	 0.42
164.0506180199 	 3.79
165.0510325926 	 0.22
166.0662680841 	 0.28
178.0662680841 	 2.29
179.0740931162 	 90.66
180.0780952194 	 19.43
181.082332721 	 1.68
186.0650858568 	 0.46
192.0819181483 	 1.75
196.0768327704 	 1.34
201.0321889284 	 0.65
206.0713140889 	 3.79
210.0924828346 	 0.34
216.0556640247 	 0.62
218.0749016194 	 0.23
233.0822131262 	 0.47
234.066228711 	 0.25
259.0978631904 	 0.28
260.0818787752 	 0.33
277.1084278767 	 100
278.1112871257 	 21.45
295.118992563 	 0.9
296.121851812 	 0.37
535.1574639612 	 54.32
END IONS

BEGIN IONS
PEPMASS=607.324
CHARGE=1
MSLEVEL=2
RT=0
SOURCE_INSTRUMENT=qTOF
FILENAME=CCMSLIB00000078037.ms
IONMODE=Positive
ORGANISM=Natural
NAME=Fulvestrant (Faslodex)
PI=GNPS
DATACOLLECTOR=GNPS
SMILES=C[C@@]12CC[C@H]3c4ccc(cc4C[C@@H](CCCCCCCCCS(=O)CCCC(C(F)(F)F)(F)F)[C@H]3[C@@H]1CC[C@@H]2O)O
INCHI=InChI=1S/C32H47F5O3S/c1-30-17-15-26-25-12-11-24(38)21-23(25)20-22(29(26)27(30)13-14-28(30)39)10-7-5-3-2-4-6-8-18-41(40)19-9-16-31(33,34)32(35,36)37/h11-12,21-22,26-29,38-39H,2-10,13-20H2,1H3/t22-,26+,27+,28+,29-,30-,41?/m1/s1
FORMULA=C32H47F5O3S
PUBMED=N/A
SUBMITUSER=BIOADREM
LIBRARYQUALITY=0
SPECTRUMID=CCMSLIB00000078037
SCANS=608
ID=CCMSLIB00000078037
107.0491408147 	 0.75
109.1011763852 	 0.85
133.0647908789 	 3.21
135.1168264494 	 0.67
145.0647908789 	 3.2
145.1011763852 	 1.02
147.0804409431 	 2.92
157.0647908789 	 4.63
159.0804409431 	 8.71
171.0804409431 	 5.1
173.0960910073 	 2.89
185.0960910073 	 1.5
197.0960910073 	 0.82
199.1117410715 	 0.92
211.1117410715 	 0.52
227.1430411999 	 0.56
241.1586912641 	 1.04
253.1586912641 	 0.84
257.1899913925 	 1.27
267.1743413283 	 1.41
269.1899913925 	 0.63
283.2056414567 	 2.58
307.1726267688 	 0.84
333.188276833 	 1.54
467.2037679293 	 6.15
493.2194179935 	 3.74
589.3133183787 	 100
590.3211434108 	 32.35
607.323883065 	 21.58
END IONS

BEGIN IONS
PEPMASS=297.1854
CHARGE=1
MSLEVEL=2
RT=0
SOURCE_INSTRUMENT=qTOF
FILENAME=CCMSLIB00000078039.ms
IONMODE=Positive
ORGANISM=Natural
NAME=Exemestane
PI=GNPS
DATACOLLECTOR=GNPS
SMILES=C=C1C[C@H]2[C@@H]3CCC(=O)[C@]3(C)CC[C@H]2[C@@]2(C)C=CC(=O)C=C12
INCHI=InChI=1S/C20H24O2/c1-12-10-14-15-4-5-18(22)20(15,3)9-7-16(14)19(2)8-6-13(21)11-17(12)19/h6,8,11,14-16H,1,4-5,7,9-10H2,2-3H3/t14-,15-,16+,19+,20+/m0/s1
FORMULA=C20H24O2
PUBMED=N/A
SUBMITUSER=BIOADREM
LIBRARYQUALITY=0
SPECTRUMID=CCMSLIB00000078039
SCANS=610
ID=CCMSLIB00000078039
91.0542261926 	 4.98
93.0698762568 	 6.31
103.0542261926 	 3.11
105.0698762568 	 19.2
107.085526321 	 9.88
119.085526321 	 10.39
121.0647908789 	 29.85
121.1011763852 	 50.92
129.0698762568 	 4.86
131.085526321 	 9.23
132.0569658468 	 3.11
133.0647908789 	 8.34
133.1011763852 	 8.13
135.0804409431 	 17.01
137.0960910073 	 3.67
143.085526321 	 8.2
145.0647908789 	 4.79
145.1011763852 	 22.38
147.0804409431 	 22.1
147.1168264494 	 7.45
149.0960910073 	 100
159.0804409431 	 6.26
161.0960910073 	 11.19
163.1117410715 	 13.88
171.0804409431 	 4.04
171.1168264494 	 14.2
173.0960910073 	 7.43
185.0960910073 	 28.33
186.1039160394 	 4.37
187.1117410715 	 6.12
189.1273911357 	 19.13
197.0960910073 	 7.1
201.1273911357 	 5.56
208.0882659752 	 3.6
213.1273911357 	 4.72
223.1117410715 	 8.27
225.1273911357 	 3.78
237.1273911357 	 4.63
239.1430411999 	 13.08
251.1430411999 	 3.01
253.1586912641 	 6.77
254.1665162962 	 4.67
279.1743413283 	 89.54
297.1849060146 	 334.03
END IONS

BEGIN IONS
PEPMASS=373.2863
CHARGE=1
MSLEVEL=2
RT=0
SOURCE_INSTRUMENT=qTOF
FILENAME=CCMSLIB00000078040.ms
IONMODE=Positive
ORGANISM=Natural
NAME=Finasteride
PI=GNPS
DATACOLLECTOR=GNPS
SMILES=CC(C)(C)N=C([C@@H]1CC[C@H]2[C@@H]3CC[C@@H]4[C@](C)(C=CC(=N4)O)[C@@H]3CC[C@]12C)O
INCHI=InChI=1S/C23H36N2O2/c1-21(2,3)25-20(27)17-8-7-15-14-6-9-18-23(5,13-11-19(26)24-18)16(14)10-12-22(15,17)4/h11,13-18H,6-10,12H2,1-5H3,(H,24,26)(H,25,27)/t14-,15-,16+,17-,18+,22-,23+/m0/s1
FORMULA=C23H36N2O2
PUBMED=N/A
SUBMITUSER=BIOADREM
LIBRARYQUALITY=0
SPECTRUMID=CCMSLIB00000078040
SCANS=611
ID=CCMSLIB00000078040
95.085526321 	 0.49
105.0698762568 	 0.44
110.060039852 	 0.62
119.085526321 	 0.47
121.1011763852 	 0.4
133.1011763852 	 0.41
135.1168264494 	 0.6
136.0756899162 	 0.42
145.1011763852 	 0.72
147.1168264494 	 1.12
148.0756899162 	 0.77
150.0913399804 	 0.96
159.1168264494 	 0.49
161.1324765136 	 0.55
164.1069900446 	 0.41
171.1168264494 	 0.4
173.1324765136 	 2
175.1481265778 	 1.95
176.1069900446 	 0.87
185.1324765136 	 1.38
187.1481265778 	 0.87
189.163776642 	 1.39
190.1226401088 	 0.49
197.1324765136 	 0.47
202.1226401088 	 0.69
203.1430411999 	 0.56
215.1430411999 	 0.62
216.138290173 	 0.58
220.1695903014 	 1.08
223.1481265778 	 0.53
227.1794267062 	 0.65
232.1695903014 	 0.91
237.163776642 	 0.76
246.1852403656 	 4.71
255.1743413283 	 1
256.1695903014 	 0.61
258.1852403656 	 0.39
272.2008904298 	 1.78
274.216540494 	 0.73
282.1852403656 	 3.96
299.2117894671 	 0.62
300.1958050519 	 4.4
305.2587396597 	 25.8
317.2223541534 	 100
355.2743897239 	 0.83
373.2849544102 	 140.17
END IONS

BEGIN IONS
PEPMASS=587.2864
CHARGE=1
MSLEVEL=2
RT=0
SOURCE_INSTRUMENT=qTOF
FILENAME=CCMSLIB00000078041.ms
IONMODE=Positive
ORGANISM=Natural
NAME=Irinotecan
PI=GNPS
DATACOLLECTOR=GNPS
SMILES=CCc1c2cc(ccc2nc2c1Cn1c2cc2c(COC(=O)[C@]2(CC)O)c1=O)OC(=O)N1CCC(CC1)N1CCCCC1
INCHI=InChI=1S/C33H38N4O6/c1-3-22-23-16-21(43-32(40)36-14-10-20(11-15-36)35-12-6-5-7-13-35)8-9-27(23)34-29-24(22)18-37-28(29)17-26-25(30(37)38)19-42-31(39)33(26,41)4-2/h8-9,16-17,20,41H,3-7,10-15,18-19H2,1-2H3/t33-/m1/s1
FORMULA=C33H38N4O6
PUBMED=N/A
SUBMITUSER=BIOADREM
LIBRARYQUALITY=0
SPECTRUMID=CCMSLIB00000078041
SCANS=612
ID=CCMSLIB00000078041
98.0964253583 	 2.63
110.060039852 	 15.75
112.0756899162 	 1.88
124.1120754225 	 40.9
150.1277254867 	 3.22
167.1178890819 	 100
195.1491892103 	 39.15
246.1151494277 	 1.32
274.1100640498 	 1.83
275.1178890819 	 2.36
303.1491892103 	 2.54
316.1206287361 	 2.78
318.1362788003 	 4.07
319.1441038324 	 1.98
329.1284537682 	 2.94
331.1441038324 	 34.15
335.1390184545 	 2.18
346.0948079161 	 5.48
347.1026329482 	 1.88
347.1390184545 	 2.58
348.1104579803 	 5.07
349.1182830124 	 1.32
361.1182830124 	 2.19
361.1546685187 	 8.16
363.1339330766 	 13.49
372.1706529339 	 3.7
373.1757978913 	 1.45
375.1339330766 	 21.6
379.0924621924 	 1.88
393.1444977629 	 1.6
405.1444977629 	 14.46
407.1237623208 	 7.63
414.2176031265 	 19.7
415.2227480839 	 5.42
416.1604821781 	 2.76
458.2074323707 	 38.32
460.1503114223 	 1.9
486.2598618717 	 1.49
502.1972616149 	 69.95
543.296581729 	 22.58
587.2864109732 	 286.12
END IONS

BEGIN IONS
PEPMASS=286.0702
CHARGE=1
MSLEVEL=2
RT=0
SOURCE_INSTRUMENT=qTOF
FILENAME=CCMSLIB00000078043.ms
IONMODE=Positive
ORGANISM=Natural
NAME=Cladribine
PI=GNPS
DATACOLLECTOR=GNPS
SMILES=C1[C@@H]([C@@H](CO)O[C@H]1n1cnc2c(N)nc(Cl)nc12)O
INCHI=InChI=1S/C10H12ClN5O3/c11-10-14-8(12)7-9(15-10)16(3-13-7)6-1-4(18)5(2-17)19-6/h3-6,17-18H,1-2H2,(H2,12,14,15)/t4-,5+,6+/m0/s1
FORMULA=C10H12ClN5O3
PUBMED=N/A
SUBMITUSER=BIOADREM
LIBRARYQUALITY=0
SPECTRUMID=CCMSLIB00000078043
SCANS=613
ID=CCMSLIB00000078043
99.0440554368 	 1.1
101.0260000694 	 4.88
107.035222085 	 12
107.0365647557 	 0.64
117.0546201231 	 3.37
134.0461211223 	 100
134.047463793 	 15.27
145.0522148199 	 4.47
170.0227988644 	 92.47
170.0241415351 	 100
286.0701429875 	 8.4
END IONS

BEGIN IONS
PEPMASS=233.1286
CHARGE=1
MSLEVEL=2
RT=0
SOURCE_INSTRUMENT=qTOF
FILENAME=CCMSLIB00000078045.ms
IONMODE=Positive
ORGANISM=Natural
NAME=Melatonin
PI=GNPS
DATACOLLECTOR=GNPS
SMILES=CC(=NCCc1c[nH]c2ccc(cc12)OC)O
INCHI=InChI=1S/C13H16N2O2/c1-9(16)14-6-5-10-8-15-13-4-3-11(17-2)7-12(10)13/h3-4,7-8,15H,5-6H2,1-2H3,(H,14,16)
FORMULA=C13H16N2O2
PUBMED=N/A
SUBMITUSER=BIOADREM
LIBRARYQUALITY=0
SPECTRUMID=CCMSLIB00000078045
SCANS=614
ID=CCMSLIB00000078045
103.0542261926 	 0.849168953554601
105.0573001978 	 0.434940195723088
115.0542261926 	 3.88857246414332
117.0698762568 	 0.144980065241029
118.0651252299 	 0.445295914668876
121.0647908789 	 0.54367524465386
127.0542261926 	 0.103557189457878
130.0651252299 	 28.9545901724227
131.072950262 	 44.5140578884689
140.0494751657 	 0.108735048930772
141.0573001978 	 0.455651633614664
142.0651252299 	 4.18888831357117
143.072950262 	 27.5721016931601
144.0807752941 	 0.937192564593797
146.060039852 	 0.590275979909905
146.0964253583 	 0.533319525708072
147.0804409431 	 0.460829493087558
151.0991650125 	 2.13327810283229
154.1100640498 	 0.533319525708072
155.072950262 	 0.155335784186817
158.060039852 	 3.7384145394294
159.0678648841 	 66.1626883446383
162.0913399804 	 0.398695179412831
173.0835149483 	 0.600631698855693
174.0913399804 	 100
175.0865889535 	 4.20959975146275
198.0913399804 	 0.274426552063377
215.1178890819 	 0.11909076787656
216.1019046667 	 3.34489721948946
233.1284537682 	 2.98244705638689
END IONS

BEGIN IONS
PEPMASS=544.1808
CHARGE=1
MSLEVEL=2
RT=0
SOURCE_INSTRUMENT=qTOF
FILENAME=CCMSLIB00000078047.ms
IONMODE=Positive
ORGANISM=Natural
NAME=Doxorubicin (Adriamycin)
PI=GNPS
DATACOLLECTOR=GNPS
SMILES=C[C@H]1[C@H]([C@H](C[C@@H](O1)O[C@@H]1C[C@@](Cc2c1c(c1c(C(=O)c3cccc(c3C1=O)OC)c2O)O)(C(=O)CO)O)N)O
INCHI=InChI=1S/C27H29NO11/c1-10-22(31)13(28)6-17(38-10)39-15-8-27(36,16(30)9-29)7-12-19(15)26(35)21-20(24(12)33)23(32)11-4-3-5-14(37-2)18(11)25(21)34/h3-5,10,13,15,17,22,29,31,33,35-36H,6-9,28H2,1-2H3/t10-,13-,15+,17-,22+,27-/m0/s1
FORMULA=C27H29NO11
PUBMED=N/A
SUBMITUSER=BIOADREM
LIBRARYQUALITY=0
SPECTRUMID=CCMSLIB00000078047
SCANS=616
ID=CCMSLIB00000078047
95.0491408147 	 1.02
112.0756899162 	 3.76
113.059705501 	 10.52
130.0862546025 	 40.24
148.0968192888 	 3.92
287.0702701873 	 1.07
290.0573597773 	 0.42
293.0808348736 	 1.48
303.0651848094 	 1.38
305.0808348736 	 1.47
306.0522743994 	 7.71
307.0600994315 	 1.32
309.0757494957 	 0.92
315.0651848094 	 1.93
316.0663070214 	 0.47
321.0757494957 	 67.72
325.0706641178 	 0.76
333.0757494957 	 9.57
334.0768717077 	 2.42
336.0628390857 	 0.52
337.0706641178 	 2.06
346.0471890215 	 31.13
347.0483112335 	 7.49
348.0561362656 	 1.46
351.086314182 	 2.34
361.0706641178 	 49.75
362.0717863298 	 14.26
363.073738123 	 2.09
364.0577537078 	 1.04
379.0812288041 	 65.22
381.0843028093 	 3.41
397.0917934904 	 100
399.0948674956 	 3.68
414.1183425919 	 0.97
508.1602074066 	 1.43
526.1707720929 	 4.82
544.1813367792 	 14.62
END IONS

BEGIN IONS
PEPMASS=455.179
CHARGE=1
MSLEVEL=2
RT=0
SOURCE_INSTRUMENT=qTOF
FILENAME=CCMSLIB00000078048.ms
IONMODE=Positive
ORGANISM=Natural
NAME=Abitrexate (Methotrexate)
PI=GNPS
DATACOLLECTOR=GNPS
SMILES=CN(Cc1cnc2c(c(N)[nH]c(=N)n2)n1)c1ccc(cc1)C(=O)N[C@@H](CCC(=O)O)C(=O)O
INCHI=InChI=1S/C20H22N8O5/c1-28(9-11-8-23-17-15(24-11)16(21)26-20(22)27-17)12-4-2-10(3-5-12)18(31)25-13(19(32)33)6-7-14(29)30/h2-5,8,13H,6-7,9H2,1H3,(H,25,31)(H,29,30)(H,32,33)(H4,21,22,23,26,27)/t13-/m0/s1
FORMULA=C20H22N8O5
PUBMED=N/A
SUBMITUSER=BIOADREM
LIBRARYQUALITY=0
SPECTRUMID=CCMSLIB00000078048
SCANS=617
ID=CCMSLIB00000078048
106.0651252299 	 0.61
107.0491408147 	 0.22
121.0495347452 	 0.185
132.0417097131 	 0.24
133.0495347452 	 2.84
133.0522148199 	 1.14
134.060039852 	 50.965
135.0651848094 	 2.5
148.0604337825 	 1.585
148.0631138572 	 0.165
159.0526087504 	 0.345
160.0604337825 	 1.59
160.0631138572 	 1.02
161.0556827556 	 1.255
175.0713328198 	 50
175.0740128945 	 22.435
175.0753555652 	 16.65
176.0791578519 	 16.81
177.0896629587 	 2.06
179.0689275166 	 0.82
189.0532774524 	 3.515
249.1359444493 	 0.35
282.1434894432 	 0.135
293.1118549638 	 0.175
308.1240966718 	 22.26
308.1254340758 	 100
309.1305790332 	 7.505
309.1319217039 	 7.405
326.1359987621 	 0.735
327.1411437195 	 0.12
437.168027172 	 0.15
455.1785918583 	 53.79
END IONS

BEGIN IONS
PEPMASS=241.1448
CHARGE=1
MSLEVEL=2
RT=0
SOURCE_INSTRUMENT=qTOF
FILENAME=CCMSLIB00000078049.ms
IONMODE=Positive
ORGANISM=Natural
NAME=Imiquimod
PI=GNPS
DATACOLLECTOR=GNPS
SMILES=CC(C)Cn1cnc2c1c1ccccc1[nH]c2=N
INCHI=InChI=1S/C14H16N4/c1-9(2)7-18-8-16-12-13(18)10-5-3-4-6-11(10)17-14(12)15/h3-6,8-9H,7H2,1-2H3,(H2,15,17)
FORMULA=C14H16N4
PUBMED=N/A
SUBMITUSER=BIOADREM
LIBRARYQUALITY=0
SPECTRUMID=CCMSLIB00000078049
SCANS=618
ID=CCMSLIB00000078049
114.0338251015 	 3.27
131.060374203 	 0.92
141.0447241388 	 11.28
158.0712732403 	 0.77
168.0556231761 	 15.4
185.0821722776 	 100
211.0978223418 	 0.915
241.1447725344 	 74.75
END IONS

BEGIN IONS
PEPMASS=358.11
CHARGE=1
MSLEVEL=2
RT=0
SOURCE_INSTRUMENT=qTOF
FILENAME=CCMSLIB00000078050.ms
IONMODE=Positive
ORGANISM=Natural
NAME=Bendamustine HCL
PI=GNPS
DATACOLLECTOR=GNPS
SMILES=Cn1c2ccc(cc2nc1CCCC(=O)O)N(CCCl)CCCl
INCHI=InChI=1S/C16H21Cl2N3O2/c1-20-14-6-5-12(21(9-7-17)10-8-18)11-13(14)19-15(20)3-2-4-16(22)23/h5-6,11H,2-4,7-10H2,1H3,(H,22,23)
FORMULA=C16H21Cl2N3O2
PUBMED=N/A
SUBMITUSER=BIOADREM
LIBRARYQUALITY=0
SPECTRUMID=CCMSLIB00000078050
SCANS=619
ID=CCMSLIB00000078050
173.0947483366 	 3.55
187.1103984008 	 2.66
200.1182234329 	 8.9
212.1182234329 	 3.39
213.126048465 	 2.55
214.1100640498 	 1.55
214.1338734971 	 3.26
222.0792511108 	 1.64
228.113138055 	 47.9
235.0870761429 	 2
236.094901175 	 9.8
240.113138055 	 8.93
240.1495235613 	 3.06
241.1209630871 	 8.7
242.1287881192 	 9.21
246.1237027413 	 19.25
249.1027262071 	 3.01
258.1237027413 	 2.86
259.1315277734 	 1.14
260.1393528055 	 1.54
262.1105512392 	 1.24
268.1444381834 	 4.03
270.0559288529 	 2.03
276.0898157971 	 6.37
276.1262013034 	 7.62
284.0715789171 	 2.89
285.0794039492 	 18.1
294.1003804834 	 1.2
304.1211159255 	 46.51
312.1028790455 	 5.84
322.1316806118 	 8.21
340.0977936676 	 100
358.1083583539 	 291.84
END IONS

BEGIN IONS
PEPMASS=304.061
CHARGE=1
MSLEVEL=2
RT=0
SOURCE_INSTRUMENT=qTOF
FILENAME=CCMSLIB00000078054.ms
IONMODE=Positive
ORGANISM=Natural
NAME=Clofarabine
PI=GNPS
DATACOLLECTOR=GNPS
SMILES=C([C@@H]1[C@H]([C@@H]([C@H](n2cnc3c(N)nc(Cl)nc23)O1)F)O)O
INCHI=InChI=1S/C10H11ClFN5O3/c11-10-15-7(13)5-8(16-10)17(2-14-5)9-4(12)6(19)3(1-18)20-9/h2-4,6,9,18-19H,1H2,(H2,13,15,16)/t3-,4+,6-,9-/m1/s1
FORMULA=C10H11ClFN5O3
PUBMED=N/A
SUBMITUSER=BIOADREM
LIBRARYQUALITY=0
SPECTRUMID=CCMSLIB00000078054
SCANS=623
ID=CCMSLIB00000078054
75.0103500052 	 0.28
79.0502034472 	 0.24
107.0365647557 	 0.69
117.0339779399 	 0.37
134.047463793 	 12.05
135.0445426262 	 1.33
152.0580284793 	 1.9
170.0241415351 	 100
172.0198050809 	 21.39
206.0452709077 	 0.26
304.0607211554 	 55.38
END IONS

BEGIN IONS
PEPMASS=589.1916
CHARGE=1
MSLEVEL=2
RT=0
SOURCE_INSTRUMENT=qTOF
FILENAME=CCMSLIB00000078056.ms
IONMODE=Positive
ORGANISM=Natural
NAME=Etoposide (VP-16)
PI=GNPS
DATACOLLECTOR=GNPS
SMILES=C[C@@H]1OC[C@@H]2[C@H]([C@@H]([C@@H]([C@@H](O2)O[C@@H]2c3cc4c(cc3[C@H](c3cc(c(c(c3)OC)O)OC)[C@@H]3[C@@H]2COC3=O)OCO4)O)O)O1
INCHI=InChI=1S/C29H32O13/c1-11-36-9-20-27(40-11)24(31)25(32)29(41-20)42-26-14-7-17-16(38-10-39-17)6-13(14)21(22-15(26)8-37-28(22)33)12-4-18(34-2)23(30)19(5-12)35-3/h4-7,11,15,20-22,24-27,29-32H,8-10H2,1-3H3/t11-,15+,20-,21+,22+,24-,25+,26-,27-,29+/m1/s1
FORMULA=C29H32O13
PUBMED=N/A
SUBMITUSER=BIOADREM
LIBRARYQUALITY=0
SPECTRUMID=CCMSLIB00000078056
SCANS=624
ID=CCMSLIB00000078056
115.0542261926 	 0.48
143.0491408147 	 0.44
155.0491408147 	 0.5
171.0440554368 	 0.26
173.059705501 	 2.9
185.059705501 	 61.42
199.0389700589 	 3
201.0546201231 	 0.35
217.0495347452 	 1.14
229.0495347452 	 100
247.0600994315 	 7.43
299.0913995599 	 0.45
589.1915671145 	 0.25
END IONS

BEGIN IONS
PEPMASS=474.1748
CHARGE=1
MSLEVEL=2
RT=0
SOURCE_INSTRUMENT=qTOF
FILENAME=CCMSLIB00000078057.ms
IONMODE=Positive
ORGANISM=Natural
NAME=Evista (Raloxifene Hydrochloride)
PI=GNPS
DATACOLLECTOR=GNPS
SMILES=C1CCN(CC1)CCOc1ccc(cc1)C(=O)c1c2ccc(cc2sc1c1ccc(cc1)O)O
INCHI=InChI=1S/C28H27NO4S/c30-21-8-4-20(5-9-21)28-26(24-13-10-22(31)18-25(24)34-28)27(32)19-6-11-23(12-7-19)33-17-16-29-14-2-1-3-15-29/h4-13,18,30-31H,1-3,14-17H2
FORMULA=C28H27NO4S
PUBMED=N/A
SUBMITUSER=BIOADREM
LIBRARYQUALITY=0
SPECTRUMID=CCMSLIB00000078057
SCANS=625
ID=CCMSLIB00000078057
84.0807752941 	 0.0687118548158927
97.0886003262 	 0.0996995540465893
98.0964253583 	 0.305835118494267
103.0178406863 	 0.397450924915457
110.0964253583 	 0.427091332875254
112.1120754225 	 26.9458254179971
121.0284053726 	 0.521401721838244
147.0440554368 	 5.71116769734449
154.9949967542 	 0.0754483111703919
197.059705501 	 1.20043652237177
197.0630763194 	 1.52782830120044
206.1539402372 	 0.142812874715385
213.0368615689 	 1.27723212481306
214.0413157826 	 0.312571574848767
224.0290365368 	 0.291014914514369
225.0579909415 	 0.0889212238793905
241.031776191 	 0.866308287188607
242.0362304047 	 0.222303059698476
251.0161261268 	 0.0592808159195937
252.0239511589 	 0.133381835819086
253.0284053726 	 0.200746399364079
253.031776191 	 0.0889212238793905
266.0396012231 	 0.0754483111703919
269.0266908131 	 20.2767336270428
270.0311450268 	 3.83978012206459
272.0256657184 	 0.0916158064211902
284.0831805973 	 0.0767956024412918
287.0525116331 	 0.401492798728157
288.0569658468 	 0.0579335246486938
288.0603366652 	 0.118561631839187
289.0681616973 	 0.129339962006386
291.0474262552 	 0.0673645635449928
295.0389700589 	 0.101046845317489
298.0413157826 	 0.0835320587957911
299.0525116331 	 0.107783301671988
303.0440554368 	 0.0700591460867925
304.0518804689 	 0.0794901849830915
304.0552512873 	 0.114519758026488
305.0630763194 	 1.03741427859289
306.0675305331 	 0.114519758026488
315.0474262552 	 0.0835320587957911
316.0518804689 	 0.115867049297388
316.0552512873 	 0.0902685151502904
317.0630763194 	 0.489066731336648
318.0709013515 	 0.181884321571481
319.0423408773 	 0.37858884712286
328.0518804689 	 0.0794901849830915
328.0552512873 	 0.0970049715047896
329.0808348736 	 0.0996995540465893
332.0501659094 	 0.09296309769209
333.0579909415 	 1.12903008501408
334.0624451552 	 0.363768643142961
334.0658159736 	 0.109130592942888
343.0423408773 	 0.352990312975762
344.0501659094 	 0.152243913611684
345.0546201231 	 0.444606119396952
345.0579909415 	 0.866308287188607
346.0624451552 	 0.167064117591582
360.0450805315 	 0.148202039798984
361.0529055636 	 2.34832868517845
362.0573597773 	 2.39548387965994
362.0607305957 	 0.9390620158172
363.0651848094 	 0.344906565350363
371.0702701873 	 0.115867049297388
374.0607305957 	 0.485024857523948
389.0808348736 	 0.157633078695283
389.084205692 	 0.344906565350363
474.1733550503 	 100
END IONS

BEGIN IONS
PEPMASS=498.1741
CHARGE=1
MSLEVEL=2
RT=0
SOURCE_INSTRUMENT=qTOF
FILENAME=CCMSLIB00000078058.ms
IONMODE=Positive
ORGANISM=Natural
NAME=Idarubicin HCl
PI=GNPS
DATACOLLECTOR=GNPS
SMILES=C[C@H]1[C@H]([C@H](C[C@@H](O1)O[C@@H]1C[C@@](Cc2c1c(c1c(C(=O)c3ccccc3C1=O)c2O)O)(C(=O)C)O)N)O
INCHI=InChI=1S/C26H27NO9/c1-10-21(29)15(27)7-17(35-10)36-16-9-26(34,11(2)28)8-14-18(16)25(33)20-19(24(14)32)22(30)12-5-3-4-6-13(12)23(20)31/h3-6,10,15-17,21,29,32-34H,7-9,27H2,1-2H3/t10-,15-,16+,17-,21+,26-/m0/s1
FORMULA=C26H27NO9
PUBMED=N/A
SUBMITUSER=BIOADREM
LIBRARYQUALITY=0
SPECTRUMID=CCMSLIB00000078058
SCANS=626
ID=CCMSLIB00000078058
95.0491408147 	 0.35
112.0756899162 	 1.76
113.059705501 	 3.32
130.0862546025 	 35.67
148.0968192888 	 1.19
263.0702701873 	 1.4
273.0546201231 	 0.62
291.0651848094 	 100
305.0808348736 	 0.22
315.0651848094 	 0.33
333.0757494957 	 45.61
351.086314182 	 3.76
353.0893881872 	 0.2
498.1758574708 	 2.8
END IONS

BEGIN IONS
PEPMASS=422.1724
CHARGE=1
MSLEVEL=2
RT=0
SOURCE_INSTRUMENT=qTOF
FILENAME=CCMSLIB00000078059.ms
IONMODE=Positive
ORGANISM=Natural
NAME=Topotecan HCl
PI=GNPS
DATACOLLECTOR=GNPS
SMILES=CC[C@@]1(c2cc3c4c(cc5c(CN(C)C)c(ccc5n4)O)Cn3c(=O)c2COC1=O)O
INCHI=InChI=1S/C23H23N3O5/c1-4-23(30)16-8-18-20-12(9-26(18)21(28)15(16)11-31-22(23)29)7-13-14(10-25(2)3)19(27)6-5-17(13)24-20/h5-8,27,30H,4,9-11H2,1-3H3/t23-/m0/s1
FORMULA=C23H23N3O5
PUBMED=N/A
SUBMITUSER=BIOADREM
LIBRARYQUALITY=0
SPECTRUMID=CCMSLIB00000078059
SCANS=627
ID=CCMSLIB00000078059
219.0916743314 	 0.23
220.0994993635 	 0.4
246.0787639214 	 0.285
247.0865889535 	 0.315
248.0944139856 	 2.235
274.0736785435 	 1.01
275.0815035756 	 0.36
276.0893286077 	 3.505
277.1335391461 	 0.25
292.0842432298 	 0.9
292.1206287361 	 0.555
302.0685931656 	 2.335
303.0764181977 	 0.245
303.112803704 	 0.22
304.0842432298 	 2.345
305.1284537682 	 7.59
320.0791578519 	 7.565
320.1155433582 	 5.5
331.1077183261 	 0.435
333.1233683903 	 5.115
348.074072474 	 17.935
349.1182830124 	 5.65
377.1131976345 	 100
379.1162716397 	 1.75
422.1710468644 	 79.635
END IONS

BEGIN IONS
PEPMASS=303.1947
CHARGE=1
MSLEVEL=2
RT=0
SOURCE_INSTRUMENT=qTOF
FILENAME=CCMSLIB00000078060.ms
IONMODE=Positive
ORGANISM=Natural
NAME=2-Methoxyestradiol
PI=GNPS
DATACOLLECTOR=GNPS
SMILES=C[C@]12CC[C@@H]3[C@@H](CCc4cc(c(cc34)OC)O)[C@@H]1CC[C@H]2O
INCHI=InChI=1S/C19H26O3/c1-19-8-7-12-13(15(19)5-6-18(19)21)4-3-11-9-16(20)17(22-2)10-14(11)12/h9-10,12-13,15,18,20-21H,3-8H2,1-2H3/t12-,13-,15+,18-,19+/m1/s1
FORMULA=C19H26O3
PUBMED=N/A
SUBMITUSER=BIOADREM
LIBRARYQUALITY=0
SPECTRUMID=CCMSLIB00000078060
SCANS=628
ID=CCMSLIB00000078060
106.0777012889 	 5.28
107.0491408147 	 4.53
121.1011763852 	 8.51
122.072615911 	 4.31
123.0440554368 	 6.14
130.0777012889 	 4.09
135.1168264494 	 26.29
136.1246514815 	 10.24
137.059705501 	 100
147.1168264494 	 4.96
176.0831805973 	 4.09
202.0988306615 	 9.16
203.1066556936 	 4.63
285.1849060146 	 26.08
303.1954707009 	 45.69
END IONS

BEGIN IONS
PEPMASS=847.3873
CHARGE=1
MSLEVEL=2
RT=0
SOURCE_INSTRUMENT=qTOF
FILENAME=CCMSLIB00000078061.ms
IONMODE=Positive
ORGANISM=Natural
NAME=Vincristine
PI=GNPS
DATACOLLECTOR=GNPS
SMILES=CC[C@@]1(C[C@H]2C[C@](c3cc4c(cc3OC)N(C=O)[C@@H]3[C@]54CCN4CC=C[C@](CC)([C@@H]54)[C@H]([C@@]3(C(=O)OC)O)OC(=O)C)(c3c(CCN(C2)C1)c1ccccc1[nH]3)C(=O)OC)O
INCHI=InChI=1S/C46H56N4O10/c1-7-42(55)22-28-23-45(40(53)58-5,36-30(14-18-48(24-28)25-42)29-12-9-10-13-33(29)47-36)32-20-31-34(21-35(32)57-4)50(26-51)38-44(31)16-19-49-17-11-15-43(8-2,37(44)49)39(60-27(3)52)46(38,56)41(54)59-6/h9-13,15,20-21,26,28,37-39,47,55-56H,7-8,14,16-19,22-25H2,1-6H3/t28-,37-,38+,39+,42-,43+,44-,45-,46-/m0/s1
FORMULA=C46H56N4O10
PUBMED=N/A
SUBMITUSER=BIOADREM
LIBRARYQUALITY=0
SPECTRUMID=CCMSLIB00000078061
SCANS=629
ID=CCMSLIB00000078061
78.0549544741 	 0.96523187623126
173.1046443209 	 0.941652531737037
202.1464495561 	 0.96523187623126
204.1594195456 	 1.03596990971393
224.1254393425 	 1.25274775425759
225.1332643746 	 1.30979455545329
265.164564503 	 0.457895657597493
323.1668506472 	 0.470826265868519
331.2101720249 	 0.96523187623126
332.2134664888 	 1.1067079431966
337.1856938756 	 0.495926858394627
353.1859686471 	 0.756820895862966
355.1962585619 	 0.870914498254368
362.2114551161 	 1.08312859870238
362.2464979517 	 1.03596990971393
363.2152574028 	 1.13028728769082
413.1985447061 	 0.603935468658487
441.2212915209 	 0.941652531737037
453.1961394029 	 0.489841866267086
453.2258220891 	 1.13028728769082
455.2149826313 	 0.413018840656875
513.2357180734 	 0.413018840656875
530.3053555013 	 1.01239056521971
538.2673525528 	 0.641966669455621
543.2278334618 	 0.438880057198926
544.2163796148 	 1.03596990971393
544.2541077918 	 0.406933848529333
555.2251533871 	 0.559819275733812
568.2653411801 	 0.444965049326467
573.3111691607 	 1.13028728769082
583.3166484691 	 0.941652531737037
588.2803225423 	 0.4259494489279
590.2833965475 	 0.482996250123601
594.257181797 	 0.432795065071385
599.2751775849 	 0.692928478523781
602.2833965475 	 0.432795065071385
604.2864705527 	 0.546888667462787
618.3146966759 	 0.692928478523781
634.3149714474 	 0.4259494489279
636.2789798716 	 1.27176335465616
641.3611933585 	 1.1067079431966
641.4187082374 	 1.71901027603046
642.2809912443 	 0.470826265868519
642.3663383159 	 1.53037552007667
662.3224621285 	 0.457895657597493
663.3514165332 	 1.30979455545329
677.3459372248 	 0.603935468658487
678.3748916295 	 0.921876307322527
679.3463311553 	 0.470826265868519
682.3334207453 	 0.489841866267086
684.3881363905 	 1.67185158704201
687.3639925922 	 0.546888667462787
695.3565019111 	 0.470826265868519
705.3745572785 	 2.55645731758335
706.3698062516 	 1.57068859292163
707.3776312837 	 0.489841866267086
711.3639925922 	 1.13028728769082
716.414351141 	 1.31892204364461
723.3752259805 	 1.46039811060994
723.3851219648 	 2.11149226825688
724.3803709379 	 1.09377733492557
725.3796426564 	 2.28415391987587
725.38819597 	 0.52787306706422
726.3987010768 	 1.20102532117349
733.3595759163 	 3.0546660480258
735.3639925922 	 0.578834876132379
743.4027834017 	 4.12106091837744
744.4092657631 	 2.02554175445536
747.3878020395 	 0.95382251599212
748.3830510126 	 1.09377733492557
749.3908760447 	 0.667827885997673
750.3960210021 	 0.591765484403405
751.3701406026 	 1.81332765400735
764.3779656347 	 0.451810665469952
765.3857906668 	 12.5982155760586
766.3936156989 	 5.97470164522975
767.3902073427 	 0.988811220725483
767.401440731 	 0.991853716789254
768.3980323748 	 0.47691125799606
775.3589072143 	 0.508857466665653
783.3963553531 	 8.41402286435792
784.3929469969 	 2.77855953023861
793.3807052889 	 2.07193981942786
795.3851219648 	 1.08312859870238
807.3963553531 	 4.55385598344882
808.4041803852 	 2.34044009705562
809.4120054173 	 1.54558800039552
824.3990950073 	 4.53484038305025
825.4069200394 	 100
END IONS

BEGIN IONS
PEPMASS=825.4051
CHARGE=1
MSLEVEL=2
RT=0
SOURCE_INSTRUMENT=qTOF
FILENAME=CCMSLIB00000078066.ms
IONMODE=Positive
ORGANISM=Natural
NAME=Vincristine
PI=GNPS
DATACOLLECTOR=GNPS
SMILES=CC[C@@]1(C[C@H]2C[C@](c3cc4c(cc3OC)N(C=O)[C@@H]3C54CCN4CC=C[C@](CC)([C@@H]54)[C@@H]([C@@]3(C(=O)OC)O)OC(=O)C)(c3c(CCN(C2)C1)c1ccccc1[nH]3)C(=O)OC)O
INCHI=InChI=1S/C46H56N4O10/c1-7-42(55)22-28-23-45(40(53)58-5,36-30(14-18-48(24-28)25-42)29-12-9-10-13-33(29)47-36)32-20-31-34(21-35(32)57-4)50(26-51)38-44(31)16-19-49-17-11-15-43(8-2,37(44)49)39(60-27(3)52)46(38,56)41(54)59-6/h9-13,15,20-21,26,28,37-39,47,55-56H,7-8,14,16-19,22-25H2,1-6H3/t28-,37-,38+,39-,42-,43+,44?,45-,46-/m0/s1
FORMULA=C46H56N4O10
PUBMED=N/A
SUBMITUSER=BIOADREM
LIBRARYQUALITY=0
SPECTRUMID=CCMSLIB00000078066
SCANS=632
ID=CCMSLIB00000078066
122.0964253583 	 4.82
138.1277254867 	 4.26
144.0780952194 	 6.27
156.138290173 	 3.84
213.1359444493 	 3.92
214.0835745278 	 4.9
224.1307994919 	 12.92
225.1359444493 	 7.51
226.1464495561 	 4.52
265.1699246524 	 4.52
281.1621591998 	 5.88
283.1804893387 	 4.82
353.1832885724 	 4.9
413.191841886 	 4.9
455.2117894671 	 8.91
497.2070980197 	 3.62
522.2513085581 	 3.67
555.2363867754 	 3.62
556.2289556738 	 3.67
604.2958534475 	 6.14
616.3017266864 	 4.99
621.2985931017 	 4.95
635.3075403458 	 4.05
663.3514165332 	 8.87
664.31028 	 4.52
664.3533683264 	 4.61
678.3326328843 	 3.62
681.3282757879 	 4.56
687.3388404742 	 9.89
688.3533683264 	 4.43
692.3051946221 	 3.71
694.3275475064 	 8.49
695.3286697184 	 3.75
696.3431975706 	 5.88
705.3646612942 	 27.63
706.3639330127 	 15.01
723.3752259805 	 16.25
724.374497699 	 7.63
733.3595759163 	 7.12
734.3521448147 	 3.84
747.3752259805 	 13.9
748.3830510126 	 6.87
765.3857906668 	 54.2
766.3936156989 	 31.6
767.3776312837 	 12.28
775.3701406026 	 4.82
783.3963553531 	 11.9
784.4041803852 	 6.48
805.3807052889 	 4.78
807.3963553531 	 59.96
808.4041803852 	 28.91
823.3912699752 	 100
824.3990950073 	 66.31
825.4069200394 	 406.65
END IONS

BEGIN IONS
PEPMASS=465.1018
CHARGE=1
MSLEVEL=2
RT=0
SOURCE_INSTRUMENT=qTOF
FILENAME=CCMSLIB00000078067.ms
IONMODE=Positive
ORGANISM=Natural
NAME=MDV3100 (Enzalutamide)
PI=GNPS
DATACOLLECTOR=GNPS
SMILES=CC1(C)C(=O)N(c2ccc(C#N)c(c2)C(F)(F)F)C(=S)N1c1ccc(c(c1)F)C(=NC)O
INCHI=InChI=1S/C21H16F4N4O2S/c1-20(2)18(31)28(12-5-4-11(10-26)15(8-12)21(23,24)25)19(32)29(20)13-6-7-14(16(22)9-13)17(30)27-3/h4-9H,1-3H3,(H,27,30)
FORMULA=C21H16F4N4O2S
PUBMED=N/A
SUBMITUSER=BIOADREM
LIBRARYQUALITY=0
SPECTRUMID=CCMSLIB00000078067
SCANS=633
ID=CCMSLIB00000078067
112.0557033978 	 1.39
136.0557033978 	 1.26
151.0365253826 	 1.19
152.0870035262 	 18.19
153.0885609531 	 2.18
154.9961396084 	 1.76
156.0277740878 	 14.93
157.0270627019 	 2.07
158.0236543457 	 1.14
167.0365647557 	 1.11
178.0662680841 	 47.31
179.067825511 	 5.44
183.0678648841 	 1.19
184.0226887099 	 7.67
186.0383387741 	 4.37
191.0979025635 	 0.84
209.1084672498 	 100
210.1100246767 	 12.42
211.0376273882 	 1.73
211.1167068546 	 0.98
226.0662680841 	 1.03
230.0086336104 	 1.63
252.0727129077 	 7.91
253.0771671214 	 1.43
279.1115018819 	 0.83
323.026057693 	 1
349.0053222509 	 1.73
350.0081814999 	 1.67
360.0390652203 	 1.18
361.0491182166 	 1.07
380.0475214166 	 39.52
381.0503806656 	 8.01
434.0580861029 	 2.73
465.1002852686 	 412.69
END IONS

BEGIN IONS
PEPMASS=312.1975
CHARGE=1
MSLEVEL=2
RT=0
SOURCE_INSTRUMENT=qTOF
FILENAME=CCMSLIB00000078068.ms
IONMODE=Positive
ORGANISM=Natural
NAME=Dienogest
PI=GNPS
DATACOLLECTOR=GNPS
SMILES=C[C@@]12CCC3=C4CCC(=O)C=C4CC[C@H]3[C@@H]1CC[C@]2(CC#N)O
INCHI=InChI=1S/C20H25NO2/c1-19-8-6-16-15-5-3-14(22)12-13(15)2-4-17(16)18(19)7-9-20(19,23)10-11-21/h12,17-18,23H,2-10H2,1H3/t17-,18+,19-,20-/m1/s1
FORMULA=C20H25NO2
PUBMED=N/A
SUBMITUSER=BIOADREM
LIBRARYQUALITY=0
SPECTRUMID=CCMSLIB00000078068
SCANS=634
ID=CCMSLIB00000078068
105.0698762568 	 10.93
107.0491408147 	 14.31
107.085526321 	 5.63
117.0698762568 	 8.44
119.085526321 	 14.11
128.0620512247 	 5.1
129.0698762568 	 6.83
131.085526321 	 8.68
132.0807752941 	 8.44
133.0647908789 	 21.78
133.1011763852 	 8.16
135.0804409431 	 80.75
143.085526321 	 17.44
145.0647908789 	 7.03
147.0804409431 	 12.06
149.0960910073 	 7.11
157.0647908789 	 9.89
157.1011763852 	 6.71
159.0804409431 	 58.12
161.0960910073 	 100
167.085526321 	 6.63
169.1011763852 	 9.08
173.0960910073 	 9.32
175.1117410715 	 7.07
176.1069900446 	 5.31
193.1011763852 	 6.75
195.1168264494 	 7.11
197.0960910073 	 8.92
197.1324765136 	 4.82
211.1117410715 	 8.12
213.1273911357 	 6.23
225.1273911357 	 7.15
253.1586912641 	 29.78
254.1665162962 	 19.05
271.1692559504 	 20.7
294.1852403656 	 42
312.1958050519 	 1766.64
END IONS

BEGIN IONS
PEPMASS=255.1138
CHARGE=1
MSLEVEL=2
RT=0
SOURCE_INSTRUMENT=qTOF
FILENAME=CCMSLIB00000078069.ms
IONMODE=Positive
ORGANISM=Natural
NAME=Nepafenac
PI=GNPS
DATACOLLECTOR=GNPS
SMILES=c1ccc(cc1)C(=O)c1cccc(CC(=N)O)c1N
INCHI=InChI=1S/C15H14N2O2/c16-13(18)9-11-7-4-8-12(14(11)17)15(19)10-5-2-1-3-6-10/h1-8H,9,17H2,(H2,16,18)
FORMULA=C15H14N2O2
PUBMED=N/A
SUBMITUSER=BIOADREM
LIBRARYQUALITY=0
SPECTRUMID=CCMSLIB00000078069
SCANS=635
ID=CCMSLIB00000078069
104.0494751657 	 1.28
105.0334907505 	 12.35
132.0443897878 	 15.51
153.0698762568 	 0.36
154.0651252299 	 0.28
155.085526321 	 0.56
160.0393044099 	 15.73
165.0698762568 	 2.46
167.072950262 	 2.18
180.0807752941 	 0.76
182.0964253583 	 1.94
183.0804409431 	 1
190.0651252299 	 0.21
192.0807752941 	 1.07
195.0678648841 	 7.57
208.0756899162 	 0.52
210.0913399804 	 100
238.0862546025 	 84.8
255.112803704 	 28.38
END IONS

BEGIN IONS
PEPMASS=239.0738
CHARGE=1
MSLEVEL=2
RT=0
SOURCE_INSTRUMENT=qTOF
FILENAME=CCMSLIB00000078070.ms
IONMODE=Positive
ORGANISM=Natural
NAME=Rufinamide (Banzel)
PI=GNPS
DATACOLLECTOR=GNPS
SMILES=c1cc(c(Cn2cc(C(=N)O)nn2)c(c1)F)F
INCHI=InChI=1S/C10H8F2N4O/c11-7-2-1-3-8(12)6(7)4-16-5-9(10(13)17)14-15-16/h1-3,5H,4H2,(H2,13,17)
FORMULA=C10H8F2N4O
PUBMED=N/A
SUBMITUSER=BIOADREM
LIBRARYQUALITY=0
SPECTRUMID=CCMSLIB00000078070
SCANS=636
ID=CCMSLIB00000078070
84.0005938221 	 0.66
88.0067418325 	 0.76
101.0197324642 	 4.535
107.0291542963 	 3.9
121.0322283015 	 0.645
127.0353825284 	 100
128.0380419609 	 3.31
136.0557033978 	 0.925
142.0462815657 	 1.225
144.0619316299 	 1.095
148.0557033978 	 0.83
156.0619316299 	 1.02
166.0462815657 	 1.81
168.0619316299 	 1.7
183.0728306672 	 1
211.0677452893 	 0.805
222.0473441982 	 6.27
239.0738932997 	 5.69
END IONS

BEGIN IONS
PEPMASS=358.1779
CHARGE=1
MSLEVEL=2
RT=0
SOURCE_INSTRUMENT=qTOF
FILENAME=CCMSLIB00000078075.ms
IONMODE=Positive
ORGANISM=Natural
NAME=AMG-073 HCl (Cinacalcet hydrochloride)
PI=GNPS
DATACOLLECTOR=GNPS
SMILES=C[C@H](c1cccc2ccccc12)NCCCc1cccc(c1)C(F)(F)F
INCHI=InChI=1S/C22H22F3N/c1-16(20-13-5-10-18-9-2-3-12-21(18)20)26-14-6-8-17-7-4-11-19(15-17)22(23,24)25/h2-5,7,9-13,15-16,26H,6,8,14H2,1H3/t16-/m1/s1
FORMULA=C22H22F3N
PUBMED=N/A
SUBMITUSER=BIOADREM
LIBRARYQUALITY=0
SPECTRUMID=CCMSLIB00000078075
SCANS=640
ID=CCMSLIB00000078075
103.0542261926 	 0.22
115.0542261926 	 1.13
127.0542261926 	 0.36
128.0620512247 	 1.44
129.0698762568 	 2.29
141.0510325926 	 0.78
153.0698762568 	 11.54
154.0777012889 	 6.31
159.0416107605 	 1.2
184.0932317583 	 0.54
204.0994599904 	 8.04
205.1011763852 	 0.82
358.1777103114 	 2.14
END IONS

BEGIN IONS
PEPMASS=490.0817
CHARGE=1
MSLEVEL=2
RT=0
SOURCE_INSTRUMENT=qTOF
FILENAME=CCMSLIB00000078077.ms
IONMODE=Positive
ORGANISM=Natural
NAME=Vemurafenib (PLX4032)
PI=GNPS
DATACOLLECTOR=GNPS
SMILES=CCCS(=O)(=O)Nc1ccc(c(c1F)C(=O)c1c[nH]c2c1cc(cn2)c1ccc(cc1)Cl)F
INCHI=InChI=1S/C23H18ClF2N3O3S/c1-2-9-33(31,32)29-19-8-7-18(25)20(21(19)26)22(30)17-12-28-23-16(17)10-14(11-27-23)13-3-5-15(24)6-4-13/h3-8,10-12,29H,2,9H2,1H3,(H,27,28)
FORMULA=C23H18ClF2N3O3S
PUBMED=N/A
SUBMITUSER=BIOADREM
LIBRARYQUALITY=0
SPECTRUMID=CCMSLIB00000078077
SCANS=642
ID=CCMSLIB00000078077
255.0314793778 	 65.04
300.0893286077 	 0.51
326.0724160945 	 1.1
327.0797890161 	 0.91
328.0842432298 	 1.4
329.0613355446 	 0.49
335.0615521361 	 2.44
347.0377426888 	 0.81
354.0604074466 	 5.75
355.0677803682 	 2.32
357.0562501667 	 0.81
358.0514991398 	 1.03
362.0490938366 	 9.72
363.0564667582 	 8.59
364.0609209719 	 3.54
365.0561530494 	 2.4
366.0565845177 	 1.85
367.0439709209 	 1.37
368.0522480635 	 0.65
369.0436741077 	 0.63
382.0553220687 	 1.26
383.0626949903 	 100
384.067149204 	 26.16
385.0623812815 	 32.21
386.0628127498 	 6.11
490.0798222597 	 252.23
END IONS

BEGIN IONS
PEPMASS=211.1685
CHARGE=1
MSLEVEL=2
RT=0
SOURCE_INSTRUMENT=qTOF
FILENAME=CCMSLIB00000078079.ms
IONMODE=Positive
ORGANISM=Natural
NAME=Altretamine (Hexalen)
PI=GNPS
DATACOLLECTOR=GNPS
SMILES=CN(C)c1nc(nc(n1)N(C)C)N(C)C
INCHI=InChI=1S/C9H18N6/c1-13(2)7-10-8(14(3)4)12-9(11-7)15(5)6/h1-6H3
FORMULA=C9H18N6
PUBMED=N/A
SUBMITUSER=BIOADREM
LIBRARYQUALITY=0
SPECTRUMID=CCMSLIB00000078079
SCANS=643
ID=CCMSLIB00000078079
96.0556231761 	 12.4307761155068
111.0665222134 	 0.0863938940027721
112.0869233045 	 0.0310769402887669
123.0665222134 	 0.312634019304995
124.0743472455 	 0.0279692462598902
125.0821722776 	 0.141710847716777
138.0774212507 	 0.60537879682518
139.0978223418 	 0.189569335761478
152.0930713149 	 0.541981838636095
153.100896347 	 1.09763753099925
166.1087213791 	 2.6688876319993
167.1165464112 	 0.453101789410222
168.1243714433 	 3.03373091098943
181.1196204164 	 2.06537345159145
195.1352704806 	 1.20889297723303
211.166570609 	 100
END IONS

BEGIN IONS
PEPMASS=370.1795
CHARGE=1
MSLEVEL=2
RT=0
SOURCE_INSTRUMENT=qTOF
FILENAME=CCMSLIB00000078080.ms
IONMODE=Positive
ORGANISM=Natural
NAME=Amisulpride
PI=GNPS
DATACOLLECTOR=GNPS
SMILES=CCN1CCCC1CN=C(c1cc(c(cc1OC)N)S(=O)(=O)CC)O
INCHI=InChI=1S/C17H27N3O4S/c1-4-20-8-6-7-12(20)11-19-17(21)13-9-16(25(22,23)5-2)14(18)10-15(13)24-3/h9-10,12H,4-8,11,18H2,1-3H3,(H,19,21)
FORMULA=C17H27N3O4S
PUBMED=N/A
SUBMITUSER=BIOADREM
LIBRARYQUALITY=0
SPECTRUMID=CCMSLIB00000078080
SCANS=644
ID=CCMSLIB00000078080
110.0964253583 	 0.10852407261247
112.1120754225 	 10.1716653512234
124.0393044099 	 0.118389897395422
127.0865889535 	 0.13318863456985
129.138624524 	 0.621546961325967
138.0185689678 	 0.246645619573796
138.0212490425 	 0.113456985003946
147.0314793778 	 0.295974743488556
149.047129442 	 1.28255722178374
152.034219032 	 0.113456985003946
155.1178890819 	 0.621546961325967
168.0113750999 	 0.863259668508287
169.0158293136 	 0.113456985003946
177.9957250357 	 0.330505130228887
180.0080042815 	 0.123322809786898
196.006289722 	 28.2705209155485
197.0107439357 	 1.50453827940016
214.0168544083 	 11.6318074191002
215.021308622 	 0.656077348066298
216.0165575951 	 0.305840568271508
242.0481545367 	 49.3291239147593
242.0508346114 	 49.3291239147593
244.0478577235 	 5.29301499605367
325.1216538308 	 0.103591160220994
370.1795030607 	 100
END IONS

BEGIN IONS
PEPMASS=283.154
CHARGE=1
MSLEVEL=2
RT=0
SOURCE_INSTRUMENT=qTOF
FILENAME=CCMSLIB00000078082.ms
IONMODE=Positive
ORGANISM=Natural
NAME=Artemisinin
PI=GNPS
DATACOLLECTOR=GNPS
SMILES=C[C@H]1CC[C@H]2[C@H](C)C(=O)O[C@H]3[C@]42[C@H]1CC[C@](C)(O3)OO4
INCHI=InChI=1S/C15H22O5/c1-8-4-5-11-9(2)12(16)17-13-15(11)10(8)6-7-14(3,18-13)19-20-15/h8-11,13H,4-7H2,1-3H3/t8-,9-,10-,11-,13+,14+,15+/m0/s1
FORMULA=C15H22O5
PUBMED=N/A
SUBMITUSER=BIOADREM
LIBRARYQUALITY=0
SPECTRUMID=CCMSLIB00000078082
SCANS=645
ID=CCMSLIB00000078082
105.0698762568 	 8.44
107.085526321 	 16.04
119.085526321 	 8.98
121.0647908789 	 16.65
121.1011763852 	 19.11
123.0804409431 	 12.13
125.0960910073 	 7.44
131.085526321 	 10.74
133.1011763852 	 17.19
135.0440554368 	 8.06
135.0804409431 	 12.05
143.085526321 	 9.21
149.0960910073 	 23.48
149.1324765136 	 10.28
151.0753555652 	 11.2
151.1117410715 	 14.74
159.1168264494 	 21.49
161.0960910073 	 22.03
163.1117410715 	 20.87
165.0910056294 	 14.35
172.0882659752 	 11.28
173.0960910073 	 36.22
173.1324765136 	 35.46
177.0910056294 	 13.81
177.1273911357 	 25.25
179.1066556936 	 18.27
181.1223057578 	 16.96
187.1117410715 	 15.58
189.0910056294 	 34.23
191.1066556936 	 19.72
191.1430411999 	 34.38
195.1015703157 	 7.9
201.1273911357 	 70.38
205.1223057578 	 34.69
209.1172203799 	 10.28
209.1536058862 	 12.36
219.137955822 	 94.24
223.1328704441 	 14.66
229.1223057578 	 38.76
237.1485205083 	 41.21
247.1328704441 	 100
265.1434351304 	 89.79
283.1539998167 	 27.01
END IONS

BEGIN IONS
PEPMASS=286.0993
CHARGE=1
MSLEVEL=2
RT=0
SOURCE_INSTRUMENT=qTOF
FILENAME=CCMSLIB00000078083.ms
IONMODE=Positive
ORGANISM=Natural
NAME=Asenapine
PI=GNPS
DATACOLLECTOR=GNPS
SMILES=CN1C[C@@H]2c3ccccc3Oc3ccc(cc3[C@H]2C1)Cl
INCHI=InChI=1S/C17H16ClNO/c1-19-9-14-12-4-2-3-5-16(12)20-17-7-6-11(18)8-13(17)15(14)10-19/h2-8,14-15H,9-10H2,1H3/t14-,15-/m1/s1
FORMULA=C17H16ClNO
PUBMED=N/A
SUBMITUSER=BIOADREM
LIBRARYQUALITY=0
SPECTRUMID=CCMSLIB00000078083
SCANS=646
ID=CCMSLIB00000078083
128.0620512247 	 2.68
129.0698762568 	 2.43
144.0807752941 	 7.47
145.0886003262 	 3.76
149.0152538705 	 3.42
165.0698762568 	 27.37
166.0777012889 	 54.86
167.0491408147 	 5.37
178.0413157826 	 2.44
180.0574530362 	 2.32
191.085526321 	 7.27
192.0933513531 	 12.98
194.072615911 	 25.03
201.0465539989 	 45.66
202.0777012889 	 5.48
205.0647908789 	 8.3
207.0804409431 	 2.19
215.0258185568 	 45.45
218.072615911 	 2.5
219.0804409431 	 17.65
220.0882659752 	 30.93
229.041468621 	 100
234.0913399804 	 6.25
235.0991650125 	 2.19
236.1069900446 	 13.29
243.0571186852 	 3.26
250.1226401088 	 2.5
255.0571186852 	 14.44
256.0523676583 	 13.15
270.0680177225 	 3.62
271.0758427546 	 5.77
286.0993178509 	 436.05
END IONS

BEGIN IONS
PEPMASS=425.2071
CHARGE=1
MSLEVEL=2
RT=0
SOURCE_INSTRUMENT=qTOF
FILENAME=CCMSLIB00000078084.ms
IONMODE=Positive
ORGANISM=Natural
NAME=Benazepril hydrochloride
PI=GNPS
DATACOLLECTOR=GNPS
SMILES=CCOC(=O)[C@H](CCc1ccccc1)N[C@H]1CCc2ccccc2N(CC(=O)O)C1=O
INCHI=InChI=1S/C24H28N2O5/c1-2-31-24(30)20(14-12-17-8-4-3-5-9-17)25-19-15-13-18-10-6-7-11-21(18)26(23(19)29)16-22(27)28/h3-11,19-20,25H,2,12-16H2,1H3,(H,27,28)/t19-,20-/m0/s1
FORMULA=C24H28N2O5
PUBMED=N/A
SUBMITUSER=BIOADREM
LIBRARYQUALITY=0
SPECTRUMID=CCMSLIB00000078084
SCANS=647
ID=CCMSLIB00000078084
91.0542261926 	 1.5938162665025
115.0542261926 	 0.550653259456871
117.0698762568 	 6.20083453040564
118.0651252299 	 19.7038101101307
120.0807752941 	 0.615637184485943
130.0651252299 	 8.03748546412203
131.072950262 	 8.14693207469731
132.0807752941 	 1.49463027566865
134.0964253583 	 0.731924208222177
136.0756899162 	 0.45830768178398
144.0807752941 	 11.3379848142828
146.0964253583 	 6.66256241877009
154.0651252299 	 0.123127436897189
156.0807752941 	 0.136808263219098
162.0913399804 	 5.51337300772967
164.0706045383 	 16.2733429099118
172.0756899162 	 1.20049250974759
172.1120754225 	 0.352281277789179
176.0706045383 	 0.212052807989603
190.0862546025 	 82.9707914358027
202.0862546025 	 0.0855051645119365
247.1077183261 	 1.47410903618579
273.1233683903 	 0.516451193652097
305.1648392745 	 0.088925371092414
323.1754039608 	 0.519871400232574
333.1597538966 	 0.0923455776728915
351.1703185829 	 100
425.2070980197 	 44.9073124016691
END IONS

BEGIN IONS
PEPMASS=431.2428
CHARGE=1
MSLEVEL=2
RT=0
SOURCE_INSTRUMENT=qTOF
FILENAME=CCMSLIB00000078086.ms
IONMODE=Positive
ORGANISM=Natural
NAME=Budesonide
PI=GNPS
DATACOLLECTOR=GNPS
SMILES=CCC[C@@H]1O[C@@H]2C[C@H]3[C@@H]4CCC5=CC(=O)C=C[C@]5(C)[C@@H]4[C@@H](C[C@]3(C)[C@@]2(C(=O)CO)O1)O
INCHI=InChI=1S/C25H34O6/c1-4-5-21-30-20-11-17-16-7-6-14-10-15(27)8-9-23(14,2)22(16)18(28)12-24(17,3)25(20,31-21)19(29)13-26/h8-10,16-18,20-22,26,28H,4-7,11-13H2,1-3H3/t16-,17-,18+,20+,21+,22-,23-,24-,25-/m0/s1
FORMULA=C25H34O6
PUBMED=N/A
SUBMITUSER=BIOADREM
LIBRARYQUALITY=0
SPECTRUMID=CCMSLIB00000078086
SCANS=648
ID=CCMSLIB00000078086
119.085526321 	 3.09
121.0647908789 	 8.74
135.0804409431 	 5.93
145.0647908789 	 2.9
147.0804409431 	 38.52
159.0804409431 	 8.71
163.0753555652 	 3.97
171.0804409431 	 12.57
173.0960910073 	 26.42
185.0960910073 	 7.09
197.0960910073 	 4.57
199.1117410715 	 4.74
207.1168264494 	 4.9
209.0960910073 	 4.64
210.1039160394 	 2.77
211.1117410715 	 7.33
223.1117410715 	 6.64
225.1273911357 	 14.76
227.1430411999 	 12.95
235.1117410715 	 5.2
237.1273911357 	 5.49
239.1430411999 	 5.87
248.1195661036 	 2.71
251.1430411999 	 4.03
261.1273911357 	 2.92
263.1430411999 	 11.65
265.1586912641 	 11.17
277.1586912641 	 10.03
281.1536058862 	 3.82
283.1692559504 	 4.51
287.1430411999 	 4.76
289.1586912641 	 3.27
295.1692559504 	 9.44
305.1536058862 	 12
307.1692559504 	 5.36
313.1798206367 	 3.91
323.1641705725 	 29.06
325.1798206367 	 7.08
341.1747352588 	 14.83
343.190385323 	 3.53
413.2322501377 	 100
431.242814824 	 5.3
END IONS

BEGIN IONS
PEPMASS=385.2369
CHARGE=1
MSLEVEL=2
RT=0
SOURCE_INSTRUMENT=qTOF
FILENAME=CCMSLIB00000078095.ms
IONMODE=Positive
ORGANISM=Natural
NAME=Megestrol Acetate
PI=GNPS
DATACOLLECTOR=GNPS
SMILES=CC1=C[C@@H]2[C@@H](CC[C@@]3(C)[C@H]2CC[C@]3(C(=O)C)OC(=O)C)[C@@]2(C)CCC(=O)C=C12
INCHI=InChI=1S/C24H32O4/c1-14-12-18-19(22(4)9-6-17(27)13-21(14)22)7-10-23(5)20(18)8-11-24(23,15(2)25)28-16(3)26/h12-13,18-20H,6-11H2,1-5H3/t18-,19-,20+,22-,23+,24-/m1/s1
FORMULA=C24H32O4
PUBMED=N/A
SUBMITUSER=BIOADREM
LIBRARYQUALITY=0
SPECTRUMID=CCMSLIB00000078095
SCANS=657
ID=CCMSLIB00000078095
129.0698762568 	 2.67
133.1011763852 	 3.7
145.1011763852 	 3.58
155.085526321 	 2.48
157.1011763852 	 2.84
161.0960910073 	 3.32
169.1011763852 	 4.86
175.1117410715 	 9.95
187.1117410715 	 13.32
198.1403015457 	 7.09
199.1481265778 	 3.24
208.1246514815 	 2.93
209.1324765136 	 14.96
211.1481265778 	 10.12
222.1403015457 	 2.78
223.1481265778 	 7.62
224.1559516099 	 39.33
225.163776642 	 14.02
237.163776642 	 3.45
241.1586912641 	 5.98
243.1743413283 	 2.23
249.163776642 	 8.29
250.1716016741 	 2.67
265.1950767704 	 15.28
267.1743413283 	 60.06
281.1899913925 	 10.37
282.1978164246 	 17.85
283.2056414567 	 13.01
307.2056414567 	 10.88
310.1927310467 	 2.59
325.216206143 	 100
385.2373355156 	 115.55
END IONS

BEGIN IONS
PEPMASS=452.1948
CHARGE=1
MSLEVEL=2
RT=0
SOURCE_INSTRUMENT=qTOF
FILENAME=CCMSLIB00000078096.ms
IONMODE=Positive
ORGANISM=Natural
NAME=Doxazosin mesylate
PI=GNPS
DATACOLLECTOR=GNPS
SMILES=COc1cc2c(cc1OC)nc([nH]c2=N)N1CCN(CC1)C(=O)C1COc2ccccc2O1
INCHI=InChI=1S/C23H25N5O5/c1-30-18-11-14-15(12-19(18)31-2)25-23(26-21(14)24)28-9-7-27(8-10-28)22(29)20-13-32-16-5-3-4-6-17(16)33-20/h3-6,11-12,20H,7-10,13H2,1-2H3,(H2,24,25,26)
FORMULA=C23H25N5O5
PUBMED=N/A
SUBMITUSER=BIOADREM
LIBRARYQUALITY=0
SPECTRUMID=CCMSLIB00000078096
SCANS=658
ID=CCMSLIB00000078096
98.060039852 	 1.71683290669962
107.047798144 	 0.322182010768823
124.0756899162 	 1.24900697325448
135.0427127661 	 1.98164003883838
135.0440554368 	 0.865036631653279
163.0376273882 	 0.556094977491394
163.0389700589 	 0.185364992497131
202.0849119318 	 0.238326418924883
203.0927369639 	 1.11218995498279
204.0767525487 	 0.772354135404714
204.0780952194 	 0.203018801306382
205.0720015218 	 0.878276988260217
205.0733441925 	 0.264807132138759
206.0798265539 	 1.76979433312737
217.0720015218 	 0.776767587607026
219.087651586 	 0.357489628387325
220.0954766181 	 1.45202577456086
220.0968192888 	 0.498720098861329
221.1033016502 	 9.26383617265425
231.087651586 	 5.04898931944567
231.0889942567 	 1.00626710212728
232.0954766181 	 4.48406743754965
233.1033016502 	 5.40206549563068
233.1046443209 	 2.43181216347427
245.1033016502 	 2.46711978109277
246.112469353 	 0.189778444699444
247.1189517144 	 47.6034954541442
257.1033016502 	 0.436931768028952
259.1189517144 	 0.81648865742784
259.1202943851 	 0.295701297554947
272.1142006875 	 0.379556889398888
273.1346017786 	 1.40347780033542
274.1298507517 	 1.32844911289611
274.1311934224 	 0.578162238502957
282.1349361296 	 0.172124635890193
283.1427611617 	 0.242739871127196
288.1455008159 	 4.75328802189072
290.1611508801 	 15.0895930797069
290.1624935508 	 10.4334010062671
291.1689759122 	 1.73448671550887
292.1682476307 	 0.127990113867067
300.1455008159 	 0.96654603230647
301.1295164007 	 1.93750551681525
301.1308590714 	 1.37258363491923
310.1298507517 	 1.92867861241063
310.1311934224 	 0.710565804572337
311.1376757838 	 1.40347780033542
312.1455008159 	 0.127990113867067
324.1495235613 	 0.132403566069379
326.1611508801 	 3.12913761143967
326.1624935508 	 2.82019595727778
328.140415438 	 3.63668461470562
328.1417581087 	 0.926824962485656
329.1482404701 	 2.84667667049166
330.1560655022 	 0.189778444699444
342.1600882476 	 0.203018801306382
344.1717155664 	 44.1345220231265
344.1730582371 	 44.1345220231265
345.1795405985 	 9.01226939712243
346.178812317 	 0.984199841115721
436.1615448106 	 1.45643922676317
437.1693698427 	 1.49616029658399
452.192844939 	 100
END IONS

BEGIN IONS
PEPMASS=175.0878
CHARGE=1
MSLEVEL=2
RT=0
SOURCE_INSTRUMENT=qTOF
FILENAME=CCMSLIB00000078097.ms
IONMODE=Positive
ORGANISM=Natural
NAME=Edaravone (MCI-186)
PI=GNPS
DATACOLLECTOR=GNPS
SMILES=CC1=NN(c2ccccc2)C(=O)C1
INCHI=InChI=1S/C10H10N2O/c1-8-7-10(13)12(11-8)9-5-3-2-4-6-9/h2-6H,7H2,1H3
FORMULA=C10H10N2O
PUBMED=N/A
SUBMITUSER=BIOADREM
LIBRARYQUALITY=0
SPECTRUMID=CCMSLIB00000078097
SCANS=659
ID=CCMSLIB00000078097
82.0413157826 	 10.52
94.0651252299 	 18.45
106.0651252299 	 80.36
115.0416501336 	 14.68
117.0573001978 	 16.07
130.0651252299 	 63.69
132.0443897878 	 13.29
132.0681992351 	 18.06
133.0760242672 	 100
134.060039852 	 33.73
147.0916743314 	 95.63
158.060039852 	 10.32
175.0865889535 	 2743.45
END IONS

BEGIN IONS
PEPMASS=303.0125
CHARGE=1
MSLEVEL=2
RT=0
SOURCE_INSTRUMENT=qTOF
FILENAME=CCMSLIB00000078098.ms
IONMODE=Positive
ORGANISM=Natural
NAME=Ellagic acid
PI=GNPS
DATACOLLECTOR=GNPS
SMILES=c1c2c3c4c(cc(c(c4oc2=O)O)O)c(=O)oc3c(c1O)O
INCHI=InChI=1S/C14H6O8/c15-5-1-3-7-8-4(14(20)22-11(7)9(5)17)2-6(16)10(18)12(8)21-13(3)19/h1-2,15-18H
FORMULA=C14H6O8
PUBMED=N/A
SUBMITUSER=BIOADREM
LIBRARYQUALITY=0
SPECTRUMID=CCMSLIB00000078098
SCANS=660
ID=CCMSLIB00000078098
145.0284053726 	 4.21738180807339
173.0233199947 	 6.7906995214741
191.033884681 	 8.43674920080218
201.0182346168 	 4.73363381847785
229.0131492389 	 5.3491650616524
247.0237139252 	 12.4476302047138
257.008063861 	 19.649345749856
275.0186285473 	 11.2145821337093
285.0029784831 	 26.716041538431
303.0135431694 	 100
END IONS

BEGIN IONS
PEPMASS=288.1578
CHARGE=1
MSLEVEL=2
RT=0
SOURCE_INSTRUMENT=qTOF
FILENAME=CCMSLIB00000078099.ms
IONMODE=Positive
ORGANISM=Natural
NAME=Etodolac (Lodine)
PI=GNPS
DATACOLLECTOR=GNPS
SMILES=CCc1cccc2c3CCO[C@@](CC)(CC(=O)O)c3[nH]c12
INCHI=InChI=1S/C17H21NO3/c1-3-11-6-5-7-12-13-8-9-21-17(4-2,10-14(19)20)16(13)18-15(11)12/h5-7,18H,3-4,8-10H2,1-2H3,(H,19,20)/t17-/m0/s1
FORMULA=C17H21NO3
PUBMED=N/A
SUBMITUSER=BIOADREM
LIBRARYQUALITY=0
SPECTRUMID=CCMSLIB00000078099
SCANS=661
ID=CCMSLIB00000078099
117.0698762568 	 0.74
143.072950262 	 10.75
144.0807752941 	 10.67
157.0886003262 	 1.46
170.0964253583 	 0.92
172.1120754225 	 100
180.0807752941 	 1.66
182.0964253583 	 2.24
195.1042503904 	 2.59
198.0913399804 	 0.55
200.1433755509 	 0.58
208.1120754225 	 1
209.1199004546 	 1.34
210.1277254867 	 2.54
224.1433755509 	 3.2
226.1226401088 	 0.4
228.138290173 	 4.19
252.138290173 	 1.98
270.1488548593 	 9.47
288.1594195456 	 3.65
END IONS

BEGIN IONS
PEPMASS=239.103
CHARGE=1
MSLEVEL=2
RT=0
SOURCE_INSTRUMENT=qTOF
FILENAME=CCMSLIB00000078100.ms
IONMODE=Positive
ORGANISM=Natural
NAME=Felbamate
PI=GNPS
DATACOLLECTOR=GNPS
SMILES=c1ccc(cc1)C(COC(=N)O)COC(=N)O
INCHI=InChI=1S/C11H14N2O4/c12-10(14)16-6-9(7-17-11(13)15)8-4-2-1-3-5-8/h1-5,9H,6-7H2,(H2,12,14)(H2,13,15)
FORMULA=C11H14N2O4
PUBMED=N/A
SUBMITUSER=BIOADREM
LIBRARYQUALITY=0
SPECTRUMID=CCMSLIB00000078100
SCANS=662
ID=CCMSLIB00000078100
91.0542261926 	 2.76
115.0542261926 	 19.825
117.0698762568 	 100
118.0736785435 	 7.385
132.9920198663 	 1.215
163.9978335257 	 1.06
178.0862546025 	 63.595
239.1026329482 	 0
END IONS

BEGIN IONS
PEPMASS=319.1648
CHARGE=1
MSLEVEL=2
RT=0
SOURCE_INSTRUMENT=qTOF
FILENAME=CCMSLIB00000078103.ms
IONMODE=Positive
ORGANISM=Natural
NAME=Fluvoxamine maleate
PI=GNPS
DATACOLLECTOR=GNPS
SMILES=COCCCC/C(=N\OCCN)/c1ccc(cc1)C(F)(F)F
INCHI=InChI=1S/C15H21F3N2O2/c1-21-10-3-2-4-14(20-22-11-9-19)12-5-7-13(8-6-12)15(16,17)18/h5-8H,2-4,9-11,19H2,1H3/b20-14+
FORMULA=C15H21F3N2O2
PUBMED=N/A
SUBMITUSER=BIOADREM
LIBRARYQUALITY=0
SPECTRUMID=CCMSLIB00000078103
SCANS=665
ID=CCMSLIB00000078103
130.0651252299 	 4.11
131.072950262 	 5.48
132.0807752941 	 0.84
145.0259606963 	 1.58
158.0964253583 	 0.62
171.0416107605 	 0.88
172.0368597336 	 6.1
174.0525097978 	 1.71
175.056511901 	 0.46
180.0619316299 	 6.72
183.0416107605 	 0.99
198.0525097978 	 5.53
200.068159862 	 56.84
201.0721619652 	 6.03
209.0572608247 	 1.58
211.0603348299 	 1.88
214.0838099262 	 1.32
224.068159862 	 1.47
226.0838099262 	 25.67
227.0878120294 	 4.81
228.0994599904 	 20.2
240.0994599904 	 0.45
242.0913006073 	 2.81
244.0943746125 	 7.19
258.1100246767 	 100
259.1178497088 	 56.19
260.1256747409 	 44.01
276.120589363 	 2.83
302.1362394272 	 8.46
319.1627885287 	 135
END IONS

BEGIN IONS
PEPMASS=271.061
CHARGE=1
MSLEVEL=2
RT=0
SOURCE_INSTRUMENT=qTOF
FILENAME=CCMSLIB00000078106.ms
IONMODE=Positive
ORGANISM=Natural
NAME=Genistein
PI=GNPS
DATACOLLECTOR=GNPS
SMILES=c1cc(ccc1c1coc2cc(cc(c2c1=O)O)O)O
INCHI=InChI=1S/C15H10O5/c16-9-3-1-8(2-4-9)11-7-20-13-6-10(17)5-12(18)14(13)15(11)19/h1-7,16-18H
FORMULA=C15H10O5
PUBMED=N/A
SUBMITUSER=BIOADREM
LIBRARYQUALITY=0
SPECTRUMID=CCMSLIB00000078106
SCANS=667
ID=CCMSLIB00000078106
91.0542261926 	 0.538712500994668
105.0334907505 	 0.275324261955916
107.0491408147 	 0.557810137662131
111.0076699305 	 0.445611522240789
115.0542261926 	 1.58987825256625
118.0413157826 	 0.416169332378451
119.0491408147 	 2.03389830508475
121.0284053726 	 1.3248985438052
128.0620512247 	 0.595209676135911
129.0698762568 	 0.564971751412429
131.0491408147 	 1.67263467812525
131.085526321 	 0.278507201400493
132.0569658468 	 0.31511100501313
135.0440554368 	 0.898384658231877
137.0233199947 	 0.631813479748548
139.0542261926 	 0.242699132649001
141.0698762568 	 5.9894962998329
144.0569658468 	 0.808466618922575
145.0284053726 	 2.20418556536962
145.0495347452 	 1.49279859950664
145.0647908789 	 0.257022360149598
147.0440554368 	 0.383544203071537
147.0804409431 	 0.755152383225909
149.0233199947 	 5.55263786106469
150.0311450268 	 0.325455558208005
152.0620512247 	 0.307949391262831
153.0182346168 	 22.8176971433119
155.0491408147 	 0.908729211426753
157.0647908789 	 0.264183973899897
159.0440554368 	 1.69968966340415
163.0389700589 	 0.189384896952335
165.0182346168 	 1.78244608896316
168.0569658468 	 0.61908172197024
169.0647908789 	 5.97596880719344
173.059705501 	 0.833134399618047
183.0440554368 	 0.516431924882629
185.059705501 	 1.03286384976526
187.0389700589 	 0.516431924882629
187.0753555652 	 3.03413702554309
191.033884681 	 0.568950425718151
197.059705501 	 7.55470677170367
200.046795091 	 1.23418476963476
201.0546201231 	 1.73629346701679
203.0702701873 	 0.2498607463993
213.0546201231 	 0.838704543646057
215.0702701873 	 14.6725551046391
219.0651848094 	 0.296013368345667
225.0546201231 	 1.01854062226466
226.0624451552 	 0.225988700564972
243.0651848094 	 10.4670963634917
253.0495347452 	 5.6910957269038
271.0600994315 	 100
END IONS

BEGIN IONS
PEPMASS=513.2142
CHARGE=1
MSLEVEL=2
RT=0
SOURCE_INSTRUMENT=qTOF
FILENAME=CCMSLIB00000078107.ms
IONMODE=Positive
ORGANISM=Natural
NAME=Glimepiride
PI=GNPS
DATACOLLECTOR=GNPS
SMILES=CCC1=C(C)CN(C1=O)C(=NCCc1ccc(cc1)S(=O)(=O)NC(=N[C@H]1CC[C@H](C)CC1)O)O
INCHI=InChI=1S/C24H34N4O5S/c1-4-21-17(3)15-28(22(21)29)24(31)25-14-13-18-7-11-20(12-8-18)34(32,33)27-23(30)26-19-9-5-16(2)6-10-19/h7-8,11-12,16,19H,4-6,9-10,13-15H2,1-3H3,(H,25,31)(H2,26,27,30)/t16-,19-
FORMULA=C24H34N4O5S
PUBMED=N/A
SUBMITUSER=BIOADREM
LIBRARYQUALITY=0
SPECTRUMID=CCMSLIB00000078107
SCANS=668
ID=CCMSLIB00000078107
81.0182346168 	 0.360077357865607
91.0542261926 	 0.0587663343697578
96.0443897878 	 0.195531621630285
98.060039852 	 0.42098064984881
98.0964253583 	 0.186983791176502
103.0542261926 	 0.911412422134607
108.0807752941 	 0.665662296588347
109.0647908789 	 1.05779401865564
114.1277254867 	 0.0512869827226977
118.0651252299 	 0.2756675321345
121.0647908789 	 0.282078404974837
124.0756899162 	 0.676347084655576
126.0913399804 	 17.6256263957004
131.060374203 	 0.0502185039159748
142.0611024845 	 0.138902244873973
143.021308622 	 0.360077357865607
147.0314793778 	 0.377173018773173
150.0522743994 	 0.0341913218151318
151.0865889535 	 0.373967582353004
152.0706045383 	 5.15113632721095
153.0732470752 	 0.0609032919832035
166.0287397236 	 0.0320543642016861
167.0161261268 	 1.53967796048765
168.0239511589 	 0.0587663343697578
170.0811692246 	 0.924234167815281
171.0838117615 	 0.0352598006218547
174.0661878624 	 0.116464189932793
179.0815035756 	 0.12287506277313
181.0971536398 	 1.21592888205062
182.0997961767 	 0.118601147546238
184.0426752283 	 0.178435960722719
186.0345158452 	 0.0320543642016861
192.0113750999 	 0.0309858853949632
192.0351845472 	 0.393200200874016
210.0219397862 	 0.166682693848768
214.1550028697 	 0.106847880672287
227.0484888877 	 4.13821841843767
228.0477606062 	 1.19242234830272
228.1356100983 	 0.0341913218151318
229.0607681335 	 0.418843692235365
229.0641389519 	 0.0619717707899264
230.1175547309 	 0.43593935314293
232.0638046009 	 0.443418704789991
234.1151494277 	 0.108984838285733
243.0222741372 	 0.401748031327799
243.1525600287 	 0.0502185039159748
244.0215458557 	 0.125012020386576
246.0430691588 	 0.0288489277815175
253.1308590714 	 0.0331228430084089
254.1335016083 	 0.0331228430084089
271.1414237577 	 0.0448761098823605
287.1628279018 	 0.36862518831939
292.0968192888 	 0.0427391522689147
335.1060037666 	 1.62408778621876
336.1104579803 	 0.0576978555630349
337.1057069534 	 0.0534239403361434
352.1325528681 	 43.4464852389653
353.1318245866 	 1.33987242363048
353.1370070818 	 2.00767167783227
353.1403779002 	 2.8549753715635
354.1284162304 	 0.979795065764871
354.1356268733 	 0.911412422134607
355.1322185171 	 0.081204389310938
355.1348985918 	 0.168819651462213
356.1189141766 	 0.134628329647081
357.1267392087 	 0.108984838285733
362.1083494903 	 0.447692620016882
362.1169028039 	 0.410295861781582
366.1482029323 	 0.570567682790012
366.1522256777 	 0.687031872722805
367.1560279644 	 0.324817557243752
375.0910224044 	 0.12287506277313
376.1087434208 	 0.493637208705965
376.1114234955 	 0.201942494470622
378.111817426 	 5.84457907277409
378.1144975007 	 5.09878086568153
379.1110891445 	 1.280037610454
380.1148914312 	 0.138902244873973
382.1305414954 	 0.13035441442019
386.1083494903 	 0.345118654571487
394.1431175544 	 0.43593935314293
415.2227480839 	 0.118601147546238
425.1529539592 	 0.104710923058841
428.2128145618 	 0.377173018773173
432.1614476933 	 0.250024040773151
491.2322669127 	 100
END IONS

BEGIN IONS
PEPMASS=313.2023
CHARGE=1
MSLEVEL=2
RT=0
SOURCE_INSTRUMENT=qTOF
FILENAME=CCMSLIB00000078109.ms
IONMODE=Positive
ORGANISM=Natural
NAME=Granisetron HCl
PI=GNPS
DATACOLLECTOR=GNPS
SMILES=CN1C2CCCC1CC(C2)NC(=O)c1c2ccccc2n(C)n1
INCHI=InChI=1S/C18H24N4O/c1-21-13-6-5-7-14(21)11-12(10-13)19-18(23)17-15-8-3-4-9-16(15)22(2)20-17/h3-4,8-9,12-14H,5-7,10-11H2,1-2H3,(H,19,23)
FORMULA=C18H24N4O
PUBMED=N/A
SUBMITUSER=BIOADREM
LIBRARYQUALITY=0
SPECTRUMID=CCMSLIB00000078109
SCANS=670
ID=CCMSLIB00000078109
91.0542261926 	 0.45
96.0807752941 	 2.32
97.0886003262 	 1.61
107.085526321 	 1.23
110.0964253583 	 0.74
112.1120754225 	 4.24
138.1277254867 	 100
158.0712732403 	 0.4
159.0552888251 	 61.41
176.0818379266 	 1.93
237.138624524 	 0.24
282.1600882476 	 3.61
313.2022874133 	 128.37
END IONS

BEGIN IONS
PEPMASS=897.4973
CHARGE=1
MSLEVEL=2
RT=0
SOURCE_INSTRUMENT=qTOF
FILENAME=CCMSLIB00000078110.ms
IONMODE=Positive
ORGANISM=Natural
NAME=Ivermectin
PI=GNPS
DATACOLLECTOR=GNPS
SMILES=CC[C@H](C)[C@@H]1[C@@H](C)CC[C@]2(C[C@@H]3C[C@@H](CC=C(C)[C@H]([C@@H](C)C=CC=C4CO[C@@H]5[C@@H](C(=C[C@H](C(=O)O3)[C@]45O)C)O)O[C@H]3C[C@@H]([C@H]([C@H](C)O3)O[C@H]3C[C@@H]([C@H]([C@H](C)O3)O)OC)OC)O2)O1
INCHI=InChI=1S/C48H74O14/c1-11-25(2)43-28(5)17-18-47(62-43)23-34-20-33(61-47)16-15-27(4)42(26(3)13-12-14-32-24-55-45-40(49)29(6)19-35(46(51)58-34)48(32,45)52)59-39-22-37(54-10)44(31(8)57-39)60-38-21-36(53-9)41(50)30(7)56-38/h12-15,19,25-26,28,30-31,33-45,49-50,52H,11,16-18,20-24H2,1-10H3/b13-12+,27-15+,32-14+/t25-,26-,28-,30-,31-,33+,34-,35+,36-,37-,38-,39-,40+,41-,42-,43+,44-,45+,47+,48+/m0/s1
FORMULA=C48H74O14
PUBMED=N/A
SUBMITUSER=BIOADREM
LIBRARYQUALITY=0
SPECTRUMID=CCMSLIB00000078110
SCANS=671
ID=CCMSLIB00000078110
117.0910056294 	 4.56
129.0910056294 	 3.97
131.0702701873 	 6.74
161.0808348736 	 16.09
162.0886599057 	 12.7
171.137955822 	 4.22
218.1301307899 	 9.4
282.1673041572 	 4.31
283.190385323 	 5.53
289.164564503 	 5.09
307.1751291893 	 6.74
307.2267708293 	 29.04
355.2267708293 	 4.6
363.2166000735 	 4.94
427.2690295745 	 16.77
435.2741149524 	 13.81
436.2819399845 	 4.51
475.2631563356 	 5.24
499.3054150808 	 5.28
500.2979839792 	 4.17
525.3633238902 	 6.45
526.3594024445 	 4.36
569.3414066566 	 4.99
587.3519713429 	 19.53
588.359796375 	 7.46
597.3997093965 	 4.41
619.347673826 	 13.57
620.3496256192 	 8.73
643.3899325712 	 16.24
644.3766282307 	 6.16
651.4255302165 	 4.46
669.4360949028 	 17.26
670.4439199349 	 4.6
713.425924147 	 5.24
715.4051887049 	 6.16
731.4364888333 	 100
732.4443138654 	 51.04
733.4368827638 	 7.8
747.452532828 	 3.93
796.4967433664 	 7.22
813.5147391543 	 38.92
814.5225641864 	 15.66
815.5303892185 	 6.69
857.5045683985 	 6.3
875.5151330848 	 1339.8
END IONS

BEGIN IONS
PEPMASS=531.157
CHARGE=1
MSLEVEL=2
RT=0
SOURCE_INSTRUMENT=qTOF
FILENAME=CCMSLIB00000078111.ms
IONMODE=Positive
ORGANISM=Natural
NAME=Ketoconazole
PI=GNPS
DATACOLLECTOR=GNPS
SMILES=CC(=O)N1CCN(CC1)c1ccc(cc1)OC[C@H]1CO[C@](Cn2ccnc2)(c2ccc(cc2Cl)Cl)O1
INCHI=InChI=1S/C26H28Cl2N4O4/c1-19(33)31-10-12-32(13-11-31)21-3-5-22(6-4-21)34-15-23-16-35-26(36-23,17-30-9-8-29-18-30)24-7-2-20(27)14-25(24)28/h2-9,14,18,23H,10-13,15-17H2,1H3/t23-,26-/m0/s1
FORMULA=C26H28Cl2N4O4
PUBMED=N/A
SUBMITUSER=BIOADREM
LIBRARYQUALITY=0
SPECTRUMID=CCMSLIB00000078111
SCANS=672
ID=CCMSLIB00000078111
112.0756899162 	 2.81663587345877
113.0709388893 	 0.213210114797536
120.0443897878 	 0.275939135710638
122.060039852 	 0.587870332600923
130.0651252299 	 0.238918729925856
132.0807752941 	 0.201212761070987
134.060039852 	 0.53782422848446
135.0678648841 	 3.25333954910517
136.0756899162 	 1.21893113861743
144.0780952194 	 0.216637930147979
144.0807752941 	 0.924139018479353
145.0859202515 	 0.260171185098601
145.0886003262 	 0.396255454511176
146.060039852 	 0.304732784654356
146.0964253583 	 1.1932225234891
148.0756899162 	 4.52368791797923
158.0964253583 	 0.874092914362889
158.9762815484 	 0.97452790413086
160.0756899162 	 0.236862040715591
163.1229744598 	 0.636888092112254
167.0815035756 	 3.95638447748097
169.9684565163 	 0.343124316579314
172.0756899162 	 0.540909262299858
172.9555461063 	 1.15620211770432
173.0835149483 	 0.281080858736302
174.0913399804 	 4.78728691842828
177.1022390177 	 7.7142984461713
178.1100640498 	 0.798338195118105
184.9919316126 	 1.39512084763018
185.9633711384 	 2.5544079991499
188.1069900446 	 0.22794972080444
189.138624524 	 0.824732373316514
192.1019046667 	 0.429848044945515
200.1069900446 	 0.376716907013653
203.0343718704 	 0.328041929037367
203.0370519451 	 0.335925904343385
205.1335391461 	 0.210125080982138
209.0363832431 	 0.669795119476504
216.1019046667 	 2.2524174667759
217.1335391461 	 5.50507145281098
219.112803704 	 9.69146234030665
220.1206287361 	 5.82591496961242
234.112469353 	 0.854211585330321
235.1441038324 	 2.22328103629714
238.0032245804 	 0.728753543504119
238.0059046551 	 1.45682152393815
244.0052359531 	 4.62857906770278
245.0130609852 	 0.272854101895239
245.9997566447 	 2.24247680225962
247.0632666956 	 0.289650397112408
255.0086443093 	 5.3542475773915
256.0146394813 	 0.242689326811343
259.1441038324 	 1.12363787187512
267.0059642346 	 0.657112202679866
267.0068144492 	 0.668423993336327
267.0086443093 	 0.867922846732092
268.0164693414 	 0.210125080982138
277.1546685187 	 0.203955013351341
281.0242943735 	 0.250230520582317
282.0294393309 	 0.463440635379853
282.0302895455 	 0.261542311238778
282.0321194056 	 0.235833696110458
297.0192089956 	 0.250230520582317
311.0348590598 	 0.528911908573309
311.0388818052 	 0.196756601115411
378.0658248372 	 0.727382417363941
380.0603455288 	 0.196756601115411
420.0750468528 	 0.304047221584268
421.1080240029 	 1.14900370546839
423.1025446945 	 0.366776242497369
446.103272976 	 0.507659453400564
446.1046156467 	 0.375345780873476
489.1454721417 	 8.15957166019381
490.1420637855 	 1.77355166231905
492.1451377907 	 1.29297195018699
531.156036828 	 100
END IONS

BEGIN IONS
PEPMASS=421.1205
CHARGE=1
MSLEVEL=2
RT=0
SOURCE_INSTRUMENT=qTOF
FILENAME=CCMSLIB00000078119.ms
IONMODE=Positive
ORGANISM=Natural
NAME=Doripenem Hydrate
PI=GNPS
DATACOLLECTOR=GNPS
SMILES=C[C@H]1[C@H]2[C@H]([C@H](C)O)C(=O)N2C(=C1S[C@H]1C[C@@H](CNS(=O)(=O)N)NC1)C(=O)O
INCHI=InChI=1S/C15H24N4O6S2/c1-6-11-10(7(2)20)14(21)19(11)12(15(22)23)13(6)26-9-3-8(17-5-9)4-18-27(16,24)25/h6-11,17-18,20H,3-5H2,1-2H3,(H,22,23)(H2,16,24,25)/t6-,7-,8-,9-,10-,11-/m0/s1
FORMULA=C15H24N4O6S2
PUBMED=N/A
SUBMITUSER=BIOADREM
LIBRARYQUALITY=0
SPECTRUMID=CCMSLIB00000078119
SCANS=677
ID=CCMSLIB00000078119
112.0215458557 	 18.77
114.0371959199 	 12.77
121.0032532546 	 23.85
122.0964253583 	 8.31
134.0937452836 	 7.69
138.0371959199 	 13.38
140.0164604778 	 9.08
170.0218426689 	 15.69
195.0923650751 	 16.31
207.0586596435 	 16.46
212.122936922 	 38.15
216.0875169309 	 7.85
220.0902941229 	 19.54
238.0882827502 	 10.77
256.1127661662 	 23.69
273.0487857009 	 7.54
274.0678441213 	 60.92
298.0202252267 	 8.15
298.1583736881 	 100
300.0471086792 	 44
300.150214305 	 8
306.1270735597 	 28.15
318.0576733655 	 66.15
320.0607473707 	 13.85
324.137638246 	 12
342.1482029323 	 98.92
361.0998725312 	 7.38
404.0944528023 	 28
405.0897017754 	 8.77
421.1210019038 	 48.92
END IONS

BEGIN IONS
PEPMASS=311.2017
CHARGE=1
MSLEVEL=2
RT=0
SOURCE_INSTRUMENT=qTOF
FILENAME=CCMSLIB00000078120.ms
IONMODE=Positive
ORGANISM=Natural
NAME=Gestodene
PI=GNPS
DATACOLLECTOR=GNPS
SMILES=CC[C@]12CC[C@H]3[C@H]4CCC(=O)C=C4CC[C@H]3[C@@H]1C=C[C@@]2(C#C)O
INCHI=InChI=1S/C21H26O2/c1-3-20-11-9-17-16-8-6-15(22)13-14(16)5-7-18(17)19(20)10-12-21(20,23)4-2/h2,10,12-13,16-19,23H,3,5-9,11H2,1H3/t16-,17-,18+,19-,20-,21+/m0/s1
FORMULA=C21H26O2
PUBMED=N/A
SUBMITUSER=BIOADREM
LIBRARYQUALITY=0
SPECTRUMID=CCMSLIB00000078120
SCANS=678
ID=CCMSLIB00000078120
105.0698762568 	 32.11
107.0491408147 	 23.25
109.0647908789 	 93.88
117.0698762568 	 15.62
119.085526321 	 26.71
129.0698762568 	 42.98
131.085526321 	 47.52
133.0647908789 	 23.97
135.0804409431 	 24.77
141.0698762568 	 21.89
143.085526321 	 38.37
145.0647908789 	 18.07
145.1011763852 	 32.25
147.0804409431 	 33.98
147.1168264494 	 16.49
149.0960910073 	 59.18
155.085526321 	 18.86
157.1011763852 	 46
159.0804409431 	 29.52
159.1168264494 	 27.79
161.0960910073 	 34.13
161.1324765136 	 16.13
163.1117410715 	 26.28
167.085526321 	 19.94
169.1011763852 	 29.3
171.1168264494 	 42.04
173.0960910073 	 23.4
173.1324765136 	 39.31
175.1117410715 	 27.21
181.1011763852 	 21.81
183.1168264494 	 36.79
185.1324765136 	 27.65
189.1273911357 	 14.83
197.1324765136 	 15.91
201.1273911357 	 37.72
203.1430411999 	 18.79
209.1324765136 	 16.56
213.163776642 	 22.82
215.1430411999 	 20.66
223.1481265778 	 18.79
225.163776642 	 23.69
231.1743413283 	 45.64
233.1324765136 	 28.8
235.1481265778 	 24.84
247.1481265778 	 14.97
251.1430411999 	 19.15
253.1586912641 	 20.37
275.1794267062 	 24.41
283.2056414567 	 17.78
293.1899913925 	 100
311.2005560788 	 2247.8
END IONS

BEGIN IONS
PEPMASS=307.1666
CHARGE=1
MSLEVEL=2
RT=0
SOURCE_INSTRUMENT=qTOF
FILENAME=CCMSLIB00000078122.ms
IONMODE=Positive
ORGANISM=Natural
NAME=Ruxolitinib (INCB018424)
PI=GNPS
DATACOLLECTOR=GNPS
SMILES=C1CCC(C1)[C@H](CC#N)n1cc(cn1)c1c2ccnc2[nH]cn1
INCHI=InChI=1S/C17H18N6/c18-7-5-15(12-3-1-2-4-12)23-10-13(9-22-23)16-14-6-8-19-17(14)21-11-20-16/h6,8-12,15H,1-5H2,(H,19,20,21)/t15-/m0/s1
FORMULA=C17H18N6
PUBMED=N/A
SUBMITUSER=BIOADREM
LIBRARYQUALITY=0
SPECTRUMID=CCMSLIB00000078122
SCANS=679
ID=CCMSLIB00000078122
93.0447241388 	 0.33
131.060374203 	 2.1
132.0556231761 	 1.59
157.0634482082 	 3.28
158.0712732403 	 4.35
159.0665222134 	 11.85
198.0774212507 	 6.57
238.1087213791 	 0.63
266.1400215075 	 0.75
307.166570609 	 119.58
END IONS

BEGIN IONS
PEPMASS=384.1576
CHARGE=1
MSLEVEL=2
RT=0
SOURCE_INSTRUMENT=qTOF
FILENAME=CCMSLIB00000078125.ms
IONMODE=Positive
ORGANISM=Natural
NAME=Meropenem
PI=GNPS
DATACOLLECTOR=GNPS
SMILES=CC1C2C(C(C)O)C(=O)N2C(=C1SC1CC(C(=O)N(C)C)NC1)C(=O)O
INCHI=InChI=1S/C17H25N3O5S/c1-7-12-11(8(2)21)16(23)20(12)13(17(24)25)14(7)26-9-5-10(18-6-9)15(22)19(3)4/h7-12,18,21H,5-6H2,1-4H3,(H,24,25)
FORMULA=C17H25N3O5S
PUBMED=N/A
SUBMITUSER=BIOADREM
LIBRARYQUALITY=0
SPECTRUMID=CCMSLIB00000078125
SCANS=682
ID=CCMSLIB00000078125
100.0215458557 	 11.09
101.0709388893 	 21.75
112.0215458557 	 28.7
114.0371959199 	 18.64
122.060039852 	 12.57
122.0964253583 	 12.87
126.0371959199 	 16.57
139.0865889535 	 27.81
141.1022390177 	 40.24
142.1100640498 	 12.43
143.1178890819 	 20.27
156.0841461125 	 15.09
158.0236543457 	 12.28
164.0528459841 	 100
165.0546201231 	 23.67
171.0586596435 	 28.7
173.0743097077 	 28.99
175.0899597719 	 49.56
176.097784804 	 12.72
182.0937452836 	 13.91
200.0706045383 	 21.6
204.1104579803 	 39.94
224.0917339109 	 12.72
225.086982884 	 12.43
239.110026512 	 20.12
251.084874394 	 20.12
254.1321589376 	 49.7
255.1339330766 	 13.02
261.1294192834 	 32.54
270.1270735597 	 11.83
275.1390184545 	 84.62
296.1427236239 	 15.68
297.150548656 	 43.49
298.1219881818 	 26.04
310.1471402998 	 11.69
340.1689383744 	 69.82
384.1587676186 	 28.11
END IONS

BEGIN IONS
PEPMASS=265.1699
CHARGE=1
MSLEVEL=2
RT=0
SOURCE_INSTRUMENT=qTOF
FILENAME=CCMSLIB00000078126.ms
IONMODE=Positive
ORGANISM=Natural
NAME=Mianserin hydrochloride
PI=GNPS
DATACOLLECTOR=GNPS
SMILES=CN1CCN2c3ccccc3Cc3ccccc3C2C1
INCHI=InChI=1S/C18H20N2/c1-19-10-11-20-17-9-5-3-7-15(17)12-14-6-2-4-8-16(14)18(20)13-19/h2-9,18H,10-13H2,1H3
FORMULA=C18H20N2
PUBMED=N/A
SUBMITUSER=BIOADREM
LIBRARYQUALITY=0
SPECTRUMID=CCMSLIB00000078126
SCANS=683
ID=CCMSLIB00000078126
91.0542261926 	 3.88038615493289
103.0542261926 	 2.29338356486932
105.0698762568 	 4.09230044737462
106.0651252299 	 5.08594301860137
115.0542261926 	 8.64139392512362
117.0698762568 	 1.53520131857782
118.0651252299 	 16.887214504356
120.0807752941 	 7.41229102896162
128.0620512247 	 1.75653402401695
129.0698762568 	 3.01389215917118
130.0651252299 	 8.76383329408995
131.072950262 	 3.96044266541088
132.0807752941 	 4.80809983517777
144.0807752941 	 10.2142688956911
145.0886003262 	 1.1396279726866
146.0964253583 	 11.8813279962326
157.0886003262 	 2.8443607252178
158.0964253583 	 8.74499646809513
161.1073243956 	 13.8686131386861
165.0698762568 	 2.95738168118672
166.0777012889 	 2.10501530492112
170.0964253583 	 0.367318106898988
172.1120754225 	 3.72027313397692
173.1073243956 	 2.26983753237579
174.1151494277 	 1.3279962326348
178.0777012889 	 5.04826936661173
179.085526321 	 2.10501530492112
180.0807752941 	 1.51165528608429
181.1011763852 	 2.39698610784083
191.085526321 	 1.46927242759595
192.0807752941 	 4.68095125971274
193.0886003262 	 29.9222980927714
194.0964253583 	 3.38121026607017
203.085526321 	 1.22439368966329
204.0807752941 	 4.03108076289145
205.0886003262 	 3.01389215917118
206.0964253583 	 9.0087120320226
207.1042503904 	 9.04638568401224
208.1120754225 	 94.1841299740994
218.0964253583 	 5.19425476807158
219.1042503904 	 1.39392512361667
220.1120754225 	 10.7464092300447
222.1277254867 	 18.4930539204144
232.1120754225 	 0.833529550270779
234.1277254867 	 6.18318813279962
235.1229744598 	 1.37037909112315
247.1229744598 	 1.15375559218272
248.1307994919 	 2.47704261831881
249.138624524 	 0.475629856369202
250.1464495561 	 7.04968212856134
263.1542745882 	 9.30539204144102
265.1699246524 	 100
END IONS

BEGIN IONS
PEPMASS=210.1358
CHARGE=1
MSLEVEL=2
RT=0
SOURCE_INSTRUMENT=qTOF
FILENAME=CCMSLIB00000078127.ms
IONMODE=Positive
ORGANISM=Natural
NAME=Minoxidil
PI=GNPS
DATACOLLECTOR=GNPS
SMILES=C1CCN(CC1)c1cc(N)n(=O)c(=N)[nH]1
INCHI=InChI=1S/C9H15N5O/c10-7-6-8(12-9(11)14(7)15)13-4-2-1-3-5-13/h6H,1-5,10H2,(H2,11,12)
FORMULA=C9H15N5O
PUBMED=N/A
SUBMITUSER=BIOADREM
LIBRARYQUALITY=0
SPECTRUMID=CCMSLIB00000078127
SCANS=684
ID=CCMSLIB00000078127
110.0586971813 	 8.66
124.0743472455 	 4.35
125.0695962186 	 3.49
137.0821722776 	 24.54
141.100896347 	 2.45
147.0665222134 	 6.26
161.0821722776 	 2.13
164.0930713149 	 93.49
178.1087213791 	 6.58
192.1243714433 	 55
193.1321964754 	 100
210.1349361296 	 359.57
END IONS

BEGIN IONS
PEPMASS=422.1641
CHARGE=1
MSLEVEL=2
RT=0
SOURCE_INSTRUMENT=qTOF
FILENAME=CCMSLIB00000078128.ms
IONMODE=Positive
ORGANISM=Natural
NAME=Mosapride citrate
PI=GNPS
DATACOLLECTOR=GNPS
SMILES=CCOc1cc(c(cc1C(=NCC1CN(CCO1)Cc1ccc(cc1)F)O)Cl)N
INCHI=InChI=1S/C21H25ClFN3O3/c1-2-28-20-10-19(24)18(22)9-17(20)21(27)25-11-16-13-26(7-8-29-16)12-14-3-5-15(23)6-4-14/h3-6,9-10,16H,2,7-8,11-13,24H2,1H3,(H,25,27)
FORMULA=C21H25ClFN3O3
PUBMED=N/A
SUBMITUSER=BIOADREM
LIBRARYQUALITY=0
SPECTRUMID=CCMSLIB00000078128
SCANS=685
ID=CCMSLIB00000078128
106.0287397236 	 0.153333333333333
106.0651252299 	 0.446666666666667
107.072950262 	 0.396666666666667
109.0448043605 	 8.17
114.0105028436 	 4.05333333333333
117.0573001978 	 0.296666666666667
134.060039852 	 0.763333333333333
135.0678648841 	 9.78
136.0682794568 	 0.47
140.0261529078 	 0.143333333333333
142.0054174657 	 4.15333333333333
142.041802972 	 0.196666666666667
143.0058320384 	 0.206666666666667
144.0010810115 	 0.803333333333333
152.0261529078 	 0.736666666666667
162.0549544741 	 3.02
168.0210675299 	 0.09
170.0003320878 	 58.53
170.0367175941 	 25.3
171.0007466605 	 3.45
171.0371321668 	 1.06666666666667
171.9959956336 	 11.69
172.0323811399 	 3.49666666666667
180.0210675299 	 4.13
181.0214821026 	 0.306666666666667
182.0167310757 	 0.72
198.0316322162 	 100
199.0320467889 	 3.43666666666667
200.027295762 	 12.2933333333333
252.0585958904 	 0.103333333333333
422.1641235944 	 38.95
END IONS

BEGIN IONS
PEPMASS=348.1452
CHARGE=1
MSLEVEL=2
RT=0
SOURCE_INSTRUMENT=qTOF
FILENAME=CCMSLIB00000078130.ms
IONMODE=Positive
ORGANISM=Natural
NAME=Nafamostat mesylate
PI=GNPS
DATACOLLECTOR=GNPS
SMILES=c1cc(cc2ccc(cc12)OC(=O)c1ccc(cc1)NC(=N)N)C(=N)N
INCHI=InChI=1S/C19H17N5O2/c20-17(21)14-2-1-13-10-16(8-5-12(13)9-14)26-18(25)11-3-6-15(7-4-11)24-19(22)23/h1-10H,(H3,20,21)(H4,22,23,24)
FORMULA=C19H17N5O2
PUBMED=N/A
SUBMITUSER=BIOADREM
LIBRARYQUALITY=0
SPECTRUMID=CCMSLIB00000078130
SCANS=686
ID=CCMSLIB00000078130
120.0443897878 	 25.66
145.0396387609 	 3.48
162.0661878624 	 100
170.060039852 	 24.75
172.0756899162 	 1.78
187.0865889535 	 78.19
348.1455008159 	 132.08
END IONS

BEGIN IONS
PEPMASS=346.1215
CHARGE=1
MSLEVEL=2
RT=0
SOURCE_INSTRUMENT=qTOF
FILENAME=CCMSLIB00000078131.ms
IONMODE=Positive
ORGANISM=Natural
NAME=Omeprazole (Prilosec)
PI=GNPS
DATACOLLECTOR=GNPS
SMILES=Cc1cnc(CS(=O)c2nc3ccc(cc3[nH]2)OC)c(C)c1OC
INCHI=InChI=1S/C17H19N3O3S/c1-10-8-18-15(11(2)16(10)23-4)9-24(21)17-19-13-6-5-12(22-3)7-14(13)20-17/h5-8H,9H2,1-4H3,(H,19,20)
FORMULA=C17H19N3O3S
PUBMED=N/A
SUBMITUSER=BIOADREM
LIBRARYQUALITY=0
SPECTRUMID=CCMSLIB00000078131
SCANS=687
ID=CCMSLIB00000078131
94.0651252299 	 0.0883782589482987
106.0651252299 	 1.51448198288676
108.0767525487 	 0.0843610653597397
108.0807752941 	 3.96497007190776
118.0651252299 	 0.241031615313542
120.0767525487 	 1.63098059695497
120.0807752941 	 4.63584140119712
121.0845775808 	 4.24215642951834
121.0886003262 	 8.66106937693328
122.0924026129 	 2.48664283131804
122.0964253583 	 5.3147471176636
134.047463793 	 3.54316474510907
136.0716671708 	 40.1719358855903
136.0756899162 	 73.5106254770417
138.0913399804 	 0.120515807656771
148.0181750373 	 0.12453300124533
148.0215458557 	 0.397702165267344
149.0709388893 	 16.5869923271602
150.087317235 	 12.8188647410919
150.0913399804 	 24.7499296991122
151.0951422671 	 32.6196119390993
151.0991650125 	 50.833567669626
152.0164604778 	 2.80801831840276
164.0164604778 	 0.0923954525368577
165.0209146915 	 1.74747921102318
165.0242855099 	 5.72048367010806
166.0287397236 	 0.381633390913108
166.032110542 	 1.90816695456554
166.0810721073 	 1.14490017273932
166.0862546025 	 4.11360623468445
168.0967221715 	 8.44815811673964
168.1019046667 	 59.1089864620576
169.1097296988 	 4.90097617804202
179.0273595151 	 12.3086811553449
180.0351845472 	 3.60342264893745
180.0443897878 	 27.5619652111035
180.0477606062 	 34.4112802795967
181.0522148199 	 2.90041377093962
181.0555856383 	 5.23038605230386
183.0474262552 	 0.337444261438959
185.1284537682 	 2.05278592375367
186.1237027413 	 2.43040212107821
196.0300991693 	 20.2747760414574
198.0583252925 	 100
199.0627795062 	 3.36640822721247
200.0501659094 	 1.28148475475033
255.1049411341 	 0.152653356365243
260.1393528055 	 1.71935885590327
269.1284537682 	 0.285220744787691
280.1080526771 	 0.120515807656771
328.1114234955 	 9.3640782549311
329.1192485276 	 3.10127345036757
330.1032641124 	 2.34604105571847
346.1219881818 	 70.0397702165267
END IONS

BEGIN IONS
PEPMASS=253.0979
CHARGE=1
MSLEVEL=2
RT=0
SOURCE_INSTRUMENT=qTOF
FILENAME=CCMSLIB00000078133.ms
IONMODE=Positive
ORGANISM=Natural
NAME=Oxcarbazepine
PI=GNPS
DATACOLLECTOR=GNPS
SMILES=c1ccc2c(c1)CC(=O)c1ccccc1N2C(=N)O
INCHI=InChI=1S/C15H12N2O2/c16-15(19)17-12-7-3-1-5-10(12)9-14(18)11-6-2-4-8-13(11)17/h1-8H,9H2,(H2,16,19)
FORMULA=C15H12N2O2
PUBMED=N/A
SUBMITUSER=BIOADREM
LIBRARYQUALITY=0
SPECTRUMID=CCMSLIB00000078133
SCANS=689
ID=CCMSLIB00000078133
104.0494751657 	 0.259877217430605
128.0494751657 	 0.523520771345712
132.0443897878 	 0.267409890399608
141.0573001978 	 0.274942563368611
152.0620512247 	 0.531053444314715
153.0698762568 	 0.821061353621333
154.0651252299 	 0.293774245791119
165.0698762568 	 3.78140183043953
166.0651252299 	 0.775865315807314
167.072950262 	 10.4666490904297
179.072950262 	 3.01306918760122
180.0807752941 	 100
182.0964253583 	 18.5605061956235
192.0807752941 	 0.851192045497345
193.0886003262 	 0.527287107830213
195.0678648841 	 1.81537418552974
196.0756899162 	 0.768332642838311
208.0756899162 	 49.6026515008851
210.0913399804 	 15.5888667093518
211.0991650125 	 1.03197619675342
236.0706045383 	 75.3267296900305
238.0736785435 	 2.18070882452638
253.0971536398 	 47.6742872208203
END IONS

BEGIN IONS
PEPMASS=296.1467
CHARGE=1
MSLEVEL=2
RT=0
SOURCE_INSTRUMENT=qTOF
FILENAME=CCMSLIB00000078134.ms
IONMODE=Positive
ORGANISM=Natural
NAME=Pizotifen malate
PI=GNPS
DATACOLLECTOR=GNPS
SMILES=CN1CCC(=C2c3ccccc3CCc3c2ccs3)CC1
INCHI=InChI=1S/C19H21NS/c1-20-11-8-15(9-12-20)19-16-5-3-2-4-14(16)6-7-18-17(19)10-13-21-18/h2-5,10,13H,6-9,11-12H2,1H3
FORMULA=C19H21NS
PUBMED=N/A
SUBMITUSER=BIOADREM
LIBRARYQUALITY=0
SPECTRUMID=CCMSLIB00000078134
SCANS=690
ID=CCMSLIB00000078134
91.0542261926 	 1.22874187516695
94.0651252299 	 2.38625233728074
96.0807752941 	 44.5196331582228
97.0106468184 	 4.6567536283501
98.0964253583 	 0.9193304247173
111.0262968826 	 2.64891817291426
115.0542261926 	 7.59504941679281
117.0698762568 	 3.99563707595049
123.0262968826 	 4.69904727985041
127.0542261926 	 1.05066334253406
128.0620512247 	 6.80705190989226
129.0698762568 	 6.75585433176031
131.085526321 	 0.529783634582851
137.0419469468 	 4.2360430950049
141.0698762568 	 8.2539399875345
143.085526321 	 5.28448045588104
147.0262968826 	 1.24209776511442
152.0620512247 	 1.28661739827264
153.0698762568 	 3.02956103641706
154.0777012889 	 3.18092778915502
155.085526321 	 7.92226872050574
161.0385761284 	 0.538687561214496
162.0497719789 	 1.94105600569851
165.0698762568 	 19.9091799483572
166.0777012889 	 9.40477250467456
167.085526321 	 3.99786305760841
169.1011763852 	 2.75576529249399
178.0777012889 	 7.53494791202921
179.085526321 	 5.67180126435758
181.1011763852 	 1.10186092066601
184.0341219147 	 4.44305938919063
184.1120754225 	 0.545365506188229
185.0419469468 	 5.5560502181462
185.1199004546 	 0.661116552399608
190.0777012889 	 2.91380999020568
191.085526321 	 11.296856913899
192.0933513531 	 3.9778292226872
193.1011763852 	 2.54207105333452
197.0419469468 	 7.55052978363458
198.0497719789 	 2.29498708930638
198.1277254867 	 3.96447333273974
199.057597011 	 29.5699403436916
202.0777012889 	 1.58712492209064
203.085526321 	 6.51322233104799
204.0933513531 	 9.24227584364705
205.1011763852 	 9.49603775264892
207.1168264494 	 0.72344403882112
209.0419469468 	 1.46914789422135
210.0497719789 	 2.58881666815065
211.057597011 	 3.90659780963405
217.1011763852 	 1.80749710622384
219.1168264494 	 8.60341910782655
220.1246514815 	 1.75629952809189
223.057597011 	 3.34119846852462
224.0654220431 	 3.85540023150209
225.0732470752 	 5.19766717122251
235.057597011 	 1.08182708574481
237.0732470752 	 1.40904638945775
251.0888971394 	 3.19428367910248
253.1045472036 	 1.27103552666726
265.1045472036 	 0.556495414477785
296.1467463693 	 100
END IONS

BEGIN IONS
PEPMASS=330.2066
CHARGE=1
MSLEVEL=2
RT=0
SOURCE_INSTRUMENT=qTOF
FILENAME=CCMSLIB00000078135.ms
IONMODE=Positive
ORGANISM=Natural
NAME=Trilostane
PI=GNPS
DATACOLLECTOR=GNPS
SMILES=C[C@]12CC[C@@H]3[C@@H](CC[C@@]45[C@@H](C(=C(C[C@]34C)C#N)O)O5)[C@@H]1CC[C@H]2O
INCHI=InChI=1S/C20H27NO3/c1-18-7-6-14-12(13(18)3-4-15(18)22)5-8-20-17(24-20)16(23)11(10-21)9-19(14,20)2/h12-15,17,22-23H,3-9H2,1-2H3/t12-,13-,14+,15+,17+,18-,19+,20+/m0/s1
FORMULA=C20H27NO3
PUBMED=N/A
SUBMITUSER=BIOADREM
LIBRARYQUALITY=0
SPECTRUMID=CCMSLIB00000078135
SCANS=691
ID=CCMSLIB00000078135
107.085526321 	 24.75
109.1011763852 	 22.77
115.0389700589 	 27.23
119.085526321 	 22.77
125.059705501 	 31.19
128.0620512247 	 24.75
133.0647908789 	 26.24
133.1011763852 	 23.76
134.060039852 	 24.26
135.1168264494 	 26.24
152.0706045383 	 21.78
168.0569658468 	 23.76
172.1246514815 	 37.13
173.1324765136 	 40.59
183.0889942567 	 23.27
184.0756899162 	 22.77
199.0991650125 	 21.78
201.163776642 	 100
239.1794267062 	 22.77
285.1849060146 	 25.25
294.1852403656 	 34.16
312.1958050519 	 41.09
330.2063697382 	 861.39
END IONS

BEGIN IONS
PEPMASS=390.2136
CHARGE=1
MSLEVEL=2
RT=0
SOURCE_INSTRUMENT=qTOF
FILENAME=CCMSLIB00000078138.ms
IONMODE=Positive
ORGANISM=Natural
NAME=Alfuzosin hydrochloride (Uroxatral)
PI=GNPS
DATACOLLECTOR=GNPS
SMILES=CN(CCCN=C(C1CCCO1)O)c1nc2cc(c(cc2c(=N)[nH]1)OC)OC
INCHI=InChI=1S/C19H27N5O4/c1-24(8-5-7-21-18(25)14-6-4-9-28-14)19-22-13-11-16(27-3)15(26-2)10-12(13)17(20)23-19/h10-11,14H,4-9H2,1-3H3,(H,21,25)(H2,20,22,23)
FORMULA=C19H27N5O4
PUBMED=N/A
SUBMITUSER=BIOADREM
LIBRARYQUALITY=0
SPECTRUMID=CCMSLIB00000078138
SCANS=693
ID=CCMSLIB00000078138
100.0756899162 	 0.462115267242131
128.0706045383 	 0.973639085069899
156.1019046667 	 39.4454616793094
191.0927369639 	 0.267387450228151
216.100561996 	 0.758566570755951
219.087651586 	 4.85366349870666
220.0954766181 	 3.69110936727991
229.1083870281 	 0.084285174528439
231.087651586 	 0.206353358328247
231.1240370923 	 0.197634202342547
232.0954766181 	 0.560932368413404
233.1033016502 	 0.383642863370826
234.1111266823 	 1.89786961955416
235.1189517144 	 58.1277065713372
245.1033016502 	 0.200540587671113
247.1189517144 	 6.88813322870346
259.1189517144 	 1.66826517859738
260.1267767465 	 1.13639666346964
261.1346017786 	 1.0259540209841
275.1502518428 	 10.7449065597117
277.153325848 	 0.119161798471241
287.1376757838 	 0.124974569128375
292.1768009443 	 1.62466939866888
302.1611508801 	 0.581277065713372
346.1873656306 	 0.0755660185427384
374.1822802527 	 1.04629871828407
375.1901052848 	 0.377830092713692
390.2135803811 	 100
END IONS

BEGIN IONS
PEPMASS=384.1666
CHARGE=1
MSLEVEL=2
RT=0
SOURCE_INSTRUMENT=qTOF
FILENAME=CCMSLIB00000078140.ms
IONMODE=Positive
ORGANISM=Natural
NAME=Prazosin HCl
PI=GNPS
DATACOLLECTOR=GNPS
SMILES=COc1cc2c(cc1OC)nc([nH]c2=N)N1CCN(CC1)C(=O)c1ccco1
INCHI=InChI=1S/C19H21N5O4/c1-26-15-10-12-13(11-16(15)27-2)21-19(22-17(12)20)24-7-5-23(6-8-24)18(25)14-4-3-9-28-14/h3-4,9-11H,5-8H2,1-2H3,(H2,20,21,22)
FORMULA=C19H21N5O4
PUBMED=N/A
SUBMITUSER=BIOADREM
LIBRARYQUALITY=0
SPECTRUMID=CCMSLIB00000078140
SCANS=695
ID=CCMSLIB00000078140
95.0127553084 	 10.7260111694026
120.0443897878 	 1.02216957183957
138.0549544741 	 14.5946860720934
164.0706045383 	 8.61228634286681
174.0899973097 	 0.348620748011508
202.0849119318 	 0.341851413098663
203.0927369639 	 3.07158571670333
204.0767525487 	 0.825858859367067
204.0780952194 	 1.56879336605179
205.0720015218 	 0.257234726688103
205.0733441925 	 1.47740734472838
206.0798265539 	 0.330005077001185
217.0720015218 	 1.1474022677272
218.0798265539 	 0.575393467591809
219.087651586 	 0.638009815535624
220.0954766181 	 0.509392452191572
221.1033016502 	 3.15451006938568
229.0720015218 	 0.663394821458792
229.1083870281 	 0.123540362159418
231.087651586 	 2.66204095447622
231.0889942567 	 14.3492976815028
232.0954766181 	 9.33660517854121
233.1033016502 	 4.84515146386867
244.1192860654 	 0.2115417160264
245.1033016502 	 2.50126925029616
247.1189517144 	 50.7700118463361
257.1033016502 	 0.392621424944999
257.1046443209 	 1.3741749873075
259.1189517144 	 0.783550516161787
271.1189517144 	 0.111694026061939
272.1142006875 	 0.697241496023016
272.1155433582 	 0.138771365713319
273.1346017786 	 1.41140632932814
288.1455008159 	 2.72296496869183
300.1091153096 	 0.411237095955322
300.1104579803 	 0.148925368082586
315.1087809586 	 1.15417160264004
316.140415438 	 1.76341174479607
322.1298507517 	 0.927398883059739
323.1376757838 	 0.220003384667456
325.0931308944 	 1.0272465730242
326.1009559265 	 0.396006092401422
338.1611508801 	 0.216618717211034
340.140415438 	 1.48586901336944
341.1244310228 	 3.73498053816213
350.1247653738 	 4.16314097139956
351.1325904059 	 1.81418175664241
354.1196799959 	 0.242003723134202
366.1560655022 	 8.36689795227619
368.1353300601 	 10.1726180402775
369.1431550922 	 3.7315958707057
384.1666301885 	 100
END IONS

BEGIN IONS
PEPMASS=453.2767
CHARGE=1
MSLEVEL=2
RT=0
SOURCE_INSTRUMENT=qTOF
FILENAME=CCMSLIB00000078141.ms
IONMODE=Positive
ORGANISM=Natural
NAME=Repaglinide
PI=GNPS
DATACOLLECTOR=GNPS
SMILES=CCOc1cc(ccc1C(=O)O)CC(=N[C@@H](CC(C)C)c1ccccc1N1CCCCC1)O
INCHI=InChI=1S/C27H36N2O4/c1-4-33-25-17-20(12-13-22(25)27(31)32)18-26(30)28-23(16-19(2)3)21-10-6-7-11-24(21)29-14-8-5-9-15-29/h6-7,10-13,17,19,23H,4-5,8-9,14-16,18H2,1-3H3,(H,28,30)(H,31,32)/t23-/m0/s1
FORMULA=C27H36N2O4
PUBMED=N/A
SUBMITUSER=BIOADREM
LIBRARYQUALITY=0
SPECTRUMID=CCMSLIB00000078141
SCANS=696
ID=CCMSLIB00000078141
105.0334907505 	 0.386134269416411
106.0651252299 	 3.37867485739359
117.0573001978 	 1.01799034664326
118.0651252299 	 5.17770952172005
119.0702701873 	 0.47389205792014
120.0807752941 	 1.57964019306714
130.0651252299 	 4.63361123299693
131.072950262 	 3.02764370337868
132.0807752941 	 4.79157525230364
133.0859202515 	 0.552874067573497
134.0937452836 	 0.210618692408951
143.072950262 	 0.23694602896007
144.0807752941 	 4.2211496270294
145.0886003262 	 2.5010969723563
146.0964253583 	 20.3598069328653
147.1015703157 	 2.0447564721369
151.0389700589 	 0.342255375164546
158.0964253583 	 4.22992540587977
159.1042503904 	 3.22071083808688
160.1120754225 	 2.94866169372532
161.0233199947 	 0.298376480912681
161.059705501 	 0.289600702062308
161.1172203799 	 0.570425625274243
162.1277254867 	 72.7863097849934
172.1120754225 	 12.1632294866169
173.1199004546 	 4.78279947345327
174.1277254867 	 66.1781483106626
175.1328704441 	 12.0666959192628
179.0702701873 	 4.98464238701185
186.1277254867 	 2.2729267222466
187.1328704441 	 1.2022817025011
188.1433755509 	 1.81658622202721
189.0546201231 	 2.87845546292233
202.1590256151 	 5.0987275120667
203.1641705725 	 0.666959192628346
207.0651848094 	 0.877577885037297
228.1746756793 	 1.13207547169811
231.1954707009 	 100
292.1543341677 	 13.0144800351031
453.2747836544 	 58.5695480473892
END IONS

BEGIN IONS
PEPMASS=475.2122
CHARGE=1
MSLEVEL=2
RT=0
SOURCE_INSTRUMENT=qTOF
FILENAME=CCMSLIB00000078143.ms
IONMODE=Positive
ORGANISM=Natural
NAME=Sildenafil citrate
PI=GNPS
DATACOLLECTOR=GNPS
SMILES=CCCc1c2c(c(=O)[nH]c(c3cc(ccc3OCC)S(=O)(=O)N3CCN(C)CC3)n2)n(C)n1
INCHI=InChI=1S/C22H30N6O4S/c1-5-7-17-19-20(27(4)25-17)22(29)24-21(23-19)16-14-15(8-9-18(16)32-6-2)33(30,31)28-12-10-26(3)11-13-28/h8-9,14H,5-7,10-13H2,1-4H3,(H,23,24,29)
FORMULA=C22H30N6O4S
PUBMED=N/A
SUBMITUSER=BIOADREM
LIBRARYQUALITY=0
SPECTRUMID=CCMSLIB00000078143
SCANS=698
ID=CCMSLIB00000078143
97.0760242672 	 0.124051300585092
100.0994993635 	 1.56480459478203
166.0974879908 	 0.226613399494027
213.0770868997 	 0.116237045430126
226.0849119318 	 0.146517284155621
227.0888971394 	 0.153354757416217
241.1083870281 	 0.1338191195288
253.0720015218 	 0.292057786416871
254.0798265539 	 1.42121765630952
255.0838117615 	 0.31550055188177
255.087651586 	 0.27838283989568
255.1240370923 	 1.34600545044297
256.0954766181 	 0.312570206198658
267.1213570176 	 0.160192230676812
268.0954766181 	 0.26666145716323
269.1033016502 	 0.154331539310587
269.1396871565 	 0.715981128573801
279.1240370923 	 0.160192230676812
282.1111266823 	 2.06198657901677
283.1189517144 	 19.5356378874161
284.1215942513 	 1.80509294079725
284.122936922 	 1.69276302294461
285.1307619541 	 0.589976264199967
285.1346017786 	 0.706213309630093
286.1372443155 	 0.144563720366879
286.1385869862 	 0.232474090860252
287.110026512 	 0.139679810895025
287.1138663365 	 0.1338191195288
293.135847332 	 0.10939957216953
293.1370070818 	 0.142610156578138
297.1346017786 	 1.15553298104066
298.1424268107 	 0.161169012571183
299.1138663365 	 4.23141916641433
300.1165088734 	 0.31550055188177
300.1178515441 	 0.598767301249304
311.1464120183 	 3.95498989030739
311.1502518428 	 5.33127557947586
312.1528943797 	 1.13404377936451
312.1542370504 	 1.52964044658468
313.165901907 	 0.792170116334724
315.1049411341 	 0.261777547691376
315.1087809586 	 0.205124197817869
315.1413266404 	 0.119167391113238
316.1114234955 	 0.161169012571183
316.1166059907 	 0.295964913994354
327.1413266404 	 0.595836955566192
329.1192485276 	 0.144563720366879
329.1608165291 	 0.317454115670512
344.1479061191 	 1.56089746720455
345.1518913267 	 0.425876905945671
349.0965017128 	 0.172890395303633
354.1924510085 	 0.168983267726149
359.1713812154 	 0.135772683317542
377.1278018412 	 0.677886634693339
418.1543509427 	 0.118190609218868
475.2122001726 	 100
END IONS

BEGIN IONS
PEPMASS=296.144
CHARGE=1
MSLEVEL=2
RT=0
SOURCE_INSTRUMENT=qTOF
FILENAME=CCMSLIB00000078145.ms
IONMODE=Positive
ORGANISM=Natural
NAME=Sumatriptan succinate
PI=GNPS
DATACOLLECTOR=GNPS
SMILES=CNS(=O)(=O)Cc1ccc2c(c1)c(CCN(C)C)c[nH]2
INCHI=InChI=1S/C14H21N3O2S/c1-15-20(18,19)10-11-4-5-14-13(8-11)12(9-16-14)6-7-17(2)3/h4-5,8-9,15-16H,6-7,10H2,1-3H3
FORMULA=C14H21N3O2S
PUBMED=N/A
SUBMITUSER=BIOADREM
LIBRARYQUALITY=0
SPECTRUMID=CCMSLIB00000078145
SCANS=699
ID=CCMSLIB00000078145
74.047463793 	 0.170666858292613
103.0542261926 	 0.395228513940788
104.0944139856 	 0.20300373670595
111.0916743314 	 0.371874101753377
115.057597011 	 0.206596723196321
127.0542261926 	 0.163480885311871
130.0651252299 	 2.8169014084507
142.0651252299 	 0.78866053463639
144.0767525487 	 0.206596723196321
154.0525491709 	 0.413193446392641
154.0684960483 	 0.208393216441506
156.0807752941 	 18.7122736418511
157.0886003262 	 43.2397959183673
158.0964253583 	 6.22664558781259
159.100227645 	 0.646737568266743
174.0913399804 	 0.377263581488934
180.0477606062 	 0.341333716585226
184.0300991693 	 0.355705662546709
184.0756899162 	 0.510204081632653
201.138624524 	 8.98605921241736
203.0815035756 	 0.546133946536361
217.0971536398 	 0.477867203219316
218.0997961767 	 0.334147743604484
230.0746440587 	 0.440140845070423
230.0997961767 	 0.477867203219316
241.1005244582 	 0.38265306122449
251.084874394 	 21.5686979016959
259.0773837129 	 0.312589824662259
266.1209255493 	 1.38509629203794
296.1427236239 	 100
END IONS

BEGIN IONS
PEPMASS=362.0887
CHARGE=1
MSLEVEL=2
RT=0
SOURCE_INSTRUMENT=qTOF
FILENAME=CCMSLIB00000078147.ms
IONMODE=Positive
ORGANISM=Natural
NAME=Topiramate
PI=GNPS
DATACOLLECTOR=GNPS
SMILES=CC1(C)O[C@@H]2CO[C@]3(COS(=O)(=O)N)[C@H]([C@@H]2O1)OC(C)(C)O3
INCHI=InChI=1S/C12H21NO8S/c1-10(2)18-7-5-16-12(6-17-22(13,14)15)9(8(7)19-10)20-11(3,4)21-12/h7-9H,5-6H2,1-4H3,(H2,13,14,15)/t7-,8-,9+,12+/m1/s1
FORMULA=C12H21NO8S
PUBMED=N/A
SUBMITUSER=BIOADREM
LIBRARYQUALITY=0
SPECTRUMID=CCMSLIB00000078147
SCANS=700
ID=CCMSLIB00000078147
83.9875656526 	 0.867410161090459
93.0573001978 	 0.884919993534831
96.0569658468 	 1.0384677549701
105.0606710162 	 0.761004256236194
107.0491408147 	 1.46274446419913
109.031776191 	 1.13544528850816
109.0647908789 	 0.731372232099564
112.0393044099 	 0.961693874252465
113.059705501 	 0.789289370184796
116.0654220431 	 0.750228974731965
124.0756899162 	 1.65535262108723
125.059705501 	 0.789289370184796
126.0497719789 	 0.731372232099564
127.0389700589 	 3.11675017509832
137.0630763194 	 0.769085717364366
139.0627795062 	 1.00883573083347
140.0706045383 	 0.808146112817197
145.0495347452 	 0.86606325090243
162.0947107988 	 1.00883573083347
167.0702701873 	 2.13619955821346
177.1359444493 	 0.761004256236194
183.0889942567 	 0.761004256236194
184.0968192888 	 11.467593340876
185.0808348736 	 12.3403911427186
188.9852199289 	 1.57723183018156
191.9961189662 	 0.731372232099564
203.097450453 	 0.902429825979204
204.0325044725 	 0.942837131620063
206.0117690304 	 2.27089057701632
206.9924137968 	 1.30784979257583
221.1383497525 	 0.884919993534831
224.0223337167 	 6.52308604062281
225.0267879304 	 0.731372232099564
239.0424379946 	 0.789289370184796
243.1226996883 	 13.4691018802866
250.0141743336 	 0.832390496201713
260.1492487898 	 1.46947901513927
261.1206883156 	 1.09773180324336
264.0536338451 	 13.4691018802866
265.0580880588 	 2.52006896180163
266.045474462 	 1.4236840687463
340.1060633461 	 100
END IONS

BEGIN IONS
PEPMASS=212.1193
CHARGE=1
MSLEVEL=2
RT=0
SOURCE_INSTRUMENT=qTOF
FILENAME=CCMSLIB00000078149.ms
IONMODE=Positive
ORGANISM=Natural
NAME=Varenicline tartrate
PI=GNPS
DATACOLLECTOR=GNPS
SMILES=c1cnc2cc3C4CC(CNC4)c3cc2n1
INCHI=InChI=1S/C13H13N3/c1-2-16-13-5-11-9-3-8(6-14-7-9)10(11)4-12(13)15-1/h1-2,4-5,8-9,14H,3,6-7H2
FORMULA=C13H13N3
PUBMED=N/A
SUBMITUSER=BIOADREM
LIBRARYQUALITY=0
SPECTRUMID=CCMSLIB00000078149
SCANS=702
ID=CCMSLIB00000078149
115.0542261926 	 4.58
141.0698762568 	 9.87
142.0651252299 	 4.67
168.0681992351 	 51.35
169.0760242672 	 100
180.0681992351 	 19.93
181.0760242672 	 9.34
183.0916743314 	 75.49
195.0916743314 	 41.83
212.1182234329 	 671.54
END IONS

BEGIN IONS
PEPMASS=350.1223
CHARGE=1
MSLEVEL=2
RT=0
SOURCE_INSTRUMENT=qTOF
FILENAME=CCMSLIB00000078151.ms
IONMODE=Positive
ORGANISM=Natural
NAME=Voriconazole
PI=GNPS
DATACOLLECTOR=GNPS
SMILES=C[C@@H](c1c(cncn1)F)[C@](Cn1cncn1)(c1ccc(cc1F)F)O
INCHI=InChI=1S/C16H14F3N5O/c1-10(15-14(19)5-20-7-22-15)16(25,6-24-9-21-8-23-24)12-3-2-11(17)4-13(12)18/h2-5,7-10,25H,6H2,1H3/t10-,16+/m0/s1
FORMULA=C16H14F3N5O
PUBMED=N/A
SUBMITUSER=BIOADREM
LIBRARYQUALITY=0
SPECTRUMID=CCMSLIB00000078151
SCANS=704
ID=CCMSLIB00000078151
100.0557033978 	 0.505
101.0197324642 	 0.22
107.0291542963 	 0.13
125.0509523709 	 0.835
127.0353825284 	 38.53
127.0666024351 	 46.34
134.0400533336 	 0.11
140.0306315015 	 0.155
140.0744274672 	 0.165
154.0462815657 	 1.955
155.0302971505 	 5.6
169.057180603 	 0.7
197.0520952251 	 1.175
224.0629942624 	 79.115
243.0728306672 	 0.155
248.055583803 	 1.355
263.0790588993 	 4.705
264.0817183318 	 0.365
281.0896235856 	 100
332.1117560112 	 2.28
350.1223206975 	 66.49
END IONS

BEGIN IONS
PEPMASS=413.1197
CHARGE=1
MSLEVEL=2
RT=0
SOURCE_INSTRUMENT=qTOF
FILENAME=CCMSLIB00000078152.ms
IONMODE=Positive
ORGANISM=Natural
NAME=Ziprasidone hydrochloride
PI=GNPS
DATACOLLECTOR=GNPS
SMILES=c1ccc2c(c1)c(ns2)N1CCN(CCc2cc3CC(=Nc3cc2Cl)O)CC1
INCHI=InChI=1S/C21H21ClN4OS/c22-17-13-18-15(12-20(27)23-18)11-14(17)5-6-25-7-9-26(10-8-25)21-16-3-1-2-4-19(16)28-24-21/h1-4,11,13H,5-10,12H2,(H,23,27)
FORMULA=C21H21ClN4OS
PUBMED=N/A
SUBMITUSER=BIOADREM
LIBRARYQUALITY=0
SPECTRUMID=CCMSLIB00000078152
SCANS=705
ID=CCMSLIB00000078152
130.0651252299 	 2.03
131.072950262 	 1.51
136.0215458557 	 0.54
139.0309039347 	 0.57
150.0371959199 	 0.34
151.0309039347 	 0.37
158.060039852 	 2.47
159.0678648841 	 14.73
166.041802972 	 11.66
168.0370144073 	 2.89
169.041468621 	 0.3
175.0309039347 	 0.23
176.0368991067 	 0.28
177.0480949572 	 14.71
178.0525491709 	 1.92
194.0367175941 	 100
196.0341219147 	 25.65
201.1022390177 	 0.24
203.0637450214 	 1.07
205.0778541273 	 1.04
206.0838492993 	 0.33
217.0652780683 	 0.8
218.0731031004 	 0.47
220.0902941229 	 3.79
221.0947483366 	 0.66
222.0839645999 	 0.21
232.0887531646 	 0.59
237.0789167598 	 0.92
411.1040856528 	 0.51
413.119735717 	 117.99
END IONS

BEGIN IONS
PEPMASS=705.397
CHARGE=1
MSLEVEL=2
RT=0
SOURCE_INSTRUMENT=qTOF
FILENAME=CCMSLIB00000078153.ms
IONMODE=Positive
ORGANISM=Natural
NAME=Atazanavir sulfate
PI=GNPS
DATACOLLECTOR=GNPS
SMILES=CC(C)(C)[C@@H](C(=N[C@@H](Cc1ccccc1)[C@H](CN(Cc1ccc(cc1)c1ccccn1)N=C([C@H](C(C)(C)C)N=C(O)OC)O)O)O)N=C(O)OC
INCHI=InChI=1S/C38H52N6O7/c1-37(2,3)31(41-35(48)50-7)33(46)40-29(22-25-14-10-9-11-15-25)30(45)24-44(43-34(47)32(38(4,5)6)42-36(49)51-8)23-26-17-19-27(20-18-26)28-16-12-13-21-39-28/h9-21,29-32,45H,22-24H2,1-8H3,(H,40,46)(H,41,48)(H,42,49)(H,43,47)/t29-,30-,31+,32+/m0/s1
FORMULA=C38H52N6O7
PUBMED=N/A
SUBMITUSER=BIOADREM
LIBRARYQUALITY=0
SPECTRUMID=CCMSLIB00000078153
SCANS=706
ID=CCMSLIB00000078153
112.0756899162 	 0.125669188428381
120.0807752941 	 0.490109834870686
129.0698762568 	 0.173423480031166
139.0542261926 	 0.125669188428381
141.0698762568 	 0.165883328725463
144.1019046667 	 8.24138537713323
146.0964253583 	 0.46497599718501
148.1120754225 	 0.0955085832055697
162.0913399804 	 0.128182572196949
164.1069900446 	 0.123155804659814
166.0651252299 	 0.284012365848141
167.072950262 	 2.92306532284414
168.0807752941 	 25.1338376856762
169.0859202515 	 6.79116294266972
172.0968192888 	 0.170910096262598
185.1073243956 	 0.115615653354111
189.1233683903 	 4.63970643677583
192.1019046667 	 0.135722723502652
212.1182234329 	 0.108075502048408
213.1233683903 	 0.50770352125066
216.1342674276 	 4.70254103099002
231.1339330766 	 10.9935406037148
250.1073839751 	 0.130695955965516
287.1542745882 	 0.140749491039787
289.153325848 	 0.520270440093498
291.1703185829 	 0.673586849976123
307.1638905343 	 0.628345942141906
311.1668506472 	 0.113102269585543
313.1699246524 	 0.145776258576922
318.1812176202 	 0.487596451102119
321.1808832692 	 25.1338376856762
322.1873656306 	 6.3111066428733
328.1808236897 	 0.512730288787795
329.1774153335 	 0.2639052956996
335.1965333334 	 14.9269862015231
336.1917823065 	 0.562997964159148
337.2022874133 	 0.366954030210873
346.191388376 	 0.198557317716842
348.1917823065 	 0.284012365848141
350.2074323707 	 3.06381481388393
363.2179374775 	 0.505190137482092
364.2185518667 	 0.130695955965516
365.218331408 	 0.40214140297082
371.2091093924 	 0.135722723502652
393.2132460301 	 0.706260838967502
424.2356584939 	 0.271445447005303
425.2349302124 	 0.123155804659814
441.2648876701 	 0.10556211827984
469.2557795468 	 0.625832558373338
487.2663442331 	 3.70472767486868
499.2676869038 	 0.185990398874004
501.2886971174 	 1.43262874808354
502.2740553729 	 0.155829793651193
502.2898193294 	 0.532837358936336
516.2942360053 	 0.261391911931033
517.2975304692 	 0.188503782642572
519.2992618037 	 17.1136300801769
520.3003840157 	 6.62779299771282
534.3048006916 	 2.51841053610476
535.3080951555 	 1.02797396134416
536.3118974422 	 0.231231306708221
537.30982649 	 0.904818156684344
612.3517508842 	 0.2639052956996
613.3510226027 	 0.155829793651193
673.3708093046 	 0.138236107271219
687.3864593688 	 1.07572825294694
688.3942844009 	 0.266418679468168
705.3970240551 	 100
END IONS

BEGIN IONS
PEPMASS=363.1463
CHARGE=1
MSLEVEL=2
RT=0
SOURCE_INSTRUMENT=qTOF
FILENAME=CCMSLIB00000078157.ms
IONMODE=Positive
ORGANISM=Natural
NAME=Marbofloxacin
PI=GNPS
DATACOLLECTOR=GNPS
SMILES=CN1CCN(CC1)c1c(cc2c3c1OCN(C)n3cc(c2=O)C(=O)O)F
INCHI=InChI=1S/C17H19FN4O4/c1-19-3-5-21(6-4-19)14-12(18)7-10-13-16(14)26-9-20(2)22(13)8-11(15(10)23)17(24)25/h7-8H,3-6,9H2,1-2H3,(H,24,25)
FORMULA=C17H19FN4O4
PUBMED=N/A
SUBMITUSER=BIOADREM
LIBRARYQUALITY=0
SPECTRUMID=CCMSLIB00000078157
SCANS=709
ID=CCMSLIB00000078157
157.0396387609 	 0.62
158.0274772746 	 1.46
164.0506180199 	 2.37
174.0349679557 	 0.55
185.034553383 	 0.94
185.0682588146 	 1.19
191.033884681 	 0.45
191.0615170572 	 0.68
192.045532642 	 2.67
204.045532642 	 4.35
205.0407816151 	 9.79
206.0573597773 	 2.19
213.0658535114 	 2.92
215.0615170572 	 0.95
216.0417097131 	 0.97
218.0447837183 	 0.93
219.0564316793 	 1.87
221.0720817435 	 1.13
232.0604337825 	 0.48
233.0720817435 	 5.05
234.0760838467 	 0.97
259.0513463014 	 0.82
262.1073839751 	 1.12
276.1142809092 	 14.53
277.0619109877 	 6.24
320.1041101534 	 100
322.1071841586 	 1.5
345.1357446328 	 3.2
363.1463093191 	 201.02
END IONS

BEGIN IONS
PEPMASS=402.1824
CHARGE=1
MSLEVEL=2
RT=0
SOURCE_INSTRUMENT=qTOF
FILENAME=CCMSLIB00000078158.ms
IONMODE=Positive
ORGANISM=Natural
NAME=Moxifloxacin hydrochloride
PI=GNPS
DATACOLLECTOR=GNPS
SMILES=COc1c2c(cc(c1N1C[C@@H]3CCCN[C@@H]3C1)F)c(=O)c(cn2C1CC1)C(=O)O
INCHI=InChI=1S/C21H24FN3O4/c1-29-20-17-13(19(26)14(21(27)28)9-25(17)12-4-5-12)7-15(22)18(20)24-8-11-3-2-6-23-16(11)10-24/h7,9,11-12,16,23H,2-6,8,10H2,1H3,(H,27,28)/t11-,16+/m0/s1
FORMULA=C21H24FN3O4
PUBMED=N/A
SUBMITUSER=BIOADREM
LIBRARYQUALITY=0
SPECTRUMID=CCMSLIB00000078158
SCANS=710
ID=CCMSLIB00000078158
110.0964253583 	 2.82470074952455
179.0365647557 	 1.23988514748108
191.0615170572 	 1.49532013275161
192.0443897878 	 1.53633888951039
193.0407816151 	 2.23738673229668
203.060374203 	 2.34925606891151
203.0615170572 	 0.441883879628594
204.0417097131 	 1.38717977402394
204.0681992351 	 1.81414774210389
205.0396387609 	 4.11306260953872
205.0407816151 	 1.24174963642466
205.0522148199 	 0.320692098295857
205.0733441925 	 1.47667524331581
205.0760242672 	 0.453070813290077
205.0771671214 	 0.486631614274527
207.0526087504 	 0.391542678151919
207.0552888251 	 3.29828094119402
207.0564316793 	 0.85952940299064
215.060374203 	 3.24793973971734
215.0615170572 	 0.622739307155909
216.0655191604 	 0.36357534399821
216.0681992351 	 2.73520528023269
216.0693420893 	 1.38717977402394
217.0396387609 	 3.41947272252675
217.0407816151 	 1.4487079091621
217.0733441925 	 2.78368199276578
217.0771671214 	 2.12365290673826
219.0564316793 	 8.11425588246262
220.0604337825 	 1.05157176417944
220.0631138572 	 5.46481709363463
220.0642567114 	 2.83402319424246
221.0709388893 	 1.81041876421673
221.0720817435 	 0.976992206436216
228.0681992351 	 1.18581496811724
229.0760242672 	 2.41264869299325
229.0771671214 	 0.413916545474885
230.0811692246 	 1.83279263153969
230.0838492993 	 0.434425923854272
230.0849921535 	 0.540701793638364
231.0552888251 	 3.58168326061826
231.0564316793 	 1.41701159712123
231.0889942567 	 1.24174963642466
231.0916743314 	 6.67300592907484
231.0928171856 	 4.48223142036768
232.0631138572 	 2.94216355297013
232.0642567114 	 1.50091359958235
233.0682588146 	 0.568669127792072
233.0709388893 	 3.01860759965693
233.0720817435 	 0.900548159749413
234.0760838467 	 1.02546891896931
234.0787639214 	 4.05526345228773
234.0799067756 	 1.22869821381959
235.0839088788 	 1.25293657008614
242.0838492993 	 0.423238990192788
243.0916743314 	 1.56803520155125
243.0928171856 	 1.48040422120297
245.034553383 	 1.66498862661744
245.0682588146 	 1.40582466345975
245.0709388893 	 4.28273110340456
245.0720817435 	 3.65812730730507
246.0760838467 	 0.939702427564604
246.0787639214 	 3.08572920162583
246.0799067756 	 3.42879516724466
247.0513463014 	 2.18518104187642
247.0865889535 	 2.70910243502256
247.0877318077 	 2.89368684043704
248.0580284793 	 1.36480590670097
248.0591713335 	 0.708505798560614
248.0917339109 	 1.60718946936645
248.0944139856 	 0.510869970541075
248.0955568398 	 0.646977663422456
249.099558943 	 0.492225081105269
249.1022390177 	 2.07331170526159
249.1033818719 	 0.620874818212328
254.0924026129 	 0.564940149904911
257.0682588146 	 1.22683372487601
259.0839088788 	 3.0409814669799
259.0877318077 	 1.69295596077115
260.0580284793 	 14.6623410523176
260.0591713335 	 7.4728716858709
261.099558943 	 3.60032815005407
261.1022390177 	 9.77738002013648
261.1033818719 	 9.15464071298057
270.1162922819 	 0.475444680613044
278.0685931656 	 0.75884700003729
282.1237027413 	 0.591042995115039
285.0921484836 	 0.466122235895141
285.099558943 	 1.49532013275161
285.1033818719 	 1.00495954058992
287.0815035756 	 2.53011149643883
287.0826464298 	 1.05716523101018
295.124117314 	 0.514598948428236
298.1073839751 	 3.91169780363202
298.111206904 	 2.7818175038222
299.0826464298 	 0.469851213782302
302.1261080445 	 1.73583920647351
302.1299309734 	 1.49345564380803
305.0920682619 	 3.52388410336727
305.0932111161 	 1.2566655479733
312.113138055 	 1.50837155535668
323.1264423955 	 1.74889062907857
323.1628279018 	 1.41887608606481
326.1061215261 	 0.467986724838722
327.1741415118 	 0.66002908602752
330.1237027413 	 0.425103479136369
338.1788925387 	 0.440019390685013
338.1863029981 	 0.980721184323377
341.1495831408 	 7.70593280381847
341.1534060697 	 1.76007756274005
343.1452466866 	 0.866987358764962
343.165233205 	 1.63515680352016
343.1690561339 	 1.47853973225939
358.1925312302 	 17.5858597158519
364.165567556 	 20.9177014580304
382.1761322423 	 1.67804004922251
384.1717957881 	 74.5795577432226
402.1823604744 	 100
END IONS

BEGIN IONS
PEPMASS=336.174
CHARGE=1
MSLEVEL=2
RT=0
SOURCE_INSTRUMENT=qTOF
FILENAME=CCMSLIB00000078161.ms
IONMODE=Positive
ORGANISM=Natural
NAME=Naratriptan HCl
PI=GNPS
DATACOLLECTOR=GNPS
SMILES=CNS(=O)(=O)CCc1ccc2c(c1)c(c[nH]2)C1CCN(C)CC1
INCHI=InChI=1S/C17H25N3O2S/c1-18-23(21,22)10-7-13-3-4-17-15(11-13)16(12-19-17)14-5-8-20(2)9-6-14/h3-4,11-12,14,18-19H,5-10H2,1-2H3
FORMULA=C17H25N3O2S
PUBMED=N/A
SUBMITUSER=BIOADREM
LIBRARYQUALITY=0
SPECTRUMID=CCMSLIB00000078161
SCANS=712
ID=CCMSLIB00000078161
96.0807752941 	 15.49
98.0964253583 	 100
130.0651252299 	 5.78
132.0807752941 	 6.14
142.0651252299 	 1.88
144.0807752941 	 10.67
145.0886003262 	 3.86
156.0807752941 	 4.3
158.0964253583 	 1.84
167.072950262 	 1.96
169.0886003262 	 3.38
170.0964253583 	 3.82
182.0964253583 	 5.26
184.1120754225 	 10.21
185.1199004546 	 3.84
195.1042503904 	 3.55
196.1080526771 	 2.94
197.1199004546 	 2.86
210.1277254867 	 29.83
211.1315277734 	 7.51
214.1464495561 	 3.72
227.084874394 	 29.68
227.1542745882 	 3.63
241.1699246524 	 48.26
246.1362788003 	 2.36
274.1675789287 	 2.34
277.1005244582 	 5.03
305.1318245866 	 7.79
336.1740237523 	 1227.59
END IONS

BEGIN IONS
PEPMASS=533.2279
CHARGE=1
MSLEVEL=2
RT=0
SOURCE_INSTRUMENT=qTOF
FILENAME=CCMSLIB00000078163.ms
IONMODE=Positive
ORGANISM=Natural
NAME=Ponatinib (AP24534)
PI=GNPS
DATACOLLECTOR=GNPS
SMILES=Cc1ccc(cc1C#Cc1cnc2cccnn12)C(=O)Nc1ccc(CN2CCN(C)CC2)c(c1)C(F)(F)F
INCHI=InChI=1S/C29H27F3N6O/c1-20-5-6-22(16-21(20)8-10-25-18-33-27-4-3-11-34-38(25)27)28(39)35-24-9-7-23(26(17-24)29(30,31)32)19-37-14-12-36(2)13-15-37/h3-7,9,11,16-18H,12-15,19H2,1-2H3,(H,35,39)
FORMULA=C29H27F3N6O
PUBMED=N/A
SUBMITUSER=BIOADREM
LIBRARYQUALITY=0
SPECTRUMID=CCMSLIB00000078163
SCANS=713
ID=CCMSLIB00000078163
153.0573001978 	 0.41
154.0651252299 	 0.54
178.0651252299 	 0.3
193.0634482082 	 0.23
205.0760242672 	 1.78
206.0775816941 	 0.34
208.0869233045 	 0.52
230.0712732403 	 0.57
231.0790982724 	 2.68
232.0869233045 	 8.49
236.080735921 	 1.26
260.0818379266 	 100
261.0833953535 	 17.79
264.0756505431 	 2.44
409.1144956654 	 0.22
433.1270717244 	 13.37
435.1301457296 	 0.69
533.22712012 	 65.83
END IONS

BEGIN IONS
PEPMASS=478.1853
CHARGE=1
MSLEVEL=2
RT=0
SOURCE_INSTRUMENT=qTOF
FILENAME=CCMSLIB00000078164.ms
IONMODE=Positive
ORGANISM=Natural
NAME=Pralatrexate(Folotyn)
PI=GNPS
DATACOLLECTOR=GNPS
SMILES=C#CCC(Cc1cnc2c(c(N)[nH]c(=N)n2)n1)c1ccc(cc1)C(=O)N[C@@H](CCC(=O)O)C(=O)O
INCHI=InChI=1S/C23H23N7O5/c1-2-3-14(10-15-11-26-20-18(27-15)19(24)29-23(25)30-20)12-4-6-13(7-5-12)21(33)28-16(22(34)35)8-9-17(31)32/h1,4-7,11,14,16H,3,8-10H2,(H,28,33)(H,31,32)(H,34,35)(H4,24,25,26,29,30)/t14?,16-/m0/s1
FORMULA=C23H23N7O5
PUBMED=N/A
SUBMITUSER=BIOADREM
LIBRARYQUALITY=0
SPECTRUMID=CCMSLIB00000078164
SCANS=714
ID=CCMSLIB00000078164
133.0495347452 	 0.79
135.0526087504 	 0.51
156.0556231761 	 1.23
162.0635077877 	 0.61
175.0740128945 	 100
177.086982884 	 2.64
260.1029672992 	 0.82
263.1012902775 	 0.79
264.1117953843 	 0.97
276.1243714433 	 3.34
277.1295164007 	 1.05
288.0978819213 	 0.43
291.0962048996 	 0.59
292.1067100064 	 0.5
303.1352704806 	 1.77
304.1192860654 	 17.71
305.1244310228 	 4.82
310.1172746927 	 0.83
321.1458351669 	 1.28
322.1298507517 	 7.06
330.1461695179 	 0.44
331.1301851027 	 20.2
332.1353300601 	 4.59
348.1567342042 	 0.56
349.140749789 	 13.93
350.1458947464 	 3.4
394.1622135126 	 0.61
405.1669645395 	 0.42
432.1778635768 	 1.36
433.1856886089 	 0.52
438.1520427568 	 1.02
451.1724438479 	 1.82
460.1727781989 	 1.9
478.1833428852 	 165.91
END IONS

BEGIN IONS
PEPMASS=368.047
CHARGE=1
MSLEVEL=2
RT=0
SOURCE_INSTRUMENT=qTOF
FILENAME=CCMSLIB00000078165.ms
IONMODE=Positive
ORGANISM=Natural
NAME=Cefaclor (Ceclor)
PI=GNPS
DATACOLLECTOR=GNPS
SMILES=c1ccc(cc1)[C@H](C(=N[C@@H]1C(=O)N2C(=C(CS[C@H]12)Cl)C(=O)O)O)N
INCHI=InChI=1S/C15H14ClN3O4S/c16-8-6-24-14-10(13(21)19(14)11(8)15(22)23)18-12(20)9(17)7-4-2-1-3-5-7/h1-5,9-10,14H,6,17H2,(H,18,20)(H,22,23)/t9-,10-,14-/m1/s1
FORMULA=C15H14ClN3O4S
PUBMED=N/A
SUBMITUSER=BIOADREM
LIBRARYQUALITY=0
SPECTRUMID=CCMSLIB00000078165
SCANS=715
ID=CCMSLIB00000078165
74.0184718505 	 1.42
91.0542261926 	 1.335
106.0651252299 	 18.46
106.0684960483 	 27.96
114.0008104136 	 2.06
116.0528459841 	 2.29
118.0413157826 	 17.265
118.041802972 	 5.625
118.0624451552 	 7.415
118.0651252299 	 2.84
119.072950262 	 2.985
123.0262968826 	 5.58
127.0086354457 	 2.785
128.0528459841 	 1.8
128.0706045383 	 1.335
131.0763210804 	 2.685
135.0651848094 	 2.39
143.97612871 	 1.595
145.0793950856 	 1.8
146.0151010321 	 1.365
146.060039852 	 4.145
150.0371959199 	 4.61
151.045020952 	 2.29
159.9618380915 	 6.245
163.0865889535 	 2
163.9926510305 	 2.44
164.0528459841 	 3.485
165.0573001978 	 1.45
174.0549544741 	 100
175.057597011 	 13.085
176.0402699251 	 1.42
177.9724027778 	 12.005
178.032110542 	 5.45
179.9721059646 	 1.885
191.0372554994 	 12.585
191.0399355741 	 14.82
191.0815035756 	 14.5
192.0477606062 	 28.435
193.0522148199 	 2.235
194.0508346114 	 2.35
198.0350030346 	 1.42
204.9799309967 	 2.835
205.031776191 	 2.735
205.0369586862 	 1.45
205.9877560288 	 1.855
207.0586596435 	 2.96
221.0509874498 	 2.685
225.0459020719 	 1.74
225.0579909415 	 2.44
235.0535742656 	 1.42
236.0580284793 	 1.51
260.0791578519 	 1.39
305.0033685552 	 1.42
305.9986175283 	 2.44
310.0173415977 	 1.42
323.0251666298 	 3.22
324.0329916619 	 1.365
340.0517157313 	 2.685
368.0466303534 	 2.725
END IONS

BEGIN IONS
PEPMASS=393.2064
CHARGE=1
MSLEVEL=2
RT=0
SOURCE_INSTRUMENT=qTOF
FILENAME=CCMSLIB00000078166.ms
IONMODE=Positive
ORGANISM=Natural
NAME=Betamethasone (Celestone)
PI=GNPS
DATACOLLECTOR=GNPS
SMILES=C[C@H]1C[C@H]2[C@@H]3CCC4=CC(=O)C=C[C@]4(C)[C@@]3([C@@H](C[C@]2(C)[C@@]1(C(=O)CO)O)O)F
INCHI=InChI=1S/C22H29FO5/c1-12-8-16-15-5-4-13-9-14(25)6-7-19(13,2)21(15,23)17(26)10-20(16,3)22(12,28)18(27)11-24/h6-7,9,12,15-17,24,26,28H,4-5,8,10-11H2,1-3H3/t12-,15-,16-,17+,19-,20-,21+,22+/m0/s1
FORMULA=C22H29FO5
PUBMED=N/A
SUBMITUSER=BIOADREM
LIBRARYQUALITY=0
SPECTRUMID=CCMSLIB00000078166
SCANS=716
ID=CCMSLIB00000078166
119.085526321 	 7.99
121.0647908789 	 11.75
135.0804409431 	 9.51
137.0960910073 	 4.81
145.1011763852 	 4.48
147.0804409431 	 34.96
149.0960910073 	 6.78
159.0815837973 	 9.76
161.0960910073 	 9.29
171.0815837973 	 20.08
173.0960910073 	 18.13
177.0910056294 	 5.96
185.0972338615 	 11.09
197.0972338615 	 5.81
199.1117410715 	 6.25
209.0972338615 	 6.57
211.1128839257 	 9.91
213.1273911357 	 8.39
215.1066556936 	 13.26
221.0960910073 	 4.89
222.1039160394 	 4.65
223.1128839257 	 11.43
225.1273911357 	 4.62
235.1128839257 	 7.35
237.1285339899 	 16.35
239.1430411999 	 12.66
248.1195661036 	 6.03
249.1273911357 	 5.62
251.1441840541 	 7.05
253.1598341183 	 7.51
263.1430411999 	 13.45
264.150866232 	 4.99
277.1586912641 	 17.72
278.1665162962 	 11.94
279.1754841825 	 53.49
291.1743413283 	 20.85
295.1692559504 	 7.64
297.1860488688 	 12.69
301.1586912641 	 7.61
307.1703988046 	 10.35
309.1849060146 	 16.86
310.1927310467 	 5.65
311.1641705725 	 14.25
319.1692559504 	 19.48
325.1809634909 	 5.9
327.1954707009 	 10.64
337.1798206367 	 41.09
355.190385323 	 100
373.2009500093 	 69.66
393.2071782414 	 3.48
END IONS

BEGIN IONS
PEPMASS=255.1087
CHARGE=1
MSLEVEL=2
RT=0
SOURCE_INSTRUMENT=qTOF
FILENAME=CCMSLIB00000078168.ms
IONMODE=Positive
ORGANISM=Natural
NAME=Dyphylline (Dilor)
PI=GNPS
DATACOLLECTOR=GNPS
SMILES=Cn1c2c(c(=O)n(C)c1=O)n(CC(CO)O)cn2
INCHI=InChI=1S/C10H14N4O4/c1-12-8-7(9(17)13(2)10(12)18)14(5-11-8)3-6(16)4-15/h5-6,15-16H,3-4H2,1-2H3
FORMULA=C10H14N4O4
PUBMED=N/A
SUBMITUSER=BIOADREM
LIBRARYQUALITY=0
SPECTRUMID=CCMSLIB00000078168
SCANS=718
ID=CCMSLIB00000078168
71.0127553084 	 1.505
91.0290740746 	 0.675
96.0556231761 	 2.215
97.0396387609 	 1.505
112.0631138572 	 1.395
124.0505377982 	 42.605
136.0743472455 	 2.33
136.0882659752 	 0.61
137.0835149483 	 1.35
143.0815035756 	 1.935
163.0991650125 	 0.585
181.0720015218 	 100
237.0982162723 	 1.13
255.1087809586 	 56.97
END IONS

BEGIN IONS
PEPMASS=458.04
CHARGE=1
MSLEVEL=2
RT=0
SOURCE_INSTRUMENT=qTOF
FILENAME=CCMSLIB00000078169.ms
IONMODE=Positive
ORGANISM=Natural
NAME=Aztreonam (Azactam, Cayston)
PI=GNPS
DATACOLLECTOR=GNPS
SMILES=C[C@@H]1[C@@H](C(=O)N1S(=O)(=O)O)N=C(/C(=N\OC(C)(C)C(=O)O)/c1csc(=N)[nH]1)O
INCHI=InChI=1S/C13H17N5O8S2/c1-5-7(10(20)18(5)28(23,24)25)16-9(19)8(6-4-27-12(14)15-6)17-26-13(2,3)11(21)22/h4-5,7H,1-3H3,(H2,14,15)(H,16,19)(H,21,22)(H,23,24,25)/b17-8-/t5-,7+/m1/s1
FORMULA=C13H17N5O8S2
PUBMED=N/A
SUBMITUSER=BIOADREM
LIBRARYQUALITY=0
SPECTRUMID=CCMSLIB00000078169
SCANS=719
ID=CCMSLIB00000078169
116.0290365368 	 1.03918228279387
124.0518804689 	 0.638841567291312
125.0042187698 	 1.10732538330494
126.0120438019 	 4.06303236797274
126.0133864726 	 9.6252129471891
127.019868834 	 4.20783645655877
127.0212115047 	 3.48381601362862
132.0417097131 	 1.0732538330494
138.0133864726 	 1.85689948892675
138.9960593867 	 0.766609880749574
142.006958424 	 3.90971039182283
152.0276938661 	 0.8603066439523
154.0083010947 	 0.630323679727428
155.0147834561 	 1.26064735945486
156.0239511589 	 1.47359454855196
159.0348501962 	 1.15843270868825
166.0307678713 	 4.39522998296423
171.0335075255 	 0.843270868824532
181.0178574613 	 1.95059625212947
182.0256824934 	 5.19591141396934
183.0335075255 	 10.8347529812606
183.0348501962 	 1.86541737649063
199.0284221476 	 7.5809199318569
200.0301962866 	 1.0732538330494
201.0454148825 	 0.996592844974446
206.0533370319 	 0.996592844974446
209.0127720834 	 15.7666098807496
209.0491575897 	 3.2793867120954
210.0205971155 	 57.8109028960818
211.0223712545 	 3.56047700170358
212.0137804031 	 1.69505962521295
226.0094608445 	 1.47359454855196
227.0233367697 	 13.015332197615
228.0251109087 	 2.89608177172061
253.0389868339 	 0.885860306643952
268.0624619302 	 1.78023850085179
269.0702869623 	 1.8824531516184
270.0655359354 	 2.37649063032368
270.0668786061 	 10.3747870528109
271.0673100744 	 2.77683134582623
285.0652015844 	 2.66609880749574
286.0492171692 	 0.579216354344123
313.0601162065 	 91.8057921635434
314.0618903455 	 2.46166950596252
315.0571393186 	 1.1839863713799
315.0631902117 	 5.01703577512777
328.1074007501 	 0.996592844974446
356.1023153722 	 100
357.1040895112 	 18.0408858603066
436.0591299285 	 18.4071550255537
END IONS

BEGIN IONS
PEPMASS=369.2384
CHARGE=1
MSLEVEL=2
RT=0
SOURCE_INSTRUMENT=qTOF
FILENAME=CCMSLIB00000078171.ms
IONMODE=Positive
ORGANISM=Natural
NAME=Perindopril Erbumine (Aceon)
PI=GNPS
DATACOLLECTOR=GNPS
SMILES=CCCC(C(=O)OCC)N[C@@H](C)C(=O)N1[C@H]2CCCC[C@H]2C[C@@H]1C(=O)O
INCHI=InChI=1S/C19H32N2O5/c1-4-8-14(19(25)26-5-2)20-12(3)17(22)21-15-10-7-6-9-13(15)11-16(21)18(23)24/h12-16,20H,4-11H2,1-3H3,(H,23,24)/t12-,13-,14?,15-,16+/m0/s1
FORMULA=C19H32N2O5
PUBMED=N/A
SUBMITUSER=BIOADREM
LIBRARYQUALITY=0
SPECTRUMID=CCMSLIB00000078171
SCANS=721
ID=CCMSLIB00000078171
98.0964253583 	 2.18404718366085
124.1120754225 	 0.267854843279161
144.1019046667 	 2.40296700749478
151.1481265778 	 1.11520333788343
152.1069900446 	 0.0553738377932882
168.1019046667 	 1.22079995879156
170.1175547309 	 12.5441059056842
172.1332047951 	 6.29330105339068
173.1410298272 	 1.06240502742937
218.1386841035 	 12.8776366961135
225.1359444493 	 1.14224637494527
262.203964435 	 1.06240502742937
295.2016187113 	 2.59098050325804
368.230573116 	 1.85824297524918
369.2383981481 	 100
END IONS

BEGIN IONS
PEPMASS=320.1424
CHARGE=1
MSLEVEL=2
RT=0
SOURCE_INSTRUMENT=qTOF
FILENAME=CCMSLIB00000078175.ms
IONMODE=Positive
ORGANISM=Natural
NAME=Norfloxacin (Norxacin)
PI=GNPS
DATACOLLECTOR=GNPS
SMILES=CCn1cc(c(=O)c2cc(c(cc12)N1CCNCC1)F)C(=O)O
INCHI=InChI=1S/C16H18FN3O3/c1-2-19-9-11(16(22)23)15(21)10-7-12(17)14(8-13(10)19)20-5-3-18-4-6-20/h7-9,18H,2-6H2,1H3,(H,22,23)
FORMULA=C16H18FN3O3
PUBMED=N/A
SUBMITUSER=BIOADREM
LIBRARYQUALITY=0
SPECTRUMID=CCMSLIB00000078175
SCANS=724
ID=CCMSLIB00000078175
163.0666024351 	 1.95
176.0744274672 	 1.98
177.0822524993 	 1.45
185.0709388893 	 2.42
203.0615170572 	 7.93
204.0693420893 	 10.57
205.0771671214 	 26.5
207.0928171856 	 2.51
213.1022390177 	 2.13
215.0979025635 	 2.93
218.0849921535 	 3.01
219.0928171856 	 12.85
226.0974879908 	 1.64
228.113138055 	 1.86
230.0849921535 	 1.17
233.1084672498 	 63.95
241.1209630871 	 0.97
245.1084672498 	 1.23
254.1287881192 	 1.34
256.1444381834 	 9.28
274.1350163513 	 3.5
276.1506664155 	 100
282.1237027413 	 3.61
300.1342674276 	 1.44
302.1299309734 	 31.81
320.1404956597 	 290.04
END IONS

BEGIN IONS
PEPMASS=666.312
CHARGE=1
MSLEVEL=2
RT=0
SOURCE_INSTRUMENT=qTOF
FILENAME=CCMSLIB00000078178.ms
IONMODE=Positive
ORGANISM=Natural
NAME=Natamycin (Pimaricin)
PI=GNPS
DATACOLLECTOR=GNPS
SMILES=C[C@@H]1CC=CC=CC=CC=C[C@@H](C[C@H]2[C@@H]([C@H](C[C@](C[C@H](C[C@@H]3[C@@H](C=CC(=O)O1)O3)O)(O)O2)O)C(=O)O)O[C@H]1[C@@H]([C@H]([C@@H]([C@@H](C)O1)O)N)O
INCHI=InChI=1S/C33H47NO13/c1-18-10-8-6-4-3-5-7-9-11-21(45-32-30(39)28(34)29(38)19(2)44-32)15-25-27(31(40)41)22(36)17-33(42,47-25)16-20(35)14-24-23(46-24)12-13-26(37)43-18/h3-9,11-13,18-25,27-30,32,35-36,38-39,42H,10,14-17,34H2,1-2H3,(H,40,41)/b4-3+,7-5+,8-6+,11-9+,13-12+/t18-,19-,20+,21+,22+,23-,24-,25+,27-,28+,29-,30-,32+,33-/m1/s1
FORMULA=C33H47NO13
PUBMED=N/A
SUBMITUSER=BIOADREM
LIBRARYQUALITY=0
SPECTRUMID=CCMSLIB00000078178
SCANS=725
ID=CCMSLIB00000078178
95.0491408147 	 5.48
113.0233199947 	 5.3
129.0698762568 	 5.13
131.085526321 	 7.87
137.059705501 	 6.62
139.0389700589 	 7.33
141.0698762568 	 5.6
143.085526321 	 11.32
145.1011763852 	 16.21
155.085526321 	 8.28
157.0495347452 	 13.83
157.1011763852 	 15.2
159.1168264494 	 6.26
161.059705501 	 4.53
173.1324765136 	 9.06
181.0495347452 	 5.66
183.0804409431 	 5.36
183.1168264494 	 7.57
185.1324765136 	 13.05
193.1011763852 	 8.58
197.0960910073 	 7.03
201.1273911357 	 9.42
205.0859202515 	 4.65
225.0757494957 	 7.51
225.1273911357 	 7.69
243.137955822 	 12.46
345.1696498809 	 4.77
371.1852999451 	 6.44
421.2009500093 	 4.71
424.2244251056 	 6.14
431.1852999451 	 9
442.2349897919 	 4.95
449.1958646314 	 29.5
467.2064293177 	 38.92
485.216994004 	 57.39
486.2248190361 	 15.73
487.2200680092 	 10.07
503.2275586903 	 100
504.2353837224 	 26.04
648.3014519149 	 9.71
666.3120166012 	 0
END IONS

BEGIN IONS
PEPMASS=779.4008
CHARGE=1
MSLEVEL=2
RT=0
SOURCE_INSTRUMENT=qTOF
FILENAME=CCMSLIB00000078180.ms
IONMODE=Positive
ORGANISM=Natural
NAME=Vinorelbine (Navelbine)
PI=GNPS
DATACOLLECTOR=GNPS
SMILES=CCC1=C[C@H]2C[C@](c3cc4c(cc3OC)N(C)[C@@H]3[C@]54CCN4CC=C[C@](CC)([C@H]54)[C@H]([C@@]3(C(=O)OC)O)OC(=O)C)(c3c(CN(C1)C2)c1ccccc1[nH]3)C(=O)OC
INCHI=InChI=1S/C45H54N4O8/c1-8-27-19-28-22-44(40(51)55-6,36-30(25-48(23-27)24-28)29-13-10-11-14-33(29)46-36)32-20-31-34(21-35(32)54-5)47(4)38-43(31)16-18-49-17-12-15-42(9-2,37(43)49)39(57-26(3)50)45(38,53)41(52)56-7/h10-15,19-21,28,37-39,46,53H,8-9,16-18,22-25H2,1-7H3/t28-,37+,38+,39+,42+,43-,44-,45-/m0/s1
FORMULA=C45H54N4O8
PUBMED=N/A
SUBMITUSER=BIOADREM
LIBRARYQUALITY=0
SPECTRUMID=CCMSLIB00000078180
SCANS=726
ID=CCMSLIB00000078180
122.0964253583 	 74.03
156.0807752941 	 10.82
167.0702701873 	 11.72
188.1069900446 	 27.5
214.0862546025 	 51.49
222.112469353 	 11.63
240.099224592 	 16.59
246.112469353 	 14.88
258.1097892783 	 28.31
263.1542745882 	 12.26
291.1491892103 	 29.31
292.1570142424 	 19.21
306.1488548593 	 14.43
323.1754039608 	 73.94
324.1805489182 	 24.08
347.1754039608 	 14.07
357.1597538966 	 28.49
358.1590256151 	 13.89
379.2016187113 	 53.38
380.2067636687 	 12.98
385.1586912641 	 12.62
387.1676385082 	 11.36
389.1859686471 	 49.68
390.1812176202 	 27.14
457.2333127702 	 72.32
458.2352645634 	 17.49
467.2203427807 	 12.17
469.2333127702 	 34.81
470.2352645634 	 11.36
478.2462231802 	 14.43
508.2594679412 	 13.17
510.2724379307 	 100
511.2743897239 	 48.42
512.282214756 	 20.02
527.2329188397 	 15.87
566.268969995 	 34.36
567.2642189681 	 15.69
589.3060837828 	 11.18
598.2911620001 	 34.81
599.2904337186 	 17.67
617.3486172995 	 35.08
626.2860766222 	 39.22
627.2853483407 	 14.07
658.3122913727 	 52.66
659.3227964795 	 24.62
701.3697466721 	 16.77
719.3803113584 	 52.39
761.3908760447 	 17.31
779.401440731 	 753.02
END IONS

BEGIN IONS
PEPMASS=680.413
CHARGE=1
MSLEVEL=2
RT=0
SOURCE_INSTRUMENT=qTOF
FILENAME=CCMSLIB00000078181.ms
IONMODE=Positive
ORGANISM=Natural
NAME=Telaprevir (VX-950)
PI=GNPS
DATACOLLECTOR=GNPS
SMILES=CCC[C@@H](C(=O)C(=O)NC1CC1)N=C([C@H]1[C@H]2CCC[C@H]2CN1C(=O)[C@H](C(C)(C)C)N=C([C@H](C1CCCCC1)N=C(c1cnccn1)O)O)O
INCHI=InChI=1S/C36H53N7O6/c1-5-10-25(29(44)34(48)39-23-15-16-23)40-33(47)28-24-14-9-13-22(24)20-43(28)35(49)30(36(2,3)4)42-32(46)27(21-11-7-6-8-12-21)41-31(45)26-19-37-17-18-38-26/h17-19,21-25,27-28,30H,5-16,20H2,1-4H3,(H,39,48)(H,40,47)(H,41,45)(H,42,46)/t22-,24-,25-,27-,28+,30+/m0/s1
FORMULA=C36H53N7O6
PUBMED=N/A
SUBMITUSER=BIOADREM
LIBRARYQUALITY=0
SPECTRUMID=CCMSLIB00000078181
SCANS=727
ID=CCMSLIB00000078181
110.0964253583 	 13.06
124.0518804689 	 0.32
193.1699246524 	 1.83
218.1301307899 	 4.18
219.1339330766 	 0.24
221.1648392745 	 1.68
246.125045412 	 1.28
247.1288476987 	 0.52
276.2070384402 	 0.24
304.2019530623 	 1.44
305.2070980197 	 0.46
322.2125177486 	 100
323.217662706 	 19.2
324.2182718285 	 2.19
331.2141947703 	 0.41
359.2091093924 	 1.47
435.2925589836 	 0.37
497.2870796752 	 0.25
680.4130084703 	 0.85
END IONS

BEGIN IONS
PEPMASS=406.1824
CHARGE=1
MSLEVEL=2
RT=0
SOURCE_INSTRUMENT=qTOF
FILENAME=CCMSLIB00000078185.ms
IONMODE=Positive
ORGANISM=Natural
NAME=Nebivolol (Bystolic)
PI=GNPS
DATACOLLECTOR=GNPS
SMILES=C1C[C@H]([C@@H](CNC[C@H]([C@@H]2CCc3cc(ccc3O2)F)O)O)Oc2ccc(cc12)F
INCHI=InChI=1S/C22H25F2NO4/c23-15-3-7-19-13(9-15)1-5-21(28-19)17(26)11-25-12-18(27)22-6-2-14-10-16(24)4-8-20(14)29-22/h3-4,7-10,17-18,21-22,25-27H,1-2,5-6,11-12H2/t17-,18-,21-,22+/m1/s1
FORMULA=C22H25F2NO4
PUBMED=N/A
SUBMITUSER=BIOADREM
LIBRARYQUALITY=0
SPECTRUMID=CCMSLIB00000078185
SCANS=729
ID=CCMSLIB00000078185
103.0542261926 	 3.73
109.0448043605 	 0.62
121.0448043605 	 0.28
123.0604544247 	 13.11
125.0397189826 	 2.5
133.0448043605 	 1.27
137.0397189826 	 2
139.0553690468 	 1.11
147.0604544247 	 0.39
149.0397189826 	 1.75
149.0761044889 	 1.53
151.0553690468 	 100
162.0475440147 	 1
163.0553690468 	 0.79
165.071019111 	 3.05
177.071019111 	 4.35
179.0866691752 	 0.7
194.0975682125 	 0.52
206.0975682125 	 1.48
208.1132182767 	 2.42
212.1081328988 	 0.76
224.1081328988 	 1.63
238.123782963 	 1.61
264.1394330272 	 1.04
282.1499977135 	 1.56
388.1718760098 	 2.93
406.1824406961 	 150.36
END IONS

BEGIN IONS
PEPMASS=335.1522
CHARGE=1
MSLEVEL=2
RT=0
SOURCE_INSTRUMENT=qTOF
FILENAME=CCMSLIB00000078186.ms
IONMODE=Positive
ORGANISM=Natural
NAME=Pimobendan (Vetmedin)
PI=GNPS
DATACOLLECTOR=GNPS
SMILES=CC1CC(=NN=C1c1ccc2c(c1)nc(c1ccc(cc1)OC)[nH]2)O
INCHI=InChI=1S/C19H18N4O2/c1-11-9-17(24)22-23-18(11)13-5-8-15-16(10-13)21-19(20-15)12-3-6-14(25-2)7-4-12/h3-8,10-11H,9H2,1-2H3,(H,20,21)(H,22,24)
FORMULA=C19H18N4O2
PUBMED=N/A
SUBMITUSER=BIOADREM
LIBRARYQUALITY=0
SPECTRUMID=CCMSLIB00000078186
SCANS=730
ID=CCMSLIB00000078186
207.0790982724 	 1.24
220.0994993635 	 0.75
221.1073243956 	 1.2
222.0787639214 	 0.56
222.1025733687 	 0.48
235.0740128945 	 1.15
238.1100640498 	 0.88
248.0944139856 	 0.62
249.1022390177 	 12.07
250.0974879908 	 23.45
263.1178890819 	 5.56
264.125714114 	 1.99
279.1491892103 	 1.27
290.1287881192 	 1.42
291.1240370923 	 11.46
292.1318621244 	 12.16
318.1237027413 	 1.79
319.1189517144 	 100
320.1267767465 	 52.75
335.1502518428 	 437.19
END IONS

BEGIN IONS
PEPMASS=274.0813
CHARGE=1
MSLEVEL=2
RT=0
SOURCE_INSTRUMENT=qTOF
FILENAME=CCMSLIB00000078187.ms
IONMODE=Positive
ORGANISM=Natural
NAME=Pomalidomide
PI=GNPS
DATACOLLECTOR=GNPS
SMILES=c1cc2c(c(c1)N)C(=O)N(C1CCC(=NC1=O)O)C2=O
INCHI=InChI=1S/C13H11N3O4/c14-7-3-1-2-6-10(7)13(20)16(12(6)19)8-4-5-9(17)15-11(8)18/h1-3,8H,4-5,14H2,(H,15,17,18)
FORMULA=C13H11N3O4
PUBMED=N/A
SUBMITUSER=BIOADREM
LIBRARYQUALITY=0
SPECTRUMID=CCMSLIB00000078187
SCANS=731
ID=CCMSLIB00000078187
145.0396387609 	 11.71
146.047463793 	 1.22
156.0443897878 	 1.41
157.0760242672 	 1.35
163.0502034472 	 15.43
175.0502034472 	 1.25
183.0552888251 	 1.64
184.0393044099 	 2.39
185.0709388893 	 1.3
201.0658535114 	 100
229.0607681335 	 12.02
230.0924026129 	 2.89
246.087317235 	 12.49
274.0822318571 	 16.87
END IONS

BEGIN IONS
PEPMASS=352.1366
CHARGE=1
MSLEVEL=2
RT=0
SOURCE_INSTRUMENT=qTOF
FILENAME=CCMSLIB00000078188.ms
IONMODE=Positive
ORGANISM=Natural
NAME=Tazarotene (Avage)
PI=GNPS
DATACOLLECTOR=GNPS
SMILES=CCOC(=O)c1ccc(C#Cc2ccc3c(c2)C(C)(C)CCS3)nc1
INCHI=InChI=1S/C21H21NO2S/c1-4-24-20(23)16-7-9-17(22-14-16)8-5-15-6-10-19-18(13-15)21(2,3)11-12-25-19/h6-7,9-10,13-14H,4,11-12H2,1-3H3
FORMULA=C21H21NO2S
PUBMED=N/A
SUBMITUSER=BIOADREM
LIBRARYQUALITY=0
SPECTRUMID=CCMSLIB00000078188
SCANS=732
ID=CCMSLIB00000078188
254.0270251641 	 0.45
256.0426752283 	 0.35
268.0426752283 	 2.7
276.1019046667 	 2.06
280.0426752283 	 0.39
281.0505002604 	 0.47
282.0583252925 	 0.37
294.0583252925 	 20.5
296.0739753567 	 4.97
308.0739753567 	 2.2
309.0818003888 	 7.39
322.0896254209 	 0.9
324.1052754851 	 100
337.1131005172 	 0.25
352.1365756135 	 109.51
END IONS

BEGIN IONS
PEPMASS=399.0758
CHARGE=1
MSLEVEL=2
RT=0
SOURCE_INSTRUMENT=qTOF
FILENAME=CCMSLIB00000078189.ms
IONMODE=Positive
ORGANISM=Natural
NAME=Sulfasalazine (Azulfidine)
PI=GNPS
DATACOLLECTOR=GNPS
SMILES=c1ccnc(c1)NS(=O)(=O)c1ccc(cc1)/N=N/c1ccc(c(c1)C(=O)O)O
INCHI=InChI=1S/C18H14N4O5S/c23-16-9-6-13(11-15(16)18(24)25)21-20-12-4-7-14(8-5-12)28(26,27)22-17-3-1-2-10-19-17/h1-11,23H,(H,19,22)(H,24,25)/b21-20+
FORMULA=C18H14N4O5S
PUBMED=N/A
SUBMITUSER=BIOADREM
LIBRARYQUALITY=0
SPECTRUMID=CCMSLIB00000078189
SCANS=733
ID=CCMSLIB00000078189
119.0127553084 	 11.99
134.0236543457 	 2.36
137.0233199947 	 3.55
147.0189033188 	 11.77
155.060374203 	 1.11
157.0760242672 	 1.12
165.0294680051 	 10.51
167.060374203 	 2.1
168.0655191604 	 1.63
169.0760242672 	 2.68
170.047463793 	 0.85
185.0709388893 	 2.29
197.0709388893 	 0.84
199.0502034472 	 1.27
213.0658535114 	 12.98
223.0502034472 	 16.07
224.0553484046 	 5.76
225.0658535114 	 1.38
239.0451180693 	 6.95
241.0607681335 	 5.91
255.0400326914 	 7.25
257.0556827556 	 8.4
273.0505973777 	 10.61
287.0121033814 	 1.1
289.1057069534 	 0.99
305.0226680677 	 1.01
315.087651586 	 3.74
317.1006215755 	 6.01
333.0982162723 	 3.66
381.0652015844 	 100
399.0757662707 	 238.25
END IONS

BEGIN IONS
PEPMASS=441.1669
CHARGE=1
MSLEVEL=2
RT=0
SOURCE_INSTRUMENT=qTOF
FILENAME=CCMSLIB00000078190.ms
IONMODE=Positive
ORGANISM=Natural
NAME=Candesartan (Atacand)
PI=GNPS
DATACOLLECTOR=GNPS
SMILES=CCOc1nc2cccc(c2n1Cc1ccc(cc1)c1ccccc1c1n[nH]nn1)C(=O)O
INCHI=InChI=1S/C24H20N6O3/c1-2-33-24-25-20-9-5-8-19(23(31)32)21(20)30(24)14-15-10-12-16(13-11-15)17-6-3-4-7-18(17)22-26-28-29-27-22/h3-13H,2,14H2,1H3,(H,31,32)(H,26,27,28,29)
FORMULA=C24H20N6O3
PUBMED=N/A
SUBMITUSER=BIOADREM
LIBRARYQUALITY=0
SPECTRUMID=CCMSLIB00000078190
SCANS=734
ID=CCMSLIB00000078190
152.0620512247 	 2.94
153.0698762568 	 6.14
161.034553383 	 6.51
163.0542261926 	 1.78
165.0698762568 	 9.68
173.034553383 	 3.11
178.0777012889 	 14.32
179.0815035756 	 2.96
180.0807752941 	 25.34
189.0658535114 	 6.64
190.0651252299 	 22.25
191.0451180693 	 2.14
191.072950262 	 8.55
192.0807752941 	 28.7
193.0886003262 	 12.47
194.0964253583 	 17.17
205.0760242672 	 5.59
206.0838492993 	 17.75
207.0916743314 	 79.35
210.0913399804 	 13.68
218.0964253583 	 3.22
219.0916743314 	 3.72
220.0994993635 	 5.3
233.1073243956 	 1.92
234.1151494277 	 6.44
235.0991650125 	 27.96
235.1229744598 	 28.73
236.1029672992 	 3.46
263.1304651409 	 100
264.1342674276 	 38.22
265.1335391461 	 2.24
309.1022390177 	 4.37
310.1100640498 	 2.44
324.113138055 	 2.57
337.0971536398 	 2.68
338.1049786719 	 19.38
349.1083870281 	 4.43
350.0924026129 	 7.34
352.1080526771 	 18.72
367.1189517144 	 2.19
380.1393528055 	 7.55
395.1502518428 	 21.04
423.1563998532 	 98.57
441.1669645395 	 10.48
END IONS

BEGIN IONS
PEPMASS=309.1809
CHARGE=1
MSLEVEL=2
RT=0
SOURCE_INSTRUMENT=qTOF
FILENAME=CCMSLIB00000078191.ms
IONMODE=Positive
ORGANISM=Natural
NAME=Ubenimex (Bestatin)
PI=GNPS
DATACOLLECTOR=GNPS
SMILES=CC(C)C[C@@H](C(=O)O)N=C([C@H]([C@@H](Cc1ccccc1)N)O)O
INCHI=InChI=1S/C16H24N2O4/c1-10(2)8-13(16(21)22)18-15(20)14(19)12(17)9-11-6-4-3-5-7-11/h3-7,10,12-14,19H,8-9,17H2,1-2H3,(H,18,20)(H,21,22)/t12-,13+,14+/m1/s1
FORMULA=C16H24N2O4
PUBMED=N/A
SUBMITUSER=BIOADREM
LIBRARYQUALITY=0
SPECTRUMID=CCMSLIB00000078191
SCANS=735
ID=CCMSLIB00000078191
91.0542261926 	 0.384296378213989
93.0698762568 	 0.0967652750898534
102.0464011605 	 0.071882775781034
103.0542261926 	 2.42189659939176
105.0698762568 	 0.381531656068565
115.0542261926 	 0.552944429084877
117.0698762568 	 0.254354437379043
118.0651252299 	 0.152059717998341
119.072950262 	 0.0663533314901852
120.0807752941 	 55.2944429084877
126.0913399804 	 0.105059441526127
130.0862546025 	 0.124412496544097
132.0807752941 	 0.384296378213989
132.1019046667 	 2.18689521703069
133.0522148199 	 1.35471385125795
133.0647908789 	 1.28559579762234
134.0964253583 	 0.0691180536356096
144.1019046667 	 5.68979817528338
150.0913399804 	 1.94083494608792
172.0968192888 	 1.78877522808958
184.0994993635 	 1.80536356096212
185.0960910073 	 1.2137130218413
190.1073839751 	 4.61985070500415
196.0968192888 	 0.973182195189383
197.0960910073 	 1.18606580038706
200.1433755509 	 0.0746474979264584
228.138290173 	 0.204589438761404
246.1488548593 	 0.710533591374067
255.1491892103 	 2.4827204865911
263.1754039608 	 2.23113077135748
274.1437694814 	 0.691180536356096
291.1703185829 	 0.846004976499862
292.1543341677 	 0.705004147083218
309.1808832692 	 100
END IONS

BEGIN IONS
PEPMASS=460.1979
CHARGE=1
MSLEVEL=2
RT=0
SOURCE_INSTRUMENT=qTOF
FILENAME=CCMSLIB00000078193.ms
IONMODE=Positive
ORGANISM=Natural
NAME=Apixaban
PI=GNPS
DATACOLLECTOR=GNPS
SMILES=COc1ccc(cc1)n1c2c(CCN(c3ccc(cc3)N3CCCCC3=O)C2=O)c(C(=N)O)n1
INCHI=InChI=1S/C25H25N5O4/c1-34-19-11-9-18(10-12-19)30-23-20(22(27-30)24(26)32)13-15-29(25(23)33)17-7-5-16(6-8-17)28-14-3-2-4-21(28)31/h5-12H,2-4,13-15H2,1H3,(H2,26,32)
FORMULA=C25H25N5O4
PUBMED=N/A
SUBMITUSER=BIOADREM
LIBRARYQUALITY=0
SPECTRUMID=CCMSLIB00000078193
SCANS=737
ID=CCMSLIB00000078193
122.060039852 	 0.99
134.060039852 	 0.99
141.0573001978 	 1.31
156.0681992351 	 1.97
172.0756899162 	 4.25
184.0631138572 	 6.13
185.0709388893 	 9.15
197.0709388893 	 0.9
199.0865889535 	 100
200.0903912402 	 11.22
217.0971536398 	 0.72
225.0658535114 	 0.96
226.0974879908 	 1.43
227.0815035756 	 3.54
227.1178890819 	 1.97
228.0853058623 	 1.03
229.0971536398 	 0.89
236.1182234329 	 0.74
240.113138055 	 1.44
243.112803704 	 1.19
254.1287881192 	 3.63
255.1325904059 	 2.14
266.1287881192 	 1.18
282.1237027413 	 18.27
283.127505028 	 4.79
417.1921166575 	 1.21
443.1713812154 	 97.3
445.1744552206 	 5.84
460.1979303169 	 360.63
END IONS

BEGIN IONS
PEPMASS=559.23
CHARGE=1
MSLEVEL=2
RT=0
SOURCE_INSTRUMENT=qTOF
FILENAME=CCMSLIB00000078195.ms
IONMODE=Positive
ORGANISM=Natural
NAME=Olmesartan medoxomil (Benicar)
PI=GNPS
DATACOLLECTOR=GNPS
SMILES=CCCc1nc(c(C(=O)OCc2c(C)oc(=O)o2)n1Cc1ccc(cc1)c1ccccc1c1n[nH]nn1)C(C)(C)O
INCHI=InChI=1S/C29H30N6O6/c1-5-8-23-30-25(29(3,4)38)24(27(36)39-16-22-17(2)40-28(37)41-22)35(23)15-18-11-13-19(14-12-18)20-9-6-7-10-21(20)26-31-33-34-32-26/h6-7,9-14,38H,5,8,15-16H2,1-4H3,(H,31,32,33,34)
FORMULA=C29H30N6O6
PUBMED=N/A
SUBMITUSER=BIOADREM
LIBRARYQUALITY=0
SPECTRUMID=CCMSLIB00000078195
SCANS=739
ID=CCMSLIB00000078195
152.0620512247 	 1.3
153.0698762568 	 2.26
177.1022390177 	 19.48
178.0777012889 	 13.97
179.085526321 	 7.56
180.0807752941 	 16.74
190.0651252299 	 10.75
191.072950262 	 4.97
195.112803704 	 17.77
205.0760242672 	 2.18
205.1011763852 	 1.58
207.0916743314 	 100
213.1233683903 	 1.1
233.1073243956 	 4.59
235.0991650125 	 17.8
275.1178890819 	 14.63
307.127505028 	 0.8
383.1866373491 	 2.11
401.1972020354 	 5.36
411.1941280302 	 5.14
412.1979303169 	 1.82
429.2046927165 	 67.58
430.2084950032 	 40.35
431.2104467964 	 6.35
447.2152574028 	 36.37
448.2190596895 	 9.33
449.2210114827 	 1.44
451.2128520996 	 0.69
469.2234167859 	 1.13
513.2132460301 	 1.64
523.2088293542 	 0.9
541.2193940405 	 67.14
542.2272190726 	 40.91
559.2299587268 	 23.6
END IONS

BEGIN IONS
PEPMASS=345.115
CHARGE=1
MSLEVEL=2
RT=0
SOURCE_INSTRUMENT=qTOF
FILENAME=CCMSLIB00000078197.ms
IONMODE=Positive
ORGANISM=Natural
NAME=Clotrimazole (Canesten)
PI=GNPS
DATACOLLECTOR=GNPS
SMILES=c1ccc(cc1)C(c1ccccc1)(c1ccccc1Cl)n1ccnc1
INCHI=InChI=1S/C22H17ClN2/c23-21-14-8-7-13-20(21)22(25-16-15-24-17-25,18-9-3-1-4-10-18)19-11-5-2-6-12-19/h1-17H
FORMULA=C22H17ClN2
PUBMED=N/A
SUBMITUSER=BIOADREM
LIBRARYQUALITY=0
SPECTRUMID=CCMSLIB00000078197
SCANS=741
ID=CCMSLIB00000078197
139.0542261926 	 0.158736968552919
163.0542261926 	 0.115835085160239
164.0620512247 	 0.480501093998026
165.0698762568 	 92.0030889356043
199.0309039347 	 14.114719636192
215.085526321 	 1.92629456433137
226.0777012889 	 1.16693122828092
227.085526321 	 0.300313183748767
241.1011763852 	 31.3741473250676
242.1090014173 	 30.3874040070359
262.054379031 	 1.21841348835214
277.0778541273 	 100
345.1153022661 	 0
345.1171321262 	 0.0514822600712171
END IONS

BEGIN IONS
PEPMASS=270.1715
CHARGE=1
MSLEVEL=2
RT=0
SOURCE_INSTRUMENT=qTOF
FILENAME=CCMSLIB00000078198.ms
IONMODE=Positive
ORGANISM=Natural
NAME=Rizatriptan Benzoate (Maxalt)
PI=GNPS
DATACOLLECTOR=GNPS
SMILES=CN(C)CCc1c[nH]c2ccc(cc12)Cn1cncn1
INCHI=InChI=1S/C15H19N5/c1-19(2)6-5-13-8-17-15-4-3-12(7-14(13)15)9-20-11-16-10-18-20/h3-4,7-8,10-11,17H,5-6,9H2,1-2H3
FORMULA=C15H19N5
PUBMED=N/A
SUBMITUSER=BIOADREM
LIBRARYQUALITY=0
SPECTRUMID=CCMSLIB00000078198
SCANS=742
ID=CCMSLIB00000078198
115.0542261926 	 0.275
129.0698762568 	 0.12
130.0651252299 	 0.275
131.085526321 	 0.265
141.0698762568 	 0.29
143.072950262 	 2.32
156.0807752941 	 10.205
158.0964253583 	 33.445
201.138624524 	 100
270.1713216359 	 7.485
END IONS

BEGIN IONS
PEPMASS=646.15
CHARGE=1
MSLEVEL=2
RT=0
SOURCE_INSTRUMENT=qTOF
FILENAME=CCMSLIB00000078200.ms
IONMODE=Positive
ORGANISM=Natural
NAME=Cefoperazone (Cefobid)
PI=GNPS
DATACOLLECTOR=GNPS
SMILES=CCN1CCN(C(=O)C1=O)C(=N[C@H](c1ccc(cc1)O)C(=N[C@@H]1C(=O)N2C(=C(CS[C@H]12)CSc1nnnn1C)C(=O)O)O)O
INCHI=InChI=1S/C25H27N9O8S2/c1-3-32-8-9-33(21(39)20(32)38)24(42)27-15(12-4-6-14(35)7-5-12)18(36)26-16-19(37)34-17(23(40)41)13(10-43-22(16)34)11-44-25-28-29-30-31(25)2/h4-7,15-16,22,35H,3,8-11H2,1-2H3,(H,26,36)(H,27,42)(H,40,41)/t15-,16-,22-/m1/s1
FORMULA=C25H27N9O8S2
PUBMED=N/A
SUBMITUSER=BIOADREM
LIBRARYQUALITY=0
SPECTRUMID=CCMSLIB00000078200
SCANS=744
ID=CCMSLIB00000078200
115.0502034472 	 1.00868796937123
126.0549544741 	 1.89221027830953
140.0706045383 	 2.07627742600501
141.0480949572 	 1.00868796937123
143.0815035756 	 100
144.0841461125 	 2.62847886909144
148.0393044099 	 22.2426741275217
152.0164604778 	 2.88617287586512
156.0113750999 	 16.654395523487
158.0218426689 	 1.68605507289059
158.0270251641 	 2.45177440730378
170.0270251641 	 2.83463407451038
185.0379242014 	 1.12649094389633
186.087317235 	 7.2964217346488
209.110695214 	 1.42836106611692
223.0171887593 	 1.62715358562804
237.0903537024 	 1.91429833603299
237.1233683903 	 1.42836106611692
245.0743097077 	 0.912973052569577
251.084874394 	 1.50198792519511
257.071629633 	 3.64452952437049
266.0230024187 	 0.89088499484612
268.1291820497 	 1.70814313061405
273.0640418346 	 2.48858783684288
290.1135319855 	 16.8310999852746
291.1161745224 	 3.62244146664703
297.1015870907 	 4.59431600647916
301.0641389519 	 5.47047562950965
301.1216538308 	 3.25430717125607
302.0607305957 	 1.50198792519511
316.0750379892 	 2.4591370932116
318.1084466076 	 7.62774260050066
319.1110891445 	 1.6124282138124
322.1008588092 	 1.64187895744368
323.0736410057 	 2.48858783684288
334.1015495529 	 1.42836106611692
343.1070663991 	 2.07627742600501
344.0699526113 	 7.1049919010455
345.0539681961 	 2.60639081136799
345.1193456449 	 2.83463407451038
346.1219881818 	 0.986599911647769
360.0596847382 	 4.21881902518039
360.0648672334 	 2.43704903548815
366.0828254835 	 1.52407598291857
375.1299103312 	 4.75629509645119
388.0597818555 	 11.6477691061699
389.0610817217 	 3.62244146664703
390.0655359354 	 2.35605949050214
402.125730889 	 1.54616404064203
411.1042892071 	 1.59034015608894
440.1274674902 	 0.427035782653512
440.1512769375 	 1.42836106611692
442.1431175544 	 1.73023118833751
458.1393748472 	 1.66396701516713
468.1223821123 	 0.485937269916065
468.1336155006 	 2.74628184361655
486.1329467986 	 0.44176115446915
486.1441801869 	 13.5694301281107
487.1454800531 	 1.77440730378442
502.139094809 	 1.69341775879841
504.0754486947 	 73.6268590781917
510.1554135752 	 1.47989986747165
512.1234447448 	 0.500662641731704
528.1356436483 	 1.82594610513915
530.1340094311 	 40.2223531144161
531.1353092973 	 11.3532616698572
532.1332436118 	 1.68605507289059
646.1496762703 	 20.6302459137093
END IONS

BEGIN IONS
PEPMASS=518.2232
CHARGE=1
MSLEVEL=2
RT=0
SOURCE_INSTRUMENT=qTOF
FILENAME=CCMSLIB00000078202.ms
IONMODE=Positive
ORGANISM=Natural
NAME=Silodosin (Rapaflo)
PI=GNPS
DATACOLLECTOR=GNPS
SMILES=C[C@H](Cc1cc2CCN(CCCO)c2c(c1)C(=N)O)NCCOc1ccccc1OCC(F)(F)F
INCHI=InChI=1S/C25H32F3N3O4/c1-17(30-8-12-34-21-5-2-3-6-22(21)35-16-25(26,27)28)13-18-14-19-7-10-31(9-4-11-32)23(19)20(15-18)24(29)33/h2-3,5-6,14-15,17,30,32H,4,7-13,16H2,1H3,(H2,29,33)/t17-/m1/s1
FORMULA=C25H32F3N3O4
PUBMED=N/A
SUBMITUSER=BIOADREM
LIBRARYQUALITY=0
SPECTRUMID=CCMSLIB00000078202
SCANS=746
ID=CCMSLIB00000078202
132.0819181483 	 0.0683169479403508
156.0819181483 	 0.167590012916173
157.0897431804 	 0.244446579349068
158.0964253583 	 0.0971381603526862
159.1053932446 	 0.451532327793256
160.1093953478 	 0.124891920453454
170.0964253583 	 0.268997982515131
171.0678648841 	 0.0597773294478069
171.1053932446 	 0.0971381603526862
172.1132182767 	 1.43145354981266
173.1158777092 	 0.240176770102796
175.0877318077 	 6.54134776528859
176.0917339109 	 0.832612803023025
176.1155433582 	 0.46540920784364
177.1085474715 	 0.0608447817593749
180.1030475209 	 0.763228402771106
181.110872553 	 0.446195066235416
183.1015703157 	 0.0672494956287828
185.0835149483 	 0.133431538945998
186.0913399804 	 0.308493718043146
187.0951422671 	 0.0960707080411183
188.1043099699 	 0.455802137039528
188.1069900446 	 0.282874862565515
196.1120754225 	 0.0640471386940788
198.125045412 	 0.287144671811787
199.0928974073 	 0.101407969598958
199.1292829136 	 0.057642424824671
200.1081328988 	 2.44339834117911
201.1033818719 	 0.758958593524834
203.1178890819 	 0.277537601007675
204.1030475209 	 0.270065434826699
208.1058078173 	 0.485690801763431
211.0991650125 	 0.0640471386940788
216.1019046667 	 0.231637151610252
217.1346820003 	 1.04076600377878
217.1420924597 	 0.209220653067324
218.1539402372 	 0.325572955028234
219.1554976641 	 0.0608447817593749
226.1226401088 	 0.468611564778343
227.1241975357 	 0.0629796863825109
229.1097296988 	 0.0960707080411183
234.1362788003 	 0.0587098771362389
234.1374216545 	 2.5469412154012
234.1964737539 	 0.455802137039528
239.1794267062 	 0.693844002519188
240.1706529339 	 0.485690801763431
244.1332047951 	 1.60331337197511
245.134762222 	 0.309561170354714
245.1536058862 	 2.40817241489736
246.1374216545 	 0.368271047490953
246.1574081729 	 0.485690801763431
247.1378362272 	 0.10034051728739
247.1441038324 	 0.46540920784364
247.1856549383 	 0.684236931715076
248.1371079457 	 0.534793608095558
261.1597538966 	 13.0634813889689
262.1613113235 	 2.05911550901463
263.160583042 	 0.79311706749501
263.163970756 	 0.104610326533662
264.1120360494 	 0.0779240187444626
276.1706529339 	 1.59584120579413
278.1863029981 	 0.505972395683223
289.1710675066 	 0.446195066235416
304.2019530623 	 10.6745231156798
305.202367635 	 2.11142067228147
354.187526074 	 0.604178008347477
369.2058355707 	 0.455802137039528
437.1808438961 	 0.823005732218913
449.2046533434 	 0.0757891141213266
453.2233774128 	 0.102475421910526
462.1999023165 	 0.159050394423629
480.2104670028 	 1.4901634269489
481.2182920349 	 0.330910216586074
496.2417671312 	 100
END IONS

BEGIN IONS
PEPMASS=250.0662
CHARGE=1
MSLEVEL=2
RT=0
SOURCE_INSTRUMENT=qTOF
FILENAME=CCMSLIB00000078208.ms
IONMODE=Positive
ORGANISM=Natural
NAME=Sulfapyridine (Dagenan)
PI=GNPS
DATACOLLECTOR=GNPS
SMILES=c1ccnc(c1)NS(=O)(=O)c1ccc(cc1)N
INCHI=InChI=1S/C11H11N3O2S/c12-9-4-6-10(7-5-9)17(15,16)14-11-3-1-2-8-13-11/h1-8H,12H2,(H,13,14)
FORMULA=C11H11N3O2S
PUBMED=N/A
SUBMITUSER=BIOADREM
LIBRARYQUALITY=0
SPECTRUMID=CCMSLIB00000078208
SCANS=749
ID=CCMSLIB00000078208
55.0178406863 	 1.19427291850444
92.0494751657 	 4.82119834430345
95.060374203 	 11.5966614643415
108.0443897878 	 42.7054352989075
128.0620512247 	 1.21462984325168
132.0681992351 	 2.11372735292122
140.0528459841 	 1.15355906900997
156.0113750999 	 50.8482051978015
157.0760242672 	 3.62692542579901
167.060374203 	 8.40401709981679
168.0681992351 	 2.34783198751442
184.0869233045 	 43.95060052928
232.0539086166 	 1.29945036303182
250.0644733029 	 100
END IONS

BEGIN IONS
PEPMASS=548.2418
CHARGE=1
MSLEVEL=2
RT=0
SOURCE_INSTRUMENT=qTOF
FILENAME=CCMSLIB00000078211.ms
IONMODE=Positive
ORGANISM=Natural
NAME=Darunavir Ethanolate (Prezista)
PI=GNPS
DATACOLLECTOR=GNPS
SMILES=CC(C)CN(C[C@H]([C@H](Cc1ccccc1)N=C(O)O[C@H]1CO[C@@H]2[C@H]1CCO2)O)S(=O)(=O)c1ccc(cc1)N
INCHI=InChI=1S/C27H37N3O7S/c1-18(2)15-30(38(33,34)21-10-8-20(28)9-11-21)16-24(31)23(14-19-6-4-3-5-7-19)29-27(32)37-25-17-36-26-22(25)12-13-35-26/h3-11,18,22-26,31H,12-17,28H2,1-2H3,(H,29,32)/t22-,23-,24+,25-,26+/m0/s1
FORMULA=C27H37N3O7S
PUBMED=N/A
SUBMITUSER=BIOADREM
LIBRARYQUALITY=0
SPECTRUMID=CCMSLIB00000078211
SCANS=751
ID=CCMSLIB00000078211
92.0494751657 	 0.0313413239591716
95.0491408147 	 0.0355766380077083
108.0443897878 	 0.134682986743467
113.059705501 	 1.87116174664351
120.0807752941 	 0.0914827834483927
127.1229744598 	 0.0330354495785863
129.0698762568 	 0.0991063487357588
135.0314793778 	 0.604802846131041
144.0807752941 	 0.0296471983397569
146.0964253583 	 0.0957180974969294
156.0113750999 	 2.32603447545636
157.0131492389 	 0.179577315657956
158.0964253583 	 0.0465884545339037
164.1069900446 	 0.0652238363474652
174.0787639214 	 0.544661386641819
200.1433755509 	 0.0906357206386854
202.1590256151 	 0.21007157680742
216.0933513531 	 1.16132311210876
217.0886003262 	 0.532802507305917
218.0937452836 	 0.653085426284359
218.1539402372 	 0.0542120198212698
220.1695903014 	 0.0652238363474652
237.1961394029 	 0.138918300792004
241.1005244582 	 0.337130998263521
242.1022985972 	 0.0516708313921477
245.1648392745 	 0.227859895811274
261.1597538966 	 0.0389648892465376
263.0736410057 	 0.532802507305917
263.1754039608 	 0.0465884545339037
271.1110891445 	 0.0271060099106349
276.1230340393 	 2.43191732666977
281.1859686471 	 0.0279530727203422
306.1362788003 	 2.78344839269832
307.1414237577 	 0.895345389860658
321.1570738219 	 0.0203295074329762
349.1757978913 	 2.86815467366905
350.1784404282 	 0.943627970013977
357.163124715 	 0.0406590148659523
362.1261080445 	 0.556520265977722
372.1991758703 	 0.641226546948456
374.1863029981 	 0.798780229554021
374.1896738165 	 0.0974122231163441
375.1736894013 	 1.70598449875058
375.1788718965 	 0.0389648892465376
392.2002385028 	 16.9412561941468
393.1968301466 	 1.30701791537843
393.2046927165 	 2.95709626868832
394.1887083013 	 0.931769090678074
394.2012843603 	 0.598026343653382
409.1427832034 	 0.641226546948456
418.1761322423 	 2.4929058489687
418.1795030607 	 0.192283257803566
419.1839572744 	 1.07831095675744
420.1553968002 	 0.702215069247385
420.1805489182 	 0.0237177586718055
436.1866969286 	 1.05289907246622
436.190067747 	 0.43623734699928
437.1945219607 	 0.144000677650248
438.1911136045 	 0.0347295751980009
478.2006324333 	 0.786921350218119
489.1894365828 	 0.665791368429969
504.2526680038 	 0.107576976832832
530.2319325617 	 0.0406590148659523
548.242497248 	 100
END IONS

BEGIN IONS
PEPMASS=598.1985
CHARGE=1
MSLEVEL=2
RT=0
SOURCE_INSTRUMENT=qTOF
FILENAME=CCMSLIB00000078215.ms
IONMODE=Positive
ORGANISM=Natural
NAME=Zafirlukast (Accolate)
PI=GNPS
DATACOLLECTOR=GNPS
SMILES=Cc1ccccc1S(=O)(=O)N=C(c1ccc(Cc2cn(C)c3ccc(cc23)N=C(O)OC2CCCC2)c(c1)OC)O
INCHI=InChI=1S/C31H33N3O6S/c1-20-8-4-7-11-29(20)41(37,38)33-30(35)22-13-12-21(28(17-22)39-3)16-23-19-34(2)27-15-14-24(18-26(23)27)32-31(36)40-25-9-5-6-10-25/h4,7-8,11-15,17-19,25H,5-6,9-10,16H2,1-3H3,(H,32,36)(H,33,35)
FORMULA=C31H33N3O6S
PUBMED=N/A
SUBMITUSER=BIOADREM
LIBRARYQUALITY=0
SPECTRUMID=CCMSLIB00000078215
SCANS=755
ID=CCMSLIB00000078215
91.0542261926 	 0.368762062310449
119.0491408147 	 0.720292252550317
137.059705501 	 2.19534050179211
137.1073243956 	 0.79266611524676
145.0760242672 	 0.403225806451613
146.060039852 	 1.80934656741108
146.0838492993 	 3.02247036118004
159.0916743314 	 1.31306865177833
165.0546201231 	 2.67438654535429
185.0709388893 	 8.38158257513096
190.0862546025 	 0.51006341328922
203.0815035756 	 0.365315687896333
233.1046443209 	 0.323959194926937
233.1073243956 	 0.578990901571547
243.1491892103 	 1.00634132892197
250.1100640498 	 1.29928315412186
261.099558943 	 1.27860490763717
261.1022390177 	 1.68872346291701
263.1178890819 	 0.641025641025641
265.1335391461 	 12.1208988144472
275.1416985292 	 1.23035566583954
278.1022985972 	 0.865039977943204
278.1049786719 	 0.851254480286738
280.1206287361 	 5.627929418252
281.123271273 	 0.572098152743314
290.0872201177 	 0.51006341328922
291.112803704 	 1.1373035566584
293.1284537682 	 14.0922249793218
294.1310963051 	 3.60146126275159
297.1233683903 	 16.0290874000551
297.1294192834 	 0.51006341328922
298.1260109272 	 1.49228012131238
299.1277850662 	 0.32051282051282
300.1356100983 	 0.558312655086849
309.1233683903 	 6.15867107802592
310.1260109272 	 0.616901020126827
311.1390184545 	 2.14019851116625
311.1450693476 	 0.51006341328922
312.138290173 	 0.572098152743314
312.1416609914 	 0.32051282051282
315.1399839697 	 0.947752963881996
316.1457808541 	 0.734077750206782
318.0821347398 	 34.4637441411635
319.0839088788 	 6.94099807003033
319.1077183261 	 29.5836779707747
320.0739753567 	 2.48483595257789
320.110360863 	 6.39302453818583
321.1148150767 	 0.685828508409154
329.1080151393 	 0.537634408602151
333.138624524 	 0.840915357044389
334.1563455404 	 0.537634408602151
335.1628279018 	 0.537634408602151
337.1182830124 	 43.2554452715743
338.1209255493 	 9.2741935483871
339.125379763 	 0.485938792390405
341.1080151393 	 0.578990901571547
355.1288476987 	 68.927488282327
356.1314902356 	 11.790046870692
357.1359444493 	 1.15108905431486
405.1808832692 	 3.59112213950924
423.1914479555 	 6.04838709677419
423.1941280302 	 1.18210642404191
424.2019530623 	 0.685828508409154
441.1604446403 	 0.527295285359802
462.1482029323 	 0.317066446098704
463.1573706351 	 0.537634408602151
464.1638529965 	 31.6377171215881
464.1651956672 	 7.49931072511718
465.1716780286 	 1.45781637717122
466.1556936134 	 1.04425144747725
466.1682696724 	 0.516956162117452
471.1458572086 	 0.516956162117452
490.1431175544 	 1.09250068927488
508.1536822407 	 1.64047422111938
517.1791687097 	 1.0545905707196
518.1869937418 	 0.851254480286738
519.1822427149 	 0.909842845326716
575.2084574654 	 0.572098152743314
576.2162824975 	 100
END IONS

BEGIN IONS
PEPMASS=734.4685
CHARGE=1
MSLEVEL=2
RT=0
SOURCE_INSTRUMENT=qTOF
FILENAME=CCMSLIB00000078217.ms
IONMODE=Positive
ORGANISM=Natural
NAME=Erythromycin (E-Mycin)
PI=GNPS
DATACOLLECTOR=GNPS
SMILES=CC[C@@H]1[C@](C)([C@@H]([C@@H](C)C(=O)[C@H](C)C[C@@](C)([C@@H]([C@@H](C)[C@@H]([C@@H](C)C(=O)O1)O[C@@H]1C[C@](C)([C@@H]([C@@H](C)O1)O)OC)O[C@@H]1[C@@H]([C@@H](CC(C)O1)N(C)C)O)O)O)O
INCHI=InChI=1S/C37H67NO13/c1-14-25-37(10,45)30(41)20(4)27(39)18(2)16-35(8,44)32(51-34-28(40)24(38(11)12)15-19(3)47-34)21(5)29(22(6)33(43)49-25)50-26-17-36(9,46-13)31(42)23(7)48-26/h18-26,28-32,34,40-42,44-45H,14-17H2,1-13H3/t18-,19?,20+,21+,22-,23-,24-,25-,26-,28-,29+,30-,31-,32-,34-,35+,36-,37-/m1/s1
FORMULA=C37H67NO13
PUBMED=N/A
SUBMITUSER=BIOADREM
LIBRARYQUALITY=0
SPECTRUMID=CCMSLIB00000078217
SCANS=757
ID=CCMSLIB00000078217
98.0964253583 	 0.467750848661877
100.0756899162 	 0.0671034972763875
113.059705501 	 0.175653272282308
114.0913399804 	 0.0828925554590669
116.0706045383 	 0.799321070498145
116.1069900446 	 1.25720375779585
127.0753555652 	 0.457882687297703
158.1175547309 	 19.7363227283493
269.1594791251 	 0.718402147311913
315.2040240145 	 0.874319096865872
316.2118490466 	 0.832872819136339
341.2475062714 	 0.781558380042631
342.2274991108 	 0.0730243940948923
400.2971961182 	 0.749980263677272
401.2533795103 	 1.71903370963922
419.2580709577 	 2.07823478329518
456.3167080486 	 0.625641430488671
461.2745088829 	 0.625641430488671
462.3002701234 	 2.76505881424173
463.3139683944 	 0.953264387779269
463.3570567208 	 0.671034972763875
490.2951847455 	 1.10918133733323
490.3010579844 	 0.65721954685403
492.3108348097 	 0.65721954685403
496.3547109971 	 1.24930922870451
503.3393952839 	 0.625641430488671
514.3805318171 	 0.969053445961949
522.3425288686 	 1.94205415646957
523.3418005871 	 0.513144390937081
540.3530935549 	 2.92689666061419
541.3312359008 	 0.984842504144628
541.3523652734 	 0.428278203205179
547.3840593323 	 0.686824030946554
558.3636582412 	 9.68856082734665
559.3418005871 	 0.781558380042631
559.3629299597 	 1.49996052735454
559.3840593323 	 1.10918133733323
576.3742229275 	 36.2812820715244
577.373494646 	 8.11952317044288
577.3761747207 	 7.62611510223415
620.400437678 	 1.18812662824663
690.4423024927 	 0.734191205494592
698.4473878706 	 0.690771295492224
716.4579525569 	 8.11360227362438
717.465777589 	 1.95389595010658
734.4685172432 	 100
END IONS

BEGIN IONS
PEPMASS=924.495
CHARGE=1
MSLEVEL=2
RT=0
SOURCE_INSTRUMENT=qTOF
FILENAME=CCMSLIB00000078219.ms
IONMODE=Positive
ORGANISM=Natural
NAME=Amphotericin B (Abelcet)
PI=GNPS
DATACOLLECTOR=GNPS
SMILES=C[C@H]1C=CC=CC=CC=CC=CC=CC=C[C@@H](C[C@H]2[C@H]([C@H](C[C@@](C[C@H](C[C@H]([C@@H](CC[C@H](C[C@H](CC(=O)O[C@@H](C)[C@H](C)[C@@H]1O)O)O)O)O)O)(O)O2)O)C(=O)O)O[C@H]1[C@H]([C@H]([C@@H]([C@@H](C)O1)O)N)O
INCHI=InChI=1S/C47H73NO17/c1-27-17-15-13-11-9-7-5-6-8-10-12-14-16-18-34(64-46-44(58)41(48)43(57)30(4)63-46)24-38-40(45(59)60)37(54)26-47(61,65-38)25-33(51)22-36(53)35(52)20-19-31(49)21-32(50)23-39(55)62-29(3)28(2)42(27)56/h5-18,27-38,40-44,46,49-54,56-58,61H,19-26,48H2,1-4H3,(H,59,60)/b6-5+,9-7+,10-8+,13-11+,14-12+,17-15+,18-16+/t27-,28-,29-,30+,31+,32+,33-,34-,35+,36+,37-,38-,40-,41-,42+,43+,44-,46-,47-/m0/s1
FORMULA=C47H73NO17
PUBMED=N/A
SUBMITUSER=BIOADREM
LIBRARYQUALITY=0
SPECTRUMID=CCMSLIB00000078219
SCANS=759
ID=CCMSLIB00000078219
105.0698762568 	 6.37
107.085526321 	 6
131.085526321 	 6.86
133.0647908789 	 6.31
133.1011763852 	 8.23
141.0910056294 	 5.75
151.0753555652 	 5.07
155.0702701873 	 4.76
155.085526321 	 5.63
157.0647908789 	 4.89
159.1168264494 	 5.94
165.0573001978 	 5.38
167.072950262 	 9.03
173.0960910073 	 5.07
183.1168264494 	 6.62
185.0808348736 	 11.69
185.1324765136 	 5.07
193.0886003262 	 10.02
207.1168264494 	 5.57
211.0964849378 	 14.35
211.1481265778 	 6.74
225.163776642 	 5.26
229.1097296988 	 11.13
269.1410298272 	 6.86
313.1672445777 	 14.84
377.2111207651 	 5.5
487.2842857082 	 5.01
552.2717692287 	 5.19
671.3663978954 	 7.48
707.3789739544 	 11.63
708.3867989865 	 4.95
725.3895386407 	 17.38
727.3926126459 	 4.82
743.400103327 	 100
744.4079283591 	 69.45
745.4031773322 	 14.16
746.4110023643 	 6.31
761.4106680133 	 23.38
762.4184930454 	 16.94
906.4845612379 	 44.47
907.49238627 	 45.02
924.4951259242 	 0
END IONS

BEGIN IONS
PEPMASS=506.2313
CHARGE=1
MSLEVEL=2
RT=0
SOURCE_INSTRUMENT=qTOF
FILENAME=CCMSLIB00000078220.ms
IONMODE=Positive
ORGANISM=Natural
NAME=Amprenavir (Agenerase)
PI=GNPS
DATACOLLECTOR=GNPS
SMILES=CC(C)CN(C[C@H]([C@H](Cc1ccccc1)N=C(O)O[C@H]1CCOC1)O)S(=O)(=O)c1ccc(cc1)N
INCHI=InChI=1S/C25H35N3O6S/c1-18(2)15-28(35(31,32)22-10-8-20(26)9-11-22)16-24(29)23(14-19-6-4-3-5-7-19)27-25(30)34-21-12-13-33-17-21/h3-11,18,21,23-24,29H,12-17,26H2,1-2H3,(H,27,30)/t21-,23-,24+/m0/s1
FORMULA=C25H35N3O6S
PUBMED=N/A
SUBMITUSER=BIOADREM
LIBRARYQUALITY=0
SPECTRUMID=CCMSLIB00000078220
SCANS=760
ID=CCMSLIB00000078220
92.0494751657 	 0.9
100.1120754225 	 1.06
108.0443897878 	 6.77
120.0807752941 	 3.44
129.0698762568 	 6.93
131.085526321 	 0.95
134.0964253583 	 1.21
146.060039852 	 0.96
146.0964253583 	 3.18
156.0113750999 	 50.79
158.0964253583 	 0.71
164.0706045383 	 1.86
164.1069900446 	 0.89
172.0756899162 	 0.88
176.1433755509 	 0.64
189.1022390177 	 4.67
200.1433755509 	 1.58
202.1590256151 	 6.41
203.1641705725 	 1.55
207.112803704 	 0.74
208.0968192888 	 7.71
217.1699246524 	 0.57
219.1855747166 	 0.96
234.112469353 	 1.07
237.1961394029 	 0.81
241.1005244582 	 12.95
245.1648392745 	 100
246.1699842319 	 16.61
261.1597538966 	 10.45
263.1754039608 	 7.04
264.1805489182 	 1.98
278.1386841035 	 4.5
333.2172687755 	 1.92
351.2278334618 	 3.93
357.163124715 	 1.66
362.1169028039 	 2.4
374.1896738165 	 2.73
375.1914479555 	 1.53
392.2002385028 	 17.17
393.2020126418 	 4.53
418.1795030607 	 78.51
506.2319325617 	 24.28
END IONS

BEGIN IONS
PEPMASS=301.2155
CHARGE=1
MSLEVEL=2
RT=0
SOURCE_INSTRUMENT=qTOF
FILENAME=CCMSLIB00000078225.ms
IONMODE=Positive
ORGANISM=Natural
NAME=Tretinoin (Aberela)
PI=GNPS
DATACOLLECTOR=GNPS
SMILES=C/C(=C\C=C\C(=C\C(=O)O)\C)/C=C/C1=C(C)CCCC1(C)C
INCHI=InChI=1S/C20H28O2/c1-15(8-6-9-16(2)14-19(21)22)11-12-18-17(3)10-7-13-20(18,4)5/h6,8-9,11-12,14H,7,10,13H2,1-5H3,(H,21,22)/b9-6+,12-11+,15-8+,16-14+
FORMULA=C20H28O2
PUBMED=N/A
SUBMITUSER=BIOADREM
LIBRARYQUALITY=0
SPECTRUMID=CCMSLIB00000078225
SCANS=764
ID=CCMSLIB00000078225
95.085526321 	 9.22
105.0698762568 	 12.29
107.085526321 	 8.58
119.085526321 	 10.7
123.1168264494 	 100
127.0753555652 	 6.36
145.1011763852 	 22.14
147.1168264494 	 8.26
159.1168264494 	 35.81
161.0960910073 	 30.72
173.0960910073 	 7.94
175.1481265778 	 8.9
179.1066556936 	 28.6
187.1117410715 	 10.59
191.1066556936 	 7.63
201.163776642 	 40.25
205.1223057578 	 56.67
213.1273911357 	 7.94
219.137955822 	 7.94
231.137955822 	 9.22
245.1536058862 	 9.85
255.2107268346 	 5.72
283.2056414567 	 22.35
301.216206143 	 81.67
END IONS

BEGIN IONS
PEPMASS=442.1465
CHARGE=1
MSLEVEL=2
RT=0
SOURCE_INSTRUMENT=qTOF
FILENAME=CCMSLIB00000078228.ms
IONMODE=Positive
ORGANISM=Natural
NAME=Dofetilide (Tikosyn)
PI=GNPS
DATACOLLECTOR=GNPS
SMILES=CN(CCc1ccc(cc1)NS(=O)(=O)C)CCOc1ccc(cc1)NS(=O)(=O)C
INCHI=InChI=1S/C19H27N3O5S2/c1-22(13-12-16-4-6-17(7-5-16)20-28(2,23)24)14-15-27-19-10-8-18(9-11-19)21-29(3,25)26/h4-11,20-21H,12-15H2,1-3H3
FORMULA=C19H27N3O5S2
PUBMED=N/A
SUBMITUSER=BIOADREM
LIBRARYQUALITY=0
SPECTRUMID=CCMSLIB00000078228
SCANS=767
ID=CCMSLIB00000078228
91.057597011 	 0.260501465320742
103.0542261926 	 0.06129446242841
106.0651252299 	 0.0976880494952784
107.072950262 	 0.63018369184209
108.0443897878 	 0.0536326546248587
117.0573001978 	 0.070871722182849
118.0651252299 	 2.6720554714885
119.072950262 	 4.6200701055414
120.0807752941 	 3.82515754592296
121.0647908789 	 0.12258892485682
134.060039852 	 0.275825080927845
134.0964253583 	 0.26241691727163
135.0678648841 	 0.0536326546248587
136.0756899162 	 0.0536326546248587
174.1403015457 	 0.0900262416917272
176.1307994919 	 0.706801769877603
179.1178890819 	 1.40594173195165
185.0505002604 	 0.168559771678127
198.0583252925 	 38.3090390177562
199.0627795062 	 2.32344321642692
200.0528459841 	 0.73553354914092
214.0532399146 	 0.126419828758596
227.084874394 	 0.0976880494952784
241.1005244582 	 0.258586013369855
245.0920682619 	 0.457793016262187
255.1161745224 	 2.75825080927845
256.1127661662 	 0.325626831650928
257.0954390803 	 0.450131208458636
258.0947107988 	 0.116842569004157
258.1032641124 	 0.06129446242841
348.137638246 	 0.153236156071025
363.1611133423 	 0.0996035014461663
442.1464883728 	 100
END IONS

BEGIN IONS
PEPMASS=372.155
CHARGE=1
MSLEVEL=2
RT=0
SOURCE_INSTRUMENT=qTOF
FILENAME=CCMSLIB00000078230.ms
IONMODE=Positive
ORGANISM=Natural
NAME=Isradipine (Dynacirc)
PI=GNPS
DATACOLLECTOR=GNPS
SMILES=CC(C)OC(=O)C1=C(C)NC(=C(C1c1cccc2c1non2)C(=O)OC)C
INCHI=InChI=1S/C19H21N3O5/c1-9(2)26-19(24)15-11(4)20-10(3)14(18(23)25-5)16(15)12-7-6-8-13-17(12)22-27-21-13/h6-9,16,20H,1-5H3
FORMULA=C19H21N3O5
PUBMED=N/A
SUBMITUSER=BIOADREM
LIBRARYQUALITY=0
SPECTRUMID=CCMSLIB00000078230
SCANS=768
ID=CCMSLIB00000078230
140.0494751657 	 3.84
154.0624451552 	 1.34
167.060374203 	 2.29
168.0655191604 	 1.66
180.0681992351 	 1.45
181.0760242672 	 5.2
183.0916743314 	 2.85
184.0869233045 	 2.17
193.0634482082 	 2.15
194.0811692246 	 2.18
196.0994993635 	 2.43
198.0661878624 	 2.64
208.0869233045 	 22.37
210.1025733687 	 3.13
211.0839088788 	 1.48
212.0818379266 	 3.6
222.0760838467 	 1.5
224.0818379266 	 5.8
226.0974879908 	 2.36
228.0767525487 	 2.18
236.0818379266 	 11.58
238.0974879908 	 2.11
239.0788235009 	 3.54
241.0971536398 	 4.68
242.0897225382 	 6.11
250.0736785435 	 5.76
254.0924026129 	 9.34
268.1053726024 	 8.96
269.0920682619 	 1.68
280.0716671708 	 7.67
295.0951422671 	 1.92
312.0978819213 	 100
340.1291820497 	 68.74
372.1553968002 	 0
END IONS

BEGIN IONS
PEPMASS=271.1699
CHARGE=1
MSLEVEL=2
RT=0
SOURCE_INSTRUMENT=qTOF
FILENAME=CCMSLIB00000078231.ms
IONMODE=Positive
ORGANISM=Natural
NAME=Estrone
PI=GNPS
DATACOLLECTOR=GNPS
SMILES=C[C@]12CC[C@H]3c4ccc(cc4CC[C@H]3[C@@H]1CCC2=O)O
INCHI=InChI=1S/C18H22O2/c1-18-9-8-14-13-5-3-12(19)10-11(13)2-4-15(14)16(18)6-7-17(18)20/h3,5,10,14-16,19H,2,4,6-9H2,1H3/t14-,15+,16-,18-/m0/s1
FORMULA=C18H22O2
PUBMED=N/A
SUBMITUSER=BIOADREM
LIBRARYQUALITY=0
SPECTRUMID=CCMSLIB00000078231
SCANS=769
ID=CCMSLIB00000078231
105.0698762568 	 2.83
107.0491408147 	 3.82
116.0620512247 	 2.29
117.0698762568 	 3.49
131.0491408147 	 3.78
131.085526321 	 6.86
133.0647908789 	 34.87
141.0698762568 	 3.2
145.0647908789 	 9.31
157.0647908789 	 47.01
159.0804409431 	 27.35
182.072615911 	 2.54
183.0804409431 	 4.74
185.0960910073 	 6.48
197.0960910073 	 20.12
201.1273911357 	 12.59
211.1117410715 	 8.73
213.1273911357 	 18.12
253.1586912641 	 100
271.1692559504 	 79.18
END IONS

BEGIN IONS
PEPMASS=489.1645
CHARGE=1
MSLEVEL=2
RT=0
SOURCE_INSTRUMENT=qTOF
FILENAME=CCMSLIB00000078232.ms
IONMODE=Positive
ORGANISM=Natural
NAME=Loteprednol etabonate
PI=GNPS
DATACOLLECTOR=GNPS
SMILES=CCOC(=O)O[C@]1(CC[C@H]2[C@@H]3CCC4=CC(=O)C=C[C@]4(C)[C@@H]3[C@@H](C[C@]12C)O)C(=O)OCCl
INCHI=InChI=1S/C24H31ClO7/c1-4-30-21(29)32-24(20(28)31-13-25)10-8-17-16-6-5-14-11-15(26)7-9-22(14,2)19(16)18(27)12-23(17,24)3/h7,9,11,16-19,27H,4-6,8,10,12-13H2,1-3H3/t16-,17-,18+,19-,22-,23-,24+/m0/s1
FORMULA=C24H31ClO7
PUBMED=N/A
SUBMITUSER=BIOADREM
LIBRARYQUALITY=0
SPECTRUMID=CCMSLIB00000078232
SCANS=770
ID=CCMSLIB00000078232
105.0698762568 	 1.81
107.085526321 	 2.3
121.0647908789 	 5.61
128.0620512247 	 3.2
129.0698762568 	 2.19
131.085526321 	 3.87
135.0804409431 	 7.26
145.1011763852 	 2.26
147.0804409431 	 24.94
157.1011763852 	 7.64
159.0804409431 	 7.2
171.0804409431 	 33.08
173.0960910073 	 12.72
185.1324765136 	 5.82
193.0778541273 	 4.58
195.0804409431 	 2.75
198.1017231541 	 1.88
200.1559516099 	 4.2
208.0860730899 	 2.15
209.0960910073 	 14.86
210.1017231541 	 3.35
220.1305247204 	 5.6
223.1117410715 	 15.09
224.1173732183 	 3.84
225.1273911357 	 2.73
235.1117410715 	 1.99
237.1251982504 	 5.54
238.1330232825 	 3.17
251.1430411999 	 5.32
263.1408483146 	 4.74
265.1564983788 	 100
276.0395168278 	 6.25
283.1670630651 	 2.53
283.1692559504 	 100
290.1148746562 	 5.06
293.1514130009 	 9.97
301.1798206367 	 24.89
311.1619776872 	 1.92
323.1852999451 	 4.2
339.1510190704 	 4.53
347.1408483146 	 20.26
348.1203539646 	 4.63
349.1353690062 	 8.73
359.1408483146 	 71.08
367.1459336925 	 3.88
373.164564503 	 10.45
374.1490672772 	 6.14
377.1514130009 	 10.67
379.1518069314 	 7.76
449.1725423735 	 31.16
467.1831070598 	 85.47
END IONS

BEGIN IONS
PEPMASS=318.2809
CHARGE=1
MSLEVEL=2
RT=0
SOURCE_INSTRUMENT=qTOF
FILENAME=CCMSLIB00000078236.ms
IONMODE=Positive
ORGANISM=Natural
NAME=Amorolfine Hydrochloride
PI=GNPS
DATACOLLECTOR=GNPS
SMILES=CCC(C)(C)c1ccc(cc1)CC(C)CN1C[C@H](C)O[C@H](C)C1
INCHI=InChI=1S/C21H35NO/c1-7-21(5,6)20-10-8-19(9-11-20)12-16(2)13-22-14-17(3)23-18(4)15-22/h8-11,16-18H,7,12-15H2,1-6H3/t16?,17-,18+
FORMULA=C21H35NO
PUBMED=N/A
SUBMITUSER=BIOADREM
LIBRARYQUALITY=0
SPECTRUMID=CCMSLIB00000078236
SCANS=773
ID=CCMSLIB00000078236
91.0542261926 	 0.92
98.0964253583 	 6.44
102.0913399804 	 1.17
105.0698762568 	 14.55
112.1120754225 	 0.45
114.0913399804 	 0.42
115.0542261926 	 0.34
116.1069900446 	 11.83
117.0698762568 	 1.51
119.085526321 	 3.6
130.1226401088 	 23.16
131.085526321 	 1.74
132.0933513531 	 11.07
133.1011763852 	 4.14
146.1090014173 	 1.7
159.1168264494 	 2.31
161.1324765136 	 100
173.1324765136 	 0.54
175.1481265778 	 3.02
203.1794267062 	 4.56
248.2008904298 	 0.98
300.2685760645 	 0.48
318.2791407508 	 253.61
END IONS

BEGIN IONS
PEPMASS=245.0972
CHARGE=1
MSLEVEL=2
RT=0
SOURCE_INSTRUMENT=qTOF
FILENAME=CCMSLIB00000078237.ms
IONMODE=Positive
ORGANISM=Natural
NAME=Flurbiprofen (Ansaid)
PI=GNPS
DATACOLLECTOR=GNPS
SMILES=C[C@H](c1ccc(c2ccccc2)c(c1)F)C(=O)O
INCHI=InChI=1S/C15H13FO2/c1-10(15(17)18)12-7-8-13(14(16)9-12)11-5-3-2-4-6-11/h2-10H,1H3,(H,17,18)/t10-/m1/s1
FORMULA=C15H13FO2
PUBMED=N/A
SUBMITUSER=BIOADREM
LIBRARYQUALITY=0
SPECTRUMID=CCMSLIB00000078237
SCANS=774
ID=CCMSLIB00000078237
109.0647908789 	 4.04
159.0604544247 	 5.41
171.0604544247 	 2.97
177.071019111 	 3.05
178.0777012889 	 57.16
179.085526321 	 30.64
183.0604544247 	 16.01
188.0831805973 	 3.13
197.0761044889 	 10.37
199.0917545531 	 100
245.0972338615 	 3.05
END IONS

BEGIN IONS
PEPMASS=319.0388
CHARGE=1
MSLEVEL=2
RT=0
SOURCE_INSTRUMENT=qTOF
FILENAME=CCMSLIB00000078238.ms
IONMODE=Positive
ORGANISM=Natural
NAME=Disulfiram (Antabuse)
PI=GNPS
DATACOLLECTOR=GNPS
SMILES=CCN(CC)C(=S)SSC(=S)N(CC)CC
INCHI=InChI=1S/C10H20N2S4/c1-5-11(6-2)9(13)15-16-10(14)12(7-3)8-4/h5-8H2,1-4H3
FORMULA=C10H20N2S4
PUBMED=N/A
SUBMITUSER=BIOADREM
LIBRARYQUALITY=0
SPECTRUMID=CCMSLIB00000078238
SCANS=775
ID=CCMSLIB00000078238
77.0385761284 	 0.22
80.0402699251 	 0.875
88.0181750373 	 0.4
88.0215458557 	 1.685
97.1011763852 	 0.985
104.0494751657 	 0.55
104.0528459841 	 1.77
116.0528459841 	 83.395
117.0573001978 	 3.315
126.0464011605 	 0.38
131.072950262 	 0.54
148.0249166741 	 98.255
149.0327417062 	 100
297.0582074124 	 43.305
END IONS

BEGIN IONS
PEPMASS=269.0118
CHARGE=1
MSLEVEL=2
RT=0
SOURCE_INSTRUMENT=qTOF
FILENAME=CCMSLIB00000078240.ms
IONMODE=Positive
ORGANISM=Natural
NAME=Busulfan (Myleran, Busulfex)
PI=GNPS
DATACOLLECTOR=GNPS
SMILES=CS(=O)(=O)OCCCCOS(=O)(=O)C
INCHI=InChI=1S/C6H14O6S2/c1-13(7,8)11-5-3-4-6-12-14(2,9)10/h3-6H2,1-2H3
FORMULA=C6H14O6S2
PUBMED=N/A
SUBMITUSER=BIOADREM
LIBRARYQUALITY=0
SPECTRUMID=CCMSLIB00000078240
SCANS=777
ID=CCMSLIB00000078240
87.1168264494 	 4.61
96.9953906847 	 30.36
131.0525116331 	 9.72
151.0423408773 	 100
174.9695698647 	 25.15
247.030455562 	 704.01
END IONS

BEGIN IONS
PEPMASS=417.2272
CHARGE=1
MSLEVEL=2
RT=0
SOURCE_INSTRUMENT=qTOF
FILENAME=CCMSLIB00000078243.ms
IONMODE=Positive
ORGANISM=Natural
NAME=Desonide
PI=GNPS
DATACOLLECTOR=GNPS
SMILES=CC1(C)O[C@@H]2C[C@H]3[C@@H]4CCC5=CC(=O)C=C[C@]5(C)[C@@H]4[C@@H](C[C@]3(C)[C@@]2(C(=O)CO)O1)O
INCHI=InChI=1S/C24H32O6/c1-21(2)29-19-10-16-15-6-5-13-9-14(26)7-8-22(13,3)20(15)17(27)11-23(16,4)24(19,30-21)18(28)12-25/h7-9,15-17,19-20,25,27H,5-6,10-12H2,1-4H3/t15-,16-,17+,19+,20-,22-,23-,24-/m0/s1
FORMULA=C24H32O6
PUBMED=N/A
SUBMITUSER=BIOADREM
LIBRARYQUALITY=0
SPECTRUMID=CCMSLIB00000078243
SCANS=780
ID=CCMSLIB00000078243
121.0647908789 	 6.84
135.0804409431 	 5.52
145.0647908789 	 2.96
147.0804409431 	 29.98
159.0804409431 	 4.65
161.0960910073 	 5.37
171.0804409431 	 11.78
173.0960910073 	 20.88
185.0960910073 	 3.35
187.1117410715 	 3.61
199.1117410715 	 3.49
207.1168264494 	 3.49
211.1117410715 	 8.76
213.1273911357 	 2.8
223.1117410715 	 7.34
225.1273911357 	 19.15
226.1352161678 	 16.75
227.1430411999 	 7.32
235.1117410715 	 3.68
237.1273911357 	 8.54
239.1430411999 	 4.36
241.1586912641 	 3.7
251.1430411999 	 2.5
253.1586912641 	 2.36
261.1273911357 	 3
263.1430411999 	 6.95
265.1586912641 	 19.01
277.1586912641 	 11.48
281.1536058862 	 3.88
287.1430411999 	 3.76
295.1692559504 	 16.39
305.1536058862 	 14.66
323.1641705725 	 43.45
341.1747352588 	 29.42
381.2060353872 	 2.46
399.2166000735 	 100
417.2271647598 	 10.23
END IONS

BEGIN IONS
PEPMASS=415.2124
CHARGE=1
MSLEVEL=2
RT=0
SOURCE_INSTRUMENT=qTOF
FILENAME=CCMSLIB00000078245.ms
IONMODE=Positive
ORGANISM=Natural
NAME=Eplerenone
PI=GNPS
DATACOLLECTOR=GNPS
SMILES=C[C@]12CCC(=O)C=C1C[C@H]([C@H]1[C@@H]3CC[C@]4(CCC(=O)O4)[C@@]3(C)C[C@H]3[C@@]21O3)C(=O)OC
INCHI=InChI=1S/C24H30O6/c1-21-7-4-14(25)10-13(21)11-15(20(27)28-3)19-16-5-8-23(9-6-18(26)30-23)22(16,2)12-17-24(19,21)29-17/h10,15-17,19H,4-9,11-12H2,1-3H3/t15-,16+,17+,19+,21+,22+,23+,24+/m1/s1
FORMULA=C24H30O6
PUBMED=N/A
SUBMITUSER=BIOADREM
LIBRARYQUALITY=0
SPECTRUMID=CCMSLIB00000078245
SCANS=781
ID=CCMSLIB00000078245
111.0440554368 	 2.62
121.0647908789 	 10.95
143.085526321 	 2.32
145.0647908789 	 1.79
147.0804409431 	 2.03
157.1011763852 	 3.14
159.0804409431 	 4.26
161.0960910073 	 4.78
163.0753555652 	 100
171.0804409431 	 4.79
173.0960910073 	 1.71
175.1117410715 	 3.41
185.0960910073 	 2.83
189.0910056294 	 2.36
197.0960910073 	 1.8
201.1273911357 	 1.9
203.1066556936 	 5.97
219.137955822 	 2.53
221.1172203799 	 9.61
223.1117410715 	 3.12
249.1273911357 	 2.04
259.1481265778 	 1.94
275.1430411999 	 1.91
277.1586912641 	 4.81
295.1692559504 	 3.2
299.1641705725 	 3.8
301.1586912641 	 2.74
309.1849060146 	 2.95
311.2005560788 	 1.86
319.1692559504 	 9.58
337.1798206367 	 24.95
347.1641705725 	 4.36
355.190385323 	 11.69
357.1696498809 	 1.89
365.1747352588 	 7.63
369.2060353872 	 3.58
379.190385323 	 7.18
383.1852999451 	 10.02
397.2009500093 	 19.99
398.2087750414 	 4.63
415.2115146956 	 84.1
END IONS

BEGIN IONS
PEPMASS=358.0833
CHARGE=1
MSLEVEL=2
RT=0
SOURCE_INSTRUMENT=qTOF
FILENAME=CCMSLIB00000078256.ms
IONMODE=Positive
ORGANISM=Natural
NAME=Indomethacin (Indocid, Indocin)
PI=GNPS
DATACOLLECTOR=GNPS
SMILES=Cc1c(CC(=O)O)c2cc(ccc2n1C(=O)c1ccc(cc1)Cl)OC
INCHI=InChI=1S/C19H16ClNO4/c1-11-15(10-18(22)23)16-9-14(25-2)7-8-17(16)21(11)19(24)12-3-5-13(20)6-4-12/h3-9H,10H2,1-2H3,(H,22,23)
FORMULA=C19H16ClNO4
PUBMED=N/A
SUBMITUSER=BIOADREM
LIBRARYQUALITY=0
SPECTRUMID=CCMSLIB00000078256
SCANS=791
ID=CCMSLIB00000078256
110.9996038063 	 3.14
128.0620512247 	 0.293333333333333
138.9945184284 	 100
139.9978335257 	 3.16333333333333
159.0678648841 	 0.623333333333333
174.0913399804 	 7.70333333333333
202.0862546025 	 0.453333333333333
220.0968192888 	 0.153333333333333
358.0840617172 	 12.9133333333333
END IONS

BEGIN IONS
PEPMASS=313.2168
CHARGE=1
MSLEVEL=2
RT=0
SOURCE_INSTRUMENT=qTOF
FILENAME=CCMSLIB00000078260.ms
IONMODE=Positive
ORGANISM=Natural
NAME=Levonorgestrel (Levonelle)
PI=GNPS
DATACOLLECTOR=GNPS
SMILES=CC[C@]12CC[C@H]3[C@H]4CCC(=O)C=C4CC[C@H]3[C@@H]1CC[C@@]2(C#C)O
INCHI=InChI=1S/C21H28O2/c1-3-20-11-9-17-16-8-6-15(22)13-14(16)5-7-18(17)19(20)10-12-21(20,23)4-2/h2,13,16-19,23H,3,5-12H2,1H3/t16-,17-,18+,19-,20-,21+/m0/s1
FORMULA=C21H28O2
PUBMED=N/A
SUBMITUSER=BIOADREM
LIBRARYQUALITY=0
SPECTRUMID=CCMSLIB00000078260
SCANS=793
ID=CCMSLIB00000078260
105.0698762568 	 18.75
107.085526321 	 11.48
109.0647908789 	 48.85
117.0698762568 	 13.38
119.085526321 	 15.63
123.0804409431 	 14.51
129.0698762568 	 16.22
131.085526321 	 28.74
133.1011763852 	 30.05
135.0804409431 	 28.74
141.0698762568 	 15.45
142.0777012889 	 10.26
143.085526321 	 25.17
145.1011763852 	 26.75
147.0804409431 	 13.42
149.0960910073 	 32.76
157.1011763852 	 24.85
159.0804409431 	 11.03
159.1168264494 	 31.13
161.0960910073 	 15.45
162.1039160394 	 10.21
163.1117410715 	 18.44
171.1168264494 	 25.71
173.1324765136 	 12.83
175.1117410715 	 16.27
181.1011763852 	 9.85
183.1168264494 	 17.85
185.1324765136 	 41.93
187.1481265778 	 23.14
189.1273911357 	 16.27
195.1168264494 	 15.86
197.1324765136 	 14.55
199.1481265778 	 19.02
201.1273911357 	 11.61
213.163776642 	 15.36
221.1324765136 	 10.57
223.1481265778 	 7.77
225.1273911357 	 9.72
227.1794267062 	 17.67
237.163776642 	 16.95
240.150866232 	 8.54
241.1586912641 	 7.86
255.1743413283 	 8.22
267.1743413283 	 8.5
277.1950767704 	 26.66
295.2056414567 	 100
296.2134664888 	 17.53
313.216206143 	 1524.85
END IONS

BEGIN IONS
PEPMASS=375.2149
CHARGE=1
MSLEVEL=2
RT=0
SOURCE_INSTRUMENT=qTOF
FILENAME=CCMSLIB00000078262.ms
IONMODE=Positive
ORGANISM=Natural
NAME=Methylprednisolone
PI=GNPS
DATACOLLECTOR=GNPS
SMILES=C[C@H]1C[C@H]2[C@@H]3CC[C@@](C(=O)CO)([C@@]3(C)C[C@H]([C@H]2[C@@]2(C)C=CC(=O)C=C12)O)O
INCHI=InChI=1S/C22H30O5/c1-12-8-14-15-5-7-22(27,18(26)11-23)21(15,3)10-17(25)19(14)20(2)6-4-13(24)9-16(12)20/h4,6,9,12,14-15,17,19,23,25,27H,5,7-8,10-11H2,1-3H3/t12-,14-,15-,17+,19-,20-,21-,22+/m0/s1
FORMULA=C22H30O5
PUBMED=N/A
SUBMITUSER=BIOADREM
LIBRARYQUALITY=0
SPECTRUMID=CCMSLIB00000078262
SCANS=795
ID=CCMSLIB00000078262
121.0647908789 	 7.18
133.1011763852 	 3.19
135.0804409431 	 19.51
147.0804409431 	 6.66
159.0804409431 	 10.69
161.0960910073 	 41.85
172.0882659752 	 3.21
173.0960910073 	 6.51
185.0960910073 	 26.99
187.1117410715 	 19.65
189.0910056294 	 3.94
197.0960910073 	 3.3
199.1117410715 	 5.43
207.1168264494 	 3.15
211.1117410715 	 18.65
213.1273911357 	 7.63
223.1117410715 	 8.62
224.1195661036 	 4.7
225.1273911357 	 5.71
231.137955822 	 4.78
237.1273911357 	 9.98
238.1352161678 	 4.71
239.1430411999 	 6.35
251.1430411999 	 10.5
253.1586912641 	 27.61
263.1430411999 	 6.62
265.1586912641 	 9.42
277.1586912641 	 5.3
279.1743413283 	 14.14
281.1899913925 	 7.83
291.1743413283 	 3.31
293.1536058862 	 4.57
293.1899913925 	 6.71
295.1692559504 	 3.58
297.1849060146 	 3.88
303.1743413283 	 14.19
309.1849060146 	 5.88
311.2005560788 	 3.72
321.1849060146 	 28.79
339.1954707009 	 54.58
357.2060353872 	 100
375.2166000735 	 7.56
END IONS

BEGIN IONS
PEPMASS=361.2011
CHARGE=1
MSLEVEL=2
RT=0
SOURCE_INSTRUMENT=qTOF
FILENAME=CCMSLIB00000078265.ms
IONMODE=Positive
ORGANISM=Natural
NAME=Prednisolone (Hydroretrocortine)
PI=GNPS
DATACOLLECTOR=GNPS
SMILES=C[C@]12C=CC(=O)C=C1CC[C@H]1[C@@H]3CC[C@@](C(=O)CO)([C@@]3(C)C[C@H]([C@@H]21)O)O
INCHI=InChI=1S/C21H28O5/c1-19-7-5-13(23)9-12(19)3-4-14-15-6-8-21(26,17(25)11-22)20(15,2)10-16(24)18(14)19/h5,7,9,14-16,18,22,24,26H,3-4,6,8,10-11H2,1-2H3/t14-,15-,16+,18-,19-,20-,21+/m0/s1
FORMULA=C21H28O5
PUBMED=N/A
SUBMITUSER=BIOADREM
LIBRARYQUALITY=0
SPECTRUMID=CCMSLIB00000078265
SCANS=798
ID=CCMSLIB00000078265
107.085526321 	 2.84
119.085526321 	 2.64
121.0647908789 	 12.85
135.0804409431 	 4.68
145.1011763852 	 4.27
147.0804409431 	 62.01
158.072615911 	 3.36
159.0804409431 	 5.99
161.0960910073 	 6.64
171.0804409431 	 28.29
173.0960910073 	 24.54
185.0960910073 	 2.92
196.0882659752 	 2.68
208.0882659752 	 3.36
211.1117410715 	 5.35
223.1117410715 	 16.86
225.1273911357 	 6.39
234.1039160394 	 2.66
237.1273911357 	 8.72
239.1430411999 	 7.61
241.1586912641 	 4.73
248.1195661036 	 2.67
249.1273911357 	 4.08
251.1430411999 	 7.94
263.1430411999 	 6.78
265.1586912641 	 13.68
267.1743413283 	 10.35
274.1352161678 	 3.02
277.1586912641 	 6.95
279.1743413283 	 12.27
283.1692559504 	 4.04
285.1849060146 	 3.51
289.1586912641 	 17.63
295.1692559504 	 6.34
297.1849060146 	 3.83
307.1692559504 	 27.34
325.1798206367 	 47.48
343.190385323 	 100
361.2009500093 	 9.47
END IONS

BEGIN IONS
PEPMASS=199.097
CHARGE=1
MSLEVEL=2
RT=0
SOURCE_INSTRUMENT=qTOF
FILENAME=CCMSLIB00000078269.ms
IONMODE=Positive
ORGANISM=Natural
NAME=Guaifenesin (Guaiphenesin)
PI=GNPS
DATACOLLECTOR=GNPS
SMILES=COc1ccccc1OCC(CO)O
INCHI=InChI=1S/C10H14O4/c1-13-9-4-2-3-5-10(9)14-7-8(12)6-11/h2-5,8,11-12H,6-7H2,1H3
FORMULA=C10H14O4
PUBMED=N/A
SUBMITUSER=BIOADREM
LIBRARYQUALITY=0
SPECTRUMID=CCMSLIB00000078269
SCANS=800
ID=CCMSLIB00000078269
95.0491408147 	 20.68
105.0698762568 	 13.49
110.0362304047 	 30.64
120.0569658468 	 5.93
121.0284053726 	 20.81
121.0647908789 	 33.04
122.0362304047 	 49.31
123.0440554368 	 30.39
125.059705501 	 80.71
133.0647908789 	 9.58
135.0804409431 	 32.28
137.059705501 	 14.25
151.0753555652 	 100
163.0753555652 	 68.73
199.0964849378 	 0
END IONS

BEGIN IONS
PEPMASS=869.4301
CHARGE=1
MSLEVEL=2
RT=0
SOURCE_INSTRUMENT=qTOF
FILENAME=CCMSLIB00000078270.ms
IONMODE=Positive
ORGANISM=Natural
NAME=Rifabutin (Mycobutin)
PI=GNPS
DATACOLLECTOR=GNPS
SMILES=CC(C)CN1CCC2(CC1)N=C1c3c4c(c(C)c5c3C(=O)[C@](C)(OC=C[C@@H]([C@@H](C)[C@H]([C@H](C)[C@@H]([C@@H](C)[C@H]([C@H](C)C=CC=C(C)C(=NC(=C1N2)C4=O)O)O)O)OC(=O)C)OC)O5)O
INCHI=InChI=1S/C46H62N4O11/c1-22(2)21-50-18-16-46(17-19-50)48-34-31-32-39(54)28(8)42-33(31)43(56)45(10,61-42)59-20-15-30(58-11)25(5)41(60-29(9)51)27(7)38(53)26(6)37(52)23(3)13-12-14-24(4)44(57)47-36(40(32)55)35(34)49-46/h12-15,20,22-23,25-27,30,37-38,41,49,52-54H,16-19,21H2,1-11H3,(H,47,57)/b13-12+,20-15+,24-14-/t23-,25-,26+,27-,30+,37+,38-,41-,45-/m1/s1
FORMULA=C46H62N4O11
PUBMED=N/A
SUBMITUSER=BIOADREM
LIBRARYQUALITY=0
SPECTRUMID=CCMSLIB00000078270
SCANS=801
ID=CCMSLIB00000078270
107.085526321 	 0.275204109714705
109.0647908789 	 0.181176038895514
123.0804409431 	 0.506834235391248
135.0804409431 	 0.399045959086322
137.0960910073 	 0.201816347124117
147.1168264494 	 0.210989817447941
151.0753555652 	 1.7360792587836
153.0910056294 	 0.373818915695808
161.0960910073 	 0.282084212457573
163.1117410715 	 0.765984772039263
165.1273911357 	 0.18346940647647
173.0960910073 	 0.26144390422897
175.1117410715 	 0.217869920190808
179.1066556936 	 0.263737271809926
191.1066556936 	 0.334831666819558
193.1223057578 	 0.181176038895514
310.0822318571 	 0.188056141638382
321.086982884 	 0.217869920190808
322.0822318571 	 0.598568938629484
323.0900568892 	 0.545821484267498
338.1135319855 	 0.419686267314925
365.1158777092 	 1.86909457847904
423.2026813438 	 0.791211815429777
445.1632218323 	 1.8920282542886
474.1897709338 	 1.40124759196404
508.2078263012 	 1.69709200990735
516.1639501138 	 1.40124759196404
532.1952502422 	 1.81864049169801
543.257516148 	 0.240803596000367
545.2731662122 	 0.321071461333823
545.2771889576 	 2.43326300339418
573.2680808343 	 0.493074029905513
574.2713752982 	 1.67186496651683
575.2877536439 	 2.67865333455646
600.2717692287 	 4.22896981928264
601.2822743355 	 1.67186496651683
617.2983183302 	 2.18787267223191
631.3126257237 	 0.305017888267131
632.3177706811 	 0.438033207962572
632.3244735012 	 2.13741858545088
638.2860766222 	 0.172002568571691
642.308823437 	 1.81864049169801
644.3092173675 	 1.86909457847904
652.31028 	 2.16264562884139
655.2802629628 	 1.57325016053573
656.2966413085 	 2.55481148518485
660.2915559306 	 1.57325016053573
670.3037380591 	 3.02265847169984
670.3122913727 	 0.293551050362352
674.3283353674 	 1.74525272910742
675.3428632196 	 3.90789835794881
683.3803113584 	 1.59847720392625
684.3279414369 	 1.64663792312632
686.3072059948 	 4.93991376937896
687.3150310269 	 4.47436015044491
688.3143027454 	 2.38510228419411
701.3908760447 	 4.79313824419778
702.3385061232 	 1.79341344830749
702.3874676885 	 4.93991376937896
703.3377778417 	 2.26126043482249
703.3827166616 	 4.05467388312999
715.309945649 	 0.227043390514632
716.3051946221 	 1.67186496651683
716.3177706811 	 0.334831666819558
730.3334207453 	 0.568755160077057
731.3412457774 	 0.421979634895881
734.3157593084 	 2.33464819741308
737.3908760447 	 0.642142922667645
738.3960210021 	 0.284377580038529
755.401440731 	 6.93514356481057
756.4065856884 	 1.65122465828823
757.4296668542 	 2.70388037794698
759.4453169184 	 2.13741858545088
761.4120054173 	 3.90789835794881
762.4198304494 	 4.8183652875883
769.4018346615 	 2.23603339143198
770.4249158273 	 3.14650032107146
779.401440731 	 0.169709200990735
787.4276554815 	 23.2593340060545
788.4354805136 	 9.02210806348042
789.4194960984 	 3.85973763874874
797.4120054173 	 0.848546004953674
815.4225701036 	 22.9336758095588
816.4303951357 	 14.812861205394
817.4144107205 	 3.39189065223374
847.4487848541 	 100
END IONS

BEGIN IONS
PEPMASS=267.1253
CHARGE=1
MSLEVEL=2
RT=0
SOURCE_INSTRUMENT=qTOF
FILENAME=CCMSLIB00000078272.ms
IONMODE=Positive
ORGANISM=Natural
NAME=Nevirapine (Viramune)
PI=GNPS
DATACOLLECTOR=GNPS
SMILES=Cc1ccnc2c1N=C(c1cccnc1N2C1CC1)O
INCHI=InChI=1S/C15H14N4O/c1-9-6-8-17-14-12(9)18-15(20)11-3-2-7-16-13(11)19(14)10-4-5-10/h2-3,6-8,10H,4-5H2,1H3,(H,18,20)
FORMULA=C15H14N4O
PUBMED=N/A
SUBMITUSER=BIOADREM
LIBRARYQUALITY=0
SPECTRUMID=CCMSLIB00000078272
SCANS=803
ID=CCMSLIB00000078272
105.0447241388 	 1.02397333906687
107.060374203 	 4.94248548699205
117.0447241388 	 0.416577080197807
121.0396387609 	 0.145130079552784
131.060374203 	 2.46721135239733
132.0681992351 	 0.147817673618577
133.0760242672 	 0.674586110513868
143.060374203 	 1.3276714685014
144.0681992351 	 2.42958503547624
145.0760242672 	 1.11266394323801
146.0712732403 	 0.430015050526768
155.060374203 	 0.978284239948398
158.0712732403 	 1.36529778542249
159.0552888251 	 1.8517523113309
160.0631138572 	 1.17985379488282
161.0709388893 	 4.75704149645238
170.0712732403 	 2.12051171791013
171.0790982724 	 2.1984519458181
172.0869233045 	 0.795527843474522
173.0709388893 	 0.292947753171361
181.0634482082 	 0.161255643947538
182.0712732403 	 4.90217157600516
183.0790982724 	 0.567082347882176
184.0869233045 	 11.2744571059987
196.0869233045 	 0.23382068372393
197.0821722776 	 11.8092883250914
198.0899973097 	 21.7883250913782
200.0818379266 	 0.725650397763922
207.0790982724 	 0.499892496237368
209.0583628303 	 0.416577080197807
209.0821722776 	 0.521393248763707
210.0661878624 	 4.79735540743926
210.0899973097 	 0.510642872500538
211.0740128945 	 0.634272199526983
211.0978223418 	 0.666523328316491
212.0818379266 	 1.49161470651473
222.1025733687 	 0.908406794237798
223.0978223418 	 3.02623091808213
224.1056473739 	 0.67727370457966
225.0770868997 	 8.69167920877231
226.0849119318 	 80.6278219737691
227.0927369639 	 46.4819393678779
234.0899973097 	 0.169318426144915
235.0740128945 	 0.182756396473877
236.0818379266 	 0.196194366802838
237.0770868997 	 2.28714254998925
238.0849119318 	 0.728337991829714
239.0927369639 	 2.30864330251559
239.1291224702 	 1.90819178671254
249.113472406 	 4.10664373253064
250.0974879908 	 1.49698989464631
251.0927369639 	 8.98731455600946
252.100561996 	 2.60427864975274
267.1240370923 	 100
END IONS

BEGIN IONS
PEPMASS=389.1707
CHARGE=1
MSLEVEL=2
RT=0
SOURCE_INSTRUMENT=qTOF
FILENAME=CCMSLIB00000078275.ms
IONMODE=Positive
ORGANISM=Natural
NAME=Nisoldipine (Sular)
PI=GNPS
DATACOLLECTOR=GNPS
SMILES=CC(C)COC(=O)C1=C(C)NC(=C(C1c1cccc(c1)N(=O)=O)C(=O)OC)C
INCHI=InChI=1S/C20H24N2O6/c1-11(2)10-28-20(24)17-13(4)21-12(3)16(19(23)27-5)18(17)14-7-6-8-15(9-14)22(25)26/h6-9,11,18,21H,10H2,1-5H3
FORMULA=C20H24N2O6
PUBMED=N/A
SUBMITUSER=BIOADREM
LIBRARYQUALITY=0
SPECTRUMID=CCMSLIB00000078275
SCANS=805
ID=CCMSLIB00000078275
142.0651252299 	 6.17
154.0624451552 	 7.02
168.0780952194 	 12.67
170.060039852 	 6.91
170.0811692246 	 5.5
179.060374203 	 3.64
180.0681992351 	 7.61
181.0760242672 	 4.47
183.0916743314 	 19.78
193.0760242672 	 10.55
194.0838492993 	 17.72
195.0916743314 	 49.63
196.0968192888 	 19.6
197.0709388893 	 3.64
198.0760838467 	 4.35
209.0709388893 	 8.37
210.0787639214 	 3.67
211.0865889535 	 38.52
212.0917339109 	 15.63
213.0658535114 	 4
213.099558943 	 11.05
222.0787639214 	 10.43
223.0865889535 	 23.45
226.0862546025 	 11.17
227.0815035756 	 10.11
228.0893286077 	 4.55
239.0815035756 	 100
240.086648533 	 80.9
241.0944735651 	 31.62
253.0971536398 	 26.77
254.1049786719 	 48.81
255.0764181977 	 6.55
256.0842432298 	 13.46
257.0920682619 	 19.48
258.0972132193 	 5.23
270.0760838467 	 15.4
271.1077183261 	 39.26
296.1492487898 	 15.96
313.1546685187 	 74.73
314.1598134761 	 15.28
315.0975475703 	 75.67
357.1444977629 	 76.96
371.1601478271 	 4.41
389.1707125134 	 3.32
END IONS

BEGIN IONS
PEPMASS=877.4593
CHARGE=1
MSLEVEL=2
RT=0
SOURCE_INSTRUMENT=qTOF
FILENAME=CCMSLIB00000078277.ms
IONMODE=Positive
ORGANISM=Natural
NAME=Rifapentine (Priftin)
PI=GNPS
DATACOLLECTOR=GNPS
SMILES=C[C@@H]1C=CC=C(C)C(=Nc2c(/C=N/N3CCN(CC3)C3CCCC3)c(c3c(c(c(C)c4c3C(=O)[C@](C)(OC=C[C@@H]([C@@H](C)[C@H]([C@H](C)[C@@H]([C@@H](C)[C@H]1O)O)OC(=O)C)OC)O4)O)c2O)O)O
INCHI=InChI=1S/C47H64N4O12/c1-24-13-12-14-25(2)46(59)49-37-32(23-48-51-20-18-50(19-21-51)31-15-10-11-16-31)41(56)34-35(42(37)57)40(55)29(6)44-36(34)45(58)47(8,63-44)61-22-17-33(60-9)26(3)43(62-30(7)52)28(5)39(54)27(4)38(24)53/h12-14,17,22-24,26-28,31,33,38-39,43,53-57H,10-11,15-16,18-21H2,1-9H3,(H,49,59)/b13-12+,22-17+,25-14-,48-23+/t24-,26-,27+,28-,33+,38+,39-,43-,47-/m1/s1
FORMULA=C47H64N4O12
PUBMED=N/A
SUBMITUSER=BIOADREM
LIBRARYQUALITY=0
SPECTRUMID=CCMSLIB00000078277
SCANS=807
ID=CCMSLIB00000078277
107.085526321 	 6.78
109.0647908789 	 1.9
111.0804409431 	 2.02
119.085526321 	 1.96
123.0804409431 	 10.67
125.0960910073 	 2.35
129.0698762568 	 2.72
135.0804409431 	 6.09
135.1168264494 	 2.27
137.0960910073 	 2.43
145.1011763852 	 3.15
147.1168264494 	 3.04
151.0753555652 	 24.46
153.0910056294 	 4.86
157.1011763852 	 1.86
159.1168264494 	 2.59
161.0960910073 	 3.74
163.1117410715 	 20.37
165.1273911357 	 2
173.0960910073 	 4.86
177.1273911357 	 2.19
178.0988306615 	 1.84
179.1066556936 	 5.95
181.1223057578 	 1.88
185.1324765136 	 3.6
191.1066556936 	 14.67
193.1223057578 	 3.56
201.1273911357 	 2.33
209.1172203799 	 6.27
231.137955822 	 2.62
287.2005560788 	 2.15
289.1798206367 	 1.92
315.1954707009 	 2.29
453.2172687755 	 9.52
845.4331347899 	 100
846.440959822 	 53.23
847.4487848541 	 13.08
848.4453764979 	 5.07
875.4436994762 	 2.8
877.4593495404 	 51.27
END IONS

BEGIN IONS
PEPMASS=261.0582
CHARGE=1
MSLEVEL=2
RT=0
SOURCE_INSTRUMENT=qTOF
FILENAME=CCMSLIB00000078278.ms
IONMODE=Positive
ORGANISM=Natural
NAME=Suprofen (Profenal)
PI=GNPS
DATACOLLECTOR=GNPS
SMILES=CC(c1ccc(cc1)C(=O)c1cccs1)C(=O)O
INCHI=InChI=1S/C14H12O3S/c1-9(14(16)17)10-4-6-11(7-5-10)13(15)12-3-2-8-18-12/h2-9H,1H3,(H,16,17)
FORMULA=C14H12O3S
PUBMED=N/A
SUBMITUSER=BIOADREM
LIBRARYQUALITY=0
SPECTRUMID=CCMSLIB00000078278
SCANS=808
ID=CCMSLIB00000078278
103.0542261926 	 5.49
105.0698762568 	 2.83
110.9899113763 	 100
121.0647908789 	 1.36
177.0546201231 	 54.85
215.0525116331 	 4.37
261.0579909415 	 260.21
END IONS

BEGIN IONS
PEPMASS=823.4119
CHARGE=1
MSLEVEL=2
RT=0
SOURCE_INSTRUMENT=qTOF
FILENAME=CCMSLIB00000078280.ms
IONMODE=Positive
ORGANISM=Natural
NAME=Rifampin (Rifadin, Rimactane)
PI=GNPS
DATACOLLECTOR=GNPS
SMILES=C[C@@H]1C=CC=C(C)C(=Nc2c(/C=N/N3CCN(C)CC3)c(c3c(c(c(C)c4c3C(=O)[C@](C)(OC=C[C@@H]([C@@H](C)[C@H]([C@H](C)[C@@H]([C@@H](C)[C@H]1O)O)OC(=O)C)OC)O4)O)c2O)O)O
INCHI=InChI=1S/C43H58N4O12/c1-21-12-11-13-22(2)42(55)45-33-28(20-44-47-17-15-46(9)16-18-47)37(52)30-31(38(33)53)36(51)26(6)40-32(30)41(54)43(8,59-40)57-19-14-29(56-10)23(3)39(58-27(7)48)25(5)35(50)24(4)34(21)49/h11-14,19-21,23-25,29,34-35,39,49-53H,15-18H2,1-10H3,(H,45,55)/b12-11+,19-14+,22-13-,44-20+/t21-,23-,24+,25-,29+,34+,35-,39-,43-/m1/s1
FORMULA=C43H58N4O12
PUBMED=N/A
SUBMITUSER=BIOADREM
LIBRARYQUALITY=0
SPECTRUMID=CCMSLIB00000078280
SCANS=810
ID=CCMSLIB00000078280
107.085526321 	 2.45
109.0647908789 	 1.53
109.1011763852 	 1.13
121.0647908789 	 1.57
121.1011763852 	 1.11
123.0804409431 	 5.24
125.0960910073 	 1.98
133.1011763852 	 1.38
135.0804409431 	 3.38
135.1168264494 	 1.59
137.0960910073 	 2.2
145.1011763852 	 3.41
147.1168264494 	 2.09
149.0960910073 	 1.64
151.0753555652 	 12.04
153.0910056294 	 2.47
157.1011763852 	 1.29
159.1168264494 	 2.46
161.0960910073 	 3.07
163.1117410715 	 11.88
165.126048465 	 1.76
173.0960910073 	 3.53
173.1324765136 	 2.4
175.1103984008 	 2.19
175.1481265778 	 1
177.0910056294 	 1.01
177.1273911357 	 0.94
179.1066556936 	 6.4
181.1223057578 	 1.39
191.1066556936 	 5.93
193.1209630871 	 1.53
201.126048465 	 1.81
203.1430411999 	 1.98
209.1172203799 	 2.43
219.1366131513 	 2.29
297.1849060146 	 2.84
315.1954707009 	 2.3
316.2019530623 	 1.22
333.2060353872 	 2.02
334.2125177486 	 1.25
375.2152574028 	 1.61
791.3861845973 	 100
792.3940096294 	 47.79
793.3906012732 	 15.92
823.4123993478 	 21.79
END IONS

BEGIN IONS
PEPMASS=643.1069
CHARGE=1
MSLEVEL=2
RT=0
SOURCE_INSTRUMENT=qTOF
FILENAME=CCMSLIB00000078281.ms
IONMODE=Positive
ORGANISM=Natural
NAME=Cefditoren pivoxil
PI=GNPS
DATACOLLECTOR=GNPS
SMILES=Cc1c(/C=C\C2=C(C(=O)OCOC(=O)C(C)(C)C)N3C(=O)[C@@H]([C@H]3SC2)N=C(/C(=N\OC)/c2csc(=N)[nH]2)O)scn1
INCHI=InChI=1S/C25H28N6O7S3/c1-12-15(41-10-27-12)7-6-13-8-39-21-17(29-19(32)16(30-36-5)14-9-40-24(26)28-14)20(33)31(21)18(13)22(34)37-11-38-23(35)25(2,3)4/h6-7,9-10,17,21H,8,11H2,1-5H3,(H2,26,28)(H,29,32)/b7-6-,30-16-/t17-,21+/m0/s1
FORMULA=C25H28N6O7S3
PUBMED=N/A
SUBMITUSER=BIOADREM
LIBRARYQUALITY=0
SPECTRUMID=CCMSLIB00000078281
SCANS=811
ID=CCMSLIB00000078281
125.0055614405 	 0.332715633423181
126.0100156542 	 3.38085411051213
126.0133864726 	 0.742292789757412
134.0396012231 	 2.46588611859838
140.0528459841 	 1.689900606469
141.0004760626 	 0.237954851752022
141.0658535114 	 1.52354278975741
156.0239511589 	 0.722287735849057
156.0715700535 	 1.55197102425876
162.0345158452 	 1.55197102425876
162.0371959199 	 0.549612533692722
163.0753555652 	 2.85440532345013
166.032110542 	 1.12028301886792
167.0365647557 	 0.204262129380054
181.019200132 	 0.282176549865229
182.0236543457 	 1.41298854447439
182.0270251641 	 0.489597371967655
188.0402699251 	 1.44036388140162
197.0505002604 	 2.13843497304582
201.0420440641 	 2.1331704851752
205.0396387609 	 0.228478773584906
207.0665222134 	 4.48850235849057
207.9885311678 	 4.49166105121294
208.0730098415 	 4.26739386792453
209.0107439357 	 1.16450471698113
210.0185689678 	 2.08368429919137
210.0212490425 	 7.3429076819407
212.0164604778 	 0.239007749326146
213.0454148825 	 0.37483153638814
217.0430095793 	 0.276912061994609
219.0559795688 	 2.6596192722372
223.0502034472 	 0.190574460916442
225.0420440641 	 0.21373820754717
225.0532774524 	 2.10579514824798
225.9990958541 	 0.322186657681941
227.0035500678 	 0.507496630727763
227.0069208862 	 10.5289757412399
228.0095634231 	 1.85625842318059
241.0403295046 	 10.5289757412399
243.0348501962 	 0.800202156334232
249.0150802693 	 1.80782513477089
255.0427127661 	 1.44036388140162
257.0174855725 	 0.296917115902965
258.0219397862 	 0.205315026954178
261.0150802693 	 0.24006064690027
262.0150427315 	 2.24477762803235
262.9943448272 	 0.873904986522911
263.0359128287 	 1.99524090296496
267.0256449556 	 0.514866913746631
276.0259793066 	 0.255854110512129
285.0124001946 	 0.693859501347709
289.0845775808 	 2.82597708894879
290.0897225382 	 2.41008254716981
304.0208939287 	 0.253748315363881
305.033901456 	 2.1331704851752
315.1213570176 	 2.5764403638814
337.126836326 	 1.52354278975741
350.0263732371 	 0.214791105121294
351.0831598345 	 3.74094508086253
351.0858399092 	 0.237954851752022
361.1302071444 	 6.29001010781671
363.1035984634 	 1.60672169811321
363.1424863902 	 2.02261623989218
381.0964045955 	 0.783355795148248
399.0739545939 	 1.96681266846361
417.0270044013 	 1.44036388140162
445.0583045297 	 1.60672169811321
461.0532191518 	 0.37483153638814
463.0899985886 	 1.52354278975741
485.0617724654 	 1.93943733153639
489.0481337739 	 2.6027628032345
490.0519360606 	 1.80150774932615
507.0586984602 	 4.07892520215633
546.0934069448 	 0.392730795148248
590.1196216953 	 1.57934636118598
591.1148706684 	 3.83465296495957
592.1114623122 	 0.658060983827493
621.1254353547 	 100
END IONS

BEGIN IONS
PEPMASS=657.1636
CHARGE=1
MSLEVEL=2
RT=0
SOURCE_INSTRUMENT=qTOF
FILENAME=CCMSLIB00000078288.ms
IONMODE=Positive
ORGANISM=Natural
NAME=Teniposide (Vumon)
PI=GNPS
DATACOLLECTOR=GNPS
SMILES=COc1cc(cc(c1O)OC)[C@H]1c2cc3c(cc2[C@H]([C@H]2COC(=O)[C@H]12)O[C@H]1[C@@H]([C@H]([C@H]2[C@@H](CO[C@@H](c4cccs4)O2)O1)O)O)OCO3
INCHI=InChI=1S/C32H32O13S/c1-37-19-6-13(7-20(38-2)25(19)33)23-14-8-17-18(42-12-41-17)9-15(14)28(16-10-39-30(36)24(16)23)44-32-27(35)26(34)29-21(43-32)11-40-31(45-29)22-4-3-5-46-22/h3-9,16,21,23-24,26-29,31-35H,10-12H2,1-2H3/t16-,21+,23-,24-,26+,27+,28+,29+,31+,32-/m0/s1
FORMULA=C32H32O13S
PUBMED=N/A
SUBMITUSER=BIOADREM
LIBRARYQUALITY=0
SPECTRUMID=CCMSLIB00000078288
SCANS=814
ID=CCMSLIB00000078288
97.0284053726 	 0.51
113.0055614405 	 5.05
127.0389700589 	 1.17
143.0491408147 	 0.68
145.0495347452 	 1.52
185.059705501 	 41.09
193.031776191 	 0.61
199.0389700589 	 1.67
211.0423408773 	 0.61
229.0495347452 	 100
239.0702701873 	 1.81
247.0634702499 	 1.39
257.0478201857 	 4.48
267.0651848094 	 3.72
275.058384872 	 4.26
277.0859202515 	 0.86
283.0600994315 	 1.08
292.0730098415 	 0.62
293.0808348736 	 0.54
298.0835745278 	 1.36
305.0808348736 	 2.61
307.0964849378 	 2.15
323.0913995599 	 0.47
337.1070496241 	 1.76
339.1226996883 	 1.02
383.1125289325 	 30.64
504.1084686493 	 0.97
657.1636378045 	 0.32
END IONS

BEGIN IONS
PEPMASS=786.3596
CHARGE=1
MSLEVEL=2
RT=0
SOURCE_INSTRUMENT=qTOF
FILENAME=CCMSLIB00000078289.ms
IONMODE=Positive
ORGANISM=Natural
NAME=Rifaximin (Xifaxan)
PI=GNPS
DATACOLLECTOR=GNPS
SMILES=Cc1ccn2c(c1)nc1c3c4c(c(C)c5c3C(=O)[C@](C)(OC=C[C@@H]([C@@H](C)[C@H]([C@H](C)[C@@H]([C@@H](C)[C@H]([C@H](C)C=CC=C(C)C(=Nc(c21)c4O)O)O)O)OC(=O)C)OC)O5)O
INCHI=InChI=1S/C43H51N3O11/c1-19-14-16-46-28(18-19)44-32-29-30-37(50)25(7)40-31(29)41(52)43(9,57-40)55-17-15-27(54-10)22(4)39(56-26(8)47)24(6)36(49)23(5)35(48)20(2)12-11-13-21(3)42(53)45-33(34(32)46)38(30)51/h11-18,20,22-24,27,35-36,39,48-51H,1-10H3,(H,45,53)/b12-11+,17-15+,21-13-/t20-,22-,23+,24-,27+,35+,36-,39-,43-/m1/s1
FORMULA=C43H51N3O11
PUBMED=N/A
SUBMITUSER=BIOADREM
LIBRARYQUALITY=0
SPECTRUMID=CCMSLIB00000078289
SCANS=815
ID=CCMSLIB00000078289
95.0491408147 	 0.170595883153093
95.085526321 	 0.415592614024936
97.0647908789 	 0.171347406867424
107.085526321 	 0.50352088860164
109.0647908789 	 0.338185671448863
111.0804409431 	 0.226960161727903
119.085526321 	 0.291591201160353
121.1011763852 	 0.183371786296717
123.0804409431 	 0.91385283662626
133.0647908789 	 0.160826074866792
133.1011763852 	 0.396052997452335
135.0804409431 	 0.586188497178028
135.1168264494 	 0.339688718877524
145.1011763852 	 0.51329069688794
147.1168264494 	 0.626019254037561
149.0947483366 	 0.160074551152462
151.0753555652 	 2.65738785387373
153.0910056294 	 0.44790813374116
161.0960910073 	 0.6342860148952
163.1117410715 	 1.78712339267866
165.126048465 	 0.266039394873105
173.0947483366 	 0.429871564597221
173.1324765136 	 0.251008920586489
175.1103984008 	 0.591449163178344
177.0896629587 	 0.212681211155618
179.1066556936 	 0.629025348894884
185.1324765136 	 0.205917497726641
191.1066556936 	 0.808639516619947
193.1209630871 	 0.3171430074476
201.126048465 	 0.180365691439393
219.1366131513 	 0.266039394873105
231.137955822 	 0.276560726873737
272.1559516099 	 0.43888984916919
279.1703185829 	 0.166838264581439
303.1828946419 	 0.825173038335225
325.1223057578 	 2.03662926583648
326.1175547309 	 0.554624501176134
339.2107268346 	 0.589946115749682
340.1332047951 	 0.523812028888572
347.1026329482 	 6.70359153183079
348.1019046667 	 2.74155850987878
361.1030268787 	 6.53449869610636
362.1108519108 	 3.03465275846779
362.1135319855 	 1.84048157639614
365.2263768988 	 0.705680767756627
380.2458292497 	 0.536587932032195
384.2083811109 	 0.474962987457069
408.2407438718 	 0.612491827179607
425.2475062714 	 0.72747495547222
455.1448916934 	 0.62526773032323
456.1441634119 	 0.750020666902144
466.1761322423 	 0.23297235144255
483.1802145672 	 0.510284602030617
484.1840168539 	 1.65485521895643
485.191841886 	 0.785342281475692
486.1911136045 	 0.479472129743054
512.178931476 	 0.598964400321652
513.1867565081 	 0.612491827179607
514.1945815402 	 0.869512937480742
556.2051462265 	 0.807136469191285
570.2234763654 	 0.892058648910666
571.2286213228 	 0.89581626748232
582.2724379307 	 0.607982684893622
600.283002617 	 0.452417276027145
614.2384577276 	 0.523812028888572
622.3010579844 	 0.435132230597536
640.2990466117 	 5.14643439573736
641.3095517185 	 6.77423476097788
642.3061433623 	 2.17791572413068
651.3037976386 	 0.430623088311552
659.2963069575 	 0.617000969465591
676.3017266864 	 0.238984541157196
694.309611298 	 7.16953623471589
695.3201164048 	 2.74606765216476
696.3167080486 	 0.789851423761677
698.3435915011 	 0.470453845171084
700.322856059 	 1.09121243320833
701.3194477028 	 0.652322584039139
702.3146966759 	 0.487738890600693
718.3122913727 	 0.159323027438131
726.3385061232 	 3.95301473738004
727.3463311553 	 3.85982579680302
728.3429227991 	 2.00506526983459
736.322856059 	 0.51329069688794
737.3306810911 	 0.254766539158143
754.3334207453 	 15.0304742866161
755.3412457774 	 7.97216356162119
756.3378374212 	 2.04940516898011
786.3596354958 	 100
END IONS

BEGIN IONS
PEPMASS=419.2799
CHARGE=1
MSLEVEL=2
RT=0
SOURCE_INSTRUMENT=qTOF
FILENAME=CCMSLIB00000078292.ms
IONMODE=Positive
ORGANISM=Natural
NAME=Simvastatin (Zocor)
PI=GNPS
DATACOLLECTOR=GNPS
SMILES=CCC(C)(C)C(=O)O[C@@H]1C[C@@H](C)C=C2C=C[C@H](C)[C@@H](CC[C@@H]3C[C@H](CC(=O)O3)O)[C@@H]12
INCHI=InChI=1S/C25H38O5/c1-6-25(4,5)24(28)30-21-12-15(2)11-17-8-7-16(3)20(23(17)21)10-9-19-13-18(26)14-22(27)29-19/h7-8,11,15-16,18-21,23,26H,6,9-10,12-14H2,1-5H3/t15-,16-,18+,19+,20+,21+,23-/m0/s1
FORMULA=C25H38O5
PUBMED=N/A
SUBMITUSER=BIOADREM
LIBRARYQUALITY=0
SPECTRUMID=CCMSLIB00000078292
SCANS=817
ID=CCMSLIB00000078292
105.0698762568 	 3.87
107.085526321 	 4.18
128.0620512247 	 2.71
129.0698762568 	 3.12
131.085526321 	 9.41
133.1011763852 	 4.12
142.0777012889 	 4.09
143.085526321 	 15.09
145.1011763852 	 13.89
155.085526321 	 5.07
156.0933513531 	 2.17
157.1011763852 	 9.5
159.1168264494 	 16.9
163.1117410715 	 2.44
169.1011763852 	 10.9
171.1168264494 	 17.15
173.1324765136 	 55.28
183.1168264494 	 13.05
191.1066556936 	 3.94
199.1481265778 	 100
223.1481265778 	 8.84
225.163776642 	 47.05
243.1743413283 	 41.96
249.163776642 	 19.23
267.1743413283 	 27.78
285.1849060146 	 56.39
303.1954707009 	 24.41
419.2792003303 	 1.24
END IONS

BEGIN IONS
PEPMASS=417.2401
CHARGE=1
MSLEVEL=2
RT=0
SOURCE_INSTRUMENT=qTOF
FILENAME=CCMSLIB00000078293.ms
IONMODE=Positive
ORGANISM=Natural
NAME=Ramipril (Altace)
PI=GNPS
DATACOLLECTOR=GNPS
SMILES=CCOC(=O)[C@H](CCc1ccccc1)N[C@@H](C)C(=O)N1[C@H]2CCC[C@H]2C[C@@H]1C(=O)O
INCHI=InChI=1S/C23H32N2O5/c1-3-30-23(29)18(13-12-16-8-5-4-6-9-16)24-15(2)21(26)25-19-11-7-10-17(19)14-20(25)22(27)28/h4-6,8-9,15,17-20,24H,3,7,10-14H2,1-2H3,(H,27,28)/t15-,17-,18-,19-,20+/m0/s1
FORMULA=C23H32N2O5
PUBMED=N/A
SUBMITUSER=BIOADREM
LIBRARYQUALITY=0
SPECTRUMID=CCMSLIB00000078293
SCANS=818
ID=CCMSLIB00000078293
88.1120754225 	 1.15001005667231
91.0542261926 	 0.0591568959193573
102.0549544741 	 0.230711894085494
110.0964253583 	 0.128962033104199
116.1069900446 	 1.22099833177554
117.0698762568 	 1.69070408537523
130.0862546025 	 1.7486778433762
134.0964253583 	 0.873155783769714
138.1277254867 	 2.227848700323
156.1019046667 	 1.03761195442553
160.1120754225 	 3.57189337561079
182.1301307899 	 1.00566723062907
188.1069900446 	 0.0414098271435501
206.1175547309 	 1.28252150353167
206.1539402372 	 0.0414098271435501
212.1645049235 	 2.44317980146946
221.0556827556 	 1.07783864365069
234.1488548593 	 19.399912447794
261.2212915209 	 1.24584422806167
280.1543341677 	 11.8313791838715
281.1495831408 	 2.53901397285882
343.2016187113 	 1.77470687758072
417.2383981481 	 100
END IONS

BEGIN IONS
PEPMASS=347.1244
CHARGE=1
MSLEVEL=2
RT=0
SOURCE_INSTRUMENT=qTOF
FILENAME=CCMSLIB00000078299.ms
IONMODE=Positive
ORGANISM=Natural
NAME=Nifedipine (Adalat)
PI=GNPS
DATACOLLECTOR=GNPS
SMILES=CC1=C(C(c2ccccc2N(=O)=O)C(=C(C)N1)C(=O)OC)C(=O)OC
INCHI=InChI=1S/C17H18N2O6/c1-9-13(16(20)24-3)15(14(10(2)18-9)17(21)25-4)11-7-5-6-8-12(11)19(22)23/h5-8,15,18H,1-4H3
FORMULA=C17H18N2O6
PUBMED=N/A
SUBMITUSER=BIOADREM
LIBRARYQUALITY=0
SPECTRUMID=CCMSLIB00000078299
SCANS=823
ID=CCMSLIB00000078299
142.0651252299 	 4.52
144.0443897878 	 2.06
152.0494751657 	 2.82
156.0807752941 	 1.95
167.0702701873 	 4.2
168.0807752941 	 6.35
170.060039852 	 7.65
179.060374203 	 4
180.0681992351 	 4.8
181.0760242672 	 3.89
182.0838492993 	 6.92
183.0916743314 	 9.23
193.0760242672 	 9.2
194.0838492993 	 22.47
195.0916743314 	 46.83
196.0968192888 	 20.46
197.0709388893 	 2.75
209.0709388893 	 10.53
210.0913399804 	 3.58
211.0865889535 	 27.84
212.0917339109 	 13.11
221.0709388893 	 5
222.0760838467 	 7.82
223.0865889535 	 28.37
226.0862546025 	 15
239.0815035756 	 51.71
240.086648533 	 10.36
241.0971536398 	 17.95
253.0971536398 	 44.96
254.1049786719 	 100
255.0764181977 	 7.75
271.1077183261 	 55.81
315.0975475703 	 99.01
329.1131976345 	 2.03
347.1237623208 	 2.13
END IONS

BEGIN IONS
PEPMASS=275.1308
CHARGE=1
MSLEVEL=2
RT=0
SOURCE_INSTRUMENT=qTOF
FILENAME=CCMSLIB00000078301.ms
IONMODE=Positive
ORGANISM=Natural
NAME=Chlorpheniramine Maleate
PI=GNPS
DATACOLLECTOR=GNPS
SMILES=CN(C)CCC(c1ccc(cc1)Cl)c1ccccn1
INCHI=InChI=1S/C16H19ClN2/c1-19(2)12-10-15(16-5-3-4-11-18-16)13-6-8-14(17)9-7-13/h3-9,11,15H,10,12H2,1-2H3
FORMULA=C16H19ClN2
PUBMED=N/A
SUBMITUSER=BIOADREM
LIBRARYQUALITY=0
SPECTRUMID=CCMSLIB00000078301
SCANS=825
ID=CCMSLIB00000078301
117.0573001978 	 0.17
118.0651252299 	 0.92
125.0152538705 	 0.445
166.0651252299 	 0.195
167.072950262 	 24.56
180.0807752941 	 2.26
194.0964253583 	 1.97
195.1042503904 	 1.205
202.041802972 	 6.035
230.0731031004 	 100
275.1309523303 	 21.575
END IONS

BEGIN IONS
PEPMASS=482.1811
CHARGE=1
MSLEVEL=2
RT=0
SOURCE_INSTRUMENT=qTOF
FILENAME=CCMSLIB00000078304.ms
IONMODE=Positive
ORGANISM=Natural
NAME=Pranlukast
PI=GNPS
DATACOLLECTOR=GNPS
SMILES=c1ccc(cc1)CCCCOc1ccc(cc1)C(=O)Nc1ccc2c(=O)cc(c3n[nH]nn3)oc2c1
INCHI=InChI=1S/C27H23N5O4/c33-23-17-25(26-29-31-32-30-26)36-24-16-20(11-14-22(23)24)28-27(34)19-9-12-21(13-10-19)35-15-5-4-8-18-6-2-1-3-7-18/h1-3,6-7,9-14,16-17H,4-5,8,15H2,(H,28,34)(H,29,30,31,32)
FORMULA=C27H23N5O4
PUBMED=N/A
SUBMITUSER=BIOADREM
LIBRARYQUALITY=0
SPECTRUMID=CCMSLIB00000078304
SCANS=827
ID=CCMSLIB00000078304
91.0542261926 	 10.25
119.047798144 	 5.27
120.0443897878 	 5.13
121.0270627019 	 42.69
131.085526321 	 3.08
133.1011763852 	 9.26
147.0427127661 	 88.65
148.0478577235 	 9.67
175.0376273882 	 100
177.0532774524 	 2.16
210.0549544741 	 3.44
250.0849119318 	 3.15
251.0689275166 	 5.79
252.0767525487 	 5.57
253.1182830124 	 30.98
255.1240370923 	 3.04
266.0798265539 	 32.22
294.074741176 	 28.12
305.1324765136 	 3.33
306.1475121886 	 7.84
307.1553372207 	 2.23
334.1509801243 	 3
383.1588051564 	 6.96
384.1706529339 	 2.34
398.1737269391 	 13.22
399.1815519712 	 7.65
426.1686415612 	 26.62
427.1764665933 	 16.07
428.1717155664 	 2.64
437.1495831408 	 10.4
454.1761322423 	 95.17
464.1717155664 	 8.31
465.1795405985 	 4.06
482.1822802527 	 86.78
END IONS

BEGIN IONS
PEPMASS=316.0768
CHARGE=1
MSLEVEL=2
RT=0
SOURCE_INSTRUMENT=qTOF
FILENAME=CCMSLIB00000078305.ms
IONMODE=Positive
ORGANISM=Natural
NAME=Oxfendazole
PI=GNPS
DATACOLLECTOR=GNPS
SMILES=COC(=Nc1nc2ccc(cc2[nH]1)S(=O)c1ccccc1)O
INCHI=InChI=1S/C15H13N3O3S/c1-21-15(19)18-14-16-12-8-7-11(9-13(12)17-14)22(20)10-5-3-2-4-6-10/h2-9H,1H3,(H2,16,17,18,19)
FORMULA=C15H13N3O3S
PUBMED=N/A
SUBMITUSER=BIOADREM
LIBRARYQUALITY=0
SPECTRUMID=CCMSLIB00000078305
SCANS=828
ID=CCMSLIB00000078305
104.0368991067 	 0.89
131.047798144 	 3.39
135.0427127661 	 1.04
146.0712732403 	 0.63
147.0427127661 	 1.1
159.0427127661 	 94.51
174.0298023561 	 2.25
175.0376273882 	 13.58
176.0402699251 	 1.28
191.0325420103 	 100
191.0689275166 	 35.28
192.0351845472 	 8.42
192.0715700535 	 2.3
206.0560171066 	 0.49
207.0096980782 	 34.54
223.057597011 	 54.99
224.0613992977 	 4.3
235.0740128945 	 0.31
236.0818379266 	 0.27
238.0433439303 	 0.49
239.0359128287 	 12.94
241.0304335203 	 0.5
266.0382585524 	 3.95
267.0460835845 	 5.38
284.0488232387 	 66.86
298.0644733029 	 0.41
299.072298335 	 2.16
316.0750379892 	 123.12
END IONS

BEGIN IONS
PEPMASS=407.1965
CHARGE=1
MSLEVEL=2
RT=0
SOURCE_INSTRUMENT=qTOF
FILENAME=CCMSLIB00000078306.ms
IONMODE=Positive
ORGANISM=Natural
NAME=Carvedilol
PI=GNPS
DATACOLLECTOR=GNPS
SMILES=COc1ccccc1OCCNCC(COc1cccc2c1c1ccccc1[nH]2)O
INCHI=InChI=1S/C24H26N2O4/c1-28-21-10-4-5-11-22(21)29-14-13-25-15-17(27)16-30-23-12-6-9-20-24(23)18-7-2-3-8-19(18)26-20/h2-12,17,25-27H,13-16H2,1H3
FORMULA=C24H26N2O4
PUBMED=N/A
SUBMITUSER=BIOADREM
LIBRARYQUALITY=0
SPECTRUMID=CCMSLIB00000078306
SCANS=829
ID=CCMSLIB00000078306
95.0491408147 	 0.0972195216799533
100.0756899162 	 6.25869366876561
119.0491408147 	 0.0717928775482732
121.0647908789 	 0.279693085448481
122.0362304047 	 0.0688015076504285
123.0440554368 	 0.560881855845885
123.0804409431 	 0.138350857775318
130.0651252299 	 0.0897410969353415
136.0518804689 	 0.0934803093076474
137.059705501 	 0.216126475119281
149.059705501 	 0.151812022315619
150.0675305331 	 0.095723836731031
151.0753555652 	 2.11639420272514
154.0651252299 	 0.194439043359907
156.0807752941 	 0.670814699591678
167.072950262 	 0.430757265289639
168.0807752941 	 0.907132921521411
169.0859202515 	 0.237813906878655
180.1019046667 	 3.99796586846947
182.060039852 	 0.436740005085329
182.0964253583 	 0.468897231487159
183.0678648841 	 1.02080497763951
184.0756899162 	 3.8297013117157
192.0807752941 	 0.21537863264482
193.0886003262 	 0.782991070760855
194.0964253583 	 9.36822267757519
196.0756899162 	 3.69808103621053
197.0808348736 	 0.256509968740185
204.0807752941 	 0.42477452549395
205.0859202515 	 0.0845061996141133
206.1175547309 	 2.23754468358785
207.0678648841 	 0.425522367968411
208.0730098415 	 0.0830105146651909
210.0913399804 	 1.79482193870683
212.1069900446 	 0.0904889394098027
221.0835149483 	 0.280440927922942
222.0913399804 	 14.9568494892236
223.0964849378 	 1.03576182712873
224.1281194172 	 9.47516415142315
236.1069900446 	 0.326059318865074
240.1019046667 	 0.367190654960439
283.1441038324 	 6.90333388175115
389.1859686471 	 0.264736235959258
407.1965333334 	 100
END IONS

BEGIN IONS
PEPMASS=411.0265
CHARGE=1
MSLEVEL=2
RT=0
SOURCE_INSTRUMENT=qTOF
FILENAME=CCMSLIB00000078307.ms
IONMODE=Positive
ORGANISM=Natural
NAME=Butoconazole nitrate
PI=GNPS
DATACOLLECTOR=GNPS
SMILES=c1cc(c(c(c1)Cl)SC(CCc1ccc(cc1)Cl)Cn1ccnc1)Cl
INCHI=InChI=1S/C19H17Cl3N2S/c20-15-7-4-14(5-8-15)6-9-16(12-24-11-10-23-13-24)25-19-17(21)2-1-3-18(19)22/h1-5,7-8,10-11,13,16H,6,9,12H2
FORMULA=C19H17Cl3N2S
PUBMED=N/A
SUBMITUSER=BIOADREM
LIBRARYQUALITY=0
SPECTRUMID=CCMSLIB00000078307
SCANS=830
ID=CCMSLIB00000078307
115.0542261926 	 0.9
129.0698762568 	 13.76
130.0777012889 	 24.03
150.0230789026 	 0.32
165.0465539989 	 100
411.0250783761 	 28.27
END IONS

BEGIN IONS
PEPMASS=749.5153
CHARGE=1
MSLEVEL=2
RT=0
SOURCE_INSTRUMENT=qTOF
FILENAME=CCMSLIB00000078309.ms
IONMODE=Positive
ORGANISM=Natural
NAME=Azithromycin (Zithromax)
PI=GNPS
DATACOLLECTOR=GNPS
SMILES=CC[C@@H]1[C@](C)([C@@H]([C@@H](C)N(C)C[C@H](C)C[C@](C)([C@@H]([C@@H](C)[C@@H]([C@H](C)C(=O)O1)O[C@H]1C[C@](C)([C@H]([C@H](C)O1)O)OC)O[C@H]1[C@H]([C@H](C[C@@H](C)O1)N(C)C)O)O)O)O
INCHI=InChI=1S/C38H72N2O12/c1-15-27-38(10,46)31(42)24(6)40(13)19-20(2)17-36(8,45)33(52-35-29(41)26(39(11)12)16-21(3)48-35)22(4)30(23(5)34(44)50-27)51-28-18-37(9,47-14)32(43)25(7)49-28/h20-33,35,41-43,45-46H,15-19H2,1-14H3/t20-,21-,22+,23+,24-,25+,26+,27-,28+,29+,30+,31-,32+,33-,35+,36-,37-,38-/m1/s1
FORMULA=C38H72N2O12
PUBMED=N/A
SUBMITUSER=BIOADREM
LIBRARYQUALITY=0
SPECTRUMID=CCMSLIB00000078309
SCANS=831
ID=CCMSLIB00000078309
98.0964253583 	 2.67
113.059705501 	 2.57
115.0753555652 	 3.44
116.0706045383 	 6.69
116.1069900446 	 22.81
127.0753555652 	 3.54
140.1069900446 	 1.24
158.1175547309 	 100
358.2529260003 	 1.06
398.2900993676 	 11.09
399.2920511608 	 1.47
416.3006640539 	 5.98
417.3026158471 	 1.33
434.3112287402 	 13.02
435.3131805334 	 4
573.4109427848 	 37.74
574.412894578 	 11.39
575.4207196101 	 2.24
591.4215074711 	 67.42
592.4234592643 	 29.01
749.5158017868 	 374.66
END IONS

BEGIN IONS
PEPMASS=314.0935
CHARGE=1
MSLEVEL=2
RT=0
SOURCE_INSTRUMENT=qTOF
FILENAME=CCMSLIB00000078310.ms
IONMODE=Positive
ORGANISM=Natural
NAME=Flubendazole (Flutelmium)
PI=GNPS
DATACOLLECTOR=GNPS
SMILES=COC(=Nc1nc2ccc(cc2[nH]1)C(=O)c1ccc(cc1)F)O
INCHI=InChI=1S/C16H12FN3O3/c1-23-16(22)20-15-18-12-7-4-10(8-13(12)19-15)14(21)9-2-5-11(17)6-3-9/h2-8H,1H3,(H2,18,19,20,22)
FORMULA=C16H12FN3O3
PUBMED=N/A
SUBMITUSER=BIOADREM
LIBRARYQUALITY=0
SPECTRUMID=CCMSLIB00000078310
SCANS=832
ID=CCMSLIB00000078310
95.0291542963 	 0.417236662106703
113.0397189826 	 1.18331053351573
123.0240689184 	 10.9781121751026
140.0056792 	 1.38850889192886
165.0135042321 	 1.44322845417237
168.0192376698 	 1.703146374829
205.0771671214 	 2.89329685362517
209.0583628303 	 1.15595075239398
226.0775014724 	 0.718194254445965
227.0251315509 	 2.28454172366621
230.0486066472 	 3.03693570451436
231.0928171856 	 1.18331053351573
233.0846578025 	 1.96306429548564
241.0407816151 	 1.24487004103967
243.045198291 	 3.64569083447332
244.0530233231 	 5.81395348837209
254.0360305882 	 5.32147742818058
254.0724160945 	 0.6703146374829
255.045198291 	 2.25718194254446
255.0802411266 	 0.259917920656635
258.0686733873 	 2.22298221614227
270.1037162229 	 0.239398084815321
282.0673307166 	 100
284.0717473925 	 15.5813953488372
285.0795724246 	 2.54445964432285
314.0935454671 	 88.3652530779754
END IONS

BEGIN IONS
PEPMASS=369.1334
CHARGE=1
MSLEVEL=2
RT=0
SOURCE_INSTRUMENT=qTOF
FILENAME=CCMSLIB00000078313.ms
IONMODE=Positive
ORGANISM=Natural
NAME=Curcumin
PI=GNPS
DATACOLLECTOR=GNPS
SMILES=COc1cc(/C=C/C(=C/C(=O)/C=C/c2ccc(c(c2)OC)O)/O)ccc1O
INCHI=InChI=1S/C21H20O6/c1-26-20-11-14(5-9-18(20)24)3-7-16(22)13-17(23)8-4-15-6-10-19(25)21(12-15)27-2/h3-13,22,24-25H,1-2H3/b7-3+,8-4+,16-13-
FORMULA=C21H20O6
PUBMED=N/A
SUBMITUSER=BIOADREM
LIBRARYQUALITY=0
SPECTRUMID=CCMSLIB00000078313
SCANS=835
ID=CCMSLIB00000078313
115.0542261926 	 1.47625160462131
117.0334907505 	 36.3660676080445
131.0491408147 	 1.20881471972614
133.0647908789 	 1.36927685066324
134.0362304047 	 1.56718014548567
136.0518804689 	 8.47240051347882
143.0491408147 	 1.27834830979889
145.0284053726 	 90.0780915703894
149.059705501 	 16.153187847668
151.0389700589 	 5.10804450149765
151.0753555652 	 3.87248609328199
161.059705501 	 23.7911852802739
162.0675305331 	 2.21972614462987
165.0698762568 	 3.78155755241763
167.0491408147 	 1.42276422764228
175.0753555652 	 11.2644415917843
177.0546201231 	 100
182.072615911 	 1.35323063756953
185.059705501 	 1.17137355584082
193.0647908789 	 3.67458279845956
201.0546201231 	 2.77599486521181
203.0702701873 	 2.66902011125374
210.0675305331 	 1.38532306375695
213.0546201231 	 1.17137355584082
219.0651848094 	 14.2543859649123
221.059705501 	 2.38553701326487
225.0910056294 	 13.2488232777065
227.0702701873 	 1.92019683354728
238.0624451552 	 2.44437312794181
245.0808348736 	 17.6615318784767
253.0859202515 	 17.4689773213522
254.0937452836 	 2.73855370132649
259.0964849378 	 8.7665810868635
270.0886599057 	 2.46041934103552
285.112135002 	 61.8100128369705
369.1332643746 	 62.3074454428755
END IONS

BEGIN IONS
PEPMASS=250.1186
CHARGE=1
MSLEVEL=2
RT=0
SOURCE_INSTRUMENT=qTOF
FILENAME=CCMSLIB00000078315.ms
IONMODE=Positive
ORGANISM=Natural
NAME=Oxibendazole
PI=GNPS
DATACOLLECTOR=GNPS
SMILES=CCCOc1ccc2c(c1)[nH]c(n2)N=C(O)OC
INCHI=InChI=1S/C12H15N3O3/c1-3-6-18-8-4-5-9-10(7-8)14-11(13-9)15-12(16)17-2/h4-5,7H,3,6H2,1-2H3,(H2,13,14,15,16)
FORMULA=C12H15N3O3
PUBMED=N/A
SUBMITUSER=BIOADREM
LIBRARYQUALITY=0
SPECTRUMID=CCMSLIB00000078315
SCANS=837
ID=CCMSLIB00000078315
130.0399731119 	 0.49
133.0396387609 	 0.57
147.0427127661 	 0.61
148.0505377982 	 13.79
151.0502034472 	 0.33
175.0376273882 	 4.17
176.0454524203 	 59.08
208.0716671708 	 1.12
218.0924026129 	 100
250.1186173634 	 57.43
END IONS

BEGIN IONS
PEPMASS=311.1557
CHARGE=1
MSLEVEL=2
RT=0
SOURCE_INSTRUMENT=qTOF
FILENAME=CCMSLIB00000078316.ms
IONMODE=Positive
ORGANISM=Natural
NAME=Bifonazole
PI=GNPS
DATACOLLECTOR=GNPS
SMILES=c1ccc(cc1)c1ccc(cc1)C(c1ccccc1)n1ccnc1
INCHI=InChI=1S/C22H18N2/c1-3-7-18(8-4-1)19-11-13-21(14-12-19)22(24-16-15-23-17-24)20-9-5-2-6-10-20/h1-17,22H
FORMULA=C22H18N2
PUBMED=N/A
SUBMITUSER=BIOADREM
LIBRARYQUALITY=0
SPECTRUMID=CCMSLIB00000078316
SCANS=838
ID=CCMSLIB00000078316
91.0542261926 	 1.06333333333333
115.0542261926 	 7.49333333333333
141.0698762568 	 4.65666666666667
152.0620512247 	 0.41
165.0698762568 	 41.7366666666667
178.0777012889 	 0.766666666666667
202.0777012889 	 3.74
215.085526321 	 9.91
226.0777012889 	 0.7
227.085526321 	 2.62
228.0933513531 	 40.1766666666667
241.1011763852 	 17.68
243.1168264494 	 100
311.1542745882 	 0.106666666666667
END IONS

BEGIN IONS
PEPMASS=334.1568
CHARGE=1
MSLEVEL=2
RT=0
SOURCE_INSTRUMENT=qTOF
FILENAME=CCMSLIB00000078317.ms
IONMODE=Positive
ORGANISM=Natural
NAME=Pefloxacin mesylate
PI=GNPS
DATACOLLECTOR=GNPS
SMILES=CCn1cc(c(=O)c2cc(c(cc12)N1CCN(C)CC1)F)C(=O)O
INCHI=InChI=1S/C17H20FN3O3/c1-3-20-10-12(17(23)24)16(22)11-8-13(18)15(9-14(11)20)21-6-4-19(2)5-7-21/h8-10H,3-7H2,1-2H3,(H,23,24)
FORMULA=C17H20FN3O3
PUBMED=N/A
SUBMITUSER=BIOADREM
LIBRARYQUALITY=0
SPECTRUMID=CCMSLIB00000078317
SCANS=839
ID=CCMSLIB00000078317
135.0478783657 	 0.164581027780142
156.0681992351 	 0.222751908288641
157.0760242672 	 0.368888510541699
162.0349679557 	 0.21423909650691
163.0427929878 	 0.204307482761556
163.0666024351 	 0.256803155415567
164.0494751657 	 0.339093669305638
172.0756899162 	 0.299367214324225
175.0666024351 	 0.526375528503731
176.0744274672 	 1.57345137765671
177.058443052 	 0.483811469595074
177.0822524993 	 0.822905138900712
178.0662680841 	 0.242615135779348
184.0631138572 	 0.391589341959649
185.0709388893 	 1.63020345620158
186.058777403 	 0.165999829743764
187.0666024351 	 0.598734428648449
188.0506180199 	 0.209982690616044
189.045866993 	 0.163162225816521
190.0651252299 	 0.665418120938679
191.0615170572 	 0.743452228937885
192.0819181483 	 0.343350075196504
203.0615170572 	 6.50378820124287
204.0693420893 	 6.45554893447972
205.0771671214 	 14.4689424250163
207.0928171856 	 0.0766153060355836
212.1182234329 	 0.168837433671008
213.1022390177 	 0.722170199483556
215.0979025635 	 0.987486166680855
217.0771671214 	 0.79169149570103
218.0849921535 	 1.52521211089356
219.0928171856 	 6.0398399591385
231.0928171856 	 0.263897165233677
233.1084672498 	 50.1659998297438
240.113138055 	 0.583127607048608
240.1495235613 	 0.156068215998411
242.1287881192 	 0.781759881955677
245.0720817435 	 0.17025623563463
245.1084672498 	 2.1423909650691
252.1495235613 	 0.163162225816521
260.1193662871 	 0.0837093158536931
261.1397673782 	 0.171675037598252
268.1080526771 	 0.656905309156948
268.1444381834 	 0.68811895235663
270.1600882476 	 1.24145171816918
272.0829807808 	 0.0681024942538521
273.0908058129 	 0.0964785335262904
273.1271913192 	 0.899520444936296
286.098630845 	 0.164581027780142
288.1142809092 	 1.07261428449817
288.1506664155 	 2.06577565903351
290.1663164797 	 47.6476263443149
296.1393528055 	 0.492324281376805
316.1455810376 	 23.9181635027383
334.1561457239 	 100
END IONS

BEGIN IONS
PEPMASS=268.1924
CHARGE=1
MSLEVEL=2
RT=0
SOURCE_INSTRUMENT=qTOF
FILENAME=CCMSLIB00000078319.ms
IONMODE=Positive
ORGANISM=Natural
NAME=Metoprolol tartrate
PI=GNPS
DATACOLLECTOR=GNPS
SMILES=CC(C)NCC(COc1ccc(cc1)CCOC)O
INCHI=InChI=1S/C15H25NO3/c1-12(2)16-10-14(17)11-19-15-6-4-13(5-7-15)8-9-18-3/h4-7,12,14,16-17H,8-11H2,1-3H3
FORMULA=C15H25NO3
PUBMED=N/A
SUBMITUSER=BIOADREM
LIBRARYQUALITY=0
SPECTRUMID=CCMSLIB00000078319
SCANS=841
ID=CCMSLIB00000078319
91.0542261926 	 6.95041782729805
93.0698762568 	 1.35487465181058
98.0964253583 	 6.12813370473538
102.0464011605 	 1.78495821727019
103.0542261926 	 34.1972144846797
104.0620512247 	 1.46629526462396
105.0698762568 	 28.699721448468
107.0491408147 	 2.28412256267409
107.085526321 	 0.503621169916434
115.0542261926 	 7.36044568245125
116.0620512247 	 5.41281337047354
116.1069900446 	 22.9860724233983
117.0698762568 	 3.40055710306407
118.0413157826 	 0.329805013927577
119.0491408147 	 0.55933147632312
119.085526321 	 2.86796657381616
120.0569658468 	 4.58607242339833
121.0647908789 	 46.3041782729805
128.0620512247 	 1.32590529247911
129.0698762568 	 5.21448467966574
131.0491408147 	 3.18217270194986
131.085526321 	 9.94763231197772
133.0647908789 	 66.8523676880223
135.0804409431 	 7.2
141.0698762568 	 5.54651810584958
144.0569658468 	 12.3743732590529
146.072615911 	 0.316434540389972
147.0804409431 	 5.04958217270195
148.0756899162 	 19.4518105849582
149.059705501 	 0.521448467966574
151.0753555652 	 1.21671309192201
159.0804409431 	 38.0768802228412
161.0960910073 	 0.884679665738162
165.0910056294 	 12.3520891364902
175.1117410715 	 0.311977715877437
176.1069900446 	 6.91476323119777
177.0910056294 	 6.41782729805014
179.1066556936 	 1.12089136490251
191.1066556936 	 23.7682451253482
194.1175547309 	 4.608356545961
201.1273911357 	 0.31866295264624
218.1539402372 	 5.51532033426184
226.1437694814 	 10.8612813370474
250.1801549877 	 5.65571030640668
268.190719674 	 100
END IONS

BEGIN IONS
PEPMASS=269.154
CHARGE=1
MSLEVEL=2
RT=0
SOURCE_INSTRUMENT=qTOF
FILENAME=CCMSLIB00000078320.ms
IONMODE=Positive
ORGANISM=Natural
NAME=Diethylstilbestrol (Stilbestrol)
PI=GNPS
DATACOLLECTOR=GNPS
SMILES=CC/C(=C(/CC)\c1ccc(cc1)O)/c1ccc(cc1)O
INCHI=InChI=1S/C18H20O2/c1-3-17(13-5-9-15(19)10-6-13)18(4-2)14-7-11-16(20)12-8-14/h5-12,19-20H,3-4H2,1-2H3/b18-17+
FORMULA=C18H20O2
PUBMED=N/A
SUBMITUSER=BIOADREM
LIBRARYQUALITY=0
SPECTRUMID=CCMSLIB00000078320
SCANS=842
ID=CCMSLIB00000078320
91.0542261926 	 3.23779572582374
93.0698762568 	 2.97334000428847
103.0542261926 	 3.35215495675792
107.0491408147 	 100
115.0542261926 	 4.87456221856908
121.0647908789 	 25.0804088342506
128.0620512247 	 7.84790222285755
133.0647908789 	 2.97334000428847
135.0804409431 	 71.4745193338575
141.0698762568 	 3.27353298549067
143.085526321 	 3.12343649488957
151.0542261926 	 1.82260024301337
153.0698762568 	 3.57372596669287
169.0647908789 	 1.75112572367951
181.0647908789 	 10.5925237652777
199.0753555652 	 65.9423915374169
269.1536058862 	 0
END IONS

BEGIN IONS
PEPMASS=415.1686
CHARGE=1
MSLEVEL=2
RT=0
SOURCE_INSTRUMENT=qTOF
FILENAME=CCMSLIB00000078321.ms
IONMODE=Positive
ORGANISM=Natural
NAME=Diltiazem HCl (Tiazac)
PI=GNPS
DATACOLLECTOR=GNPS
SMILES=CC(=O)O[C@@H]1[C@H](c2ccc(cc2)OC)Sc2ccccc2N(CCN(C)C)C1=O
INCHI=InChI=1S/C22H26N2O4S/c1-15(25)28-20-21(16-9-11-17(27-4)12-10-16)29-19-8-6-5-7-18(19)24(22(20)26)14-13-23(2)3/h5-12,20-21H,13-14H2,1-4H3/t20-,21+/m1/s1
FORMULA=C22H26N2O4S
PUBMED=N/A
SUBMITUSER=BIOADREM
LIBRARYQUALITY=0
SPECTRUMID=CCMSLIB00000078321
SCANS=843
ID=CCMSLIB00000078321
109.0106468184 	 9.29
110.0151010321 	 0.64
118.0651252299 	 0.43
121.0647908789 	 1.55
133.0647908789 	 0.1
135.0137208236 	 0.165
136.0215458557 	 0.335
137.059705501 	 3.03
146.060039852 	 0.11
148.0215458557 	 0.435
149.0260000694 	 0.155
149.059705501 	 0.395
150.0371959199 	 50.645
151.0389700589 	 1.57
151.0416501336 	 2.72
152.034219032 	 0.795
163.0753555652 	 0.115
164.0164604778 	 0.27
174.0371959199 	 0.87
175.0416501336 	 0.12
178.032110542 	 100
179.033884681 	 10.005
179.0365647557 	 7.06
180.0291336541 	 3.76
181.031776191 	 0.275
191.0399355741 	 1.74
192.0443897878 	 0.535
192.0477606062 	 0.615
223.0899597719 	 0.98
224.0917339109 	 0.18
234.0583252925 	 0.17
267.0712357025 	 0.135
282.0947107988 	 0.185
295.0661503246 	 0.17
310.0896254209 	 6.015
312.1052754851 	 2.325
328.1001901072 	 1.29
355.1474746508 	 0.555
370.1107547935 	 10.53
373.1580393371 	 0.145
415.1686040234 	 33.985
END IONS

BEGIN IONS
PEPMASS=306.1865
CHARGE=1
MSLEVEL=2
RT=0
SOURCE_INSTRUMENT=qTOF
FILENAME=CCMSLIB00000078323.ms
IONMODE=Positive
ORGANISM=Natural
NAME=Dapoxetine hydrochloride (Priligy)
PI=GNPS
DATACOLLECTOR=GNPS
SMILES=CN(C)[C@@H](CCOc1cccc2ccccc12)c1ccccc1
INCHI=InChI=1S/C21H23NO/c1-22(2)20(18-10-4-3-5-11-18)15-16-23-21-14-8-12-17-9-6-7-13-19(17)21/h3-14,20H,15-16H2,1-2H3/t20-/m0/s1
FORMULA=C21H23NO
PUBMED=N/A
SUBMITUSER=BIOADREM
LIBRARYQUALITY=0
SPECTRUMID=CCMSLIB00000078323
SCANS=845
ID=CCMSLIB00000078323
91.0542261926 	 0.265
103.0542261926 	 1.375
115.0542261926 	 1.46
117.0698762568 	 12.89
126.0464011605 	 0.34
127.0542261926 	 3.31
128.0620512247 	 4.465
129.0698762568 	 16.185
131.0491408147 	 0.21
141.0698762568 	 0.34
143.0491408147 	 0.17
145.0647908789 	 1.15
153.0698762568 	 0.68
155.085526321 	 3.325
157.0647908789 	 100
159.0678648841 	 0.925
165.0698762568 	 1
169.0647908789 	 0.165
183.0804409431 	 31.445
205.1011763852 	 0.62
215.085526321 	 0.82
233.0960910073 	 2.865
235.0991650125 	 0.15
261.1273911357 	 45.335
263.1304651409 	 0.6
306.1852403656 	 37.12
END IONS

BEGIN IONS
PEPMASS=349.2122
CHARGE=1
MSLEVEL=2
RT=0
SOURCE_INSTRUMENT=qTOF
FILENAME=CCMSLIB00000078324.ms
IONMODE=Positive
ORGANISM=Natural
NAME=Roxatidine acetate HCl
PI=GNPS
DATACOLLECTOR=GNPS
SMILES=CC(=O)OCC(=NCCCOc1cccc(c1)CN1CCCCC1)O
INCHI=InChI=1S/C19H28N2O4/c1-16(22)25-15-19(23)20-9-6-12-24-18-8-5-7-17(13-18)14-21-10-3-2-4-11-21/h5,7-8,13H,2-4,6,9-12,14-15H2,1H3,(H,20,23)
FORMULA=C19H28N2O4
PUBMED=N/A
SUBMITUSER=BIOADREM
LIBRARYQUALITY=0
SPECTRUMID=CCMSLIB00000078324
SCANS=846
ID=CCMSLIB00000078324
91.0542261926 	 0.553440357969934
103.0542261926 	 0.388585783255485
107.0491408147 	 43.8473917651215
109.0647908789 	 0.969501903677827
114.0549544741 	 29.8308278054716
116.0706045383 	 22.1493896455627
117.0698762568 	 1.56611845978726
119.085526321 	 8.46645994426346
121.0647908789 	 1.13828158731405
129.0698762568 	 1.10295560701809
131.0491408147 	 0.160929465792676
132.0569658468 	 0.985202339364917
135.0804409431 	 0.255132079915218
136.0756899162 	 0.679043843466656
146.0964253583 	 0.168779683636221
147.0804409431 	 38.8350276720179
158.0811692246 	 33.9796679357852
162.0913399804 	 0.474938179534482
164.1069900446 	 7.60686109039526
176.1069900446 	 2.36291557090709
186.0913399804 	 0.176629901479766
187.0753555652 	 0.180555010401539
189.0784295704 	 0.157004356870903
192.138290173 	 1.91937826274679
194.1175547309 	 0.388585783255485
204.1019046667 	 1.92722848059034
205.0859202515 	 0.149154139027358
222.112469353 	 78.5021784354516
264.1230340393 	 0.930250814460101
349.2121833976 	 100
END IONS

BEGIN IONS
PEPMASS=181.0791
CHARGE=1
MSLEVEL=2
RT=0
SOURCE_INSTRUMENT=qTOF
FILENAME=CCMSLIB00000078325.ms
IONMODE=Positive
ORGANISM=Natural
NAME=Protionamide (Prothionamide)
PI=GNPS
DATACOLLECTOR=GNPS
SMILES=CCCc1cc(ccn1)C(=N)S
INCHI=InChI=1S/C9H12N2S/c1-2-3-8-6-7(9(10)12)4-5-11-8/h4-6H,2-3H2,1H3,(H2,10,12)
FORMULA=C9H12N2S
PUBMED=N/A
SUBMITUSER=BIOADREM
LIBRARYQUALITY=0
SPECTRUMID=CCMSLIB00000078325
SCANS=847
ID=CCMSLIB00000078325
92.0494751657 	 0.907084444331041
93.0573001978 	 0.69785540231938
97.0106468184 	 0.186264878864039
103.0290740746 	 0.117372389421176
106.0651252299 	 2.61663881198729
110.0058957915 	 0.427388591914063
118.0525491709 	 6.12377683936568
119.060374203 	 5.71552505007463
120.0807752941 	 1.7593100544761
121.0886003262 	 7.28346707832055
124.0215458557 	 0.766747891762244
125.0293708878 	 10.5061046400367
136.0215458557 	 0.584310373422809
147.0916743314 	 8.69448732505773
148.0994993635 	 5.08528635035658
152.0402699251 	 4.06848423765357
154.0684960483 	 19.6713573096207
181.0793950856 	 100
END IONS

BEGIN IONS
PEPMASS=393.1733
CHARGE=1
MSLEVEL=2
RT=0
SOURCE_INSTRUMENT=qTOF
FILENAME=CCMSLIB00000078326.ms
IONMODE=Positive
ORGANISM=Natural
NAME=Sparfloxacin
PI=GNPS
DATACOLLECTOR=GNPS
SMILES=C[C@H]1CN(C[C@@H](C)N1)c1c(c(c2c(c1F)n(cc(c2=O)C(=O)O)C1CC1)N)F
INCHI=InChI=1S/C19H22F2N4O3/c1-8-5-24(6-9(2)23-8)17-13(20)15(22)12-16(14(17)21)25(10-3-4-10)7-11(18(12)26)19(27)28/h7-10,23H,3-6,22H2,1-2H3,(H,27,28)/t8-,9+
FORMULA=C19H22F2N4O3
PUBMED=N/A
SUBMITUSER=BIOADREM
LIBRARYQUALITY=0
SPECTRUMID=CCMSLIB00000078326
SCANS=848
ID=CCMSLIB00000078326
196.0431273388 	 0.59757177184773
209.0520952251 	 0.626027570507146
210.058777403 	 0.442645756924244
210.0599202572 	 1.31529024914633
211.0639223604 	 0.499557354243076
214.0536920251 	 0.550145440748704
215.0615170572 	 0.644998102946756
217.069756662 	 0.41735171367143
221.0520952251 	 0.546983685342102
224.0755703214 	 1.34374604780574
230.0650056351 	 2.03933223725813
230.0724160945 	 7.74313899076767
231.0728306672 	 1.71999494119135
231.0802411266 	 5.0619704059694
232.0842432298 	 0.891615024661692
235.0666024351 	 0.521689642089288
235.0677452893 	 1.48602504110282
236.0706045383 	 0.676615657012774
237.0795724246 	 3.55697483242696
237.0833953535 	 2.83925635512837
238.0788441431 	 0.989629442266346
238.0799869973 	 1.54293663842165
244.0880661587 	 1.24573163020109
245.0920682619 	 0.515366131276085
245.0958911908 	 0.910585557101303
246.0963057635 	 0.831541671936259
246.1037162229 	 0.844188693562666
251.0815035756 	 11.7775388895915
251.0864693587 	 31.6175540660175
252.0931515366 	 7.10762615404072
253.1023192394 	 0.379410648792209
253.1034620936 	 0.588086505627925
256.0880661587 	 0.546983685342102
264.0579088845 	 1.72315669659795
265.098296494 	 1.52080435057544
265.1021194229 	 1.65359807765271
266.1175547309 	 0.528013152902491
267.1166266329 	 0.458454533957253
270.1037162229 	 0.603895282660933
271.1003078667 	 0.382572404198811
271.1077183261 	 0.698747944858986
272.1119558277 	 0.951688377387125
272.1193662871 	 1.31529024914633
273.1171007851 	 0.822056405716454
277.0607681335 	 0.648159858353358
277.0657339166 	 4.37270772733021
286.123782963 	 2.97521183761224
286.1311934224 	 1.05918806121158
288.1405758814 	 0.556468951561907
288.1432559561 	 0.976982420639939
292.1206287361 	 31.6175540660175
292.1255945192 	 26.8749209561148
306.1412445834 	 2.32705197925889
307.1490696155 	 0.641836347540154
308.1404956597 	 0.395219425825218
309.1635768255 	 0.486910332616669
312.1380903565 	 0.622865815100544
312.1394330272 	 0.34463133931959
314.1463299613 	 0.496395598836474
314.1562259456 	 0.575439484001518
318.099893294 	 2.7096243834577
318.1048590771 	 3.97432654609839
319.0951422671 	 1.59352472492728
327.1615654528 	 0.793600607057038
329.1698050576 	 1.46705450866321
332.1456612593 	 0.822056405716454
332.1568946476 	 0.65132161375996
334.1186173634 	 0.499557354243076
336.1154237634 	 0.99595295307955
349.1722103608 	 26.5587454154547
349.1834437491 	 31.2697609712913
375.162708307 	 3.87315037308714
376.1705333391 	 0.698747944858986
393.1732729933 	 100
END IONS

BEGIN IONS
PEPMASS=442.224
CHARGE=1
MSLEVEL=2
RT=0
SOURCE_INSTRUMENT=qTOF
FILENAME=CCMSLIB00000078329.ms
IONMODE=Positive
ORGANISM=Natural
NAME=Deflazacort (Calcort)
PI=GNPS
DATACOLLECTOR=GNPS
SMILES=CC1=N[C@@]2(C(=O)COC(=O)C)[C@@H](C[C@H]3[C@@H]4CCC5=CC(=O)C=C[C@]5(C)[C@@H]4[C@@H](C[C@]23C)O)O1
INCHI=InChI=1S/C25H31NO6/c1-13-26-25(20(30)12-31-14(2)27)21(32-13)10-18-17-6-5-15-9-16(28)7-8-23(15,3)22(17)19(29)11-24(18,25)4/h7-9,17-19,21-22,29H,5-6,10-12H2,1-4H3/t17-,18-,19+,21+,22-,23-,24-,25-/m0/s1
FORMULA=C25H31NO6
PUBMED=N/A
SUBMITUSER=BIOADREM
LIBRARYQUALITY=0
SPECTRUMID=CCMSLIB00000078329
SCANS=850
ID=CCMSLIB00000078329
96.0443897878 	 2.9
119.085526321 	 3.19
121.0647908789 	 16.94
124.0393044099 	 16.17
133.0647908789 	 5.17
135.0804409431 	 9.8
138.0549544741 	 9.12
142.0498690962 	 88.18
145.0647908789 	 4.64
147.0804409431 	 35.04
157.1011763852 	 3.43
159.0804409431 	 8.72
161.0960910073 	 6.67
171.0804409431 	 10.3
173.0960910073 	 8.07
184.0604337825 	 5.64
185.0960910073 	 6.35
197.0960910073 	 5.81
199.1117410715 	 3.97
207.1168264494 	 3.9
209.0960910073 	 3.55
210.1039160394 	 4.47
223.1117410715 	 4.55
225.1273911357 	 22.54
239.1430411999 	 9.51
249.1273911357 	 4.93
263.1430411999 	 8.92
265.1586912641 	 13.03
277.1586912641 	 5.65
282.1852403656 	 4.15
287.1430411999 	 3.15
294.1852403656 	 6.5
305.1536058862 	 4.52
312.1958050519 	 80.01
322.1801549877 	 6.26
340.190719674 	 14.18
358.2012843603 	 6.18
364.190719674 	 3.56
382.2012843603 	 25.63
400.2118490466 	 100
424.2118490466 	 32.93
427.1989386366 	 3.23
442.2224137329 	 460.69
END IONS

BEGIN IONS
PEPMASS=285.1614
CHARGE=1
MSLEVEL=2
RT=0
SOURCE_INSTRUMENT=qTOF
FILENAME=CCMSLIB00000078334.ms
IONMODE=Positive
ORGANISM=Natural
NAME=Tropisetron
PI=GNPS
DATACOLLECTOR=GNPS
SMILES=CN1[C@H]2CC[C@@H]1CC(C2)OC(=O)C1C=Nc2ccccc12
INCHI=InChI=1S/C17H20N2O2/c1-19-11-6-7-12(19)9-13(8-11)21-17(20)15-10-18-16-5-3-2-4-14(15)16/h2-5,10-13,15H,6-9H2,1H3/t11-,12+,13?,15?
FORMULA=C17H20N2O2
PUBMED=N/A
SUBMITUSER=BIOADREM
LIBRARYQUALITY=0
SPECTRUMID=CCMSLIB00000078334
SCANS=854
ID=CCMSLIB00000078334
91.0542261926 	 1.49078377108245
93.0698762568 	 2.53381024489583
95.085526321 	 0.231058430369171
96.0807752941 	 0.189285154822202
98.0964253583 	 0.0861573808156232
107.085526321 	 0.0483003498511827
109.0886003262 	 0.0796303065114093
116.0494751657 	 0.0861573808156232
122.0964253583 	 0.0900736253981515
124.1120754225 	 26.1082972168555
142.1226401088 	 0.678815727638243
144.0443897878 	 2.28317059161401
162.0549544741 	 0.0548274241553966
285.1597538966 	 100
END IONS

BEGIN IONS
PEPMASS=409.1518
CHARGE=1
MSLEVEL=2
RT=0
SOURCE_INSTRUMENT=qTOF
FILENAME=CCMSLIB00000078338.ms
IONMODE=Positive
ORGANISM=Natural
NAME=Amlodipine (Norvasc)
PI=GNPS
DATACOLLECTOR=GNPS
SMILES=CCOC(=O)C1=C(COCCN)NC(=C(C1c1ccccc1Cl)C(=O)OC)C
INCHI=InChI=1S/C20H25ClN2O5/c1-4-28-20(25)18-15(11-27-10-9-22)23-12(2)16(19(24)26-3)17(18)13-7-5-6-8-14(13)21/h5-8,17,23H,4,9-11,22H2,1-3H3
FORMULA=C20H25ClN2O5
PUBMED=N/A
SUBMITUSER=BIOADREM
LIBRARYQUALITY=0
SPECTRUMID=CCMSLIB00000078338
SCANS=857
ID=CCMSLIB00000078338
137.0152538705 	 2.61
142.0651252299 	 3
143.072950262 	 2.71
149.0152538705 	 3.89
165.0101684926 	 9.77
170.060039852 	 14.21
176.034219032 	 5.37
178.041802972 	 3.79
184.0756899162 	 2.41
202.0862546025 	 2.59
204.0574530362 	 2.18
206.0367175941 	 22.97
208.0604337825 	 25.55
220.0523676583 	 17.81
224.0706045383 	 1.65
225.0784295704 	 1.72
232.0523676583 	 5.12
233.0601926904 	 2.31
238.0629323446 	 100
241.0625979936 	 2.61
244.0523676583 	 2.1
248.0472822804 	 6.75
260.0472822804 	 8.67
261.0551073125 	 1.59
270.0316322162 	 2.26
288.0421969025 	 2.97
294.0891470951 	 76.76
306.0527615888 	 2.88
320.068411653 	 12.17
334.0840617172 	 11.77
360.0997117814 	 2.71
377.1262608829 	 54.2
380.1259265319 	 1.72
392.1259265319 	 4.58
409.1524756334 	 2.6
END IONS

BEGIN IONS
PEPMASS=277.0797
CHARGE=1
MSLEVEL=2
RT=0
SOURCE_INSTRUMENT=qTOF
FILENAME=CCMSLIB00000078339.ms
IONMODE=Positive
ORGANISM=Natural
NAME=Flutamide (Eulexin)
PI=GNPS
DATACOLLECTOR=GNPS
SMILES=CC(C)C(=Nc1ccc(c(c1)C(F)(F)F)N(=O)=O)O
INCHI=InChI=1S/C11H11F3N2O3/c1-6(2)10(17)15-7-3-4-9(16(18)19)8(5-7)11(12,13)14/h3-6H,1-2H3,(H,15,17)
FORMULA=C11H11F3N2O3
PUBMED=N/A
SUBMITUSER=BIOADREM
LIBRARYQUALITY=0
SPECTRUMID=CCMSLIB00000078339
SCANS=858
ID=CCMSLIB00000078339
81.9934970715 	 0.235728143628303
89.059705501 	 0.221654821620644
111.0478783657 	 1.01327918455151
114.0311450268 	 0.622744498838951
120.0244032694 	 0.250304084279094
122.0362304047 	 0.221654821620644
127.0427929878 	 0.221654821620644
129.0658535114 	 0.212607686044291
134.0337857284 	 0.240754330059611
136.0682794568 	 0.446827973743202
141.0384565336 	 0.622744498838951
142.0462815657 	 1.73906050523226
143.0491408147 	 0.217131253832467
145.0259606963 	 0.944923049085737
147.0815837973 	 0.226681008051951
149.0145668646 	 0.226681008051951
160.0330368047 	 0.452859397460771
161.0446847657 	 9.8196604308447
162.0475440147 	 0.865509303471084
162.0525097978 	 0.703163481739865
167.0302971505 	 0.493068888911228
177.0294680051 	 0.212607686044291
186.0435212693 	 0.240754330059611
187.031359783 	 2.01047457252284
188.0755703214 	 0.250304084279094
191.0377076099 	 0.212607686044291
193.0345140099 	 1.26207541290122
194.0373732589 	 0.217131253832467
198.0525097978 	 0.353843524764021
198.0560973283 	 0.651393761497402
207.0375880151 	 2.90413052000925
212.0529037283 	 0.221654821620644
212.0755703214 	 0.278450728294414
219.0137785678 	 0.212607686044291
231.0865495804 	 2.99711496898843
235.0814642025 	 0.521215532926547
245.0658141383 	 0.245277897847787
263.0763788246 	 5.02618643130711
277.0794528298 	 100
END IONS

BEGIN IONS
PEPMASS=386.9887
CHARGE=1
MSLEVEL=2
RT=0
SOURCE_INSTRUMENT=qTOF
FILENAME=CCMSLIB00000078341.ms
IONMODE=Positive
ORGANISM=Natural
NAME=Tioconazole
PI=GNPS
DATACOLLECTOR=GNPS
SMILES=c1cc(c(cc1Cl)Cl)C(Cn1ccnc1)OCc1ccsc1Cl
INCHI=InChI=1S/C16H13Cl3N2OS/c17-12-1-2-13(14(18)7-12)15(8-21-5-4-20-10-21)22-9-11-3-6-23-16(11)19/h1-7,10,15H,8-9H2
FORMULA=C16H13Cl3N2OS
PUBMED=N/A
SUBMITUSER=BIOADREM
LIBRARYQUALITY=0
SPECTRUMID=CCMSLIB00000078341
SCANS=859
ID=CCMSLIB00000078341
94.9949967542 	 0.38
96.0028217863 	 0.35
130.9716744963 	 100
217.9951495926 	 0.97
219.0029746247 	 0.62
253.9718273347 	 0.96
331.9828792104 	 0.21
386.9886928698 	 91.09
END IONS

BEGIN IONS
PEPMASS=317.2475
CHARGE=1
MSLEVEL=2
RT=0
SOURCE_INSTRUMENT=qTOF
FILENAME=CCMSLIB00000078343.ms
IONMODE=Positive
ORGANISM=Natural
NAME=Pregnenolone
PI=GNPS
DATACOLLECTOR=GNPS
SMILES=CC(=O)[C@@H]1CC[C@H]2[C@@H]3CC=C4C[C@H](CC[C@]4(C)[C@@H]3CC[C@]12C)O
INCHI=InChI=1S/C21H32O2/c1-13(22)17-6-7-18-16-5-4-14-12-15(23)8-10-20(14,2)19(16)9-11-21(17,18)3/h4,15-19,23H,5-12H2,1-3H3/t15-,16-,17-,18-,19+,20-,21+/m0/s1
FORMULA=C21H32O2
PUBMED=N/A
SUBMITUSER=BIOADREM
LIBRARYQUALITY=0
SPECTRUMID=CCMSLIB00000078343
SCANS=861
ID=CCMSLIB00000078343
107.085526321 	 6.61
109.0647908789 	 6.61
131.085526321 	 11.01
133.1011763852 	 21.37
135.1168264494 	 7.12
139.1117410715 	 7.51
143.085526321 	 13.21
145.1011763852 	 13.86
147.1168264494 	 21.24
157.1011763852 	 22.93
159.1168264494 	 40.54
171.1168264494 	 6.22
173.1324765136 	 10.88
187.1481265778 	 10.49
197.1324765136 	 9.59
199.1481265778 	 9.07
213.163776642 	 6.48
217.1586912641 	 19.69
229.1950767704 	 8.68
281.2263768988 	 36.66
299.2369415851 	 100
317.2475062714 	 36.27
END IONS

BEGIN IONS
PEPMASS=376.1488
CHARGE=1
MSLEVEL=2
RT=0
SOURCE_INSTRUMENT=qTOF
FILENAME=CCMSLIB00000078346.ms
IONMODE=Positive
ORGANISM=Natural
NAME=Haloperidol (Haldol)
PI=GNPS
DATACOLLECTOR=GNPS
SMILES=C(CC(=O)c1ccc(cc1)F)CN1CCC(CC1)(c1ccc(cc1)Cl)O
INCHI=InChI=1S/C21H23ClFNO2/c22-18-7-5-17(6-8-18)21(26)11-14-24(15-12-21)13-1-2-20(25)16-3-9-19(23)10-4-16/h3-10,26H,1-2,11-15H2
FORMULA=C21H23ClFNO2
PUBMED=N/A
SUBMITUSER=BIOADREM
LIBRARYQUALITY=0
SPECTRUMID=CCMSLIB00000078346
SCANS=864
ID=CCMSLIB00000078346
95.0291542963 	 1.3
109.0448043605 	 0.45
113.0397189826 	 0.23
123.0240689184 	 57.5366666666667
135.0604544247 	 0.47
147.0604544247 	 0.183333333333333
163.0553690468 	 0.526666666666667
165.071019111 	 100
194.0975682125 	 0.676666666666667
206.0975682125 	 0.576666666666667
264.1758185335 	 0.07
292.1707331556 	 0.08
358.1368462114 	 8.99333333333333
376.1474108977 	 90.6966666666667
END IONS

BEGIN IONS
PEPMASS=256.0164
CHARGE=1
MSLEVEL=2
RT=0
SOURCE_INSTRUMENT=qTOF
FILENAME=CCMSLIB00000078349.ms
IONMODE=Positive
ORGANISM=Natural
NAME=Irsogladine
PI=GNPS
DATACOLLECTOR=GNPS
SMILES=c1cc(c(cc1Cl)c1nc(=N)[nH]c(=N)[nH]1)Cl
INCHI=InChI=1S/C9H7Cl2N5/c10-4-1-2-6(11)5(3-4)7-14-8(12)16-9(13)15-7/h1-3H,(H4,12,13,14,15,16)
FORMULA=C9H7Cl2N5
PUBMED=N/A
SUBMITUSER=BIOADREM
LIBRARYQUALITY=0
SPECTRUMID=CCMSLIB00000078349
SCANS=865
ID=CCMSLIB00000078349
100.0181750373 	 0.328797104577559
135.9948527794 	 0.35941790362982
137.0026778115 	 0.0306207990522612
164.0010007898 	 1.14100124993098
171.9715305215 	 20.079212493286
188.998079623 	 3.50081069820442
196.9667794946 	 0.110435668713073
213.9933285961 	 4.4841901300631
256.0151266707 	 100
END IONS

BEGIN IONS
PEPMASS=395.1867
CHARGE=1
MSLEVEL=2
RT=0
SOURCE_INSTRUMENT=qTOF
FILENAME=CCMSLIB00000078351.ms
IONMODE=Positive
ORGANISM=Natural
NAME=Triamcinolone (Aristocort)
PI=GNPS
DATACOLLECTOR=GNPS
SMILES=C[C@]12C=CC(=O)C=C1CC[C@H]1[C@@H]3C[C@H]([C@@](C(=O)CO)([C@@]3(C)C[C@H]([C@@]21F)O)O)O
INCHI=InChI=1S/C21H27FO6/c1-18-6-5-12(24)7-11(18)3-4-13-14-8-15(25)21(28,17(27)10-23)19(14,2)9-16(26)20(13,18)22/h5-7,13-16,23,25-26,28H,3-4,8-10H2,1-2H3/t13-,14-,15+,16+,18-,19-,20+,21+/m0/s1
FORMULA=C21H27FO6
PUBMED=N/A
SUBMITUSER=BIOADREM
LIBRARYQUALITY=0
SPECTRUMID=CCMSLIB00000078351
SCANS=867
ID=CCMSLIB00000078351
121.0647908789 	 8.59
135.0804409431 	 4.87
147.0804409431 	 23.71
159.0804409431 	 8.4
161.0960910073 	 6.92
171.0804409431 	 15.66
173.0960910073 	 9.18
185.0960910073 	 11.3
197.0960910073 	 9.37
199.1117410715 	 4.62
208.0882659752 	 4.65
211.1117410715 	 7.03
213.1273911357 	 12.52
222.1039160394 	 4.48
223.1117410715 	 15.49
225.1273911357 	 49.69
234.1039160394 	 3.85
235.1117410715 	 8.35
237.1273911357 	 20.01
239.1430411999 	 12.18
249.1273911357 	 3.84
253.1223057578 	 3.99
260.1195661036 	 3.89
261.1273911357 	 8.65
262.1352161678 	 8.43
263.1430411999 	 11.08
265.1586912641 	 5.94
275.1430411999 	 10.93
278.1301307899 	 4.65
279.137955822 	 9.18
280.1457808541 	 4.99
281.1536058862 	 9.99
291.137955822 	 3.97
293.1536058862 	 17.63
297.1485205083 	 4.63
309.1485205083 	 6.63
311.1641705725 	 16.53
321.1485205083 	 27.81
327.1590851946 	 5.31
329.1747352588 	 5.89
339.1590851946 	 30.9
357.1696498809 	 100
375.1802145672 	 48.65
395.1864427993 	 12.35
END IONS

BEGIN IONS
PEPMASS=362.1511
CHARGE=1
MSLEVEL=2
RT=0
SOURCE_INSTRUMENT=qTOF
FILENAME=CCMSLIB00000078353.ms
IONMODE=Positive
ORGANISM=Natural
NAME=Levofloxacin (Levaquin)
PI=GNPS
DATACOLLECTOR=GNPS
SMILES=C[C@@H]1COc2c3c(cc(c2N2CCN(C)CC2)F)c(=O)c(cn13)C(=O)O
INCHI=InChI=1S/C18H20FN3O4/c1-10-9-26-17-14-11(16(23)12(18(24)25)8-22(10)14)7-13(19)15(17)21-5-3-20(2)4-6-21/h7-8,10H,3-6,9H2,1-2H3,(H,24,25)/t10-/m1/s1
FORMULA=C18H20FN3O4
PUBMED=N/A
SUBMITUSER=BIOADREM
LIBRARYQUALITY=0
SPECTRUMID=CCMSLIB00000078353
SCANS=868
ID=CCMSLIB00000078353
171.0552888251 	 0.47
193.0407816151 	 0.82
199.0502034472 	 0.77
203.0615170572 	 0.6
205.0407816151 	 2.31
219.0564316793 	 4.88
220.0642567114 	 1.62
221.0720817435 	 9.88
235.0877318077 	 0.37
241.0971536398 	 1.01
247.0877318077 	 2.85
261.1033818719 	 100
273.1033818719 	 1.45
298.1550028697 	 0.8
301.1221059413 	 1.62
316.1455810376 	 3.03
318.1612311018 	 72.85
344.1404956597 	 4.02
362.151060346 	 132.7
END IONS

BEGIN IONS
PEPMASS=377.2086
CHARGE=1
MSLEVEL=2
RT=0
SOURCE_INSTRUMENT=qTOF
FILENAME=CCMSLIB00000078354.ms
IONMODE=Positive
ORGANISM=Natural
NAME=Enalapril maleate (Vasotec)
PI=GNPS
DATACOLLECTOR=GNPS
SMILES=CCOC(=O)[C@H](CCc1ccccc1)N[C@@H](C)C(=O)N1CCC[C@H]1C(=O)O
INCHI=InChI=1S/C20H28N2O5/c1-3-27-20(26)16(12-11-15-8-5-4-6-9-15)21-14(2)18(23)22-13-7-10-17(22)19(24)25/h4-6,8-9,14,16-17,21H,3,7,10-13H2,1-2H3,(H,24,25)/t14-,16-,17-/m0/s1
FORMULA=C20H28N2O5
PUBMED=N/A
SUBMITUSER=BIOADREM
LIBRARYQUALITY=0
SPECTRUMID=CCMSLIB00000078354
SCANS=869
ID=CCMSLIB00000078354
91.0542261926 	 6.9
92.0580284793 	 0.65
98.060039852 	 0.45
102.0549544741 	 4.07
115.0542261926 	 3.44
116.0706045383 	 1.455
117.0698762568 	 50.665
118.0736785435 	 3.75
130.0862546025 	 23.185
134.0964253583 	 13.705
142.0862546025 	 0.61
143.085526321 	 1.06
144.0807752941 	 0.705
160.1120754225 	 64.555
170.0964253583 	 0.375
188.1069900446 	 0.59
206.1175547309 	 2.32
206.1539402372 	 0.59
232.1332047951 	 0.54
234.1488548593 	 100
257.1648392745 	 0.59
303.1703185829 	 27.38
377.2070980197 	 60.39
END IONS

BEGIN IONS
PEPMASS=173.0585
CHARGE=1
MSLEVEL=2
RT=0
SOURCE_INSTRUMENT=qTOF
FILENAME=CCMSLIB00000078355.ms
IONMODE=Positive
ORGANISM=Natural
NAME=Menadione
PI=GNPS
DATACOLLECTOR=GNPS
SMILES=CC1=CC(=O)c2ccccc2C1=O
INCHI=InChI=1S/C11H8O2/c1-7-6-10(12)8-4-2-3-5-9(8)11(7)13/h2-6H,1H3
FORMULA=C11H8O2
PUBMED=N/A
SUBMITUSER=BIOADREM
LIBRARYQUALITY=0
SPECTRUMID=CCMSLIB00000078355
SCANS=870
ID=CCMSLIB00000078355
105.0334907505 	 77.21
115.0542261926 	 19.58
117.0698762568 	 29.37
128.0620512247 	 7.54
145.0647908789 	 100
155.0491408147 	 14.29
173.059705501 	 366.13
END IONS

BEGIN IONS
PEPMASS=271.0315
CHARGE=1
MSLEVEL=2
RT=0
SOURCE_INSTRUMENT=qTOF
FILENAME=CCMSLIB00000078357.ms
IONMODE=Positive
ORGANISM=Natural
NAME=Sulfamethizole (Proklar)
PI=GNPS
DATACOLLECTOR=GNPS
SMILES=Cc1nnc(NS(=O)(=O)c2ccc(cc2)N)s1
INCHI=InChI=1S/C9H10N4O2S2/c1-6-11-12-9(16-6)13-17(14,15)8-4-2-7(10)3-5-8/h2-5H,10H2,1H3,(H,12,13)
FORMULA=C9H10N4O2S2
PUBMED=N/A
SUBMITUSER=BIOADREM
LIBRARYQUALITY=0
SPECTRUMID=CCMSLIB00000078357
SCANS=872
ID=CCMSLIB00000078357
83.0035500678 	 0.187873612297182
92.0494751657 	 22.2715627668659
99.0011447646 	 4.3467122117848
108.0443897878 	 97.9077711357814
116.0276938661 	 15.0042698548249
156.0113750999 	 100
271.031792966 	 37.4807856532878
END IONS

BEGIN IONS
PEPMASS=262.0627
CHARGE=1
MSLEVEL=2
RT=0
SOURCE_INSTRUMENT=qTOF
FILENAME=CCMSLIB00000078358.ms
IONMODE=Positive
ORGANISM=Natural
NAME=Tolfenamic acid
PI=GNPS
DATACOLLECTOR=GNPS
SMILES=Cc1c(cccc1Nc1ccccc1C(=O)O)Cl
INCHI=InChI=1S/C14H12ClNO2/c1-9-11(15)6-4-8-12(9)16-13-7-3-2-5-10(13)14(17)18/h2-8,16H,1H3,(H,17,18)
FORMULA=C14H12ClNO2
PUBMED=N/A
SUBMITUSER=BIOADREM
LIBRARYQUALITY=0
SPECTRUMID=CCMSLIB00000078358
SCANS=873
ID=CCMSLIB00000078358
128.0494751657 	 0.291970802919708
151.0542261926 	 0.496350364963504
152.0620512247 	 3.0948905109489
154.0651252299 	 0.531386861313869
165.0573001978 	 0.513868613138686
166.0651252299 	 6.69197080291971
178.0651252299 	 0.951824817518248
179.072950262 	 3.63795620437956
180.0807752941 	 50.0204379562044
182.060039852 	 0.332846715328467
183.0678648841 	 1.46569343065693
190.0651252299 	 0.35036496350365
194.060039852 	 4.21605839416058
201.0339779399 	 10.4934306569343
206.060039852 	 0.402919708029197
207.0678648841 	 1.4014598540146
208.0756899162 	 38.0905109489051
209.0835149483 	 78.6686131386861
214.041802972 	 1.13284671532847
226.041802972 	 0.245255474452555
229.028892562 	 27.7080291970803
242.0367175941 	 1.27883211678832
244.0523676583 	 100
262.0629323446 	 4.64233576642336
END IONS

BEGIN IONS
PEPMASS=256.0976
CHARGE=1
MSLEVEL=2
RT=0
SOURCE_INSTRUMENT=qTOF
FILENAME=CCMSLIB00000078359.ms
IONMODE=Positive
ORGANISM=Natural
NAME=Pranoprofen
PI=GNPS
DATACOLLECTOR=GNPS
SMILES=CC(c1ccc2c(c1)Cc1cccnc1O2)C(=O)O
INCHI=InChI=1S/C15H13NO3/c1-9(15(17)18)10-4-5-13-12(7-10)8-11-3-2-6-16-14(11)19-13/h2-7,9H,8H2,1H3,(H,17,18)
FORMULA=C15H13NO3
PUBMED=N/A
SUBMITUSER=BIOADREM
LIBRARYQUALITY=0
SPECTRUMID=CCMSLIB00000078359
SCANS=874
ID=CCMSLIB00000078359
154.0651252299 	 1.74
169.0886003262 	 0.54
183.0678648841 	 4.22
184.0756899162 	 1.11
192.0807752941 	 1.04
196.0756899162 	 1.62
197.0835149483 	 6.17
210.0913399804 	 100
211.0991650125 	 37.5
215.0576941283 	 4.22
224.0706045383 	 9.86
238.0862546025 	 1.66
241.0733441925 	 26.41
256.0968192888 	 365.22
END IONS

BEGIN IONS
PEPMASS=311.0815
CHARGE=1
MSLEVEL=2
RT=0
SOURCE_INSTRUMENT=qTOF
FILENAME=CCMSLIB00000078360.ms
IONMODE=Positive
ORGANISM=Natural
NAME=Sulphadimethoxine
PI=GNPS
DATACOLLECTOR=GNPS
SMILES=COc1cc(nc(n1)OC)NS(=O)(=O)c1ccc(cc1)N
INCHI=InChI=1S/C12H14N4O4S/c1-19-11-7-10(14-12(15-11)20-2)16-21(17,18)9-5-3-8(13)4-6-9/h3-7H,13H2,1-2H3,(H,14,15,16)
FORMULA=C12H14N4O4S
PUBMED=N/A
SUBMITUSER=BIOADREM
LIBRARYQUALITY=0
SPECTRUMID=CCMSLIB00000078360
SCANS=875
ID=CCMSLIB00000078360
92.0494751657 	 2.70628237061638
93.0573001978 	 0.43490293757166
99.0552888251 	 0.197683153441664
108.0443897878 	 18.105800023722
110.034887734 	 0.701775194717906
111.0189033188 	 0.480370062863243
111.0552888251 	 0.251057604870913
113.0583628303 	 0.68200687937374
114.0549544741 	 0.23524295259558
124.0505377982 	 0.662238564029573
125.034553383 	 0.177914838097497
125.0583628303 	 0.19372949037283
126.0661878624 	 0.784802119163405
127.0502034472 	 1.22958921440715
127.0740128945 	 0.296524730162496
128.0580284793 	 0.22338196338908
131.060374203 	 0.219428300320247
140.0454524203 	 0.559443324239908
141.0532774524 	 3.6946981378247
144.0556231761 	 0.213497805716997
145.0647908789 	 0.389435812280078
154.0611024845 	 7.43090973787214
155.0689275166 	 2.1982366662713
156.0113750999 	 13.3534970149844
156.0767525487 	 39.5366306883327
157.0481920745 	 1.09516467006682
157.0793950856 	 1.74158858182106
158.0712732403 	 0.189775827303997
172.0505377982 	 0.389435812280078
172.0716671708 	 0.266872257146246
172.0756899162 	 0.255011267939746
173.0583628303 	 4.71078954651485
201.0770868997 	 0.187798995769581
215.084874394 	 0.136401375874748
218.0230024187 	 1.43913335705531
229.0720015218 	 0.334084529316412
230.0798265539 	 1.78507887557822
245.1033016502 	 4.85905191159609
293.0702869623 	 0.292571067093662
311.0808516486 	 100
END IONS

BEGIN IONS
PEPMASS=180.1753
CHARGE=1
MSLEVEL=2
RT=0
SOURCE_INSTRUMENT=qTOF
FILENAME=CCMSLIB00000078361.ms
IONMODE=Positive
ORGANISM=Natural
NAME=Rimantadine (Flumadine)
PI=GNPS
DATACOLLECTOR=GNPS
SMILES=CC(C12CC3CC(CC(C3)C2)C1)N
INCHI=InChI=1S/C12H21N/c1-8(13)12-5-9-2-10(6-12)4-11(3-9)7-12/h8-11H,2-7,13H2,1H3
FORMULA=C12H21N
PUBMED=N/A
SUBMITUSER=BIOADREM
LIBRARYQUALITY=0
SPECTRUMID=CCMSLIB00000078361
SCANS=876
ID=CCMSLIB00000078361
91.0542261926 	 4.43
93.0698762568 	 7.03
95.085526321 	 3.22
105.0698762568 	 3.84
107.085526321 	 20.985
109.1011763852 	 1.495
119.085526321 	 0.73
121.1011763852 	 18.62
133.1011763852 	 0.335
135.1168264494 	 17.975
163.1481265778 	 100
165.151200583 	 0.72
180.1746756793 	 36.11
END IONS

BEGIN IONS
PEPMASS=386.131
CHARGE=1
MSLEVEL=2
RT=0
SOURCE_INSTRUMENT=qTOF
FILENAME=CCMSLIB00000078367.ms
IONMODE=Positive
ORGANISM=Natural
NAME=Sarafloxacin HCl
PI=GNPS
DATACOLLECTOR=GNPS
SMILES=c1cc(ccc1F)n1cc(c(=O)c2cc(c(cc12)N1CCNCC1)F)C(=O)O
INCHI=InChI=1S/C20H17F2N3O3/c21-12-1-3-13(4-2-12)25-11-15(20(27)28)19(26)14-9-16(22)18(10-17(14)25)24-7-5-23-6-8-24/h1-4,9-11,23H,5-8H2,(H,27,28)
FORMULA=C20H17F2N3O3
PUBMED=N/A
SUBMITUSER=BIOADREM
LIBRARYQUALITY=0
SPECTRUMID=CCMSLIB00000078367
SCANS=880
ID=CCMSLIB00000078367
128.0494751657 	 0.662024323264025
136.0557033978 	 0.617889368379757
148.0557033978 	 1.38779913691644
155.060374203 	 0.80423695566889
174.058777403 	 0.554138877991369
175.0666024351 	 0.843468026677128
189.0822524993 	 0.887602981561397
203.0615170572 	 1.55453118870145
209.0635284299 	 0.985680659081993
210.071353462 	 1.01020007846214
229.069756662 	 1.61828167908984
238.0662680841 	 1.79482149862691
243.0728306672 	 0.750294233032562
244.0806556993 	 1.00529619458611
250.0900775314 	 0.308944684189878
251.0979025635 	 0.559042761867399
255.0728306672 	 0.843468026677128
256.056846252 	 3.86426049431149
257.0646712841 	 2.35386426049431
258.0724963162 	 2.38819144762652
264.0931515366 	 0.701255394272264
267.0928171856 	 0.632601020007846
269.0884807314 	 0.583562181247548
271.0751557487 	 2.91290702236171
272.0744274672 	 1.58395449195763
273.0833953535 	 4.3742644174186
274.0862546025 	 0.578658297371518
279.0928171856 	 6.67908983915261
281.0884807314 	 3.60435464888191
283.0677452893 	 0.872891329933307
284.0755703214 	 0.961161239701844
285.0833953535 	 13.8485680659082
292.0880661587 	 2.15280502157709
292.124451665 	 0.848371910553158
293.0958911908 	 1.59376225970969
294.1037162229 	 2.82463711259317
297.0833953535 	 2.46174970576697
299.0990454177 	 98.0776775205963
300.1019046667 	 7.71871322087093
301.1021194229 	 2.33915260886622
311.0990454177 	 0.632601020007846
313.1021194229 	 0.637504903883876
320.0829807808 	 1.77520596312279
320.1193662871 	 1.02981561396626
322.1350163513 	 5.87975676735975
325.0783099756 	 0.769909768536681
325.1146954819 	 0.299136916437819
340.1255945192 	 1.45645351118086
341.1334195513 	 0.289329148685759
342.1412445834 	 32.6941938014908
348.1142809092 	 3.38367987446057
366.1248455955 	 0.549234994115339
368.1205091413 	 20.1843860337387
386.1310738276 	 100
END IONS

BEGIN IONS
PEPMASS=264.0613
CHARGE=1
MSLEVEL=2
RT=0
SOURCE_INSTRUMENT=qTOF
FILENAME=CCMSLIB00000078369.ms
IONMODE=Positive
ORGANISM=Natural
NAME=Ticlopidine hydrochloride
PI=GNPS
DATACOLLECTOR=GNPS
SMILES=c1ccc(c(c1)CN1CCc2c(ccs2)C1)Cl
INCHI=InChI=1S/C14H14ClNS/c15-13-4-2-1-3-11(13)9-16-7-5-14-12(10-16)6-8-17-14/h1-4,6,8H,5,7,9-10H2
FORMULA=C14H14ClNS
PUBMED=N/A
SUBMITUSER=BIOADREM
LIBRARYQUALITY=0
SPECTRUMID=CCMSLIB00000078369
SCANS=881
ID=CCMSLIB00000078369
89.0385761284 	 0.304455063974102
98.9996038063 	 0.635887158933251
111.0262968826 	 0.362262987513489
125.0152538705 	 89.4250038538616
138.0371959199 	 0.435486357330045
154.041802972 	 79.6901495298289
235.0342747531 	 0.443194080468629
236.0295237262 	 0.177277632187452
264.0608238546 	 100
END IONS

BEGIN IONS
PEPMASS=391.1931
CHARGE=1
MSLEVEL=2
RT=0
SOURCE_INSTRUMENT=qTOF
FILENAME=CCMSLIB00000078370.ms
IONMODE=Positive
ORGANISM=Natural
NAME=Meclizine dihydrochloride
PI=GNPS
DATACOLLECTOR=GNPS
SMILES=Cc1cccc(c1)CN1CCN(CC1)C(c1ccccc1)c1ccc(cc1)Cl
INCHI=InChI=1S/C25H27ClN2/c1-20-6-5-7-21(18-20)19-27-14-16-28(17-15-27)25(22-8-3-2-4-9-22)23-10-12-24(26)13-11-23/h2-13,18,25H,14-17,19H2,1H3
FORMULA=C25H27ClN2
PUBMED=N/A
SUBMITUSER=BIOADREM
LIBRARYQUALITY=0
SPECTRUMID=CCMSLIB00000078370
SCANS=882
ID=CCMSLIB00000078370
105.0698762568 	 0.42
165.0698762568 	 17.58
166.0777012889 	 34.26
201.0465539989 	 100
391.1935525871 	 15.16
END IONS

BEGIN IONS
PEPMASS=543.1293
CHARGE=1
MSLEVEL=2
RT=0
SOURCE_INSTRUMENT=qTOF
FILENAME=CCMSLIB00000078371.ms
IONMODE=Positive
ORGANISM=Natural
NAME=Mometasone furoate
PI=GNPS
DATACOLLECTOR=GNPS
SMILES=C[C@@H]1C[C@H]2[C@@H]3CCC4=CC(=O)C=C[C@]4(C)[C@@]3([C@@H](C[C@]2(C)[C@@]1(C(=O)CCl)OC(=O)c1ccco1)O)Cl
INCHI=InChI=1S/C27H30Cl2O6/c1-15-11-19-18-7-6-16-12-17(30)8-9-24(16,2)26(18,29)21(31)13-25(19,3)27(15,22(32)14-28)35-23(33)20-5-4-10-34-20/h4-5,8-10,12,15,18-19,21,31H,6-7,11,13-14H2,1-3H3/t15-,18+,19+,21-,24+,25+,26-,27-/m1/s1
FORMULA=C27H30Cl2O6
PUBMED=N/A
SUBMITUSER=BIOADREM
LIBRARYQUALITY=0
SPECTRUMID=CCMSLIB00000078371
SCANS=883
ID=CCMSLIB00000078371
119.085526321 	 4.89
121.0647908789 	 7.38
135.0804409431 	 19.58
147.0804409431 	 25.47
157.1011763852 	 4.07
158.1090014173 	 2.12
159.0804409431 	 6.2
164.0831805973 	 2.23
171.0571186852 	 5.78
171.0804409431 	 17.65
173.0960910073 	 13.63
185.0960910073 	 15.46
197.0960910073 	 5.25
201.0910056294 	 2.23
211.1117410715 	 6.36
213.1273911357 	 2.17
221.0960910073 	 8.22
223.0964849378 	 2.28
223.1117410715 	 14.93
224.1195661036 	 10.14
235.1117410715 	 7.71
237.1273911357 	 10.09
240.1567394709 	 3.26
248.1195661036 	 10.5
249.1273911357 	 8.2
259.1117410715 	 4.74
261.1273911357 	 6.17
262.1352161678 	 6.44
263.1430411999 	 54.09
268.1821663604 	 2.28
271.1692559504 	 4.51
272.1770809825 	 3.69
275.1430411999 	 6.22
277.1586912641 	 12.88
278.1665162962 	 31.32
279.1743413283 	 39.89
281.1536058862 	 10.14
286.1352161678 	 7.28
288.150866232 	 7.73
291.137955822 	 5.06
291.1743413283 	 7.74
291.1802145672 	 7.39
292.1821663604 	 2.39
297.1849060146 	 5.81
298.1927310467 	 2.06
300.1639294804 	 2.12
301.1586912641 	 17.34
302.1665162962 	 2.93
306.1614309183 	 7.12
310.1927310467 	 2.39
319.1692559504 	 16.17
327.1510190704 	 6.32
327.1874045767 	 2.06
337.1353690062 	 16.95
345.1615837567 	 4.46
355.1459336925 	 100
357.1404543841 	 27.29
358.1482794162 	 4.82
360.1275439741 	 2.12
373.1564983788 	 40.75
374.1490672772 	 2.34
375.1510190704 	 11.73
377.1747352588 	 2.28
391.1226114346 	 28.12
391.1670630651 	 3.26
393.1171321262 	 17.53
485.1725423735 	 100
503.1386554293 	 86.02
504.1464804614 	 34.34
507.1335700514 	 9.47
521.1492201156 	 34.61
END IONS

BEGIN IONS
PEPMASS=501.1924
CHARGE=1
MSLEVEL=2
RT=0
SOURCE_INSTRUMENT=qTOF
FILENAME=CCMSLIB00000078374.ms
IONMODE=Positive
ORGANISM=Natural
NAME=Fluticasone propionate (Flonase, Veramyst)
PI=GNPS
DATACOLLECTOR=GNPS
SMILES=CCC(=O)O[C@]1([C@H](C)C[C@H]2[C@@H]3C[C@@H](C4=CC(=O)C=C[C@]4(C)[C@@]3([C@@H](C[C@]12C)O)F)F)C(=O)SCF
INCHI=InChI=1S/C25H31F3O5S/c1-5-20(31)33-25(21(32)34-12-26)13(2)8-15-16-10-18(27)17-9-14(29)6-7-22(17,3)24(16,28)19(30)11-23(15,25)4/h6-7,9,13,15-16,18-19,30H,5,8,10-12H2,1-4H3/t13-,15+,16+,18+,19-,22+,23+,24-,25-/m1/s1
FORMULA=C25H31F3O5S
PUBMED=N/A
SUBMITUSER=BIOADREM
LIBRARYQUALITY=0
SPECTRUMID=CCMSLIB00000078374
SCANS=885
ID=CCMSLIB00000078374
107.085526321 	 3.41681870957041
113.0960910073 	 15.6327749212141
121.0647908789 	 11.8095869961851
123.0804409431 	 5.954552993863
125.0960910073 	 22.8147288107481
135.0804409431 	 3.73196218278321
137.0972338615 	 5.26621330237187
139.1117410715 	 5.34085254602753
149.0972338615 	 16.1220766296235
151.0917545531 	 4.43688837286449
151.1117410715 	 12.9872283960856
155.0866691752 	 3.3255929673246
159.0804409431 	 3.65732293912755
163.1128839257 	 14.6790512522806
171.0804409431 	 8.22690330071322
179.0866691752 	 11.4032177807265
185.0572608247 	 5.34085254602753
185.0960910073 	 2.82799800962017
189.1285339899 	 5.34085254602753
200.1207089578 	 7.64637585005805
202.1352161678 	 7.82882733454968
205.0659337331 	 27.1603914413667
213.1285339899 	 11.8842262398408
213.1649194962 	 5.28279980096202
215.1441840541 	 9.82750041466246
223.1117410715 	 3.15143473212805
223.149269432 	 4.74373859678222
226.136359022 	 11.7183612539393
227.1430411999 	 5.68087576712556
239.1441840541 	 5.26621330237187
240.1520090862 	 7.81224083595953
241.1598341183 	 60.8392768286615
242.1665162962 	 16.4123403549511
247.1481265778 	 4.71056559960192
251.1430411999 	 6.05407198540388
251.1441840541 	 7.01608890363244
253.1586912641 	 6.43556145297728
255.1754841825 	 20.4096865151766
256.1833092146 	 32.136341018411
257.1899913925 	 52.9606899983414
260.1207089578 	 8.41764803449992
265.1586912641 	 23.2128047769116
266.1676591504 	 6.94144965997678
275.1441840541 	 23.2293912755017
277.1398475999 	 5.14181456294576
279.1743413283 	 16.627964836623
280.1821663604 	 5.71404876430586
284.1782238367 	 11.2705257920053
285.1649194962 	 3.7983081771438
293.1536058862 	 82.9324929507381
295.149269432 	 19.7047603250954
297.1849060146 	 15.7820534085255
303.1390986762 	 3.43340520816056
305.1711477283 	 5.60623652346989
313.1598341183 	 78.7444020567258
315.1588684825 	 6.38580195720683
317.1511612099 	 6.14529772764969
323.1453269083 	 3.07679548847238
331.1537831046 	 8.11909105987726
333.1660623504 	 100
335.1617258962 	 29.1922375186598
339.1424694946 	 3.2924199701443
351.1766270367 	 15.3093381987063
353.1722905825 	 8.92353624149942
359.1486977267 	 12.2242494609388
360.1531519404 	 3.52463095040637
361.1443612725 	 9.23038646541715
362.1521863046 	 2.61237352794825
369.1330476625 	 7.45563111627136
379.1549259588 	 6.59313318958368
387.1436123488 	 5.97943274174822
389.1392758946 	 12.0417979764472
405.1508062167 	 3.53292419970144
407.1498405809 	 6.40238845579698
463.1749124772 	 3.83977442361917
481.1854771635 	 6.84193066843589
501.1917053956 	 54.4783546193399
END IONS

BEGIN IONS
PEPMASS=478.2206
CHARGE=1
MSLEVEL=2
RT=0
SOURCE_INSTRUMENT=qTOF
FILENAME=CCMSLIB00000078376.ms
IONMODE=Positive
ORGANISM=Natural
NAME=Lacidipine (Lacipil, Motens)
PI=GNPS
DATACOLLECTOR=GNPS
SMILES=CCOC(=O)C1=C(C)NC(=C(C1c1ccccc1/C=C/C(=O)OC(C)(C)C)C(=O)OCC)C
INCHI=InChI=1S/C26H33NO6/c1-8-31-24(29)21-16(3)27-17(4)22(25(30)32-9-2)23(21)19-13-11-10-12-18(19)14-15-20(28)33-26(5,6)7/h10-15,23,27H,8-9H2,1-7H3/b15-14+
FORMULA=C26H33NO6
PUBMED=N/A
SUBMITUSER=BIOADREM
LIBRARYQUALITY=0
SPECTRUMID=CCMSLIB00000078376
SCANS=887
ID=CCMSLIB00000078376
194.0964253583 	 1.24429148189821
234.0913399804 	 1.56198292408498
236.1069900446 	 3.95790588391025
237.112135002 	 1.34357005758157
238.0835745278 	 2.7003772585876
240.1019046667 	 7.43265603282812
246.0913399804 	 1.56198292408498
246.1488548593 	 0.138990005956715
254.1175547309 	 1.35680720100602
262.0862546025 	 4.09027731815474
263.0913995599 	 1.57522006750943
264.1019046667 	 6.10894169038322
265.1070496241 	 1.297240055596
266.0784891499 	 1.12515719107817
268.1305247204 	 0.311072870474552
268.1332047951 	 12.0391819445364
280.0968192888 	 6.54576742339003
281.1019642462 	 1.69435435832947
282.112469353 	 5.21543450923291
290.0811692246 	 3.6203587265868
291.0889942567 	 1.11192004765372
292.1332047951 	 1.2707657687471
308.0917339109 	 3.81229730624131
308.1281194172 	 3.0246872724866
309.1359444493 	 1.33033291415712
310.1437694814 	 12.5819048249388
311.1430411999 	 2.40916010324972
336.1230340393 	 1.35680720100602
352.1179486614 	 1.17148719306374
354.1335987256 	 66.4173671321729
356.1406954762 	 2.96512012707658
372.1441634119 	 0.172082864517837
380.1492487898 	 2.21722152359521
382.164898854 	 13.2900919981468
383.1641705725 	 5.88391025216758
384.1719956046 	 1.52227149381164
398.1598134761 	 4.70580448739162
400.1754635403 	 100
401.1747352588 	 28.3738169303064
402.1825602909 	 3.69316301542127
410.1961989824 	 15.4543649480442
456.2380637971 	 45.5887219538024
END IONS

BEGIN IONS
PEPMASS=329.1322
CHARGE=1
MSLEVEL=2
RT=0
SOURCE_INSTRUMENT=qTOF
FILENAME=CCMSLIB00000078378.ms
IONMODE=Positive
ORGANISM=Natural
NAME=Liranaftate
PI=GNPS
DATACOLLECTOR=GNPS
SMILES=CN(c1cccc(n1)OC)C(=S)Oc1ccc2CCCCc2c1
INCHI=InChI=1S/C18H20N2O2S/c1-20(16-8-5-9-17(19-16)21-2)18(23)22-15-11-10-13-6-3-4-7-14(13)12-15/h5,8-12H,3-4,6-7H2,1-2H3
FORMULA=C18H20N2O2S
PUBMED=N/A
SUBMITUSER=BIOADREM
LIBRARYQUALITY=0
SPECTRUMID=CCMSLIB00000078378
SCANS=889
ID=CCMSLIB00000078378
91.0542261926 	 2.9
93.0209146915 	 1.57
103.0542261926 	 0.82
107.0491408147 	 0.46
108.0443897878 	 13.98
115.0542261926 	 1.94
116.0620512247 	 2.63
126.0549544741 	 12.59
128.0620512247 	 1.53
129.0698762568 	 3.94
131.085526321 	 10.22
149.0960910073 	 4.55
160.1120754225 	 13.04
165.0658535114 	 36.74
181.0430095793 	 100
188.1069900446 	 40.07
197.0379242014 	 2.31
329.1318245866 	 68.62
END IONS

BEGIN IONS
PEPMASS=514.3365
CHARGE=1
MSLEVEL=2
RT=0
SOURCE_INSTRUMENT=qTOF
FILENAME=CCMSLIB00000078381.ms
IONMODE=Positive
ORGANISM=Natural
NAME=Maraviroc
PI=GNPS
DATACOLLECTOR=GNPS
SMILES=CC(C)c1nnc(C)n1C1CC2CCC(C1)N2CC[C@@H](c1ccccc1)N=C(C1CCC(CC1)(F)F)O
INCHI=InChI=1S/C29H41F2N5O/c1-19(2)27-34-33-20(3)36(27)25-17-23-9-10-24(18-25)35(23)16-13-26(21-7-5-4-6-8-21)32-28(37)22-11-14-29(30,31)15-12-22/h4-8,19,22-26H,9-18H2,1-3H3,(H,32,37)/t23?,24?,25?,26-/m0/s1
FORMULA=C29H41F2N5O
PUBMED=N/A
SUBMITUSER=BIOADREM
LIBRARYQUALITY=0
SPECTRUMID=CCMSLIB00000078381
SCANS=891
ID=CCMSLIB00000078381
106.0651252299 	 6.17
117.0698762568 	 7.55
120.0681992351 	 0.36
124.1120754225 	 3.52
147.0790982724 	 0.37
205.1447725344 	 1.07
252.1194465088 	 2.24
253.1209630871 	 0.52
260.1445184051 	 7.12
280.1507466372 	 100
281.1522632155 	 16.16
389.2398959955 	 97.49
390.2414125738 	 26.2
391.2492376059 	 3.91
514.3351933642 	 65.44
END IONS

BEGIN IONS
PEPMASS=534.305
CHARGE=1
MSLEVEL=2
RT=0
SOURCE_INSTRUMENT=qTOF
FILENAME=CCMSLIB00000078383.ms
IONMODE=Positive
ORGANISM=Natural
NAME=Vicriviroc Malate
PI=GNPS
DATACOLLECTOR=GNPS
SMILES=C[C@H]1CN(CCN1[C@@H](COC)c1ccc(cc1)C(F)(F)F)C1(C)CCN(CC1)C(=O)c1c(C)ncnc1C
INCHI=InChI=1S/C28H38F3N5O2/c1-19-16-35(14-15-36(19)24(17-38-5)22-6-8-23(9-7-22)28(29,30)31)27(4)10-12-34(13-11-27)26(37)25-20(2)32-18-33-21(25)3/h6-9,18-19,24H,10-17H2,1-5H3/t19-,24-/m0/s1
FORMULA=C28H38F3N5O2
PUBMED=N/A
SUBMITUSER=BIOADREM
LIBRARYQUALITY=0
SPECTRUMID=CCMSLIB00000078383
SCANS=892
ID=CCMSLIB00000078383
99.0916743314 	 1.84
101.1073243956 	 12.64
133.0448043605 	 1.09
135.0552888251 	 59.93
136.056846252 	 7.84
143.0491408147 	 0.97
149.0397189826 	 3.87
151.0353825284 	 1.67
152.0818379266 	 4.69
153.0510325926 	 3.32
154.0525491709 	 0.95
163.0553690468 	 1.05
164.080735921 	 3.04
165.0510325926 	 0.95
165.0833953535 	 1.62
171.0416107605 	 4.93
173.0572608247 	 1.74
176.0818379266 	 1.25
183.0615972789 	 22.42
184.0631138572 	 2.32
203.067825511 	 48.54
204.0693420893 	 5.05
214.0838099262 	 1.24
216.0994599904 	 0.9
228.0994599904 	 3
232.1444381834 	 45.25
233.1459956103 	 5.83
242.1151100546 	 0.91
246.1100246767 	 0.79
247.1178497088 	 1.36
255.1103590277 	 0.81
256.1132182767 	 0.84
260.0755703214 	 0.74
271.1416591561 	 16.74
272.1445184051 	 2.14
275.1866373491 	 1.95
276.188194776 	 0.9
300.1443988103 	 0.98
303.1678739066 	 100
304.1707331556 	 15.13
315.1678739066 	 20.48
330.2225689096 	 0.82
332.2395616445 	 1.16
534.30503609 	 491.68
END IONS

BEGIN IONS
PEPMASS=445.1635
CHARGE=1
MSLEVEL=2
RT=0
SOURCE_INSTRUMENT=qTOF
FILENAME=CCMSLIB00000078384.ms
IONMODE=Positive
ORGANISM=Natural
NAME=Raltegravir (MK-0518)
PI=GNPS
DATACOLLECTOR=GNPS
SMILES=Cc1nnc(C(=O)NC(C)(C)c2nc(c(c(=O)n2C)O)C(=NCc2ccc(cc2)F)O)o1
INCHI=InChI=1S/C20H21FN6O5/c1-10-25-26-17(32-10)16(30)24-20(2,3)19-23-13(14(28)18(31)27(19)4)15(29)22-9-11-5-7-12(21)8-6-11/h5-8,28H,9H2,1-4H3,(H,22,29)(H,24,30)
FORMULA=C20H21FN6O5
PUBMED=N/A
SUBMITUSER=BIOADREM
LIBRARYQUALITY=0
SPECTRUMID=CCMSLIB00000078384
SCANS=893
ID=CCMSLIB00000078384
109.0448043605 	 3.52182632654209
110.047463793 	 0.245534459168182
125.034553383 	 0.0337375592750173
125.0709388893 	 0.0374861769722415
153.0294680051 	 0.0459205667909958
161.0920682619 	 0.283020636140423
165.0645108407 	 0.500440462579424
165.0658535114 	 0.256780312259854
167.0377076099 	 0.0234288606076509
168.0767525487 	 2.22480460330253
183.0764181977 	 0.195865274679962
186.087317235 	 0.394542012632842
193.0594254628 	 0.629767773133657
193.0771671214 	 1.45352651209866
204.0978819213 	 0.283020636140423
208.0703245001 	 1.51912732180009
208.0716671708 	 0.250220231289712
209.0720817435 	 0.0599778831555864
210.087317235 	 0.0393604858208536
226.0822318571 	 0.149944707888966
229.0845775808 	 0.364553071055048
230.0400533336 	 0.306449496748074
236.0652391222 	 9.37154424306037
236.0665817929 	 0.386107622814087
237.0669963656 	 0.0309260960020992
237.071019111 	 1.23610668565966
251.0774808302 	 1.84806852473151
253.0931308944 	 0.753472157142054
254.0849921535 	 0.453582741364122
254.0935454671 	 0.169624950799393
275.1190319361 	 0.0309260960020992
278.0935454671 	 0.498566153730812
279.0690077383 	 1.59503683016888
316.1166059907 	 0.0318632504264053
318.1196799959 	 0.306449496748074
318.1248455955 	 0.184619421588289
319.1326706276 	 0.0431091035180777
320.0955568398 	 4.93880381609282
321.0941935269 	 0.91278840927408
335.1098435911 	 0.394542012632842
338.1061215261 	 0.765655164658032
339.1489893938 	 0.306449496748074
344.1041101534 	 0.0712237362472588
361.1254936553 	 8.93576743575806
361.1306592549 	 9.37154424306037
362.1333186874 	 2.0017618503177
362.138484287 	 1.86774876764193
370.1071841586 	 0.412347946694656
379.140081087 	 0.511686315671096
401.1368072653 	 0.453582741364122
427.1524573295 	 0.0215545517590389
445.1630220158 	 100
END IONS

BEGIN IONS
PEPMASS=345.1819
CHARGE=1
MSLEVEL=2
RT=0
SOURCE_INSTRUMENT=qTOF
FILENAME=CCMSLIB00000078390.ms
IONMODE=Positive
ORGANISM=Natural
NAME=Formoterol hemifumarate
PI=GNPS
DATACOLLECTOR=GNPS
SMILES=C[C@@H](Cc1ccc(cc1)OC)NC[C@H](c1ccc(c(c1)N=CO)O)O
INCHI=InChI=1S/C19H24N2O4/c1-13(9-14-3-6-16(25-2)7-4-14)20-11-19(24)15-5-8-18(23)17(10-15)21-12-22/h3-8,10,12-13,19-20,23-24H,9,11H2,1-2H3,(H,21,22)/t13-,19+/m0/s1
FORMULA=C19H24N2O4
PUBMED=N/A
SUBMITUSER=BIOADREM
LIBRARYQUALITY=0
SPECTRUMID=CCMSLIB00000078390
SCANS=898
ID=CCMSLIB00000078390
91.0542261926 	 0.98
93.0698762568 	 0.185
106.0413157826 	 0.15
109.0647908789 	 0.75
117.0698762568 	 0.33
119.0491408147 	 0.215
121.0647908789 	 49.785
136.0756899162 	 0.6
147.0804409431 	 0.13
149.0960910073 	 100
151.0991650125 	 0.37
176.1069900446 	 0.295
327.1703185829 	 89.63
345.1808832692 	 92.685
END IONS

BEGIN IONS
PEPMASS=274.0295
CHARGE=1
MSLEVEL=2
RT=0
SOURCE_INSTRUMENT=qTOF
FILENAME=CCMSLIB00000078391.ms
IONMODE=Positive
ORGANISM=Natural
NAME=Chlormezanone (Trancopal)
PI=GNPS
DATACOLLECTOR=GNPS
SMILES=CN1C(=O)CCS(=O)(=O)C1c1ccc(cc1)Cl
INCHI=InChI=1S/C11H12ClNO3S/c1-13-10(14)6-7-17(15,16)11(13)8-2-4-9(12)5-3-8/h2-5,11H,6-7H2,1H3
FORMULA=C11H12ClNO3S
PUBMED=N/A
SUBMITUSER=BIOADREM
LIBRARYQUALITY=0
SPECTRUMID=CCMSLIB00000078391
SCANS=899
ID=CCMSLIB00000078391
102.9848259984 	 5.58
115.0542261926 	 3.55
117.0698762568 	 6.22
120.9953906847 	 5.42
125.0152538705 	 3.32
138.0230789026 	 5.16
143.0491408147 	 1.98
150.0230789026 	 2.43
151.0309039347 	 7.22
154.041802972 	 100
178.0179935247 	 7.18
181.041468621 	 1.18
208.0523676583 	 16.47
209.0601926904 	 69.24
274.0299176567 	 140.18
END IONS

BEGIN IONS
PEPMASS=310.126
CHARGE=1
MSLEVEL=2
RT=0
SOURCE_INSTRUMENT=qTOF
FILENAME=CCMSLIB00000078392.ms
IONMODE=Positive
ORGANISM=Natural
NAME=Ketotifen fumarate (Zaditor)
PI=GNPS
DATACOLLECTOR=GNPS
SMILES=CN1CCC(=C2c3ccccc3CC(=O)c3c2ccs3)CC1
INCHI=InChI=1S/C19H19NOS/c1-20-9-6-13(7-10-20)18-15-5-3-2-4-14(15)12-17(21)19-16(18)8-11-22-19/h2-5,8,11H,6-7,9-10,12H2,1H3
FORMULA=C19H19NOS
PUBMED=N/A
SUBMITUSER=BIOADREM
LIBRARYQUALITY=0
SPECTRUMID=CCMSLIB00000078392
SCANS=900
ID=CCMSLIB00000078392
94.0651252299 	 1.49717856926157
96.0807752941 	 15.1689824646563
97.0106468184 	 1.40237242885747
111.0262968826 	 0.763758267095443
115.0542261926 	 2.06904920817912
117.0698762568 	 1.41299071658273
123.0262968826 	 2.19040106789637
128.0620512247 	 1.74443298343547
129.0698762568 	 5.15593713973667
135.0262968826 	 1.73305624658698
141.0698762568 	 5.85219343486439
152.0620512247 	 1.31818457617863
153.0698762568 	 1.90522419756083
155.085526321 	 4.26475941993811
157.0647908789 	 0.251046659790061
165.0698762568 	 4.34060433226139
166.0777012889 	 0.336751410715369
167.085526321 	 0.794096232024756
178.0777012889 	 6.15026394029489
179.085526321 	 3.71185000910139
184.0341219147 	 6.2685820035192
185.0419469468 	 8.29970875553668
186.0464011605 	 0.646198652994357
189.0698762568 	 1.91811783265579
190.0777012889 	 5.52454341362781
191.085526321 	 4.32771069716643
192.0933513531 	 0.859322856622778
197.0419469468 	 11.1074874097446
198.0464011605 	 2.04174503974273
198.0497719789 	 0.687154905648929
199.0542261926 	 0.364814028274983
199.057597011 	 0.405770280929555
202.0777012889 	 2.4247618469753
203.085526321 	 4.0334324373521
204.0933513531 	 2.94885019112918
205.1011763852 	 11.3486742309326
206.1090014173 	 0.90027910927735
208.0341219147 	 2.16158000121352
209.0385761284 	 0.370123172137613
209.0419469468 	 3.95607062678235
210.0464011605 	 0.460378617802318
210.0497719789 	 3.01255991748074
211.057597011 	 3.90752988289546
213.0368615689 	 22.0921060615254
214.0413157826 	 1.29088040774225
215.085526321 	 4.1767793216431
216.0933513531 	 2.70159577695528
221.0419469468 	 8.43167890297919
222.0497719789 	 4.65232692191008
223.057597011 	 4.82221952551423
224.0620512247 	 1.47670044293429
224.0654220431 	 1.40464777622717
225.0698762568 	 0.414113221285116
225.0732470752 	 0.602208603846854
227.0491408147 	 0.263940294885019
233.0960910073 	 0.382258358109338
234.0497719789 	 11.2121533887507
235.0542261926 	 1.33335355864329
235.057597011 	 2.04705418360536
236.0620512247 	 0.376949214246708
237.0334907505 	 0.678053516170135
237.0368615689 	 2.43689703294703
237.0732470752 	 1.75808506765366
238.0413157826 	 0.370123172137613
238.044686601 	 0.354195740549724
239.0525116331 	 1.368242218312
239.0888971394 	 1.63976700442934
247.057597011 	 0.587039621382198
249.0732470752 	 5.44263090831867
250.044686601 	 4.6250227534737
251.0491408147 	 0.288210666828469
251.0525116331 	 0.963988835628906
252.0569658468 	 0.254838905406225
253.0647908789 	 0.499817972210424
253.0681616973 	 0.334476063345671
265.0681616973 	 0.988259207572356
267.0838117615 	 0.838844730295492
292.1154462409 	 1.70423517990413
310.1260109272 	 100
END IONS

BEGIN IONS
PEPMASS=388.2362
CHARGE=1
MSLEVEL=2
RT=0
SOURCE_INSTRUMENT=qTOF
FILENAME=CCMSLIB00000078393.ms
IONMODE=Positive
ORGANISM=Natural
NAME=Urapidil hydrochloride
PI=GNPS
DATACOLLECTOR=GNPS
SMILES=Cn1c(cc(=O)n(C)c1=O)NCCCN1CCN(CC1)c1ccccc1OC
INCHI=InChI=1S/C20H29N5O3/c1-22-18(15-19(26)23(2)20(22)27)21-9-6-10-24-11-13-25(14-12-24)16-7-4-5-8-17(16)28-3/h4-5,7-8,15,21H,6,9-14H2,1-3H3
FORMULA=C20H29N5O3
PUBMED=N/A
SUBMITUSER=BIOADREM
LIBRARYQUALITY=0
SPECTRUMID=CCMSLIB00000078393
SCANS=901
ID=CCMSLIB00000078393
111.0552888251 	 0.112600724867166
118.0651252299 	 0.226374373951699
120.0443897878 	 0.110254876432434
121.0522148199 	 0.0973527100414042
134.060039852 	 0.46799676272916
135.0804409431 	 0.110254876432434
136.0756899162 	 0.261562100472689
139.0865889535 	 2.5628394149454
141.0658535114 	 2.62500439846582
146.0838492993 	 0.269772569994253
147.0678648841 	 0.107909027997701
148.0756899162 	 0.239276540342728
150.0913399804 	 1.78401773461417
162.0913399804 	 4.47353296503513
168.0767525487 	 2.05613615304315
175.0865889535 	 0.606401820378385
176.1069900446 	 0.107909027997701
177.1022390177 	 0.658010485942503
189.1022390177 	 0.367125280035657
190.1100640498 	 23.0151189931619
193.1335391461 	 0.817528179504322
194.0924026129 	 0.130194588127661
196.1080526771 	 18.6694347678197
203.1178890819 	 1.07205273467281
205.1335391461 	 20.9531182190319
207.1366131513 	 0.187667874778611
219.1491892103 	 7.37417455458203
231.1491892103 	 0.486763550207021
232.1444381834 	 0.229893146603798
233.1648392745 	 13.2458331867178
239.1502518428 	 0.219336828647501
248.1757383118 	 2.59802714146639
276.1706529339 	 0.28032888795055
388.2343158232 	 100
END IONS

BEGIN IONS
PEPMASS=409.1493
CHARGE=1
MSLEVEL=2
RT=0
SOURCE_INSTRUMENT=qTOF
FILENAME=CCMSLIB00000078395.ms
IONMODE=Positive
ORGANISM=Natural
NAME=Ginkgolide A
PI=GNPS
DATACOLLECTOR=GNPS
SMILES=C[C@@H]1C(=O)O[C@H]2CC34[C@H]5C[C@@H](C(C)(C)C)C63[C@@H](C(=O)O[C@H]6O[C@@]4(C(=O)O5)[C@@]12O)O
INCHI=InChI=1S/C20H24O9/c1-7-12(22)26-10-6-17-9-5-8(16(2,3)4)18(17)11(21)13(23)28-15(18)29-20(17,14(24)27-9)19(7,10)25/h7-11,15,21,25H,5-6H2,1-4H3/t7-,8+,9-,10+,11-,15+,17?,18?,19-,20-/m1/s1
FORMULA=C20H24O9
PUBMED=N/A
SUBMITUSER=BIOADREM
LIBRARYQUALITY=0
SPECTRUMID=CCMSLIB00000078395
SCANS=902
ID=CCMSLIB00000078395
143.085526321 	 12.71
159.1168264494 	 19.23
173.0960910073 	 13.25
177.0546201231 	 23.5
185.0960910073 	 25.75
197.0960910073 	 12.93
203.0702701873 	 14.21
209.1324765136 	 13.57
213.0910056294 	 11.11
215.1066556936 	 22.54
221.0808348736 	 14.85
225.1273911357 	 11.32
227.1066556936 	 30.88
229.0859202515 	 21.58
237.1273911357 	 24.68
243.1015703157 	 13.68
249.0757494957 	 33.23
253.1223057578 	 46.9
255.137955822 	 25
263.1066556936 	 17.84
265.1223057578 	 11.86
273.1485205083 	 13.68
281.1172203799 	 38.46
289.1434351304 	 18.7
299.1277850662 	 44.76
301.1434351304 	 19.12
309.112135002 	 23.18
311.1277850662 	 13.35
317.1383497525 	 43.27
319.1539998167 	 31.41
327.1226996883 	 35.9
329.1383497525 	 21.79
345.1332643746 	 100
355.1176143104 	 20.73
363.1438290609 	 49.04
364.151654093 	 21.58
373.1281789967 	 58.76
391.138743683 	 47.44
409.1493083693 	 367.31
END IONS

BEGIN IONS
PEPMASS=332.14
CHARGE=1
MSLEVEL=2
RT=0
SOURCE_INSTRUMENT=qTOF
FILENAME=CCMSLIB00000078397.ms
IONMODE=Positive
ORGANISM=Natural
NAME=Ciprofloxacin (Cipro)
PI=GNPS
DATACOLLECTOR=GNPS
SMILES=C1CC1n1cc(c(=O)c2cc(c(cc12)N1CCNCC1)F)C(=O)O
INCHI=InChI=1S/C17H18FN3O3/c18-13-7-11-14(8-15(13)20-5-3-19-4-6-20)21(10-1-2-10)9-12(16(11)22)17(23)24/h7-10,19H,1-6H2,(H,23,24)
FORMULA=C17H18FN3O3
PUBMED=N/A
SUBMITUSER=BIOADREM
LIBRARYQUALITY=0
SPECTRUMID=CCMSLIB00000078397
SCANS=903
ID=CCMSLIB00000078397
51.0103500052 	 1.28406215362737
122.060039852 	 1.16904029947508
168.0819181483 	 1.215049041136
174.0787639214 	 2.01811071376289
175.0666024351 	 0.21540456323065
176.0706045383 	 1.74205826379739
184.0682794568 	 1.07702281615325
187.0627795062 	 1.07702281615325
189.045866993 	 1.39908400777966
189.0822524993 	 2.11012819708472
191.0576941283 	 1.28406215362737
197.0960910073 	 1.05401844532279
203.0576941283 	 2.85254198297677
203.0615170572 	 7.52033795512057
204.0655191604 	 3.86055168663864
204.0693420893 	 7.22337244076374
205.0733441925 	 9.62210092644875
212.0744274672 	 1.14603592864462
215.0576941283 	 0.22376978898718
215.0615170572 	 1.44509274944058
217.0771671214 	 1.3760796369492
219.0889942567 	 0.650396302570216
225.1033818719 	 2.27115879289792
227.0979025635 	 0.729865947257252
229.0733441925 	 0.395256916996047
229.0771671214 	 2.22515005123701
230.0811692246 	 2.78562017692453
231.0928171856 	 6.99332873245917
239.1066556936 	 2.11012819708472
245.1046443209 	 18.6168099211577
245.1084672498 	 20.294037685342
246.112469353 	 2.91318986971161
250.1338734971 	 1.30706652445783
257.1046443209 	 0.213313256791518
257.1084672498 	 1.62912771608424
268.137027724 	 2.54511993642428
268.1444381834 	 3.25616412572934
269.1448527561 	 1.42208837861012
271.1077183261 	 0.378526465482987
286.1311934224 	 1.16276638015768
286.1350163513 	 1.07702281615325
288.1506664155 	 20.9130643913253
314.1299309734 	 28.7784679089027
332.1404956597 	 100
END IONS

BEGIN IONS
PEPMASS=406.9846
CHARGE=1
MSLEVEL=2
RT=0
SOURCE_INSTRUMENT=qTOF
FILENAME=CCMSLIB00000078398.ms
IONMODE=Positive
ORGANISM=Natural
NAME=Diclazuril
PI=GNPS
DATACOLLECTOR=GNPS
SMILES=c1cc(ccc1C(C#N)c1c(cc(cc1Cl)n1c(=O)nc(cn1)O)Cl)Cl
INCHI=InChI=1S/C17H9Cl3N4O2/c18-10-3-1-9(2-4-10)12(7-21)16-13(19)5-11(6-14(16)20)24-17(26)23-15(25)8-22-24/h1-6,8,12H,(H,23,25,26)
FORMULA=C17H9Cl3N4O2
PUBMED=N/A
SUBMITUSER=BIOADREM
LIBRARYQUALITY=0
SPECTRUMID=CCMSLIB00000078398
SCANS=904
ID=CCMSLIB00000078398
177.0532774524 	 3.51
203.060374203 	 4.52
211.0183278757 	 7.27
212.0261529078 	 3.85
213.0214018809 	 3.09
214.0252041676 	 6.35
239.0370519451 	 3.18
245.9831578403 	 14.88
246.9950056178 	 19.73
247.9862318455 	 11.29
248.9868462347 	 8.36
272.9940568776 	 6.1
274.0059046551 	 3.85
281.9620284677 	 28.6
283.9629095876 	 39.88
284.9635239768 	 5.27
285.9713490089 	 3.68
299.972593154 	 6.86
300.9691847978 	 3.34
308.9747573651 	 4.68
309.9825823972 	 3.18
318.9842594189 	 4.01
338.9615126041 	 3.68
379.9754856466 	 90.05
380.9833106787 	 29.6
406.9863846839 	 44.23
END IONS

BEGIN IONS
PEPMASS=405.2144
CHARGE=1
MSLEVEL=2
RT=0
SOURCE_INSTRUMENT=qTOF
FILENAME=CCMSLIB00000078399.ms
IONMODE=Positive
ORGANISM=Natural
NAME=Flunarizine 2HCl
PI=GNPS
DATACOLLECTOR=GNPS
SMILES=c1ccc(cc1)/C=C/CN1CCN(CC1)C(c1ccc(cc1)F)c1ccc(cc1)F
INCHI=InChI=1S/C26H26F2N2/c27-24-12-8-22(9-13-24)26(23-10-14-25(28)15-11-23)30-19-17-29(18-20-30)16-4-7-21-5-2-1-3-6-21/h1-15,26H,16-20H2/b7-4+
FORMULA=C26H26F2N2
PUBMED=N/A
SUBMITUSER=BIOADREM
LIBRARYQUALITY=0
SPECTRUMID=CCMSLIB00000078399
SCANS=905
ID=CCMSLIB00000078399
117.0698762568 	 0.65
183.0604544247 	 22.16
188.0432075605 	 0.29
201.0510325926 	 4.71
203.0666826568 	 100
204.0681992351 	 30.02
385.2074530129 	 0.84
405.213681245 	 4.09
END IONS

BEGIN IONS
PEPMASS=455.0753
CHARGE=1
MSLEVEL=2
RT=0
SOURCE_INSTRUMENT=qTOF
FILENAME=CCMSLIB00000078400.ms
IONMODE=Positive
ORGANISM=Natural
NAME=Fenticonazole nitrate
PI=GNPS
DATACOLLECTOR=GNPS
SMILES=c1ccc(cc1)Sc1ccc(cc1)COC(Cn1ccnc1)c1ccc(cc1Cl)Cl
INCHI=InChI=1S/C24H20Cl2N2OS/c25-19-8-11-22(23(26)14-19)24(15-28-13-12-27-17-28)29-16-18-6-9-21(10-7-18)30-20-4-2-1-3-5-20/h1-14,17,24H,15-16H2
FORMULA=C24H20Cl2N2OS
PUBMED=N/A
SUBMITUSER=BIOADREM
LIBRARYQUALITY=0
SPECTRUMID=CCMSLIB00000078400
SCANS=906
ID=CCMSLIB00000078400
152.0620512247 	 0.33
155.085526321 	 0.32
165.0698762568 	 1.82
166.0777012889 	 1.18
167.085526321 	 4.66
178.0777012889 	 0.3
184.0341219147 	 3.26
185.0368704325 	 0.46
198.0497719789 	 0.48
199.057597011 	 100
200.0603455288 	 20.84
202.054379031 	 0.4
213.0465539989 	 0.56
267.0935041915 	 0.42
455.0746153845 	 97.71
END IONS

BEGIN IONS
PEPMASS=371.0803
CHARGE=1
MSLEVEL=2
RT=0
SOURCE_INSTRUMENT=qTOF
FILENAME=CCMSLIB00000078401.ms
IONMODE=Positive
ORGANISM=Natural
NAME=Rebamipide
PI=GNPS
DATACOLLECTOR=GNPS
SMILES=c1ccc2c(c1)c(CC(C(=O)O)NC(=O)c1ccc(cc1)Cl)cc(n2)O
INCHI=InChI=1S/C19H15ClN2O4/c20-13-7-5-11(6-8-13)18(24)22-16(19(25)26)9-12-10-17(23)21-15-4-2-1-3-14(12)15/h1-8,10,16H,9H2,(H,21,23)(H,22,24)(H,25,26)
FORMULA=C19H15ClN2O4
PUBMED=N/A
SUBMITUSER=BIOADREM
LIBRARYQUALITY=0
SPECTRUMID=CCMSLIB00000078401
SCANS=907
ID=CCMSLIB00000078401
115.0542261926 	 0.54
138.9945184284 	 23.12
142.0651252299 	 0.97
144.0807752941 	 0.32
152.0494751657 	 0.62
154.0651252299 	 1.22
156.0210675299 	 1.32
159.0678648841 	 1.05
160.0756899162 	 1.29
170.060039852 	 11.51
172.0756899162 	 3.63
180.0443897878 	 0.89
188.0706045383 	 0.34
198.0549544741 	 7.13
216.0655191604 	 100
325.0738313819 	 0.72
371.0793106903 	 68.21
END IONS

BEGIN IONS
PEPMASS=320.0404
CHARGE=1
MSLEVEL=2
RT=0
SOURCE_INSTRUMENT=qTOF
FILENAME=CCMSLIB00000078402.ms
IONMODE=Positive
ORGANISM=Natural
NAME=Epalrestat
PI=GNPS
DATACOLLECTOR=GNPS
SMILES=C/C(=C\c1ccccc1)/C=C\1/C(=O)N(CC(=O)O)C(=S)S1
INCHI=InChI=1S/C15H13NO3S2/c1-10(7-11-5-3-2-4-6-11)8-12-14(19)16(9-13(17)18)15(20)21-12/h2-8H,9H2,1H3,(H,17,18)/b10-7+,12-8-
FORMULA=C15H13NO3S2
PUBMED=N/A
SUBMITUSER=BIOADREM
LIBRARYQUALITY=0
SPECTRUMID=CCMSLIB00000078402
SCANS=908
ID=CCMSLIB00000078402
121.0140176368 	 5.93
128.0620512247 	 4.47
129.0698762568 	 5.41
141.0698762568 	 31.19
142.0777012889 	 8
155.085526321 	 5.2
159.0804409431 	 3.95
161.0453177652 	 4.26
169.0647908789 	 100
171.0804409431 	 13.31
173.0419469468 	 4.57
175.057597011 	 8.32
187.057597011 	 8.11
203.0525116331 	 7.59
213.0732470752 	 6.13
214.044686601 	 4.68
238.0116719131 	 4.26
245.0089322589 	 4.16
246.0405667383 	 5.41
274.0354813604 	 44.28
275.0433063925 	 5.51
276.0273219773 	 6.55
302.0303959825 	 19.75
320.0409606688 	 28.17
END IONS

BEGIN IONS
PEPMASS=295.1283
CHARGE=1
MSLEVEL=2
RT=0
SOURCE_INSTRUMENT=qTOF
FILENAME=CCMSLIB00000078403.ms
IONMODE=Positive
ORGANISM=Natural
NAME=Aspartame
PI=GNPS
DATACOLLECTOR=GNPS
SMILES=COC(=O)[C@H](Cc1ccccc1)N=C([C@H](CC(=O)O)N)O
INCHI=InChI=1S/C14H18N2O5/c1-21-14(20)11(7-9-5-3-2-4-6-9)16-13(19)10(15)8-12(17)18/h2-6,10-11H,7-8,15H2,1H3,(H,16,19)(H,17,18)/t10-,11-/m0/s1
FORMULA=C14H18N2O5
PUBMED=N/A
SUBMITUSER=BIOADREM
LIBRARYQUALITY=0
SPECTRUMID=CCMSLIB00000078403
SCANS=909
ID=CCMSLIB00000078403
91.0542261926 	 1.41
103.0542261926 	 2.83
120.0807752941 	 60.17
121.0647908789 	 5.14
130.0651252299 	 4.8
131.0491408147 	 0.86
144.0807752941 	 2.82
147.0916743314 	 1.51
157.0647908789 	 1.29
163.0753555652 	 3.63
172.0756899162 	 5.02
175.0865889535 	 12.33
180.1019046667 	 86.69
182.060039852 	 3.11
189.1022390177 	 1.32
190.0862546025 	 1.94
200.0706045383 	 18.36
217.0971536398 	 5.59
218.0811692246 	 2.79
235.1077183261 	 100
245.0920682619 	 7.59
249.1233683903 	 1.07
259.1077183261 	 0.57
260.0917339109 	 28.8
262.0948079161 	 1.23
263.1026329482 	 5.38
277.1182830124 	 13.18
295.1288476987 	 33.65
END IONS

BEGIN IONS
PEPMASS=282.1603
CHARGE=1
MSLEVEL=2
RT=0
SOURCE_INSTRUMENT=qTOF
FILENAME=CCMSLIB00000078404.ms
IONMODE=Positive
ORGANISM=Natural
NAME=Phentolamine mesilate
PI=GNPS
DATACOLLECTOR=GNPS
SMILES=Cc1ccc(cc1)N(CC1=NCCN1)c1cccc(c1)O
INCHI=InChI=1S/C17H19N3O/c1-13-5-7-14(8-6-13)20(12-17-18-9-10-19-17)15-3-2-4-16(21)11-15/h2-8,11,21H,9-10,12H2,1H3,(H,18,19)
FORMULA=C17H19N3O
PUBMED=N/A
SUBMITUSER=BIOADREM
LIBRARYQUALITY=0
SPECTRUMID=CCMSLIB00000078404
SCANS=910
ID=CCMSLIB00000078404
91.0542261926 	 3.52666666666667
93.0334907505 	 2.08
115.0542261926 	 0.103333333333333
118.0651252299 	 13.76
120.0443897878 	 18.0366666666667
141.0698762568 	 0.1
152.0620512247 	 0.673333333333333
154.0651252299 	 0.14
156.0807752941 	 0.123333333333333
165.0698762568 	 0.29
167.085526321 	 0.513333333333333
169.0647908789 	 0.113333333333333
169.0886003262 	 0.373333333333333
177.0698762568 	 0.216666666666667
180.0569658468 	 0.0933333333333333
182.0964253583 	 0.16
194.0964253583 	 0.91
195.0804409431 	 0.546666666666667
196.0756899162 	 1.50333333333333
197.0835149483 	 2.06
210.0913399804 	 1.31
212.1069900446 	 100
239.1178890819 	 0.51
282.1600882476 	 15.9066666666667
END IONS

BEGIN IONS
PEPMASS=309.0542
CHARGE=1
MSLEVEL=2
RT=0
SOURCE_INSTRUMENT=qTOF
FILENAME=CCMSLIB00000078405.ms
IONMODE=Positive
ORGANISM=Natural
NAME=Nimesulide
PI=GNPS
DATACOLLECTOR=GNPS
SMILES=CS(=O)(=O)Nc1ccc(cc1Oc1ccccc1)N(=O)=O
INCHI=InChI=1S/C13H12N2O5S/c1-21(18,19)14-12-8-7-10(15(16)17)9-13(12)20-11-5-3-2-4-6-11/h2-9,14H,1H3
FORMULA=C13H12N2O5S
PUBMED=N/A
SUBMITUSER=BIOADREM
LIBRARYQUALITY=0
SPECTRUMID=CCMSLIB00000078405
SCANS=911
ID=CCMSLIB00000078405
75.0262968826 	 0.408055811504541
104.0494751657 	 0.734939230397964
106.0287397236 	 0.623052959501558
115.0542261926 	 0.651572989337897
120.0443897878 	 0.408055811504541
128.046795091 	 0.605502171909964
128.0580284793 	 1.36457373524637
129.0698762568 	 1.51594927822386
130.0624451552 	 0.401474266157694
139.0542261926 	 0.388311175463999
143.0702701873 	 0.603308323461015
144.0417097131 	 1.03769031635295
144.0443897878 	 0.59233908121627
144.0780952194 	 1.77701724364881
154.0624451552 	 8.27080865253828
154.0651252299 	 21.9384844894915
155.0525116331 	 2.12583914703172
155.0702701873 	 6.18884647448554
156.0477606062 	 0.5133605370541
156.0780952194 	 3.38510815672853
156.0807752941 	 2.02272826993111
166.0624451552 	 0.631828353297354
166.0651252299 	 1.08814883067878
170.0573597773 	 0.491422052564609
172.006289722 	 0.43657584134088
172.0756899162 	 1.20442279847308
182.0573597773 	 2.48782414110833
182.060039852 	 3.35878197534114
183.0678648841 	 25.2994603132816
184.0730098415 	 3.51673906366548
184.0756899162 	 3.10210170681409
185.0743097077 	 0.43657584134088
186.0760838467 	 0.671317625378439
198.0549544741 	 0.855600895090167
199.057597011 	 0.908253257864947
200.0679244636 	 5.1511561581326
212.0580284793 	 0.816111623009083
213.0658535114 	 6.32486507832039
214.0709984688 	 2.14558378307227
214.0736785435 	 1.33605370541003
215.0576941283 	 7.8561712956869
216.0603366652 	 0.982844105129218
229.0641389519 	 0.5133605370541
230.0685931656 	 12.9195735158615
262.0532399146 	 0.713000745908473
292.0512285419 	 26.661840200079
309.0539681961 	 100
END IONS

BEGIN IONS
PEPMASS=290.2131
CHARGE=1
MSLEVEL=2
RT=0
SOURCE_INSTRUMENT=qTOF
FILENAME=CCMSLIB00000078406.ms
IONMODE=Positive
ORGANISM=Natural
NAME=Dyclonine hydrochloride
PI=GNPS
DATACOLLECTOR=GNPS
SMILES=CCCCOc1ccc(cc1)C(=O)CCN1CCCCC1
INCHI=InChI=1S/C18H27NO2/c1-2-3-15-21-17-9-7-16(8-10-17)18(20)11-14-19-12-5-4-6-13-19/h7-10H,2-6,11-15H2,1H3
FORMULA=C18H27NO2
PUBMED=N/A
SUBMITUSER=BIOADREM
LIBRARYQUALITY=0
SPECTRUMID=CCMSLIB00000078406
SCANS=912
ID=CCMSLIB00000078406
94.0651252299 	 0.5
96.0807752941 	 2.97
98.0964253583 	 100
110.0964253583 	 0.43
115.0542261926 	 0.36
117.0698762568 	 0.55
128.0620512247 	 0.37
129.0698762568 	 0.53
141.0698762568 	 0.35
153.0698762568 	 0.37
154.0777012889 	 0.21
165.0698762568 	 0.48
166.0777012889 	 0.38
167.085526321 	 0.81
178.0777012889 	 0.74
179.085526321 	 0.86
189.0698762568 	 0.34
191.085526321 	 8.15
196.1120754225 	 1.34
202.0777012889 	 1.34
203.085526321 	 1.45
204.0933513531 	 1.72
205.1011763852 	 1.16
215.085526321 	 2.37
216.0933513531 	 1.93
217.1011763852 	 2.1
229.1011763852 	 0.86
230.1090014173 	 1.09
231.1168264494 	 0.42
290.2114551161 	 97.03
END IONS

BEGIN IONS
PEPMASS=371.9885
CHARGE=1
MSLEVEL=2
RT=0
SOURCE_INSTRUMENT=qTOF
FILENAME=CCMSLIB00000078407.ms
IONMODE=Positive
ORGANISM=Natural
NAME=Lornoxicam (Xefo)
PI=GNPS
DATACOLLECTOR=GNPS
SMILES=CN1C(=C(c2c(cc(Cl)s2)S1(=O)=O)O)C(=Nc1ccccn1)O
INCHI=InChI=1S/C13H10ClN3O4S2/c1-17-10(13(19)16-9-4-2-3-5-15-9)11(18)12-7(23(17,20)21)6-8(14)22-12/h2-6,18H,1H3,(H,15,16,19)
FORMULA=C13H10ClN3O4S2
PUBMED=N/A
SUBMITUSER=BIOADREM
LIBRARYQUALITY=0
SPECTRUMID=CCMSLIB00000078407
SCANS=913
ID=CCMSLIB00000078407
94.0525491709 	 0.3
95.060374203 	 47.76
100.95141738 	 1.475
104.9560244321 	 1.055
105.0447241388 	 0.35
107.060374203 	 0.67
112.95141738 	 0.485
121.0396387609 	 100
123.0552888251 	 0.825
136.0869233045 	 0.745
136.9280951221 	 0.43
144.9509390542 	 1.955
148.0505377982 	 1.79
148.9280951221 	 2.38
149.034553383 	 0.475
149.0583628303 	 0.88
150.9437451863 	 0.715
152.0164604778 	 0.405
162.0661878624 	 3.715
163.0740128945 	 0.835
164.0818379266 	 26.185
164.9230097442 	 1.565
169.9825735336 	 0.27
172.9458536763 	 0.36
176.9230097442 	 5.905
177.9546442236 	 3.255
180.0767525487 	 0.54
187.9931382199 	 3.87
192.9179243663 	 4.07
203.9339087815 	 2.925
233.9444734678 	 2.76
249.9393880899 	 1.09
251.9550381541 	 0.74
290.0149362945 	 0.485
308.0255009808 	 5.06
335.9662715424 	 0.835
353.9768362287 	 0.56
371.987400915 	 85.015
END IONS

BEGIN IONS
PEPMASS=218.0833
CHARGE=1
MSLEVEL=2
RT=0
SOURCE_INSTRUMENT=qTOF
FILENAME=CCMSLIB00000078408.ms
IONMODE=Positive
ORGANISM=Natural
NAME=Captopril (Capoten)
PI=GNPS
DATACOLLECTOR=GNPS
SMILES=C[C@H](CS)C(=O)N1CCC[C@@H]1C(=O)O
INCHI=InChI=1S/C9H15NO3S/c1-6(5-14)8(11)10-4-2-3-7(10)9(12)13/h6-7,14H,2-5H2,1H3,(H,12,13)/t6-,7-/m1/s1
FORMULA=C9H15NO3S
PUBMED=N/A
SUBMITUSER=BIOADREM
LIBRARYQUALITY=0
SPECTRUMID=CCMSLIB00000078408
SCANS=914
ID=CCMSLIB00000078408
116.0706045383 	 100
117.0732470752 	 12.82
171.0889942567 	 3.46
172.0790607346 	 83.05
200.0739753567 	 5.9
218.084540043 	 120.32
END IONS

BEGIN IONS
PEPMASS=308.111
CHARGE=1
MSLEVEL=2
RT=0
SOURCE_INSTRUMENT=qTOF
FILENAME=CCMSLIB00000078410.ms
IONMODE=Positive
ORGANISM=Natural
NAME=Tolnaftate
PI=GNPS
DATACOLLECTOR=GNPS
SMILES=Cc1cccc(c1)N(C)C(=S)Oc1ccc2ccccc2c1
INCHI=InChI=1S/C19H17NOS/c1-14-6-5-9-17(12-14)20(2)19(22)21-18-11-10-15-7-3-4-8-16(15)13-18/h3-13H,1-2H3
FORMULA=C19H17NOS
PUBMED=N/A
SUBMITUSER=BIOADREM
LIBRARYQUALITY=0
SPECTRUMID=CCMSLIB00000078410
SCANS=916
ID=CCMSLIB00000078410
91.0542261926 	 1.73
118.0651252299 	 0.41
120.0807752941 	 26
123.0262968826 	 5.29
148.0756899162 	 100
149.0293708878 	 9.09
164.0528459841 	 81.13
180.0477606062 	 25.22
280.1154462409 	 1.04
308.110360863 	 42.12
END IONS

BEGIN IONS
PEPMASS=405.264
CHARGE=1
MSLEVEL=2
RT=0
SOURCE_INSTRUMENT=qTOF
FILENAME=CCMSLIB00000078413.ms
IONMODE=Positive
ORGANISM=Natural
NAME=Lovastatin (Mevacor)
PI=GNPS
DATACOLLECTOR=GNPS
SMILES=CC[C@H](C)C(=O)O[C@@H]1C[C@@H](C)C=C2C=C[C@H](C)[C@@H](CC[C@@H]3C[C@H](CC(=O)O3)O)[C@@H]12
INCHI=InChI=1S/C24H36O5/c1-5-15(3)24(27)29-21-11-14(2)10-17-7-6-16(4)20(23(17)21)9-8-19-12-18(25)13-22(26)28-19/h6-7,10,14-16,18-21,23,25H,5,8-9,11-13H2,1-4H3/t14-,15-,16-,18+,19+,20+,21+,23-/m0/s1
FORMULA=C24H36O5
PUBMED=N/A
SUBMITUSER=BIOADREM
LIBRARYQUALITY=0
SPECTRUMID=CCMSLIB00000078413
SCANS=918
ID=CCMSLIB00000078413
105.0698762568 	 5.91
107.085526321 	 3.83
129.0698762568 	 2.28
131.085526321 	 7.68
133.1011763852 	 2.32
142.0777012889 	 2.17
143.085526321 	 22.39
145.1011763852 	 16.95
155.085526321 	 5.89
157.1011763852 	 12.3
159.1168264494 	 22.19
169.1011763852 	 9.21
171.1168264494 	 17.53
173.1324765136 	 58
183.1168264494 	 7.03
185.1324765136 	 3.91
197.1324765136 	 8.89
199.1481265778 	 100
201.163776642 	 20.95
207.1168264494 	 3.47
211.1117410715 	 3.1
215.1794267062 	 3.17
223.1481265778 	 11.25
225.163776642 	 46.45
239.1794267062 	 12.66
243.1743413283 	 43.34
249.163776642 	 12.21
267.1743413283 	 27.77
285.1849060146 	 79.15
303.1954707009 	 29.41
321.2060353872 	 2.19
405.2635502661 	 0
END IONS

BEGIN IONS
PEPMASS=390.1841
CHARGE=1
MSLEVEL=2
RT=0
SOURCE_INSTRUMENT=qTOF
FILENAME=CCMSLIB00000078414.ms
IONMODE=Positive
ORGANISM=Natural
NAME=Balofloxacin
PI=GNPS
DATACOLLECTOR=GNPS
SMILES=CNC1CCCN(C1)c1c(cc2c(c1OC)n(cc(c2=O)C(=O)O)C1CC1)F
INCHI=InChI=1S/C20H24FN3O4/c1-22-11-4-3-7-23(9-11)17-15(21)8-13-16(19(17)28-2)24(12-5-6-12)10-14(18(13)25)20(26)27/h8,10-12,22H,3-7,9H2,1-2H3,(H,26,27)
FORMULA=C20H24FN3O4
PUBMED=N/A
SUBMITUSER=BIOADREM
LIBRARYQUALITY=0
SPECTRUMID=CCMSLIB00000078414
SCANS=919
ID=CCMSLIB00000078414
215.0615170572 	 1.71
216.1057275956 	 1.05
217.0771671214 	 1.44
229.0771671214 	 1.88
230.0849921535 	 0.72
231.0928171856 	 1.75
243.0564316793 	 0.96
243.0928171856 	 2.59
244.1006422177 	 14.79
245.0720817435 	 0.71
245.1046443209 	 2.25
251.1178890819 	 0.91
255.0928171856 	 0.65
256.1006422177 	 1.32
257.0720817435 	 2.33
257.1084672498 	 10.3
258.0760838467 	 1.77
258.112469353 	 1.41
259.0513463014 	 1.6
259.0877318077 	 5.62
260.0917339109 	 1.1
261.0669963656 	 2.1
261.1033818719 	 2.61
269.1084672498 	 0.64
271.0877318077 	 2.67
271.124117314 	 8.68
272.0955568398 	 2.25
272.1319423461 	 4.29
273.099558943 	 0.97
273.1359444493 	 0.63
274.0748213977 	 1.88
283.124117314 	 9.03
285.1033818719 	 3.6
286.1073839751 	 0.85
287.0826464298 	 1.91
287.1190319361 	 0.78
299.1190319361 	 7.75
300.1268569682 	 8.04
301.1308590714 	 1.49
305.0932111161 	 0.71
315.1503320645 	 10.95
316.1543341677 	 1.9
352.165567556 	 1.29
359.1401613087 	 100
370.1761322423 	 0.77
372.1717957881 	 6.35
390.1823604744 	 83.48
END IONS

BEGIN IONS
PEPMASS=432.1959
CHARGE=1
MSLEVEL=2
RT=0
SOURCE_INSTRUMENT=qTOF
FILENAME=CCMSLIB00000078416.ms
IONMODE=Positive
ORGANISM=Natural
NAME=Lafutidine
PI=GNPS
DATACOLLECTOR=GNPS
SMILES=C1CCN(CC1)Cc1ccnc(c1)OC/C=C\CN=C(CS(=O)Cc1ccco1)O
INCHI=InChI=1S/C22H29N3O4S/c26-21(18-30(27)17-20-7-6-14-28-20)23-9-2-5-13-29-22-15-19(8-10-24-22)16-25-11-3-1-4-12-25/h2,5-8,10,14-15H,1,3-4,9,11-13,16-18H2,(H,23,26)/b5-2-
FORMULA=C22H29N3O4S
PUBMED=N/A
SUBMITUSER=BIOADREM
LIBRARYQUALITY=0
SPECTRUMID=CCMSLIB00000078416
SCANS=920
ID=CCMSLIB00000078416
96.0443897878 	 0.205
98.060039852 	 0.6
109.0522148199 	 14.875
110.060039852 	 0.17
111.0678648841 	 1.65
142.0287397236 	 0.65
142.032110542 	 0.205
159.0348501962 	 4.595
160.0393044099 	 0.175
161.0835149483 	 0.57
168.0318137288 	 0.725
192.125714114 	 5.27
193.1335391461 	 27.15
206.1777496845 	 0.57
211.1441038324 	 0.62
213.1294192834 	 0.635
218.1049786719 	 0.795
220.1206287361 	 0.51
222.0583252925 	 0.335
240.0688899788 	 9.395
262.191388376 	 4.23
268.0842432298 	 1.235
270.0947107988 	 0.555
273.1597538966 	 0.58
274.1801549877 	 0.54
334.1550028697 	 0.285
334.1583736881 	 1.205
335.1628279018 	 0.495
351.1611133423 	 100
352.165567556 	 20.805
354.1607789913 	 0.54
414.1845884386 	 0.765
432.1951531249 	 63.555
END IONS

BEGIN IONS
PEPMASS=509.2557
CHARGE=1
MSLEVEL=2
RT=0
SOURCE_INSTRUMENT=qTOF
FILENAME=CCMSLIB00000078418.ms
IONMODE=Positive
ORGANISM=Natural
NAME=Argatroban
PI=GNPS
DATACOLLECTOR=GNPS
SMILES=C[C@@H]1CCN([C@@H](C1)C(=O)O)C(=O)[C@H](CCCNC(=N)N)NS(=O)(=O)c1cccc2CC(C)CNc12
INCHI=InChI=1S/C23H36N6O5S/c1-14-8-10-29(18(12-14)22(31)32)21(30)17(6-4-9-26-23(24)25)28-35(33,34)19-7-3-5-16-11-15(2)13-27-20(16)19/h3,5,7,14-15,17-18,27-28H,4,6,8-13H2,1-2H3,(H,31,32)(H4,24,25,26)/t14-,15?,17+,18+/m1/s1
FORMULA=C23H36N6O5S
PUBMED=N/A
SUBMITUSER=BIOADREM
LIBRARYQUALITY=0
SPECTRUMID=CCMSLIB00000078418
SCANS=922
ID=CCMSLIB00000078418
98.0964253583 	 0.5
112.0869233045 	 6.15
115.0865889535 	 0.52
126.0913399804 	 0.63
127.0978223418 	 0.39
129.113472406 	 2.71
130.0974879908 	 0.67
144.1019046667 	 0.42
146.0964253583 	 5.15
147.1015703157 	 1.5
148.1120754225 	 1.06
149.0379242014 	 0.5
149.0821722776 	 0.52
150.0913399804 	 0.7
155.0927369639 	 0.5
157.1083870281 	 2.8
158.0924026129 	 2.45
161.0835149483 	 1.92
162.0913399804 	 5.04
163.0951422671 	 0.93
174.112469353 	 0.82
175.1189517144 	 2.33
179.1542745882 	 1.25
193.1335391461 	 0.83
195.1465091356 	 0.49
209.0702869623 	 15.4
211.0621275792 	 1.61
212.0528459841 	 0.56
220.0386524829 	 0.98
221.1733925881 	 0.84
228.0675473081 	 1.14
237.0652015844 	 19.74
237.1683072102 	 0.93
238.1999416896 	 0.51
239.0637450214 	 0.93
239.1390184545 	 0.81
240.1468434866 	 1.29
254.1948563117 	 0.99
255.0757662707 	 0.67
282.1897709338 	 1.45
283.1764665933 	 1.08
304.1114234955 	 2.51
305.1152257822 	 0.4
325.1256765762 	 0.55
362.1492655648 	 0.84
366.1594363206 	 0.65
367.1434519054 	 1.43
368.1427236239 	 0.53
384.1700010069 	 100
385.1692727254 	 16.89
387.1696666559 	 0.53
509.2540649873 	 169.95
END IONS

BEGIN IONS
PEPMASS=234.1125
CHARGE=1
MSLEVEL=2
RT=0
SOURCE_INSTRUMENT=qTOF
FILENAME=CCMSLIB00000078419.ms
IONMODE=Positive
ORGANISM=Natural
NAME=Mecarbinate
PI=GNPS
DATACOLLECTOR=GNPS
SMILES=CCOC(=O)c1c(C)n(C)c2ccc(cc12)O
INCHI=InChI=1S/C13H15NO3/c1-4-17-13(16)12-8(2)14(3)11-6-5-9(15)7-10(11)12/h5-7,15H,4H2,1-3H3
FORMULA=C13H15NO3
PUBMED=N/A
SUBMITUSER=BIOADREM
LIBRARYQUALITY=0
SPECTRUMID=CCMSLIB00000078419
SCANS=923
ID=CCMSLIB00000078419
94.0287397236 	 0.48
118.0651252299 	 0.69
120.0807752941 	 0.7
133.0886003262 	 0.74
134.0964253583 	 0.95
142.0651252299 	 0.55
143.072950262 	 1.44
144.0443897878 	 0.7
144.0807752941 	 1.53
145.0647908789 	 0.63
146.060039852 	 5.59
147.0678648841 	 21.19
159.0678648841 	 1.45
160.0756899162 	 12.59
161.0835149483 	 33.74
162.0913399804 	 38.04
164.1069900446 	 0.72
187.0627795062 	 1.84
188.0706045383 	 100
190.1226401088 	 8.88
205.0733441925 	 3.29
206.0811692246 	 29.04
216.1019046667 	 1.7
234.112469353 	 87.23
END IONS

BEGIN IONS
PEPMASS=406.233
CHARGE=1
MSLEVEL=2
RT=0
SOURCE_INSTRUMENT=qTOF
FILENAME=CCMSLIB00000078420.ms
IONMODE=Positive
ORGANISM=Natural
NAME=Lisinopril (Zestril)
PI=GNPS
DATACOLLECTOR=GNPS
SMILES=c1ccc(cc1)CC[C@@H](C(=O)O)N[C@@H](CCCCN)C(=O)N1CCC[C@H]1C(=O)O
INCHI=InChI=1S/C21H31N3O5/c22-13-5-4-9-16(19(25)24-14-6-10-18(24)21(28)29)23-17(20(26)27)12-11-15-7-2-1-3-8-15/h1-3,7-8,16-18,23H,4-6,9-14,22H2,(H,26,27)(H,28,29)/t16-,17-,18-/m0/s1
FORMULA=C21H31N3O5
PUBMED=N/A
SUBMITUSER=BIOADREM
LIBRARYQUALITY=0
SPECTRUMID=CCMSLIB00000078420
SCANS=924
ID=CCMSLIB00000078420
81.0334907505 	 12.1
134.0924026129 	 14.97
142.0862546025 	 15.61
165.1471778376 	 12.1
199.1441038324 	 14.65
200.1433755509 	 23.25
228.1342674276 	 10.51
245.1886487218 	 12.1
246.1488548593 	 100
247.152657146 	 23.57
248.1559516099 	 9.55
263.1754039608 	 81.21
264.1746756793 	 29.94
291.1703185829 	 41.4
310.1801549877 	 18.79
343.2016187113 	 9.55
358.2250938076 	 15.29
360.2281678128 	 8.92
389.2070980197 	 41.08
390.2149230518 	 9.87
406.2336471212 	 922.93
END IONS

BEGIN IONS
PEPMASS=338.0505
CHARGE=1
MSLEVEL=2
RT=0
SOURCE_INSTRUMENT=qTOF
FILENAME=CCMSLIB00000078422.ms
IONMODE=Positive
ORGANISM=Natural
NAME=Famotidine (Pepcid)
PI=GNPS
DATACOLLECTOR=GNPS
SMILES=C(CSCc1csc(n1)NC(=N)N)C(=N)NS(=O)(=O)N
INCHI=InChI=1S/C8H15N7O2S3/c9-6(15-20(12,16)17)1-2-18-3-5-4-19-8(13-5)14-7(10)11/h4H,1-3H2,(H2,9,15)(H2,12,16,17)(H4,10,11,13,14)
FORMULA=C8H15N7O2S3
PUBMED=N/A
SUBMITUSER=BIOADREM
LIBRARYQUALITY=0
SPECTRUMID=CCMSLIB00000078422
SCANS=925
ID=CCMSLIB00000078422
44.9971052442 	 1.34954844006568
61.0284053726 	 0.692733990147783
87.0229260642 	 0.867200328407225
92.9463320021 	 0.713259441707718
102.0133864726 	 0.790229885057471
113.0167948288 	 5.23912151067323
114.0133864726 	 0.713259441707718
138.0120438019 	 5.12110016420361
139.019868834 	 1.02114121510673
142.9732154546 	 0.774835796387521
147.0011447646 	 2.14490968801314
147.004515583 	 1.89860426929392
148.0011072268 	 0.887725779967159
155.0385929034 	 40.1426518883415
156.0390243717 	 1.7190065681445
174.016757291 	 0.867200328407225
189.0263136576 	 100
190.0267451259 	 3.57142857142857
242.0528627591 	 3.88957307060755
259.0794118606 	 94.8121921182266
338.0522108321 	 12.9515599343186
END IONS

BEGIN IONS
PEPMASS=499.2455
CHARGE=1
MSLEVEL=2
RT=0
SOURCE_INSTRUMENT=qTOF
FILENAME=CCMSLIB00000078423.ms
IONMODE=Positive
ORGANISM=Natural
NAME=Moexipril HCl
PI=GNPS
DATACOLLECTOR=GNPS
SMILES=CCOC(=O)[C@H](CCc1ccccc1)N[C@@H](C)C(=O)N1Cc2cc(c(cc2C[C@H]1C(=O)O)OC)OC
INCHI=InChI=1S/C27H34N2O7/c1-5-36-27(33)21(12-11-18-9-7-6-8-10-18)28-17(2)25(30)29-16-20-15-24(35-4)23(34-3)14-19(20)13-22(29)26(31)32/h6-10,14-15,17,21-22,28H,5,11-13,16H2,1-4H3,(H,31,32)/t17-,21-,22-/m0/s1
FORMULA=C27H34N2O7
PUBMED=N/A
SUBMITUSER=BIOADREM
LIBRARYQUALITY=0
SPECTRUMID=CCMSLIB00000078423
SCANS=926
ID=CCMSLIB00000078423
91.0542261926 	 0.89
102.0549544741 	 1.88
117.0698762568 	 8.72
130.0862546025 	 8.28
134.0964253583 	 7.68
144.0807752941 	 0.5
160.1120754225 	 15.42
188.1069900446 	 0.4
192.1019046667 	 4.25
206.1175547309 	 1.11
220.0968192888 	 0.24
234.1488548593 	 100
238.1073839751 	 4.79
317.1621591998 	 0.23
425.2070980197 	 3.67
499.2438774565 	 86.05
END IONS

BEGIN IONS
PEPMASS=478.0786
CHARGE=1
MSLEVEL=2
RT=0
SOURCE_INSTRUMENT=qTOF
FILENAME=CCMSLIB00000078424.ms
IONMODE=Positive
ORGANISM=Natural
NAME=Cleviprex (Clevidipine)
PI=GNPS
DATACOLLECTOR=GNPS
SMILES=CCCC(=O)OCOC(=O)C1=C(C)NC(=C(C1c1cccc(c1Cl)Cl)C(=O)OC)C
INCHI=InChI=1S/C21H23Cl2NO6/c1-5-7-15(25)29-10-30-21(27)17-12(3)24-11(2)16(20(26)28-4)18(17)13-8-6-9-14(22)19(13)23/h6,8-9,18,24H,5,7,10H2,1-4H3
FORMULA=C21H23Cl2NO6
PUBMED=N/A
SUBMITUSER=BIOADREM
LIBRARYQUALITY=0
SPECTRUMID=CCMSLIB00000078424
SCANS=927
ID=CCMSLIB00000078424
200.9868462347 	 0.361597156252873
210.9819423694 	 0.159347899365673
215.0469479294 	 0.168541047406
216.0547729615 	 0.147090368645236
220.0523676583 	 0.490301228817455
221.0575126157 	 1.00818190175589
241.0392757357 	 0.517880672938437
242.0367175941 	 0.337082094812
243.0445426262 	 0.505623142218
246.1097892783 	 0.517880672938437
248.0472822804 	 0.376919069653418
249.0573001978 	 0.560782030459964
250.0158006394 	 0.2359574663684
251.0236256715 	 0.125639689884473
252.010321331 	 0.156283516685564
256.0290454004 	 2.69359237581589
257.0341903578 	 0.683357337664328
259.0287110494 	 0.468850550056691
260.0365360815 	 0.453528636656146
262.0184807141 	 0.153219134005455
263.0236256715 	 0.153219134005455
265.0028902294 	 0.162412282045782
268.0968192888 	 0.4719149327368
269.0004849262 	 0.340146477492109
270.0316322162 	 0.612876536021818
272.0320261467 	 0.251279379768946
278.0133953362 	 1.31768455244691
279.0185402936 	 0.493365611497564
280.0756899162 	 5.27686697514786
281.0130609852 	 0.223699935647964
281.0786419883 	 1.20123801060276
282.0083099583 	 0.156283516685564
282.0738909614 	 1.76202004106273
283.0731626799 	 0.441271105935709
284.0239600225 	 2.94793613826495
285.0291049799 	 0.597554622621273
286.024353953 	 1.61186528973738
287.0236256715 	 0.527073820978764
288.9817608568 	 0.159347899365673
302.0578469667 	 2.97245119970582
303.0629919241 	 0.701743633744982
306.0083099583 	 2.01942818619189
307.0134549157 	 0.545460117059418
308.0087038888 	 1.63944473385836
309.0079756073 	 0.4719149327368
310.1249571583 	 0.407562896454509
314.0345247088 	 0.545460117059418
316.0523676583 	 17.4455305978611
317.0553197304 	 4.21352618515
318.0505687035 	 12.6589648515307
319.049840422 	 3.71403180829222
320.0450893951 	 1.94588300186927
321.0529144272 	 0.447399871295928
324.0161945699 	 0.196120491526982
326.0107152615 	 0.150154751325346
336.0188746446 	 0.410627279134618
338.0345247088 	 61.2876536021818
339.0396696662 	 5.16348481598382
340.0290454004 	 19.8265559403058
340.0349186393 	 19.2473876137652
341.0341903578 	 5.75797505592498
342.0294393309 	 1.40042288480986
354.0294393309 	 0.609812153341709
356.0450893951 	 1.83250084270524
357.0529144272 	 0.398369748414182
358.036930012 	 0.165476664725891
358.0396100867 	 1.73444059694175
426.0869542098 	 0.527073820978764
456.0975188961 	 100
END IONS

BEGIN IONS
PEPMASS=418.2336
CHARGE=1
MSLEVEL=2
RT=0
SOURCE_INSTRUMENT=qTOF
FILENAME=CCMSLIB00000078426.ms
IONMODE=Positive
ORGANISM=Natural
NAME=Cilazapril monohydrate (Inhibace)
PI=GNPS
DATACOLLECTOR=GNPS
SMILES=CCOC(=O)[C@H](CCc1ccccc1)N[C@H]1CCCN2CCC[C@H](C(=O)O)N2C1=O
INCHI=InChI=1S/C22H31N3O5/c1-2-30-22(29)18(13-12-16-8-4-3-5-9-16)23-17-10-6-14-24-15-7-11-19(21(27)28)25(24)20(17)26/h3-5,8-9,17-19,23H,2,6-7,10-15H2,1H3,(H,27,28)/t17-,18-,19+/m0/s1
FORMULA=C22H31N3O5
PUBMED=N/A
SUBMITUSER=BIOADREM
LIBRARYQUALITY=0
SPECTRUMID=CCMSLIB00000078426
SCANS=929
ID=CCMSLIB00000078426
114.0549544741 	 3.92
123.0916743314 	 0.24
128.0706045383 	 0.24
137.0709388893 	 0.54
138.0913399804 	 0.34
140.1069900446 	 1.24
143.0815035756 	 1.72
154.0862546025 	 0.21
165.1022390177 	 0.91
169.0971536398 	 2.33
183.112803704 	 2.66
211.1103984008 	 100
213.1107923313 	 4.17
344.1968676844 	 0.29
418.2336471212 	 49.88
END IONS

BEGIN IONS
PEPMASS=388.212
CHARGE=1
MSLEVEL=2
RT=0
SOURCE_INSTRUMENT=qTOF
FILENAME=CCMSLIB00000078427.ms
IONMODE=Positive
ORGANISM=Natural
NAME=Trimebutine
PI=GNPS
DATACOLLECTOR=GNPS
SMILES=CCC(COC(=O)c1cc(c(c(c1)OC)OC)OC)(c1ccccc1)N(C)C
INCHI=InChI=1S/C22H29NO5/c1-7-22(23(2)3,17-11-9-8-10-12-17)15-28-21(24)16-13-18(25-4)20(27-6)19(14-16)26-5/h8-14H,7,15H2,1-6H3
FORMULA=C22H29NO5
PUBMED=N/A
SUBMITUSER=BIOADREM
LIBRARYQUALITY=0
SPECTRUMID=CCMSLIB00000078427
SCANS=930
ID=CCMSLIB00000078427
91.0542261926 	 1.205
109.0647908789 	 0.63
111.0804409431 	 0.215
115.0542261926 	 0.225
116.0620512247 	 1.11
122.0362304047 	 0.665
124.0518804689 	 0.875
128.046795091 	 0.13
131.085526321 	 42.62
137.0233199947 	 0.465
137.059705501 	 0.365
138.0675305331 	 1.545
139.0389700589 	 0.95
139.0753555652 	 4.25
141.0182346168 	 0.195
151.0389700589 	 0.7
152.046795091 	 5.915
154.0624451552 	 19.65
156.0417097131 	 0.41
167.0702701873 	 4.185
169.0859202515 	 6.57
183.0287993031 	 0.165
184.0366243352 	 0.15
195.0651848094 	 100
198.0522743994 	 5.71
213.0757494957 	 43.605
325.1434351304 	 0.55
343.1539998167 	 57.275
388.2118490466 	 10.69
END IONS

BEGIN IONS
PEPMASS=469.2704
CHARGE=1
MSLEVEL=2
RT=0
SOURCE_INSTRUMENT=qTOF
FILENAME=CCMSLIB00000078428.ms
IONMODE=Positive
ORGANISM=Natural
NAME=Ivabradine HCl (Procoralan)
PI=GNPS
DATACOLLECTOR=GNPS
SMILES=CN(CCCN1CCc2cc(c(cc2CC1=O)OC)OC)C[C@@H]1Cc2cc(c(cc12)OC)OC
INCHI=InChI=1S/C27H36N2O5/c1-28(17-21-11-20-14-25(33-4)26(34-5)16-22(20)21)8-6-9-29-10-7-18-12-23(31-2)24(32-3)13-19(18)15-27(29)30/h12-14,16,21H,6-11,15,17H2,1-5H3/t21-/m0/s1
FORMULA=C27H36N2O5
PUBMED=N/A
SUBMITUSER=BIOADREM
LIBRARYQUALITY=0
SPECTRUMID=CCMSLIB00000078428
SCANS=931
ID=CCMSLIB00000078428
103.0542261926 	 0.38
105.0698762568 	 0.36
115.0542261926 	 0.87
117.0698762568 	 1.81
121.0647908789 	 2.85
127.0542261926 	 0.43
131.0491408147 	 2.6
133.0647908789 	 0.5
145.0647908789 	 1.96
146.072615911 	 26.82
149.059705501 	 0.52
151.0753555652 	 2.56
159.0804409431 	 0.41
160.0756899162 	 0.47
162.0675305331 	 6
175.0991650125 	 3.04
177.0910056294 	 100
189.0910056294 	 0.71
206.1175547309 	 41.8
234.1488548593 	 0.94
262.1437694814 	 70.51
293.1859686471 	 1.27
469.2696982765 	 173.95
END IONS

BEGIN IONS
PEPMASS=308.2219
CHARGE=1
MSLEVEL=2
RT=0
SOURCE_INSTRUMENT=qTOF
FILENAME=CCMSLIB00000078431.ms
IONMODE=Positive
ORGANISM=Natural
NAME=Betaxolol (Betoptic)
PI=GNPS
DATACOLLECTOR=GNPS
SMILES=CC(C)NCC(COc1ccc(cc1)CCOCC1CC1)O
INCHI=InChI=1S/C18H29NO3/c1-14(2)19-11-17(20)13-22-18-7-5-15(6-8-18)9-10-21-12-16-3-4-16/h5-8,14,16-17,19-20H,3-4,9-13H2,1-2H3
FORMULA=C18H29NO3
PUBMED=N/A
SUBMITUSER=BIOADREM
LIBRARYQUALITY=0
SPECTRUMID=CCMSLIB00000078431
SCANS=932
ID=CCMSLIB00000078431
91.0542261926 	 12.7972151749366
98.0964253583 	 10.7793970145731
103.0542261926 	 18.3137648238834
104.0620512247 	 5.1271461443153
105.0698762568 	 31.6360847247625
107.0491408147 	 5.22154699392294
115.0542261926 	 14.5259307333766
116.1069900446 	 40.9817688359195
117.0698762568 	 11.5051035459319
119.0491408147 	 4.60794147147324
119.085526321 	 7.08006372057348
121.0647908789 	 59.000531004779
128.0620512247 	 11.3517021653195
131.0491408147 	 6.69656026904242
131.085526321 	 10.8914980234822
132.0569658468 	 3.92353531181781
133.0647908789 	 54.3630892678034
135.0804409431 	 5.69355124196118
141.0698762568 	 11.8237064133577
142.0777012889 	 8.93858044722402
143.085526321 	 8.85007965071686
144.0569658468 	 10.0064900584105
145.0647908789 	 9.05658150923358
146.072615911 	 6.24225618030562
147.0804409431 	 18.1308631777686
151.0753555652 	 13.6822231400083
152.0620512247 	 4.94424449820048
155.085526321 	 4.35423918815269
157.0647908789 	 4.49584046256416
158.072615911 	 6.21865596790371
159.0804409431 	 45.0292052628474
160.0882659752 	 5.01504513540622
161.0960910073 	 32.1316891852027
165.0698762568 	 9.89438904950145
167.085526321 	 59.000531004779
171.0804409431 	 7.80577025193227
173.0960910073 	 3.94713552421972
175.0753555652 	 3.62853265679391
177.0910056294 	 26.2316360847248
189.0910056294 	 7.00926308336775
219.137955822 	 3.85863472771255
236.1645049235 	 3.54003186028674
239.1066556936 	 17.1337542037878
266.1750696098 	 7.64646881821936
290.2114551161 	 1.52811375302378
308.2220198024 	 100
END IONS

BEGIN IONS
PEPMASS=379.165
CHARGE=1
MSLEVEL=2
RT=0
SOURCE_INSTRUMENT=qTOF
FILENAME=CCMSLIB00000078432.ms
IONMODE=Positive
ORGANISM=Natural
NAME=Ambrisentan
PI=GNPS
DATACOLLECTOR=GNPS
SMILES=Cc1cc(C)nc(n1)O[C@H](C(=O)O)C(c1ccccc1)(c1ccccc1)OC
INCHI=InChI=1S/C22H22N2O4/c1-15-14-16(2)24-21(23-15)28-19(20(25)26)22(27-3,17-10-6-4-7-11-17)18-12-8-5-9-13-18/h4-14,19H,1-3H3,(H,25,26)/t19-/m1/s1
FORMULA=C22H22N2O4
PUBMED=N/A
SUBMITUSER=BIOADREM
LIBRARYQUALITY=0
SPECTRUMID=CCMSLIB00000078432
SCANS=933
ID=CCMSLIB00000078432
105.0334907505 	 0.87
107.060374203 	 0.96
108.0443897878 	 0.37
125.0709388893 	 70.87
137.059705501 	 1.1
152.0620512247 	 0.56
165.0698762568 	 0.34
166.0777012889 	 0.26
167.085526321 	 0.66
177.0698762568 	 1.2
178.0777012889 	 41.27
179.085526321 	 49.91
180.0893286077 	 5.68
194.072615911 	 0.38
195.0804409431 	 0.3
211.1117410715 	 0.28
255.1015703157 	 0.84
257.1046443209 	 0.26
272.1307994919 	 0.59
273.138624524 	 8.66
285.099558943 	 0.28
301.1335391461 	 42.18
303.1491892103 	 100
305.1536058862 	 7.95
306.1574081729 	 0.4
329.1284537682 	 50.19
331.1328704441 	 1.39
347.1390184545 	 44.52
349.1434351304 	 1.36
379.165233205 	 0
END IONS

BEGIN IONS
PEPMASS=349.2152
CHARGE=1
MSLEVEL=2
RT=0
SOURCE_INSTRUMENT=qTOF
FILENAME=CCMSLIB00000078433.ms
IONMODE=Positive
ORGANISM=Natural
NAME=Bexarotene
PI=GNPS
DATACOLLECTOR=GNPS
SMILES=Cc1cc2c(cc1C(=C)c1ccc(cc1)C(=O)O)C(C)(C)CCC2(C)C
INCHI=InChI=1S/C24H28O2/c1-15-13-20-21(24(5,6)12-11-23(20,3)4)14-19(15)16(2)17-7-9-18(10-8-17)22(25)26/h7-10,13-14H,2,11-12H2,1,3-6H3,(H,25,26)
FORMULA=C24H28O2
PUBMED=N/A
SUBMITUSER=BIOADREM
LIBRARYQUALITY=0
SPECTRUMID=CCMSLIB00000078433
SCANS=934
ID=CCMSLIB00000078433
115.0542261926 	 6.3
142.0777012889 	 6.3
147.0440554368 	 48.03
156.0933513531 	 10.1
157.1011763852 	 19.82
172.1246514815 	 8.01
251.1066556936 	 51.05
265.1223057578 	 14.3
279.137955822 	 100
293.1536058862 	 41.21
303.2107268346 	 11.81
319.1692559504 	 11.55
331.2056414567 	 21.65
333.1849060146 	 21.39
334.1927310467 	 29.13
349.216206143 	 1086.48
END IONS

BEGIN IONS
PEPMASS=342.1701
CHARGE=1
MSLEVEL=2
RT=0
SOURCE_INSTRUMENT=qTOF
FILENAME=CCMSLIB00000078434.ms
IONMODE=Positive
ORGANISM=Natural
NAME=Naltrexone HCl
PI=GNPS
DATACOLLECTOR=GNPS
SMILES=C1CC1CN1CC[C@]23c4c5ccc(c4O[C@H]2C(=O)CC[C@]3([C@H]1C5)O)O
INCHI=InChI=1S/C20H23NO4/c22-13-4-3-12-9-15-20(24)6-5-14(23)18-19(20,16(12)17(13)25-18)7-8-21(15)10-11-1-2-11/h3-4,11,15,18,22,24H,1-2,5-10H2/t15-,18+,19+,20-/m1/s1
FORMULA=C20H23NO4
PUBMED=N/A
SUBMITUSER=BIOADREM
LIBRARYQUALITY=0
SPECTRUMID=CCMSLIB00000078434
SCANS=935
ID=CCMSLIB00000078434
141.0698762568 	 1.00583168369804
148.0756899162 	 0.965705419720721
153.0698762568 	 0.45476432507624
157.0647908789 	 0.543042105826333
160.0756899162 	 0.652720560697662
173.059705501 	 1.95548659782783
175.0753555652 	 0.47348991493232
181.0647908789 	 1.29474078433471
185.059705501 	 0.575143117008186
195.0804409431 	 0.708897330265903
196.0756899162 	 0.524316515970253
198.0913399804 	 0.465464662136857
199.0753555652 	 3.30372906746563
200.1069900446 	 1.2011128350543
201.0910056294 	 0.628644802311273
211.0753555652 	 2.7071852763362
212.0706045383 	 5.87716013054411
213.0784295704 	 3.32245465732171
214.0862546025 	 0.992456262372265
215.0702701873 	 0.607244128190038
223.0753555652 	 0.551067358621797
226.0862546025 	 2.73928628751806
227.0702701873 	 2.49852870365417
228.1019046667 	 9.06853565887325
240.1019046667 	 1.08073404312236
241.1097296988 	 0.719597667326521
242.0811692246 	 0.987106093841956
242.1175547309 	 0.481515167727783
252.1019046667 	 2.7366112032529
254.0811692246 	 0.513616178909636
254.1175547309 	 1.80033171044888
254.1539402372 	 0.78647477395538
267.125379763 	 19.6511690118239
268.1332047951 	 1.15831148681183
270.112469353 	 15.8177732598577
282.112469353 	 3.1940506125943
282.1488548593 	 9.6811299555936
296.1281194172 	 0.90952865015248
306.1488548593 	 1.58632496923653
324.1594195456 	 53.501685303087
342.1699842319 	 100
END IONS

BEGIN IONS
PEPMASS=455.1949
CHARGE=1
MSLEVEL=2
RT=0
SOURCE_INSTRUMENT=qTOF
FILENAME=CCMSLIB00000078436.ms
IONMODE=Positive
ORGANISM=Natural
NAME=Mizolastine (Mizollen)
PI=GNPS
DATACOLLECTOR=GNPS
SMILES=CN(C1CCN(CC1)c1nc2ccccc2n1Cc1ccc(cc1)F)c1nccc(n1)O
INCHI=InChI=1S/C24H25FN6O/c1-29(23-26-13-10-22(32)28-23)19-11-14-30(15-12-19)24-27-20-4-2-3-5-21(20)31(24)16-17-6-8-18(25)9-7-17/h2-10,13,19H,11-12,14-16H2,1H3,(H,26,28,32)
FORMULA=C24H25FN6O
PUBMED=N/A
SUBMITUSER=BIOADREM
LIBRARYQUALITY=0
SPECTRUMID=CCMSLIB00000078436
SCANS=936
ID=CCMSLIB00000078436
109.0448043605 	 4.08794454843238
123.0552888251 	 1.46891085634066
132.0681992351 	 1.8184078146935
146.0712732403 	 1.03167407580721
159.0804409431 	 1.47037318671034
160.0869233045 	 2.12769068788021
161.0821722776 	 1.07042583060365
170.0712732403 	 0.954170566214319
182.0838492993 	 0.941009592887225
184.0869233045 	 1.53764038371549
184.0882659752 	 1.25102363125877
186.1025733687 	 1.54714553111839
192.100561996 	 1.29854936827328
198.1025733687 	 2.39822180627047
212.1182234329 	 0.528632428638278
218.1101442715 	 0.541793401965372
254.1101442715 	 4.10037435657464
255.1114610333 	 3.66240641085634
280.1257943357 	 2.05018717828732
281.1271110975 	 0.954170566214319
303.1927853595 	 1.19618624239588
308.1570944641 	 7.31165184838559
309.1584112259 	 2.74698759943847
344.1319423461 	 7.31165184838559
345.1271913192 	 0.956364061768835
346.1350163513 	 1.33218296677585
354.046201344 	 1.60563874590548
369.0571003813 	 1.7767313991577
390.1850405491 	 1.84472976134768
391.1802895222 	 3.451099672438
432.2068386237 	 1.22981984089846
433.2146636558 	 100
END IONS

BEGIN IONS
PEPMASS=297.0858
CHARGE=1
MSLEVEL=2
RT=0
SOURCE_INSTRUMENT=qTOF
FILENAME=CCMSLIB00000078439.ms
IONMODE=Positive
ORGANISM=Natural
NAME=Flunixin meglumin
PI=GNPS
DATACOLLECTOR=GNPS
SMILES=Cc1c(cccc1Nc1c(cccn1)C(=O)O)C(F)(F)F
INCHI=InChI=1S/C14H11F3N2O2/c1-8-10(14(15,16)17)5-2-6-11(8)19-12-9(13(20)21)4-3-7-18-12/h2-7H,1H3,(H,18,19)(H,20,21)
FORMULA=C14H11F3N2O2
PUBMED=N/A
SUBMITUSER=BIOADREM
LIBRARYQUALITY=0
SPECTRUMID=CCMSLIB00000078439
SCANS=938
ID=CCMSLIB00000078439
99.0229260642 	 0.325
119.0291542963 	 0.565
139.0353825284 	 1.25
159.0416107605 	 6.62
181.0760242672 	 4.81
182.0838492993 	 2.515
184.0557033978 	 4.18
185.0572608247 	 0.58
191.060374203 	 1.055
209.0709388893 	 2.965
210.0787639214 	 9.69
211.0666024351 	 5.76
212.068159862 	 0.925
214.0474244199 	 0.4
216.0493555709 	 0.68
219.0552888251 	 0.985
230.0650056351 	 0.43
231.0728306672 	 2.52
232.056846252 	 0.52
234.0525097978 	 0.99
236.055583803 	 10.015
239.0615170572 	 11.79
240.0630744841 	 1.25
241.057180603 	 2.38
244.044270193 	 0.47
251.0790588993 	 1.05
252.0630744841 	 0.565
258.0599202572 	 0.975
259.0677452893 	 18.525
261.0634088351 	 1.035
263.042673393 	 1.08
264.0504984251 	 51.49
277.0783099756 	 0.98
278.0661484893 	 0.965
279.0739735214 	 100
297.0845382077 	 83.72
END IONS

BEGIN IONS
PEPMASS=581.1425
CHARGE=1
MSLEVEL=2
RT=0
SOURCE_INSTRUMENT=qTOF
FILENAME=CCMSLIB00000078440.ms
IONMODE=Positive
ORGANISM=Natural
NAME=Lapatinib
PI=GNPS
DATACOLLECTOR=GNPS
SMILES=CS(=O)(=O)CCNCc1ccc(c2ccc3c(c2)c(ncn3)Nc2ccc(c(c2)Cl)OCc2cccc(c2)F)o1
INCHI=InChI=1S/C29H26ClFN4O4S/c1-40(36,37)12-11-32-16-23-7-10-27(39-23)20-5-8-26-24(14-20)29(34-18-33-26)35-22-6-9-28(25(30)15-22)38-17-19-3-2-4-21(31)13-19/h2-10,13-15,18,32H,11-12,16-17H2,1H3,(H,33,34,35)
FORMULA=C29H26ClFN4O4S
PUBMED=N/A
SUBMITUSER=BIOADREM
LIBRARYQUALITY=0
SPECTRUMID=CCMSLIB00000078440
SCANS=939
ID=CCMSLIB00000078440
286.0934483498 	 0.68
321.0618138704 	 0.65
322.0701260919 	 1.2
349.0567284925 	 9.85
350.065040714 	 31.48
351.0723785567 	 9.5
352.0660865715 	 10.77
363.0638252431 	 0.95
364.0802035888 	 2.64
365.077282422 	 100
366.0817366357 	 23.13
367.0764984194 	 35.07
368.0756054003 	 5.2
379.0951253715 	 36.11
381.0908058129 	 13.47
382.0907682751 	 1.36
393.1085825504 	 5.2
395.1082857372 	 1.94
422.1299309734 	 2.29
423.1298934356 	 0.83
458.1066087155 	 7.15
459.1065711777 	 3.55
461.1091579935 	 1.6
472.1013329614 	 1.36
475.1252952471 	 1
487.1248080577 	 0.68
503.1435321271 	 0.65
581.1420079438 	 139.19
END IONS

BEGIN IONS
PEPMASS=368.2495
CHARGE=1
MSLEVEL=2
RT=0
SOURCE_INSTRUMENT=qTOF
FILENAME=CCMSLIB00000078443.ms
IONMODE=Positive
ORGANISM=Natural
NAME=Blonanserin (Lonasen)
PI=GNPS
DATACOLLECTOR=GNPS
SMILES=CCN1CCN(CC1)c1cc(c2ccc(cc2)F)c2CCCCCCc2n1
INCHI=InChI=1S/C23H30FN3/c1-2-26-13-15-27(16-14-26)23-17-21(18-9-11-19(24)12-10-18)20-7-5-3-4-6-8-22(20)25-23/h9-12,17H,2-8,13-16H2,1H3
FORMULA=C23H30FN3
PUBMED=N/A
SUBMITUSER=BIOADREM
LIBRARYQUALITY=0
SPECTRUMID=CCMSLIB00000078443
SCANS=940
ID=CCMSLIB00000078443
295.1605028203 	 1.26
297.1761528845 	 100
323.1918029487 	 7.16
368.2496521786 	 110.68
END IONS

BEGIN IONS
PEPMASS=557.3039
CHARGE=1
MSLEVEL=2
RT=0
SOURCE_INSTRUMENT=qTOF
FILENAME=CCMSLIB00000078444.ms
IONMODE=Positive
ORGANISM=Natural
NAME=Dronedarone HCl (Multaq)
PI=GNPS
DATACOLLECTOR=GNPS
SMILES=CCCCc1c(c2cc(ccc2o1)NS(=O)(=O)C)C(=O)c1ccc(cc1)OCCCN(CCCC)CCCC
INCHI=InChI=1S/C31H44N2O5S/c1-5-8-12-29-30(27-23-25(32-39(4,35)36)15-18-28(27)38-29)31(34)24-13-16-26(17-14-24)37-22-11-21-33(19-9-6-2)20-10-7-3/h13-18,23,32H,5-12,19-22H2,1-4H3
FORMULA=C31H44N2O5S
PUBMED=N/A
SUBMITUSER=BIOADREM
LIBRARYQUALITY=0
SPECTRUMID=CCMSLIB00000078444
SCANS=941
ID=CCMSLIB00000078444
100.1120754225 	 36.01
112.1120754225 	 4.16
128.1433755509 	 12.74
142.0624451552 	 4.52
142.1590256151 	 69.34
161.059705501 	 3.97
166.0684960483 	 4.16
170.1903257435 	 32.69
190.0896254209 	 6.74
215.0940796346 	 6.37
238.0810721073 	 3.97
294.0794546651 	 24.01
295.0787263836 	 7.2
296.0917339109 	 4.16
309.1393152677 	 4.89
321.1359444493 	 5.36
324.1542370504 	 4.16
325.1580393371 	 5.54
336.1594195456 	 8.86
338.1573110556 	 4.06
379.2049895297 	 8.22
380.2094437434 	 4.99
388.1213194798 	 4.8
393.2120862803 	 6.09
393.2424208935 	 5.91
394.2199113124 	 5.72
422.2512114408 	 6.37
435.2642189681 	 100
436.266861505 	 39.24
437.2621104781 	 5.54
485.2468543444 	 4.34
501.2417689665 	 21.7
557.3043692233 	 1499.54
END IONS

BEGIN IONS
PEPMASS=385.2522
CHARGE=1
MSLEVEL=2
RT=0
SOURCE_INSTRUMENT=qTOF
FILENAME=CCMSLIB00000078446.ms
IONMODE=Positive
ORGANISM=Natural
NAME=Ibutilide fumarate
PI=GNPS
DATACOLLECTOR=GNPS
SMILES=CCCCCCCN(CC)CCCC(c1ccc(cc1)NS(=O)(=O)C)O
INCHI=InChI=1S/C20H36N2O3S/c1-4-6-7-8-9-16-22(5-2)17-10-11-20(23)18-12-14-19(15-13-18)21-26(3,24)25/h12-15,20-21,23H,4-11,16-17H2,1-3H3
FORMULA=C20H36N2O3S
PUBMED=N/A
SUBMITUSER=BIOADREM
LIBRARYQUALITY=0
SPECTRUMID=CCMSLIB00000078446
SCANS=942
ID=CCMSLIB00000078446
99.1042503904 	 7.56
106.0624451552 	 7.06
111.1042503904 	 6.22
115.0627795062 	 8.24
117.0698762568 	 6.22
118.0810721073 	 6.89
119.0702701873 	 11.09
127.057597011 	 8.07
143.0702701873 	 13.61
144.0807752941 	 83.87
145.0859202515 	 6.89
154.1590256151 	 24.03
156.1746756793 	 12.61
160.0756899162 	 6.89
162.1277254867 	 8.57
182.1903257435 	 15.29
198.0219397862 	 46.39
199.0297648183 	 7.9
203.1464120183 	 10.25
231.1855747166 	 7.39
240.0688899788 	 75.8
269.1318245866 	 7.06
273.2325249092 	 7.73
298.1709497471 	 7.56
367.241375036 	 100
368.2492000681 	 40.17
383.2362896581 	 63.03
385.2519397223 	 206.89
END IONS

BEGIN IONS
PEPMASS=311.1998
CHARGE=1
MSLEVEL=2
RT=0
SOURCE_INSTRUMENT=qTOF
FILENAME=CCMSLIB00000078447.ms
IONMODE=Positive
ORGANISM=Natural
NAME=Mestranol
PI=GNPS
DATACOLLECTOR=GNPS
SMILES=C#C[C@]1(CC[C@H]2[C@@H]3CCc4cc(ccc4[C@@H]3CC[C@]12C)OC)O
INCHI=InChI=1S/C21H26O2/c1-4-21(22)12-10-19-18-7-5-14-13-15(23-3)6-8-16(14)17(18)9-11-20(19,21)2/h1,6,8,13,17-19,22H,5,7,9-12H2,2-3H3/t17-,18+,19-,20-,21+/m0/s1
FORMULA=C21H26O2
PUBMED=N/A
SUBMITUSER=BIOADREM
LIBRARYQUALITY=0
SPECTRUMID=CCMSLIB00000078447
SCANS=943
ID=CCMSLIB00000078447
95.085526321 	 5.68
117.0698762568 	 12.95
119.085526321 	 5.94
121.0647908789 	 100
133.1011763852 	 9.25
135.0804409431 	 5.94
145.1011763852 	 11.23
147.1168264494 	 12.68
159.0804409431 	 9.91
159.1168264494 	 33.69
161.0960910073 	 14.4
173.0960910073 	 10.04
187.1117410715 	 5.81
199.1117410715 	 12.02
211.1117410715 	 11.62
229.1223057578 	 6.21
293.1899913925 	 30.38
311.2005560788 	 139.37
END IONS

BEGIN IONS
PEPMASS=276.1598
CHARGE=1
MSLEVEL=2
RT=0
SOURCE_INSTRUMENT=qTOF
FILENAME=CCMSLIB00000078449.ms
IONMODE=Positive
ORGANISM=Natural
NAME=S-(+)-Rolipram
PI=GNPS
DATACOLLECTOR=GNPS
SMILES=COc1ccc(cc1OC1CCCC1)[C@@H]1CC(=NC1)O
INCHI=InChI=1S/C16H21NO3/c1-19-14-7-6-11(12-9-16(18)17-10-12)8-15(14)20-13-4-2-3-5-13/h6-8,12-13H,2-5,9-10H2,1H3,(H,17,18)/t12-/m1/s1
FORMULA=C16H21NO3
PUBMED=N/A
SUBMITUSER=BIOADREM
LIBRARYQUALITY=0
SPECTRUMID=CCMSLIB00000078449
SCANS=944
ID=CCMSLIB00000078449
103.0542261926 	 10.63
105.0698762568 	 2.29
131.0491408147 	 33.22
133.0647908789 	 3.69
134.060039852 	 2.87
135.0440554368 	 1.8
135.0804409431 	 1.71
137.059705501 	 3.31
148.0518804689 	 4.94
150.0675305331 	 7.96
159.0440554368 	 4.01
160.0518804689 	 2.79
163.0753555652 	 18.06
166.0862546025 	 9.38
176.046795091 	 6.16
179.0702701873 	 3.66
191.0702701873 	 39.34
208.0968192888 	 100
276.1594195456 	 376.57
END IONS

BEGIN IONS
PEPMASS=403.0427
CHARGE=1
MSLEVEL=2
RT=0
SOURCE_INSTRUMENT=qTOF
FILENAME=CCMSLIB00000078452.ms
IONMODE=Positive
ORGANISM=Natural
NAME=Roflumilast (Daxas)
PI=GNPS
DATACOLLECTOR=GNPS
SMILES=C1CC1COc1cc(ccc1OC(F)F)C(=O)N=c1c(c[nH]cc1Cl)Cl
INCHI=InChI=1S/C17H14Cl2F2N2O3/c18-11-6-22-7-12(19)15(11)23-16(24)10-3-4-13(26-17(20)21)14(5-10)25-8-9-1-2-9/h3-7,9,17H,1-2,8H2,(H,22,23,24)
FORMULA=C17H14Cl2F2N2O3
PUBMED=N/A
SUBMITUSER=BIOADREM
LIBRARYQUALITY=0
SPECTRUMID=CCMSLIB00000078452
SCANS=945
ID=CCMSLIB00000078452
95.0127553084 	 0.26
121.0647908789 	 0.34
137.0233199947 	 8.01
163.9659579542 	 17.7
167.0138981626 	 12.81
187.0201263947 	 100
188.021642973 	 6.87
191.0702701873 	 0.52
199.0553690468 	 0.65
241.0670765873 	 91.57
242.0685931656 	 17.21
262.0191363789 	 0.24
313.0141236177 	 0.2
367.065552404 	 3.8
403.0422301461 	 72.68
END IONS

BEGIN IONS
PEPMASS=172.1329
CHARGE=1
MSLEVEL=2
RT=0
SOURCE_INSTRUMENT=qTOF
FILENAME=CCMSLIB00000078453.ms
IONMODE=Positive
ORGANISM=Natural
NAME=Gabapentin (Neurontin)
PI=GNPS
DATACOLLECTOR=GNPS
SMILES=C1CCC(CC1)(CC(=O)O)CN
INCHI=InChI=1S/C9H17NO2/c10-7-9(6-8(11)12)4-2-1-3-5-9/h1-7,10H2,(H,11,12)
FORMULA=C9H17NO2
PUBMED=N/A
SUBMITUSER=BIOADREM
LIBRARYQUALITY=0
SPECTRUMID=CCMSLIB00000078453
SCANS=946
ID=CCMSLIB00000078453
91.0542261926 	 1.43
95.085526321 	 6.13
109.1011763852 	 7.97
110.0964253583 	 2.12
119.085526321 	 7.06
136.1120754225 	 2.96
137.0960910073 	 36.65
154.1226401088 	 100
155.1066556936 	 4.6
172.1332047951 	 114.87
END IONS

BEGIN IONS
PEPMASS=628.3246
CHARGE=1
MSLEVEL=2
RT=0
SOURCE_INSTRUMENT=qTOF
FILENAME=CCMSLIB00000078455.ms
IONMODE=Positive
ORGANISM=Natural
NAME=BIBR-1048 (Dabigatran)
PI=GNPS
DATACOLLECTOR=GNPS
SMILES=CCCCCCOC(=O)N=C(c1ccc(cc1)NCc1nc2cc(ccc2n1C)C(=O)N(CCC(=O)OCC)c1ccccn1)N
INCHI=InChI=1S/C34H41N7O5/c1-4-6-7-10-21-46-34(44)39-32(35)24-12-15-26(16-13-24)37-23-30-38-27-22-25(14-17-28(27)40(30)3)33(43)41(20-18-31(42)45-5-2)29-11-8-9-19-36-29/h8-9,11-17,19,22,37H,4-7,10,18,20-21,23H2,1-3H3,(H2,35,39,44)
FORMULA=C34H41N7O5
PUBMED=N/A
SUBMITUSER=BIOADREM
LIBRARYQUALITY=0
SPECTRUMID=CCMSLIB00000078455
SCANS=947
ID=CCMSLIB00000078455
144.0655191604 	 1.46
172.0631138572 	 6.27
173.0709388893 	 2.66
189.0658535114 	 11.22
190.0709984688 	 3.41
263.1291224702 	 1.62
264.1019046667 	 6.31
265.1083870281 	 2.52
273.1584112259 	 45.42
289.1083870281 	 100
290.1121893148 	 28.44
291.112803704 	 2.09
293.1033016502 	 1.58
306.1322560549 	 3.96
307.1189517144 	 2.13
324.1428207412 	 0.95
332.1142006875 	 25.54
333.1180029742 	 7.87
350.1247653738 	 1.93
351.1285676605 	 1.7
365.1634966038 	 6.92
366.1646188158 	 2.43
434.218665759 	 18.5
435.2224680457 	 6.19
483.2139147321 	 1.18
500.2404638336 	 1.01
526.2197283915 	 28.22
541.2432034878 	 0.99
628.324193463 	 104.97
END IONS

BEGIN IONS
PEPMASS=498.1728
CHARGE=1
MSLEVEL=2
RT=0
SOURCE_INSTRUMENT=qTOF
FILENAME=CCMSLIB00000078456.ms
IONMODE=Positive
ORGANISM=Natural
NAME=Tebipenem pivoxil (L-084)
PI=GNPS
DATACOLLECTOR=GNPS
SMILES=C[C@H]1[C@H]2[C@@H]([C@@H](C)O)C(=O)N2C(=C1SC1CN(C1)C1=NCCS1)C(=O)OCOC(=O)C(C)(C)C
INCHI=InChI=1S/C22H31N3O6S2/c1-11-15-14(12(2)26)18(27)25(15)16(19(28)30-10-31-20(29)22(3,4)5)17(11)33-13-8-24(9-13)21-23-6-7-32-21/h11-15,26H,6-10H2,1-5H3/t11-,12+,14+,15-/m0/s1
FORMULA=C22H31N3O6S2
PUBMED=N/A
SUBMITUSER=BIOADREM
LIBRARYQUALITY=0
SPECTRUMID=CCMSLIB00000078456
SCANS=948
ID=CCMSLIB00000078456
115.032444893 	 4.21
119.0702701873 	 2.81
139.032444893 	 6.05
140.0164604778 	 10.48
141.0480949572 	 48.81
142.0559199893 	 23.81
143.0637450214 	 7.56
144.0681992351 	 3.89
150.0371959199 	 5.51
152.0528459841 	 19.22
153.0579909415 	 5.62
155.0451180693 	 3.56
168.0477606062 	 3.62
169.0430095793 	 4.1
170.0243450894 	 4.75
173.0192972493 	 9.61
174.0457492335 	 4.27
175.032444893 	 2.97
192.0563139198 	 2.92
196.0426752283 	 17.93
198.0616961109 	 4.05
207.0746065209 	 3.19
254.0780148771 	 26.57
255.0831598345 	 3.19
256.069855494 	 3.24
272.0699526113 	 3.19
280.057279435 	 94.87
281.059053574 	 15.93
282.0590160362 	 8.15
298.0678441213 	 100
299.0696182603 	 16.74
300.0596847382 	 13.07
366.0940588718 	 10.1
382.1267016709 	 15.82
384.1046235581 	 41.79
385.1137912609 	 10.1
413.1325153303 	 4.27
424.1723091928 	 11.07
425.1801342249 	 3.56
440.1672238149 	 5.62
450.1693323049 	 2.97
468.162138437 	 16.31
469.1699634691 	 3.89
470.1539790539 	 3.67
471.161804086 	 2.92
498.1727031233 	 316.04
END IONS

BEGIN IONS
PEPMASS=433.193
CHARGE=1
MSLEVEL=2
RT=0
SOURCE_INSTRUMENT=qTOF
FILENAME=CCMSLIB00000078457.ms
IONMODE=Positive
ORGANISM=Natural
NAME=DAPT (GSI-IX)
PI=GNPS
DATACOLLECTOR=GNPS
SMILES=C[C@@H](C(=N[C@@H](c1ccccc1)C(=O)OC(C)(C)C)O)N=C(Cc1cc(cc(c1)F)F)O
INCHI=InChI=1S/C23H26F2N2O4/c1-14(26-19(28)12-15-10-17(24)13-18(25)11-15)21(29)27-20(16-8-6-5-7-9-16)22(30)31-23(2,3)4/h5-11,13-14,20H,12H2,1-4H3,(H,26,28)(H,27,29)/t14-,20-/m0/s1
FORMULA=C23H26F2N2O4
PUBMED=N/A
SUBMITUSER=BIOADREM
LIBRARYQUALITY=0
SPECTRUMID=CCMSLIB00000078457
SCANS=949
ID=CCMSLIB00000078457
106.0651252299 	 8.6
107.0491408147 	 2.37
127.0353825284 	 1.2
135.0440554368 	 32.37
137.047129442 	 0.45
152.0706045383 	 100
198.0724963162 	 13.14
226.0674109383 	 21.05
331.1252601682 	 3.18
359.1201747903 	 0.95
377.1307394766 	 26.95
433.1933397334 	 0
END IONS

BEGIN IONS
PEPMASS=443.1731
CHARGE=1
MSLEVEL=2
RT=0
SOURCE_INSTRUMENT=qTOF
FILENAME=CCMSLIB00000078458.ms
IONMODE=Positive
ORGANISM=Natural
NAME=Eltrombopag (SB-497115-GR)
PI=GNPS
DATACOLLECTOR=GNPS
SMILES=Cc1ccc(cc1C)N1C(=O)/C(=N/Nc2cccc(c3cccc(c3)C(=O)O)c2O)/C(=N1)C
INCHI=InChI=1S/C25H22N4O4/c1-14-10-11-19(12-15(14)2)29-24(31)22(16(3)28-29)27-26-21-9-5-8-20(23(21)30)17-6-4-7-18(13-17)25(32)33/h4-13,26,30H,1-3H3,(H,32,33)/b27-22+
FORMULA=C25H22N4O4
PUBMED=N/A
SUBMITUSER=BIOADREM
LIBRARYQUALITY=0
SPECTRUMID=CCMSLIB00000078458
SCANS=950
ID=CCMSLIB00000078458
105.0698762568 	 6
132.0807752941 	 6.16
139.0542261926 	 6.62
141.0698762568 	 6.7
147.0678648841 	 11.32
148.0756899162 	 9.24
154.0651252299 	 6.24
155.085526321 	 5.7
156.0807752941 	 17.86
157.0845775808 	 6
158.0964253583 	 5.08
180.0443897878 	 6.54
182.060039852 	 12.01
183.0678648841 	 25.4
184.0756899162 	 25.94
185.0794922029 	 10.08
198.0549544741 	 7.78
201.0896629587 	 5.77
210.0549544741 	 24.17
211.0627795062 	 100
215.0576941283 	 10.01
216.113138055 	 11.47
228.0655191604 	 23.63
229.0733441925 	 74.67
241.0733441925 	 4.85
248.1069900446 	 4.93
256.0604337825 	 5
271.0713328198 	 5.85
278.0924026129 	 5
322.0822318571 	 67.74
324.0978819213 	 7.54
325.1057069534 	 5.54
341.1033016502 	 5.47
382.1550028697 	 5.23
384.1216913686 	 6.77
398.1499174918 	 6.24
402.1448321139 	 18.32
403.152657146 	 8.47
425.1608165291 	 9.78
426.1448321139 	 12.78
443.1713812154 	 903.16
END IONS

BEGIN IONS
PEPMASS=412.2831
CHARGE=1
MSLEVEL=2
RT=0
SOURCE_INSTRUMENT=qTOF
FILENAME=CCMSLIB00000078460.ms
IONMODE=Positive
ORGANISM=Natural
NAME=Fesoterodine fumarate (Toviaz)
PI=GNPS
DATACOLLECTOR=GNPS
SMILES=CC(C)C(=O)Oc1ccc(cc1[C@H](CCN(C(C)C)C(C)C)c1ccccc1)CO
INCHI=InChI=1S/C26H37NO3/c1-18(2)26(29)30-25-13-12-21(17-28)16-24(25)23(22-10-8-7-9-11-22)14-15-27(19(3)4)20(5)6/h7-13,16,18-20,23,28H,14-15,17H2,1-6H3/t23-/m1/s1
FORMULA=C26H37NO3
PUBMED=N/A
SUBMITUSER=BIOADREM
LIBRARYQUALITY=0
SPECTRUMID=CCMSLIB00000078460
SCANS=951
ID=CCMSLIB00000078460
195.0804409431 	 11.46
222.1277254867 	 13.18
223.1117410715 	 100
239.1066556936 	 9.74
264.1746756793 	 10.6
298.1716016741 	 21.78
300.1958050519 	 20.34
303.1015703157 	 10.32
370.2376698666 	 37.54
410.268969995 	 66.48
412.2846200592 	 225.21
END IONS

BEGIN IONS
PEPMASS=321.167
CHARGE=1
MSLEVEL=2
RT=0
SOURCE_INSTRUMENT=qTOF
FILENAME=CCMSLIB00000078461.ms
IONMODE=Positive
ORGANISM=Natural
NAME=Artemether (SM-224)
PI=GNPS
DATACOLLECTOR=GNPS
SMILES=C[C@H]1CC[C@H]2[C@H](C)[C@@H](OC)O[C@@H]3[C@]42[C@H]1CC[C@](C)(O3)OO4
INCHI=InChI=1S/C16H26O5/c1-9-5-6-12-10(2)13(17-4)18-14-16(12)11(9)7-8-15(3,19-14)20-21-16/h9-14H,5-8H2,1-4H3/t9-,10-,11-,12-,13-,14-,15+,16+/m0/s1
FORMULA=C16H26O5
PUBMED=N/A
SUBMITUSER=BIOADREM
LIBRARYQUALITY=0
SPECTRUMID=CCMSLIB00000078461
SCANS=952
ID=CCMSLIB00000078461
29.0385761284 	 1.82
71.085526321 	 1.97
83.085526321 	 4.1
85.0647908789 	 1.71
85.1011763852 	 4.95
97.1011763852 	 5.32
101.0960910073 	 3.54
111.1168264494 	 4.62
113.1324765136 	 6.74
123.1168264494 	 18.17
141.1273911357 	 100
153.163776642 	 2.46
163.1481265778 	 1.97
181.1586912641 	 14.59
253.1771352953 	 50.41
299.1826146037 	 8.15
END IONS

BEGIN IONS
PEPMASS=823.4091
CHARGE=1
MSLEVEL=2
RT=0
SOURCE_INSTRUMENT=qTOF
FILENAME=CCMSLIB00000078463.ms
IONMODE=Positive
ORGANISM=Natural
NAME=Ammonium Glycyrrhizinate (AMGZ)
PI=GNPS
DATACOLLECTOR=GNPS
SMILES=CC1(C)[C@@H]2CC[C@]3(C)[C@H](C(=O)C=C4[C@@H]5C[C@](C)(CC[C@]5(C)CC[C@@]34C)C(=O)O)[C@]2(C)CC[C@@H]1O[C@@H]1[C@H]([C@H]([C@@H]([C@@H](C(=O)O)O1)O)O)O[C@H]1[C@@H]([C@H]([C@@H]([C@@H](C(=O)O)O1)O)O)O
INCHI=InChI=1S/C42H62O16/c1-37(2)21-8-11-42(7)31(20(43)16-18-19-17-39(4,36(53)54)13-12-38(19,3)14-15-41(18,42)6)40(21,5)10-9-22(37)55-35-30(26(47)25(46)29(57-35)33(51)52)58-34-27(48)23(44)24(45)28(56-34)32(49)50/h16,19,21-31,34-35,44-48H,8-15,17H2,1-7H3,(H,49,50)(H,51,52)(H,53,54)/t19-,21-,22-,23-,24-,25-,26-,27+,28-,29-,30-,31+,34-,35-,38+,39-,40+,41+,42+/m0/s1
FORMULA=C42H62O16
PUBMED=N/A
SUBMITUSER=BIOADREM
LIBRARYQUALITY=0
SPECTRUMID=CCMSLIB00000078463
SCANS=954
ID=CCMSLIB00000078463
135.0287993031 	 2.26579725102031
135.1168264494 	 0.140732748510578
141.0182346168 	 1.458929492893
145.1011763852 	 0.126659473659521
159.0287993031 	 2.32678144204156
161.1324765136 	 0.145423840127598
177.163776642 	 1.49176713421213
189.163776642 	 0.276774405404138
199.1481265778 	 0.178261481446733
203.1430411999 	 0.154806023361636
217.1586912641 	 0.351831871276446
218.1665162962 	 0.159497114978656
219.2107268346 	 1.86236337195665
235.1692559504 	 0.206408031148848
261.060493362 	 5.55894356616785
263.1641705725 	 0.187643664680771
271.2056414567 	 0.126659473659521
317.2111207651 	 0.276774405404138
328.9928077273 	 1.49176713421213
331.2267708293 	 0.121968382042501
335.0608872925 	 8.1015152225923
341.2475062714 	 0.126659473659521
343.2267708293 	 0.342449688042407
353.0714519788 	 45.3910024862786
354.0792770109 	 10.9912276586762
357.2424208935 	 0.581695360510391
369.2424208935 	 0.136041656893559
383.2580709577 	 0.178261481446733
389.320277284 	 0.384669512595581
395.3155858366 	 1.64657315757377
405.0241078557 	 1.42609185157386
407.3308419703 	 1.08833325514847
417.372706785 	 1.67471970727588
431.3519713429 	 8.35014307829432
435.3257565924 	 1.1446263545527
449.3625360292 	 10.3673124736126
453.3363212787 	 51.569170145893
454.3441463108 	 15.3961626870573
471.346885965 	 50.0633297368298
473.3472798955 	 3.66374255289206
489.3574506513 	 23.0989351222029
491.3731007155 	 2.32678144204156
513.3633238902 	 2.29863489233945
612.3140279739 	 1.42609185157386
625.3793678849 	 3.22747103250926
644.361372097 	 2.97884317680724
647.3789739544 	 39.5505934230896
682.3406366549 	 1.458929492893
733.4004972575 	 2.54726274804147
823.4110619438 	 100
END IONS

BEGIN IONS
PEPMASS=832.3558
CHARGE=1
MSLEVEL=2
RT=0
SOURCE_INSTRUMENT=qTOF
FILENAME=CCMSLIB00000078465.ms
IONMODE=Positive
ORGANISM=Natural
NAME=Cephalomannine
PI=GNPS
DATACOLLECTOR=GNPS
SMILES=C/C=C(\C)/C(=N[C@@H](c1ccccc1)[C@H](C(=O)O[C@H]1C[C@]2([C@H]([C@H]3[C@@](C)([C@@H](C[C@@H]4[C@]3(CO4)OC(=O)C)O)C(=O)[C@H](C(=C1C)C2(C)C)OC(=O)C)OC(=O)c1ccccc1)O)O)O
INCHI=InChI=1S/C45H53NO14/c1-9-23(2)39(52)46-33(27-16-12-10-13-17-27)34(50)41(54)58-29-21-45(55)38(59-40(53)28-18-14-11-15-19-28)36-43(8,30(49)20-31-44(36,22-56-31)60-26(5)48)37(51)35(57-25(4)47)32(24(29)3)42(45,6)7/h9-19,29-31,33-36,38,49-50,55H,20-22H2,1-8H3,(H,46,52)/b23-9+/t29-,30+,31+,33-,34+,35-,36-,38-,43+,44-,45+/m0/s1
FORMULA=C45H53NO14
PUBMED=N/A
SUBMITUSER=BIOADREM
LIBRARYQUALITY=0
SPECTRUMID=CCMSLIB00000078465
SCANS=956
ID=CCMSLIB00000078465
83.0491408147 	 1.62
100.0756899162 	 3.935
105.0334907505 	 2.62
107.085526321 	 1.3
133.0647908789 	 1.04
149.059705501 	 1.83
151.0753555652 	 1.115
175.1481265778 	 1.605
177.0546201231 	 1.61
185.1324765136 	 1.215
199.1481265778 	 1.25
218.1148746562 	 6.165
227.1430411999 	 1.05
235.1481265778 	 1.02
237.1273911357 	 1.38
245.1324765136 	 1.005
246.1097892783 	 14.355
248.1195661036 	 1.26
251.1430411999 	 0.965
253.1586912641 	 1.76
255.137955822 	 1.16
259.1692559504 	 1.775
263.1430411999 	 2.51
264.1203539646 	 100
265.1223057578 	 15.065
266.1301307899 	 1.25
267.1465091356 	 1.015
269.1621591998 	 1.47
279.137955822 	 0.94
281.1536058862 	 3.755
291.137955822 	 1.67
292.139078034 	 1.165
297.1485205083 	 0.975
299.1641705725 	 1.345
309.1485205083 	 6.32
310.1496427203 	 2.15
327.1590851946 	 13.28
328.1602074066 	 2.06
328.1727834656 	 1.455
329.1316469324 	 1.25
345.1696498809 	 1.7
369.1696498809 	 2.89
370.1707720929 	 1.44
387.1735117471 	 1.655
387.1802145672 	 5.615
388.1813367792 	 1.675
405.1840764334 	 1.065
429.1907792535 	 1.02
447.2013439398 	 3.625
449.2017378703 	 2.89
465.2271647598 	 1.065
481.2220793819 	 1.2
487.2411973818 	 1.185
491.2064293177 	 2.06
509.216994004 	 39.375
510.218116216 	 11.235
543.2013439398 	 2.585
547.2479002019 	 1.13
551.2275586903 	 5.475
552.2286809023 	 2.825
569.2381233766 	 21.68
571.2326440682 	 1.065
650.2959726065 	 1.59
755.3147562554 	 1.415
773.3167676281 	 1.065
788.2912811591 	 1.03
832.3538814159 	 49.66
END IONS

BEGIN IONS
PEPMASS=545.2377
CHARGE=1
MSLEVEL=2
RT=0
SOURCE_INSTRUMENT=qTOF
FILENAME=CCMSLIB00000078467.ms
IONMODE=Positive
ORGANISM=Natural
NAME=10-DAB (10-Deacetylbaccatin)
PI=GNPS
DATACOLLECTOR=GNPS
SMILES=CC1=C2[C@H](C(=O)[C@]3(C)[C@@H](C[C@@H]4[C@@](CO4)([C@H]3[C@@H]([C@](C[C@@H]1O)(C2(C)C)O)OC(=O)c1ccccc1)OC(=O)C)O)O
INCHI=InChI=1S/C29H36O10/c1-14-17(31)12-29(36)24(38-25(35)16-9-7-6-8-10-16)22-27(5,23(34)21(33)20(14)26(29,3)4)18(32)11-19-28(22,13-37-19)39-15(2)30/h6-10,17-19,21-22,24,31-33,36H,11-13H2,1-5H3/t17-,18+,19+,21+,22-,24-,27+,28-,29+/m0/s1
FORMULA=C29H36O10
PUBMED=N/A
SUBMITUSER=BIOADREM
LIBRARYQUALITY=0
SPECTRUMID=CCMSLIB00000078467
SCANS=958
ID=CCMSLIB00000078467
105.0334907505 	 24.8
123.0804409431 	 5.02
133.0647908789 	 15.92
133.1011763852 	 9.78
135.0804409431 	 8.25
137.0960910073 	 8.8
149.0960910073 	 11.32
151.0753555652 	 5.84
159.0804409431 	 7.93
161.0960910073 	 6.27
165.0910056294 	 8.94
173.0960910073 	 6.85
177.0910056294 	 8.7
187.1117410715 	 6.48
211.1117410715 	 7.01
215.1066556936 	 4.89
221.1324765136 	 5
229.1223057578 	 7.06
233.1172203799 	 5.1
235.1481265778 	 6.56
239.1066556936 	 6.4
241.1223057578 	 5.71
243.137955822 	 5.63
253.1586912641 	 9.28
257.1172203799 	 5.98
259.1328704441 	 5.42
263.1430411999 	 9.62
267.1015703157 	 4.89
267.137955822 	 8.62
271.1692559504 	 11.74
281.1536058862 	 21.68
283.1328704441 	 9.41
285.112135002 	 5.84
285.1485205083 	 5.37
291.137955822 	 5.71
299.1641705725 	 29.9
309.1485205083 	 31.2
317.1747352588 	 13.72
327.1590851946 	 74.51
345.1696498809 	 80.41
363.1802145672 	 100
387.1802145672 	 19.38
405.1907792535 	 5.76
509.216994004 	 7.56
527.2275586903 	 4.92
545.2381233766 	 43.26
END IONS

BEGIN IONS
PEPMASS=227.091
CHARGE=1
MSLEVEL=2
RT=0
SOURCE_INSTRUMENT=qTOF
FILENAME=CCMSLIB00000078468.ms
IONMODE=Positive
ORGANISM=Natural
NAME=Genipin
PI=GNPS
DATACOLLECTOR=GNPS
SMILES=COC(=O)C1=CO[C@@H]([C@@H]2C(=CC[C@H]12)CO)O
INCHI=InChI=1S/C11H14O5/c1-15-10(13)8-5-16-11(14)9-6(4-12)2-3-7(8)9/h2,5,7,9,11-12,14H,3-4H2,1H3/t7-,9-,11+/m1/s1
FORMULA=C11H14O5
PUBMED=N/A
SUBMITUSER=BIOADREM
LIBRARYQUALITY=0
SPECTRUMID=CCMSLIB00000078468
SCANS=959
ID=CCMSLIB00000078468
103.0542261926 	 7.63
105.0698762568 	 10.09
121.0647908789 	 54
133.0647908789 	 4.67
149.059705501 	 100
162.0311450268 	 5.29
177.0546201231 	 52.28
191.0702701873 	 34.56
209.0808348736 	 4.67
227.0913995599 	 0
END IONS

BEGIN IONS
PEPMASS=281.1141
CHARGE=1
MSLEVEL=2
RT=0
SOURCE_INSTRUMENT=qTOF
FILENAME=CCMSLIB00000078469.ms
IONMODE=Positive
ORGANISM=Natural
NAME=Levosimendan
PI=GNPS
DATACOLLECTOR=GNPS
SMILES=C[C@@H]1CC(=NN=C1c1ccc(cc1)NN=C(C#N)C#N)O
INCHI=InChI=1S/C14H12N6O/c1-9-6-13(21)19-20-14(9)10-2-4-11(5-3-10)17-18-12(7-15)8-16/h2-5,9,17H,6H2,1H3,(H,19,21)/t9-/m1/s1
FORMULA=C14H12N6O
PUBMED=N/A
SUBMITUSER=BIOADREM
LIBRARYQUALITY=0
SPECTRUMID=CCMSLIB00000078469
SCANS=960
ID=CCMSLIB00000078469
107.060374203 	 2.92
111.0552888251 	 6.3
117.0573001978 	 4.75
118.0651252299 	 5.65
122.0838492993 	 3.74
130.0651252299 	 4.07
132.0681992351 	 5.29
133.0760242672 	 4.75
143.072950262 	 4.82
144.0807752941 	 4.64
145.0760242672 	 12.28
146.0838492993 	 7.06
156.0681992351 	 3.82
157.0760242672 	 4.97
159.0916743314 	 5.44
160.0869233045 	 19.22
161.1073243956 	 19.4
169.0508721492 	 4.36
171.0678648841 	 4.18
174.1025733687 	 14.61
175.1103984008 	 19.01
176.0944139856 	 6.91
187.0865889535 	 5.18
188.0818379266 	 20.73
195.0665222134 	 4.36
202.0974879908 	 5.65
203.1053130229 	 100
209.0821722776 	 7.52
221.0821722776 	 2.92
229.1083870281 	 15.87
236.0930713149 	 14.51
237.088320288 	 4.14
253.1196204164 	 52.81
265.0832349101 	 14.4
281.1145350385 	 563.43
END IONS

BEGIN IONS
PEPMASS=240.1154
CHARGE=1
MSLEVEL=2
RT=0
SOURCE_INSTRUMENT=qTOF
FILENAME=CCMSLIB00000078471.ms
IONMODE=Positive
ORGANISM=Natural
NAME=Amfebutamone (Bupropion)
PI=GNPS
DATACOLLECTOR=GNPS
SMILES=CC(C(=O)c1cccc(c1)Cl)NC(C)(C)C
INCHI=InChI=1S/C13H18ClNO/c1-9(15-13(2,3)4)12(16)10-6-5-7-11(14)8-10/h5-9,15H,1-4H3
FORMULA=C13H18ClNO
PUBMED=N/A
SUBMITUSER=BIOADREM
LIBRARYQUALITY=0
SPECTRUMID=CCMSLIB00000078471
SCANS=961
ID=CCMSLIB00000078471
103.0542261926 	 4.55
130.0651252299 	 44.275
131.072950262 	 90.54
132.0569658468 	 0.595
139.0309039347 	 34.165
151.0183278757 	 3.695
166.041802972 	 76.075
167.0258185568 	 31.365
184.0523676583 	 100
240.1149679151 	 58.51
END IONS

BEGIN IONS
PEPMASS=327.1364
CHARGE=1
MSLEVEL=2
RT=0
SOURCE_INSTRUMENT=qTOF
FILENAME=CCMSLIB00000078475.ms
IONMODE=Positive
ORGANISM=Natural
NAME=Clozapine (Clozaril)
PI=GNPS
DATACOLLECTOR=GNPS
SMILES=CN1CCN(CC1)C1=Nc2cc(ccc2Nc2ccccc12)Cl
INCHI=InChI=1S/C18H19ClN4/c1-22-8-10-23(11-9-22)18-14-4-2-3-5-15(14)20-16-7-6-13(19)12-17(16)21-18/h2-7,12,20H,8-11H2,1H3
FORMULA=C18H19ClN4
PUBMED=N/A
SUBMITUSER=BIOADREM
LIBRARYQUALITY=0
SPECTRUMID=CCMSLIB00000078475
SCANS=962
ID=CCMSLIB00000078475
164.0494751657 	 0.805
191.060374203 	 0.97
192.0681992351 	 47.89
200.0261529078 	 0.745
218.0838492993 	 0.8
227.0370519451 	 19.065
234.1025733687 	 1.285
235.1103984008 	 1.02
244.0636010466 	 0.365
253.0527020093 	 1.135
260.1182234329 	 0.5
270.0792511108 	 100
281.0714260787 	 1.35
296.094901175 	 18.13
327.1371003407 	 84.8
END IONS

BEGIN IONS
PEPMASS=426.1678
CHARGE=1
MSLEVEL=2
RT=0
SOURCE_INSTRUMENT=qTOF
FILENAME=CCMSLIB00000078476.ms
IONMODE=Positive
ORGANISM=Natural
NAME=Domperidone (Motilium)
PI=GNPS
DATACOLLECTOR=GNPS
SMILES=c1ccc2c(c1)nc(n2CCCN1CCC(CC1)n1c2ccc(cc2nc1O)Cl)O
INCHI=InChI=1S/C22H24ClN5O2/c23-15-6-7-20-18(14-15)25-22(30)28(20)16-8-12-26(13-9-16)10-3-11-27-19-5-2-1-4-17(19)24-21(27)29/h1-2,4-7,14,16H,3,8-13H2,(H,24,29)(H,25,30)
FORMULA=C22H24ClN5O2
PUBMED=N/A
SUBMITUSER=BIOADREM
LIBRARYQUALITY=0
SPECTRUMID=CCMSLIB00000078476
SCANS=963
ID=CCMSLIB00000078476
119.0622040631 	 7.09
126.1277254867 	 39.71
147.0552888251 	 28.74
149.0709388893 	 7.35
155.0006664388 	 5.61
175.0865889535 	 100
176.0944139856 	 14.3
242.069080355 	 4.81
253.0989834999 	 4.95
256.1444381834 	 4.14
266.081656414 	 5.48
282.1349361296 	 8.42
297.1471778376 	 5.35
370.1316806118 	 4.41
377.1846259764 	 7.35
426.1691287506 	 297.99
END IONS

BEGIN IONS
PEPMASS=322.151
CHARGE=1
MSLEVEL=2
RT=0
SOURCE_INSTRUMENT=qTOF
FILENAME=CCMSLIB00000078477.ms
IONMODE=Positive
ORGANISM=Natural
NAME=Famciclovir (Famvir)
PI=GNPS
DATACOLLECTOR=GNPS
SMILES=CC(=O)OCC(CCn1cnc2c[nH]c(=N)nc12)COC(=O)C
INCHI=InChI=1S/C14H19N5O4/c1-9(20)22-6-11(7-23-10(2)21)3-4-19-8-17-12-5-16-14(15)18-13(12)19/h5,8,11H,3-4,6-7H2,1-2H3,(H2,15,16,18)
FORMULA=C14H19N5O4
PUBMED=N/A
SUBMITUSER=BIOADREM
LIBRARYQUALITY=0
SPECTRUMID=CCMSLIB00000078477
SCANS=964
ID=CCMSLIB00000078477
94.0399731119 	 0.0458385174513784
109.0495347452 	 0.279396677798878
109.0522148199 	 0.373256499246939
119.033884681 	 0.0763975290856307
119.0365647557 	 0.209547508349159
121.0508721492 	 0.150612271625958
121.0522148199 	 0.189902429441425
127.0753555652 	 0.270665531617663
136.0604337825 	 21.8278654530373
136.0631138572 	 21.8278654530373
145.0859202515 	 1.64363826861371
148.0617711865 	 2.57787091000371
148.0631138572 	 2.15441032021479
158.0712732403 	 0.154977844716565
160.0842432298 	 0.18117128326021
162.0760838467 	 0.141881125444743
173.0682588146 	 0.174622923624299
174.0774212507 	 0.296858970161308
174.0787639214 	 0.207364721803855
175.0978223418 	 0.454019601423177
175.0991650125 	 0.554427782507149
185.0835149483 	 0.303407329797219
186.0787639214 	 0.541331063235326
187.0852462828 	 1.09139327265187
188.0917339109 	 0.0960426079933643
190.1100640498 	 0.281579464344182
193.1083870281 	 0.148429485080654
193.1097296988 	 0.113504900355794
202.1087213791 	 8.32078231069783
202.1100640498 	 6.68587518826534
220.1192860654 	 2.54076353873355
220.1206287361 	 2.17623818566782
238.1298507517 	 0.820727741034204
238.1311934224 	 0.567524501778971
262.1298507517 	 5.29544015890686
262.1311934224 	 5.71235238905987
280.140415438 	 5.30635409163338
280.1417581087 	 4.5576583065942
322.1509801243 	 100
END IONS

BEGIN IONS
PEPMASS=370.137
CHARGE=1
MSLEVEL=2
RT=0
SOURCE_INSTRUMENT=qTOF
FILENAME=CCMSLIB00000078478.ms
IONMODE=Positive
ORGANISM=Natural
NAME=Fleroxacin (Quinodis)
PI=GNPS
DATACOLLECTOR=GNPS
SMILES=CN1CCN(CC1)c1c(cc2c(c1F)n(CCF)cc(c2=O)C(=O)O)F
INCHI=InChI=1S/C17H18F3N3O3/c1-21-4-6-22(7-5-21)15-12(19)8-10-14(13(15)20)23(3-2-18)9-11(16(10)24)17(25)26/h8-9H,2-7H2,1H3,(H,25,26)
FORMULA=C17H18F3N3O3
PUBMED=N/A
SUBMITUSER=BIOADREM
LIBRARYQUALITY=0
SPECTRUMID=CCMSLIB00000078478
SCANS=965
ID=CCMSLIB00000078478
167.060374203 	 1.45
176.0268085726 	 1.14
194.0650056351 	 4.41
195.045198291 	 1.27
203.0615170572 	 3.78
207.0690077383 	 1.57
208.056846252 	 1.14
212.0643369331 	 1.98
213.0595859062 	 3.68
222.0599202572 	 19.04
223.0677452893 	 12.68
224.0717473925 	 2.03
241.0708995162 	 4.39
243.1229350867 	 1.32
249.0833953535 	 5.38
250.0912203856 	 2.1
255.0739735214 	 6.21
263.0864693587 	 1.42
269.0896235856 	 100
270.0936256888 	 13.24
271.1178497088 	 1.14
279.1177694871 	 6.52
281.0858006567 	 4.08
283.1052736498 	 1.42
306.1412445834 	 1.27
324.1279998224 	 2.89
326.1474728155 	 63.59
352.1267373734 	 3.07
370.1373020597 	 200.28
END IONS

BEGIN IONS
PEPMASS=453.2083
CHARGE=1
MSLEVEL=2
RT=0
SOURCE_INSTRUMENT=qTOF
FILENAME=CCMSLIB00000078479.ms
IONMODE=Positive
ORGANISM=Natural
NAME=Fluocinolone acetonide (Flucort-N)
PI=GNPS
DATACOLLECTOR=GNPS
SMILES=CC1(C)O[C@@H]2C[C@H]3[C@@H]4C[C@@H](C5=CC(=O)C=C[C@]5(C)[C@@]4([C@@H](C[C@]3(C)[C@@]2(C(=O)CO)O1)O)F)F
INCHI=InChI=1S/C24H30F2O6/c1-20(2)31-19-9-13-14-8-16(25)15-7-12(28)5-6-21(15,3)23(14,26)17(29)10-22(13,4)24(19,32-20)18(30)11-27/h5-7,13-14,16-17,19,27,29H,8-11H2,1-4H3/t13-,14-,16-,17+,19+,21-,22-,23+,24-/m0/s1
FORMULA=C24H30F2O6
PUBMED=N/A
SUBMITUSER=BIOADREM
LIBRARYQUALITY=0
SPECTRUMID=CCMSLIB00000078479
SCANS=966
ID=CCMSLIB00000078479
121.0647908789 	 38.81
137.0761044889 	 14.15
147.0804409431 	 17.02
158.0737587652 	 15.49
159.0815837973 	 13
171.0827266515 	 17.21
208.0905516836 	 15.11
209.0972338615 	 20.84
223.1117410715 	 30.59
234.1062017478 	 16.25
237.1285339899 	 44.55
239.1077985478 	 16.63
241.0870631057 	 15.87
242.1112871257 	 14.53
246.1050588936 	 13
251.1066556936 	 22.18
251.1430411999 	 15.49
259.1117410715 	 13.77
261.1285339899 	 32.12
263.1077985478 	 14.91
263.1441840541 	 16.25
277.1223057578 	 17.4
281.134762222 	 13.19
283.1504122862 	 19.12
291.1390986762 	 18.55
319.1340132983 	 28.68
320.1371079457 	 16.44
337.1445779846 	 95.98
338.147672632 	 15.49
355.1551426709 	 50.29
356.1582373183 	 26.2
357.1508062167 	 27.34
375.161370903 	 21.03
413.1958646314 	 77.63
415.1915281772 	 28.49
433.2020928635 	 100
453.2083210956 	 72.85
END IONS

BEGIN IONS
PEPMASS=705.2466
CHARGE=1
MSLEVEL=2
RT=0
SOURCE_INSTRUMENT=qTOF
FILENAME=CCMSLIB00000078481.ms
IONMODE=Positive
ORGANISM=Natural
NAME=Itraconazole (Sporanox)
PI=GNPS
DATACOLLECTOR=GNPS
SMILES=CCC(C)n1c(=O)n(cn1)c1ccc(cc1)N1CCN(CC1)c1ccc(cc1)OC[C@H]1CO[C@](Cn2cncn2)(c2ccc(cc2Cl)Cl)O1
INCHI=InChI=1S/C35H38Cl2N8O4/c1-3-25(2)45-34(46)44(24-40-45)29-7-5-27(6-8-29)41-14-16-42(17-15-41)28-9-11-30(12-10-28)47-19-31-20-48-35(49-31,21-43-23-38-22-39-43)32-13-4-26(36)18-33(32)37/h4-13,18,22-25,31H,3,14-17,19-21H2,1-2H3/t25?,31-,35-/m0/s1
FORMULA=C35H38Cl2N8O4
PUBMED=N/A
SUBMITUSER=BIOADREM
LIBRARYQUALITY=0
SPECTRUMID=CCMSLIB00000078481
SCANS=967
ID=CCMSLIB00000078481
134.060039852 	 2.04
144.0807752941 	 2.46
146.0964253583 	 8.92
148.0756899162 	 4.79
172.0743472455 	 3.38
174.0913399804 	 16.51
175.0978223418 	 2.04
188.1069900446 	 3.99
192.1019046667 	 6.5
200.1069900446 	 9.67
203.0927369639 	 12.8
218.1175547309 	 6.7
229.1083870281 	 5.3
244.1291820497 	 2.15
259.1566798914 	 5.39
271.1553372207 	 7.42
272.1604821781 	 2.35
285.1723299556 	 4.01
298.166236258 	 2.26
299.1713812154 	 2.48
322.1675789287 	 6.08
335.1480589575 	 16.99
336.1468434866 	 8.61
338.1624935508 	 3.49
348.1832289929 	 22.15
349.1861757983 	 5.53
358.1675789287 	 3.74
364.178143615 	 3.66
376.178143615 	 33.93
377.1810904204 	 8.17
377.2174759267 	 4.02
378.2288365148 	 4.38
392.2094437434 	 100
393.2123905488 	 28.14
394.2215582516 	 12.64
395.1916551067 	 2.85
403.2366615469 	 3.63
404.244486579 	 22.67
405.2487760551 	 9.68
414.2288365148 	 3.02
420.2394012011 	 8.09
421.2436906772 	 4.93
432.2394012011 	 35.36
433.2436906772 	 12.02
450.2499658874 	 33.6
451.2542553635 	 7.2
705.2465831698 	 444.61
END IONS

BEGIN IONS
PEPMASS=477.2286
CHARGE=1
MSLEVEL=2
RT=0
SOURCE_INSTRUMENT=qTOF
FILENAME=CCMSLIB00000078483.ms
IONMODE=Positive
ORGANISM=Natural
NAME=Loperamide hydrochloride
PI=GNPS
DATACOLLECTOR=GNPS
SMILES=CN(C)C(=O)C(CCN1CCC(CC1)(c1ccc(cc1)Cl)O)(c1ccccc1)c1ccccc1
INCHI=InChI=1S/C29H33ClN2O2/c1-31(2)27(33)29(24-9-5-3-6-10-24,25-11-7-4-8-12-25)19-22-32-20-17-28(34,18-21-32)23-13-15-26(30)16-14-23/h3-16,34H,17-22H2,1-2H3
FORMULA=C29H33ClN2O2
PUBMED=N/A
SUBMITUSER=BIOADREM
LIBRARYQUALITY=0
SPECTRUMID=CCMSLIB00000078483
SCANS=968
ID=CCMSLIB00000078483
115.0542261926 	 0.885
152.0620512247 	 0.145
167.085526321 	 1.025
178.0777012889 	 0.45
193.1011763852 	 1.555
210.1277254867 	 35.4
223.0991650125 	 0.465
238.1226401088 	 7.48
266.1539402372 	 100
477.2303320239 	 24.12
END IONS

BEGIN IONS
PEPMASS=611.2849
CHARGE=1
MSLEVEL=2
RT=0
SOURCE_INSTRUMENT=qTOF
FILENAME=CCMSLIB00000078484.ms
IONMODE=Positive
ORGANISM=Natural
NAME=Manidipine (Manyper)
PI=GNPS
DATACOLLECTOR=GNPS
SMILES=CC1=C(C(c2cccc(c2)N(=O)=O)C(=C(C)N1)C(=O)OCCN1CCN(CC1)C(c1ccccc1)c1ccccc1)C(=O)OC
INCHI=InChI=1S/C35H38N4O6/c1-24-30(34(40)44-3)32(28-15-10-16-29(23-28)39(42)43)31(25(2)36-24)35(41)45-22-21-37-17-19-38(20-18-37)33(26-11-6-4-7-12-26)27-13-8-5-9-14-27/h4-16,23,32-33,36H,17-22H2,1-3H3
FORMULA=C35H38N4O6
PUBMED=N/A
SUBMITUSER=BIOADREM
LIBRARYQUALITY=0
SPECTRUMID=CCMSLIB00000078484
SCANS=969
ID=CCMSLIB00000078484
121.0647908789 	 0.71
151.0502034472 	 1.23
152.0620512247 	 6.39
166.0736785435 	 3.39
167.085526321 	 100
168.0893286077 	 16.62
254.0771464792 	 0.75
315.1042503904 	 1.61
443.192510588 	 4.76
444.1944623812 	 1.33
445.2022874133 	 0.77
516.2883627664 	 0.83
526.2785859411 	 0.83
611.2864109732 	 34.23
END IONS

BEGIN IONS
PEPMASS=321.1318
CHARGE=1
MSLEVEL=2
RT=0
SOURCE_INSTRUMENT=qTOF
FILENAME=CCMSLIB00000078487.ms
IONMODE=Positive
ORGANISM=Natural
NAME=Mycophenolic (Mycophenolate)
PI=GNPS
DATACOLLECTOR=GNPS
SMILES=C/C(=C\Cc1c(c2c(COC2=O)c(C)c1OC)O)/CCC(=O)O
INCHI=InChI=1S/C17H20O6/c1-9(5-7-13(18)19)4-6-11-15(20)14-12(8-23-17(14)21)10(2)16(11)22-3/h4,20H,5-8H2,1-3H3,(H,18,19)/b9-4+
FORMULA=C17H20O6
PUBMED=N/A
SUBMITUSER=BIOADREM
LIBRARYQUALITY=0
SPECTRUMID=CCMSLIB00000078487
SCANS=971
ID=CCMSLIB00000078487
91.0542261926 	 0.255
102.0464011605 	 0.575
103.0542261926 	 5.12
109.0647908789 	 0.29
131.0491408147 	 2.605
135.0804409431 	 0.335
141.0334907505 	 0.435
149.059705501 	 1.215
159.0440554368 	 54.465
175.0753555652 	 0.575
177.0546201231 	 18.605
179.0702701873 	 2.29
195.0651848094 	 5.985
207.0651848094 	 100
221.0808348736 	 0.27
225.0757494957 	 0.405
259.0964849378 	 0.365
270.0886599057 	 0.34
275.1277850662 	 10.755
285.112135002 	 2
303.1226996883 	 24.115
321.1332643746 	 5.315
END IONS

BEGIN IONS
PEPMASS=318.2061
CHARGE=1
MSLEVEL=2
RT=0
SOURCE_INSTRUMENT=qTOF
FILENAME=CCMSLIB00000078488.ms
IONMODE=Positive
ORGANISM=Natural
NAME=Nateglinide (Starlix)
PI=GNPS
DATACOLLECTOR=GNPS
SMILES=CC(C)[C@@H]1CC[C@H](CC1)C(=N[C@H](Cc1ccccc1)C(=O)O)O
INCHI=InChI=1S/C19H27NO3/c1-13(2)15-8-10-16(11-9-15)18(21)20-17(19(22)23)12-14-6-4-3-5-7-14/h3-7,13,15-17H,8-12H2,1-2H3,(H,20,21)(H,22,23)/t15-,16-,17-/m1/s1
FORMULA=C19H27NO3
PUBMED=N/A
SUBMITUSER=BIOADREM
LIBRARYQUALITY=0
SPECTRUMID=CCMSLIB00000078488
SCANS=972
ID=CCMSLIB00000078488
103.0542261926 	 0.515
120.0807752941 	 46.25
125.1324765136 	 37.235
131.0491408147 	 0.59
149.059705501 	 1.825
153.1273911357 	 8.21
166.0862546025 	 100
272.2008904298 	 9.54
273.2087154619 	 0.725
300.1958050519 	 5.35
318.2063697382 	 38.49
END IONS

BEGIN IONS
PEPMASS=361.1379
CHARGE=1
MSLEVEL=2
RT=0
SOURCE_INSTRUMENT=qTOF
FILENAME=CCMSLIB00000078489.ms
IONMODE=Positive
ORGANISM=Natural
NAME=Nitrendipine
PI=GNPS
DATACOLLECTOR=GNPS
SMILES=CCOC(=O)C1=C(C)NC(=C(C1c1cccc(c1)N(=O)=O)C(=O)OC)C
INCHI=InChI=1S/C18H20N2O6/c1-5-26-18(22)15-11(3)19-10(2)14(17(21)25-4)16(15)12-7-6-8-13(9-12)20(23)24/h6-9,16,19H,5H2,1-4H3
FORMULA=C18H20N2O6
PUBMED=N/A
SUBMITUSER=BIOADREM
LIBRARYQUALITY=0
SPECTRUMID=CCMSLIB00000078489
SCANS=973
ID=CCMSLIB00000078489
168.0807752941 	 2.16
180.0807752941 	 0.78
182.0964253583 	 0.96
196.0756899162 	 1.29
208.0756899162 	 1.54
210.0913399804 	 5.74
226.0862546025 	 12.38
236.0706045383 	 1.04
241.0733441925 	 1.04
253.0733441925 	 2.3
254.0811692246 	 11.5
268.0968192888 	 6.17
269.0682588146 	 1.17
269.1046443209 	 5.86
283.0713328198 	 5.92
284.0791578519 	 4.14
285.0631734367 	 3.35
287.0788235009 	 5.35
298.0948079161 	 3.84
302.0897225382 	 2.36
315.0975475703 	 100
329.1131976345 	 69.21
361.139412385 	 1.11
END IONS

BEGIN IONS
PEPMASS=313.1491
CHARGE=1
MSLEVEL=2
RT=0
SOURCE_INSTRUMENT=qTOF
FILENAME=CCMSLIB00000078490.ms
IONMODE=Positive
ORGANISM=Natural
NAME=Olanzapine (Zyprexa)
PI=GNPS
DATACOLLECTOR=GNPS
SMILES=Cc1cc2C(=Nc3ccccc3Nc2s1)N1CCN(C)CC1
INCHI=InChI=1S/C17H20N4S/c1-12-11-13-16(21-9-7-20(2)8-10-21)18-14-5-3-4-6-15(14)19-17(13)22-12/h3-6,11,19H,7-10H2,1-2H3
FORMULA=C17H20N4S
PUBMED=N/A
SUBMITUSER=BIOADREM
LIBRARYQUALITY=0
SPECTRUMID=CCMSLIB00000078490
SCANS=974
ID=CCMSLIB00000078490
133.0760242672 	 0.101150975493877
142.0651252299 	 0.111879109258379
148.0181750373 	 0.124139833560668
169.0760242672 	 1.44370028659443
179.060374203 	 0.392343177673221
180.0681992351 	 1.31956045303376
185.0260000694 	 0.18084568345875
186.0338251015 	 1.04675933730785
186.0371959199 	 0.528743735536177
195.0790982724 	 0.485831200478168
196.0869233045 	 0.375484681757575
198.0212490425 	 5.24759000137933
198.0246198609 	 3.67361951907309
199.0290740746 	 0.185443455072108
200.0494751657 	 0.33870250885071
201.0447241388 	 0.144063510551886
211.032444893 	 0.321844012935064
212.0368991067 	 1.15404067495287
212.0402699251 	 0.960934267191834
213.0447241388 	 4.74183512390995
213.0480949572 	 7.51582399730264
214.0525491709 	 0.891967692991464
215.060374203 	 0.424527578966727
215.0637450214 	 0.452114208646876
222.1025733687 	 0.971662400956336
223.1103984008 	 1.11112813989486
224.1182234329 	 0.200769360449969
226.0559199893 	 0.124139833560668
227.060374203 	 0.599242900274334
227.0637450214 	 0.281996658952628
228.0589939945 	 0.551732593602967
229.0760242672 	 0.0965532038805192
230.0746440587 	 0.936412818587258
231.0790982724 	 0.102683566031663
238.0559199893 	 0.124139833560668
239.0637450214 	 0.530276326073963
240.0589939945 	 0.240616714432405
241.0634482082 	 0.636025073181198
241.0668190266 	 0.240616714432405
242.0712732403 	 0.145596101089672
242.0746440587 	 0.303452926481632
248.1182234329 	 0.124139833560668
253.0668190266 	 0.381615043908719
254.0746440587 	 0.263605572499195
255.0824690908 	 0.223758218516759
256.0902941229 	 45.9777161335806
257.0947483366 	 6.4016306763322
268.0902941229 	 0.101150975493877
270.1059441871 	 0.0919554322671612
282.1059441871 	 7.76257107388619
313.1481433528 	 100
END IONS

BEGIN IONS
PEPMASS=261.1977
CHARGE=1
MSLEVEL=2
RT=0
SOURCE_INSTRUMENT=qTOF
FILENAME=CCMSLIB00000078492.ms
IONMODE=Positive
ORGANISM=Natural
NAME=Oxymetazoline hydrochloride
PI=GNPS
DATACOLLECTOR=GNPS
SMILES=Cc1cc(c(c(C)c1CC1=NCCN1)O)C(C)(C)C
INCHI=InChI=1S/C16H24N2O/c1-10-8-13(16(3,4)5)15(19)11(2)12(10)9-14-17-6-7-18-14/h8,19H,6-7,9H2,1-5H3,(H,17,18)
FORMULA=C16H24N2O
PUBMED=N/A
SUBMITUSER=BIOADREM
LIBRARYQUALITY=0
SPECTRUMID=CCMSLIB00000078492
SCANS=975
ID=CCMSLIB00000078492
105.0698762568 	 0.42
107.085526321 	 0.43
119.085526321 	 0.72
121.0647908789 	 0.94
121.1011763852 	 0.75
133.1011763852 	 0.56
135.0804409431 	 11.69
137.0960910073 	 1.57
147.1168264494 	 0.68
148.1246514815 	 0.77
149.0960910073 	 5.5
149.1324765136 	 1.13
161.0960910073 	 3.41
163.1481265778 	 3.76
173.1324765136 	 1.29
176.1195661036 	 0.76
177.1273911357 	 11.5
185.1073243956 	 0.64
187.1229744598 	 1.57
191.1430411999 	 8.32
201.138624524 	 2.56
203.1178890819 	 1.85
204.125714114 	 2.12
205.1335391461 	 100
218.1413641782 	 9.57
227.1542745882 	 1.62
228.1620996203 	 1.81
231.1491892103 	 13.6
243.1855747166 	 1.59
245.1648392745 	 5.17
246.1726643066 	 3.8
261.1961394029 	 267.3
END IONS

BEGIN IONS
PEPMASS=229.0974
CHARGE=1
MSLEVEL=2
RT=0
SOURCE_INSTRUMENT=qTOF
FILENAME=CCMSLIB00000078493.ms
IONMODE=Positive
ORGANISM=Natural
NAME=Ozagrel
PI=GNPS
DATACOLLECTOR=GNPS
SMILES=c1cc(ccc1/C=C/C(=O)O)Cn1ccnc1
INCHI=InChI=1S/C13H12N2O2/c16-13(17)6-5-11-1-3-12(4-2-11)9-15-8-7-14-10-15/h1-8,10H,9H2,(H,16,17)/b6-5+
FORMULA=C13H12N2O2
PUBMED=N/A
SUBMITUSER=BIOADREM
LIBRARYQUALITY=0
SPECTRUMID=CCMSLIB00000078493
SCANS=976
ID=CCMSLIB00000078493
105.0698762568 	 1.62
115.0542261926 	 17.87
133.0647908789 	 3.26
143.0491408147 	 0.31
161.059705501 	 100
229.0971536398 	 46.68
END IONS

BEGIN IONS
PEPMASS=325.1913
CHARGE=1
MSLEVEL=2
RT=0
SOURCE_INSTRUMENT=qTOF
FILENAME=CCMSLIB00000078495.ms
IONMODE=Positive
ORGANISM=Natural
NAME=Quinine hydrochloride dihydrate
PI=GNPS
DATACOLLECTOR=GNPS
SMILES=C=C[C@H]1CN2CC[C@H]1C[C@H]2[C@H](c1ccnc2ccc(cc12)OC)O
INCHI=InChI=1S/C20H24N2O2/c1-3-13-12-22-9-7-14(13)10-19(22)20(23)16-6-8-21-18-5-4-15(24-2)11-17(16)18/h3-6,8,11,13-14,19-20,23H,1,7,9-10,12H2,2H3/t13-,14-,19-,20-/m0/s1
FORMULA=C20H24N2O2
PUBMED=N/A
SUBMITUSER=BIOADREM
LIBRARYQUALITY=0
SPECTRUMID=CCMSLIB00000078495
SCANS=977
ID=CCMSLIB00000078495
94.0651252299 	 9.93
108.0807752941 	 14.51
110.0964253583 	 9.99
122.0964253583 	 7.47
134.0964253583 	 11.44
136.1120754225 	 13.97
138.1277254867 	 9.27
160.0756899162 	 100
166.1226401088 	 30.52
172.0756899162 	 63.34
173.0835149483 	 31.37
174.0913399804 	 23.42
180.0807752941 	 6.86
183.0678648841 	 6.5
184.0756899162 	 41.54
185.0835149483 	 11.56
186.0913399804 	 49.97
196.0756899162 	 11.32
198.0913399804 	 42.02
210.0913399804 	 13.18
213.1022390177 	 8.55
224.1069900446 	 23.6
226.1226401088 	 14.15
227.1178890819 	 10.6
236.1069900446 	 6.68
237.1022390177 	 6.38
239.1178890819 	 6.68
251.1178890819 	 35.82
252.125714114 	 25.29
253.1335391461 	 56.29
264.138290173 	 25.95
279.1491892103 	 15.35
282.1488548593 	 14.57
307.1804893387 	 81.16
325.191054025 	 2110.84
END IONS

BEGIN IONS
PEPMASS=859.5147
CHARGE=1
MSLEVEL=2
RT=0
SOURCE_INSTRUMENT=qTOF
FILENAME=CCMSLIB00000078497.ms
IONMODE=Positive
ORGANISM=Natural
NAME=Roxithromycin (Roxl-150)
PI=GNPS
DATACOLLECTOR=GNPS
SMILES=CC[C@@H]1[C@](C)([C@@H]([C@@H](C)/C(=N/OCOCCOC)/[C@H](C)C[C@](C)([C@@H]([C@@H](C)[C@H]([C@@H](C)C(=O)O1)O[C@H]1C[C@](C)([C@H]([C@H](C)O1)O)OC)O[C@H]1[C@@H]([C@H](C[C@@H](C)O1)N(C)C)O)O)O)O
INCHI=InChI=1S/C41H76N2O15/c1-15-29-41(10,49)34(45)24(4)31(42-53-21-52-17-16-50-13)22(2)19-39(8,48)36(58-38-32(44)28(43(11)12)18-23(3)54-38)25(5)33(26(6)37(47)56-29)57-30-20-40(9,51-14)35(46)27(7)55-30/h22-30,32-36,38,44-46,48-49H,15-21H2,1-14H3/b42-31+/t22-,23-,24+,25+,26-,27+,28+,29-,30+,32-,33-,34-,35+,36-,38+,39-,40-,41-/m1/s1
FORMULA=C41H76N2O15
PUBMED=N/A
SUBMITUSER=BIOADREM
LIBRARYQUALITY=0
SPECTRUMID=CCMSLIB00000078497
SCANS=979
ID=CCMSLIB00000078497
272.1433755509 	 3.44
284.1829542214 	 2.03
287.1794267062 	 6.26
288.1805489182 	 2.53
303.2107268346 	 2.77
369.2721035797 	 11.96
370.2713752982 	 4.68
382.2587992392 	 1.81
387.2794751018 	 2.8
400.2693639255 	 2.95
431.2751775849 	 14.71
432.2771293781 	 4.04
435.282668266 	 1.78
444.2897054371 	 8.44
445.2975304692 	 2.75
476.3343694855 	 1.73
490.3374434907 	 3.07
500.3159201876 	 1.86
516.3140279739 	 8.1
517.3186598418 	 2.08
530.3409114264 	 1.73
557.3769625817 	 7.16
558.3722115548 	 9.85
559.3589072143 	 2.6
560.3640521717 	 1.78
573.3633238902 	 4.38
574.3585728633 	 2.35
575.387527268 	 36
576.3921591359 	 13.82
577.3946240186 	 2.55
589.3667918259 	 21.49
590.3660635444 	 7.48
591.3738885765 	 4.11
602.3984263053 	 4.21
618.4297264337 	 1.73
619.4137420185 	 2.28
647.387527268 	 1.73
661.4243067048 	 3.24
662.4195556779 	 2.57
679.4348713911 	 10.5
680.4301203642 	 4.21
688.4266524285 	 1.73
715.4739369721 	 1.88
716.4579525569 	 1.73
717.465777589 	 2.97
731.4661715195 	 2.23
732.4614204926 	 1.88
733.4845016584 	 100
734.4923266905 	 40.31
735.4889183343 	 15.52
819.5212810952 	 2.28
837.5318457815 	 504.09
END IONS

BEGIN IONS
PEPMASS=304.153
CHARGE=1
MSLEVEL=2
RT=0
SOURCE_INSTRUMENT=qTOF
FILENAME=CCMSLIB00000078499.ms
IONMODE=Positive
ORGANISM=Natural
NAME=Scopolamine hydrobromide
PI=GNPS
DATACOLLECTOR=GNPS
SMILES=CN1[C@@H]2C[C@H](C[C@H]1[C@H]1[C@@H]2O1)OC(=O)[C@H](CO)c1ccccc1
INCHI=InChI=1S/C17H21NO4/c1-18-13-7-11(8-14(18)16-15(13)22-16)21-17(20)12(9-19)10-5-3-2-4-6-10/h2-6,11-16,19H,7-9H2,1H3/t11-,12-,13-,14+,15-,16+/m1/s1
FORMULA=C17H21NO4
PUBMED=N/A
SUBMITUSER=BIOADREM
LIBRARYQUALITY=0
SPECTRUMID=CCMSLIB00000078499
SCANS=980
ID=CCMSLIB00000078499
91.0542261926 	 0.413653634023777
93.0698762568 	 0.692486824365731
94.0651252299 	 6.80230420394656
95.072950262 	 0.842627773011398
96.0443897878 	 2.15406299791641
96.0807752941 	 1.06017894349798
97.0522148199 	 6.50202230665523
98.060039852 	 7.56832945213874
103.0542261926 	 69.5520284348572
107.0491408147 	 7.79200882461086
108.0443897878 	 0.294153695305797
108.0807752941 	 1.17048657923765
109.0886003262 	 1.15210197328104
110.060039852 	 5.50006128201986
110.0964253583 	 16.4389018262042
114.0549544741 	 1.25934550802794
120.0807752941 	 1.77105037382032
121.0647908789 	 27.6075499448462
123.0678648841 	 1.38190954773869
127.0542261926 	 0.6955509253585
131.0491408147 	 1.24096090207133
138.0913399804 	 91.9230297830616
145.0647908789 	 0.612820198553744
156.1019046667 	 52.4145115823017
198.0311450268 	 0.925358499816154
208.0882659752 	 1.78943497977693
236.0831805973 	 0.759897046206643
239.0702701873 	 1.67299914205172
254.0937452836 	 1.89974261551661
304.1543341677 	 100
END IONS

BEGIN IONS
PEPMASS=278.1913
CHARGE=1
MSLEVEL=2
RT=0
SOURCE_INSTRUMENT=qTOF
FILENAME=CCMSLIB00000078501.ms
IONMODE=Positive
ORGANISM=Natural
NAME=Maprotiline hydrochloride
PI=GNPS
DATACOLLECTOR=GNPS
SMILES=CNCCCC12CCC(c3ccccc13)c1ccccc21
INCHI=InChI=1S/C20H23N/c1-21-14-6-12-20-13-11-15(16-7-2-4-9-18(16)20)17-8-3-5-10-19(17)20/h2-5,7-10,15,21H,6,11-14H2,1H3
FORMULA=C20H23N
PUBMED=N/A
SUBMITUSER=BIOADREM
LIBRARYQUALITY=0
SPECTRUMID=CCMSLIB00000078501
SCANS=982
ID=CCMSLIB00000078501
91.0542261926 	 1.88412559007575
103.0542261926 	 0.178394993962016
105.0698762568 	 0.719069052585355
115.0542261926 	 3.1232846635196
116.0620512247 	 0.100175650455593
117.0698762568 	 10.7476122516193
127.0542261926 	 0.153694148644198
128.0620512247 	 1.87863651333846
129.0698762568 	 1.26934899549896
131.085526321 	 3.63514106927215
141.0698762568 	 9.36162037545285
143.085526321 	 2.43440553298935
152.0620512247 	 0.0850806894280382
153.0698762568 	 0.316994181578658
154.0777012889 	 0.509111867383906
155.085526321 	 0.60105390273356
165.0698762568 	 0.680645515424306
167.085526321 	 0.0590075749258975
169.1011763852 	 7.11109891316281
177.0698762568 	 0.0425403447140191
178.0777012889 	 26.5657591393128
189.0698762568 	 1.24876495773411
191.085526321 	 45.8927983313207
193.1011763852 	 5.58239104182676
202.0777012889 	 0.406191678559666
203.085526321 	 3.19327039192008
204.0933513531 	 9.89954989570754
205.1011763852 	 1.31463387858162
217.1011763852 	 1.5438028323636
219.1168264494 	 42.3907673729279
232.1246514815 	 0.288176528707871
247.1481265778 	 2.38912064990669
250.1590256151 	 38.3453178175431
278.1903257435 	 100
END IONS

BEGIN IONS
PEPMASS=253.0965
CHARGE=1
MSLEVEL=2
RT=0
SOURCE_INSTRUMENT=qTOF
FILENAME=CCMSLIB00000078503.ms
IONMODE=Positive
ORGANISM=Natural
NAME=Phenytoin (Lepitoin)
PI=GNPS
DATACOLLECTOR=GNPS
SMILES=c1ccc(cc1)C1(c2ccccc2)C(=NC(=N1)O)O
INCHI=InChI=1S/C15H12N2O2/c18-13-15(17-14(19)16-13,11-7-3-1-4-8-11)12-9-5-2-6-10-12/h1-10H,(H2,16,17,18,19)
FORMULA=C15H12N2O2
PUBMED=N/A
SUBMITUSER=BIOADREM
LIBRARYQUALITY=0
SPECTRUMID=CCMSLIB00000078503
SCANS=983
ID=CCMSLIB00000078503
104.0494751657 	 59.9700149925037
132.0443897878 	 1.85462824143484
182.0964253583 	 100
225.1022390177 	 21.2949081015048
253.0971536398 	 13.3821977899939
END IONS

BEGIN IONS
PEPMASS=443.1435
CHARGE=1
MSLEVEL=2
RT=0
SOURCE_INSTRUMENT=qTOF
FILENAME=CCMSLIB00000078504.ms
IONMODE=Positive
ORGANISM=Natural
NAME=Methacycline hydrochloride (Physiomycine)
PI=GNPS
DATACOLLECTOR=GNPS
SMILES=C=C1c2cccc(c2C(=O)C2=C([C@]3([C@H]([C@H](C(=C(C3=O)C(=N)O)O)N(C)C)[C@@H]([C@H]12)O)O)O)O
INCHI=InChI=1S/C22H22N2O8/c1-7-8-5-4-6-9(25)11(8)16(26)12-10(7)17(27)14-15(24(2)3)18(28)13(21(23)31)20(30)22(14,32)19(12)29/h4-6,10,14-15,17,25,27-29,32H,1H2,2-3H3,(H2,23,31)/t10-,14-,15-,17-,22+/m1/s1
FORMULA=C22H22N2O8
PUBMED=N/A
SUBMITUSER=BIOADREM
LIBRARYQUALITY=0
SPECTRUMID=CCMSLIB00000078504
SCANS=984
ID=CCMSLIB00000078504
140.0679244636 	 9.56
147.0804409431 	 8.15
153.0182346168 	 5.33
174.0760838467 	 5.96
196.0577537078 	 6.74
199.0713328198 	 7.99
201.0505973777 	 33.23
201.086982884 	 6.74
211.0991650125 	 6.27
213.060493362 	 4.86
215.0702701873 	 6.58
226.0736785435 	 5.64
229.0455119998 	 7.68
237.047917303 	 5.96
241.0971536398 	 6.27
247.0924621924 	 8.46
257.0385761284 	 12.38
261.0505973777 	 5.96
265.0396387609 	 6.58
267.0651848094 	 12.07
279.061162064 	 6.27
291.073738123 	 6.9
292.1305247204 	 6.11
313.0396387609 	 5.64
319.0448432978 	 7.52
330.1183425919 	 4.86
337.0666413724 	 3.92
352.126501975 	 6.11
363.0400326914 	 6.58
411.1186769429 	 5.64
427.113591565 	 23.51
428.1214165971 	 14.42
429.1292416292 	 5.8
443.1448916934 	 51.57
END IONS

BEGIN IONS
PEPMASS=288.158
CHARGE=1
MSLEVEL=2
RT=0
SOURCE_INSTRUMENT=qTOF
FILENAME=CCMSLIB00000078505.ms
IONMODE=Positive
ORGANISM=Natural
NAME=Ritodrine hydrochloride (Yutopar)
PI=GNPS
DATACOLLECTOR=GNPS
SMILES=C[C@H]([C@H](c1ccc(cc1)O)O)NCCc1ccc(cc1)O
INCHI=InChI=1S/C17H21NO3/c1-12(17(21)14-4-8-16(20)9-5-14)18-11-10-13-2-6-15(19)7-3-13/h2-9,12,17-21H,10-11H2,1H3/t12-,17-/m1/s1
FORMULA=C17H21NO3
PUBMED=N/A
SUBMITUSER=BIOADREM
LIBRARYQUALITY=0
SPECTRUMID=CCMSLIB00000078505
SCANS=985
ID=CCMSLIB00000078505
105.0698762568 	 2.3
107.0491408147 	 0.81
121.0647908789 	 26.88
133.0647908789 	 4.65
151.0753555652 	 1.35
270.1488548593 	 100
288.1594195456 	 41.1
END IONS

BEGIN IONS
PEPMASS=414.994
CHARGE=1
MSLEVEL=2
RT=0
SOURCE_INSTRUMENT=qTOF
FILENAME=CCMSLIB00000078506.ms
IONMODE=Positive
ORGANISM=Natural
NAME=Miconazole (Monistat)
PI=GNPS
DATACOLLECTOR=GNPS
SMILES=c1cc(cc(c1COC(Cn1ccnc1)c1ccc(cc1Cl)Cl)Cl)Cl
INCHI=InChI=1S/C18H14Cl4N2O/c19-13-2-1-12(16(21)7-13)10-25-18(9-24-6-5-23-11-24)15-4-3-14(20)8-17(15)22/h1-8,11,18H,9-10H2
FORMULA=C18H14Cl4N2O
PUBMED=N/A
SUBMITUSER=BIOADREM
LIBRARYQUALITY=0
SPECTRUMID=CCMSLIB00000078506
SCANS=986
ID=CCMSLIB00000078506
89.0385761284 	 0.15
96.9839537421 	 0.115
98.9996038063 	 0.41
122.9996038063 	 3.405
124.0074288384 	 0.945
132.9606314842 	 0.455
158.9762815484 	 100
161.9746045267 	 5.925
162.9711961705 	 5.945
171.9841065805 	 0.145
227.0137296872 	 0.35
303.9123099467 	 7.315
323.8935858773 	 6.445
414.9932999219 	 62.935
END IONS

BEGIN IONS
PEPMASS=748.4842
CHARGE=1
MSLEVEL=2
RT=0
SOURCE_INSTRUMENT=qTOF
FILENAME=CCMSLIB00000078509.ms
IONMODE=Positive
ORGANISM=Natural
NAME=Clarithromycin (Biaxin, Klacid)
PI=GNPS
DATACOLLECTOR=GNPS
SMILES=CC[C@@H]1[C@](C)([C@@H]([C@@H](C)C(=O)[C@H](C)C[C@](C)([C@@H]([C@@H](C)[C@H]([C@@H](C)C(=O)O1)O[C@@H]1C[C@](C)([C@H]([C@H](C)O1)O)OC)O[C@H]1[C@H]([C@H](C[C@@H](C)O1)N(C)C)O)OC)O)O
INCHI=InChI=1S/C38H69NO13/c1-15-26-38(10,45)31(42)21(4)28(40)19(2)17-37(9,47-14)33(52-35-29(41)25(39(11)12)16-20(3)48-35)22(5)30(23(6)34(44)50-26)51-27-18-36(8,46-13)32(43)24(7)49-27/h19-27,29-33,35,41-43,45H,15-18H2,1-14H3/t19-,20-,21+,22+,23-,24+,25+,26-,27-,29+,30-,31-,32+,33-,35+,36-,37-,38-/m1/s1
FORMULA=C38H69NO13
PUBMED=N/A
SUBMITUSER=BIOADREM
LIBRARYQUALITY=0
SPECTRUMID=CCMSLIB00000078509
SCANS=988
ID=CCMSLIB00000078509
98.0964253583 	 2.58
100.0756899162 	 0.4
113.059705501 	 1.09
114.0913399804 	 0.54
115.0753555652 	 1.64
116.0706045383 	 4.86
116.1069900446 	 4.43
127.0753555652 	 2.22
158.1175547309 	 100
366.2274991108 	 0.26
540.3530935549 	 0.55
558.3636582412 	 6.66
590.3898729917 	 59.67
748.4841673074 	 77.57
END IONS

BEGIN IONS
PEPMASS=403.212
CHARGE=1
MSLEVEL=2
RT=0
SOURCE_INSTRUMENT=qTOF
FILENAME=CCMSLIB00000078511.ms
IONMODE=Positive
ORGANISM=Natural
NAME=Cortisone acetate (Cortone)
PI=GNPS
DATACOLLECTOR=GNPS
SMILES=CC(=O)OCC(=O)[C@@]1(CC[C@H]2[C@@H]3CCC4=CC(=O)CC[C@]4(C)[C@@H]3C(=O)C[C@]12C)O
INCHI=InChI=1S/C23H30O6/c1-13(24)29-12-19(27)23(28)9-7-17-16-5-4-14-10-15(25)6-8-21(14,2)20(16)18(26)11-22(17,23)3/h10,16-17,20,28H,4-9,11-12H2,1-3H3/t16-,17-,20-,21-,22-,23+/m0/s1
FORMULA=C23H30O6
PUBMED=N/A
SUBMITUSER=BIOADREM
LIBRARYQUALITY=0
SPECTRUMID=CCMSLIB00000078511
SCANS=989
ID=CCMSLIB00000078511
105.0698762568 	 8.35
121.0647908789 	 9
123.0804409431 	 6
131.085526321 	 4.8
135.0804409431 	 4.45
143.085526321 	 5.3
145.1011763852 	 11.04
147.0804409431 	 7.65
148.0882659752 	 4.5
157.1011763852 	 4.4
161.0960910073 	 4.2
163.1117410715 	 100
189.0910056294 	 5.45
195.1168264494 	 5.85
211.1117410715 	 5.4
221.1324765136 	 11.14
237.1273911357 	 3.9
241.1586912641 	 7.95
243.137955822 	 6.75
256.1821663604 	 4.4
265.1586912641 	 7.15
266.1665162962 	 5.4
267.1743413283 	 7.05
283.1692559504 	 9.7
284.1770809825 	 9.4
295.1692559504 	 5
297.1849060146 	 4.95
301.1798206367 	 12.74
307.1692559504 	 7.45
313.1798206367 	 9.25
325.1798206367 	 14.44
343.190385323 	 52.12
361.2009500093 	 20.79
385.2009500093 	 16.19
403.2115146956 	 778.36
END IONS

BEGIN IONS
PEPMASS=387.2537
CHARGE=1
MSLEVEL=2
RT=0
SOURCE_INSTRUMENT=qTOF
FILENAME=CCMSLIB00000078513.ms
IONMODE=Positive
ORGANISM=Natural
NAME=Medroxyprogesterone acetate
PI=GNPS
DATACOLLECTOR=GNPS
SMILES=C[C@H]1C[C@@H]2[C@@H](CC[C@@]3(C)[C@H]2CC[C@]3(C(=O)C)OC(=O)C)[C@@]2(C)CCC(=O)C=C12
INCHI=InChI=1S/C24H34O4/c1-14-12-18-19(22(4)9-6-17(27)13-21(14)22)7-10-23(5)20(18)8-11-24(23,15(2)25)28-16(3)26/h13-14,18-20H,6-12H2,1-5H3/t14-,18+,19+,20-,22+,23-,24+/m0/s1
FORMULA=C24H34O4
PUBMED=N/A
SUBMITUSER=BIOADREM
LIBRARYQUALITY=0
SPECTRUMID=CCMSLIB00000078513
SCANS=990
ID=CCMSLIB00000078513
97.0647908789 	 2.83
119.085526321 	 1.36
123.0804409431 	 16.62
131.085526321 	 1.27
133.1011763852 	 1.12
137.0960910073 	 3.35
145.1011763852 	 1.95
147.1168264494 	 2.37
157.1011763852 	 1.01
159.1168264494 	 1.4
161.1324765136 	 2.25
171.1168264494 	 2.73
173.1324765136 	 2.69
175.1481265778 	 5.22
177.1273911357 	 1.14
185.1324765136 	 1.55
187.1117410715 	 1.24
187.1481265778 	 1.3
189.1273911357 	 1.65
191.1430411999 	 1.46
199.1481265778 	 1.55
203.1430411999 	 1.23
205.1586912641 	 3.03
217.1586912641 	 1.02
231.1743413283 	 1.43
251.1794267062 	 1.67
266.2029018025 	 2.83
267.2107268346 	 5.88
269.1899913925 	 1.93
283.2056414567 	 3.61
284.2134664888 	 1.73
285.2212915209 	 25.91
291.2107268346 	 0.99
309.2212915209 	 6.47
327.2318562072 	 100
345.2424208935 	 1.41
387.2529855798 	 128.81
END IONS

BEGIN IONS
PEPMASS=445.1613
CHARGE=1
MSLEVEL=2
RT=0
SOURCE_INSTRUMENT=qTOF
FILENAME=CCMSLIB00000078515.ms
IONMODE=Positive
ORGANISM=Natural
NAME=Tetracycline hydrochloride
PI=GNPS
DATACOLLECTOR=GNPS
SMILES=C[C@]1(c2cccc(c2C(=O)C2=C([C@]3([C@@H](C[C@H]12)[C@@H](C(=C(C3=O)C(=N)O)O)N(C)C)O)O)O)O
INCHI=InChI=1S/C22H24N2O8/c1-21(31)8-5-4-6-11(25)12(8)16(26)13-9(21)7-10-15(24(2)3)17(27)14(20(23)30)19(29)22(10,32)18(13)28/h4-6,9-10,15,25,27-28,31-32H,7H2,1-3H3,(H2,23,30)/t9-,10-,15-,21+,22-/m0/s1
FORMULA=C22H24N2O8
PUBMED=N/A
SUBMITUSER=BIOADREM
LIBRARYQUALITY=0
SPECTRUMID=CCMSLIB00000078515
SCANS=991
ID=CCMSLIB00000078515
98.060039852 	 2.05
126.0549544741 	 2.71
154.0498690962 	 2.21
173.0960910073 	 0.84
183.0804409431 	 0.82
201.0910056294 	 5.61
208.0604337825 	 0.58
241.0859202515 	 0.98
251.0702701873 	 1.46
252.0417097131 	 0.62
267.0651848094 	 2.29
269.0808348736 	 3.4
291.0651848094 	 0.86
293.0808348736 	 0.63
306.0522743994 	 0.77
321.0757494957 	 3.2
334.0471890215 	 0.68
346.1073839751 	 0.81
347.0550140536 	 1.11
349.0706641178 	 0.97
364.1179486614 	 1.92
365.0655787399 	 1.38
374.1022985972 	 0.64
377.0893881872 	 0.69
392.1128632835 	 7.43
410.1234279698 	 100
427.1499770713 	 42.74
428.1339926561 	 40.99
429.1418176882 	 11.2
445.1605417576 	 50.69
END IONS

BEGIN IONS
PEPMASS=245.2013
CHARGE=1
MSLEVEL=2
RT=0
SOURCE_INSTRUMENT=qTOF
FILENAME=CCMSLIB00000078516.ms
IONMODE=Positive
ORGANISM=Natural
NAME=Xylometazoline HCl
PI=GNPS
DATACOLLECTOR=GNPS
SMILES=Cc1cc(cc(C)c1CC1=NCCN1)C(C)(C)C
INCHI=InChI=1S/C16H24N2/c1-11-8-13(16(3,4)5)9-12(2)14(11)10-15-17-6-7-18-15/h8-9H,6-7,10H2,1-5H3,(H,17,18)
FORMULA=C16H24N2
PUBMED=N/A
SUBMITUSER=BIOADREM
LIBRARYQUALITY=0
SPECTRUMID=CCMSLIB00000078516
SCANS=992
ID=CCMSLIB00000078516
91.0542261926 	 0.0963044224665656
103.0542261926 	 0.0477334963529934
105.0698762568 	 1.61958915695946
107.085526321 	 0.125614464086825
115.0542261926 	 0.122264745044509
116.0620512247 	 0.0468960665924146
117.0698762568 	 0.276351820991014
118.0777012889 	 0.0887675546213561
119.085526321 	 2.96115163340675
121.1011763852 	 0.371818813697001
128.0620512247 	 0.108028439114669
129.0698762568 	 0.169160811636924
130.0777012889 	 0.213544588947602
131.085526321 	 0.710140436970849
132.0933513531 	 0.204332861581235
133.1011763852 	 2.31633071776105
135.1168264494 	 0.319898168541114
143.085526321 	 0.102166430790617
145.1011763852 	 5.64343915654075
147.1168264494 	 1.00240342341286
159.1168264494 	 0.556890790784923
160.1246514815 	 5.62082855300512
161.1324765136 	 3.04908175826753
173.1073243956 	 0.367631664894107
175.1481265778 	 10.6127473558155
187.1229744598 	 0.199308283017762
188.1307994919 	 0.225268605595706
189.138624524 	 16.5651980940099
213.138624524 	 0.0686692403674642
214.1464495561 	 0.0385217689866263
215.1542745882 	 2.39923626405835
229.1699246524 	 8.37429760578832
230.1777496845 	 3.08257894869068
245.2012247808 	 100
END IONS

BEGIN IONS
PEPMASS=180.1024
CHARGE=1
MSLEVEL=2
RT=0
SOURCE_INSTRUMENT=qTOF
FILENAME=CCMSLIB00000078517.ms
IONMODE=Positive
ORGANISM=Natural
NAME=Phenacetin
PI=GNPS
DATACOLLECTOR=GNPS
SMILES=CCOc1ccc(cc1)N=C(C)O
INCHI=InChI=1S/C10H13NO2/c1-3-13-10-6-4-9(5-7-10)11-8(2)12/h4-7H,3H2,1-2H3,(H,11,12)
FORMULA=C10H13NO2
PUBMED=N/A
SUBMITUSER=BIOADREM
LIBRARYQUALITY=0
SPECTRUMID=CCMSLIB00000078517
SCANS=993
ID=CCMSLIB00000078517
92.0494751657 	 2.08697582771348
93.0334907505 	 4.87331057641606
93.0573001978 	 1.76782393916687
107.0491408147 	 0.563372464130103
108.0443897878 	 1.50140149307579
109.0522148199 	 7.09072239336164
110.060039852 	 45.0725723642217
111.0440554368 	 0.466239280659396
134.060039852 	 0.580023867010796
135.0678648841 	 0.480115449726639
135.0804409431 	 0.607776205145283
138.0913399804 	 31.7264729553465
152.0706045383 	 7.1739794077651
162.0913399804 	 1.60130991035995
180.1019046667 	 100
END IONS

BEGIN IONS
PEPMASS=439.2238
CHARGE=1
MSLEVEL=2
RT=0
SOURCE_INSTRUMENT=qTOF
FILENAME=CCMSLIB00000078518.ms
IONMODE=Positive
ORGANISM=Natural
NAME=Quinapril hydrochloride (Accupril)
PI=GNPS
DATACOLLECTOR=GNPS
SMILES=CCOC(=O)[C@H](CCc1ccccc1)N[C@@H](C)C(=O)N1Cc2ccccc2C[C@H]1C(=O)O
INCHI=InChI=1S/C25H30N2O5/c1-3-32-25(31)21(14-13-18-9-5-4-6-10-18)26-17(2)23(28)27-16-20-12-8-7-11-19(20)15-22(27)24(29)30/h4-12,17,21-22,26H,3,13-16H2,1-2H3,(H,29,30)/t17-,21-,22-/m0/s1
FORMULA=C25H30N2O5
PUBMED=N/A
SUBMITUSER=BIOADREM
LIBRARYQUALITY=0
SPECTRUMID=CCMSLIB00000078518
SCANS=994
ID=CCMSLIB00000078518
91.0542261926 	 6.075
102.0549544741 	 5.795
105.0698762568 	 0.435
115.0542261926 	 3.45
117.0698762568 	 47.775
128.0620512247 	 0.665
130.0862546025 	 22.965
132.0807752941 	 5.1
134.0964253583 	 13.165
143.085526321 	 0.9
160.1120754225 	 35.735
178.0862546025 	 0.56
188.1069900446 	 0.61
206.1175547309 	 2.945
234.1488548593 	 100
365.1859686471 	 7.745
439.2227480839 	 66.54
END IONS

BEGIN IONS
PEPMASS=372.1596
CHARGE=1
MSLEVEL=2
RT=0
SOURCE_INSTRUMENT=qTOF
FILENAME=CCMSLIB00000078519.ms
IONMODE=Positive
ORGANISM=Natural
NAME=Trazodone hydrochloride (Desyrel)
PI=GNPS
DATACOLLECTOR=GNPS
SMILES=c1ccn2c(c1)nn(CCCN1CCN(CC1)c1cccc(c1)Cl)c2=O
INCHI=InChI=1S/C19H22ClN5O/c20-16-5-3-6-17(15-16)23-13-11-22(12-14-23)8-4-10-25-19(26)24-9-2-1-7-18(24)21-25/h1-3,5-7,9,15H,4,8,10-14H2
FORMULA=C19H22ClN5O
PUBMED=N/A
SUBMITUSER=BIOADREM
LIBRARYQUALITY=0
SPECTRUMID=CCMSLIB00000078519
SCANS=995
ID=CCMSLIB00000078519
93.0465539989 	 0.331798483206934
105.0447241388 	 0.152356446370531
106.0651252299 	 0.0914138678223185
107.0622040631 	 0.233613217768147
116.0494751657 	 0.101570964247021
119.0622040631 	 0.497697724810401
120.0556231761 	 0.209913326110509
120.0574530362 	 0.616197183098592
121.0396387609 	 0.135427952329361
121.0760242672 	 0.196370530877573
121.0778541273 	 0.70761105092091
133.0760242672 	 1.11050920910076
133.0778541273 	 1.7910346695558
135.0445426262 	 0.67375406283857
148.0505377982 	 48.3274647887324
148.0523676583 	 33.8569880823402
148.0869233045 	 5.18350487540628
148.0887531646 	 7.7126218851571
176.0818379266 	 67.7139761646804
176.0836677867 	 27.6171451787649
372.1585640643 	 100
END IONS

BEGIN IONS
PEPMASS=356.012
CHARGE=1
MSLEVEL=2
RT=0
SOURCE_INSTRUMENT=qTOF
FILENAME=CCMSLIB00000078520.ms
IONMODE=Positive
ORGANISM=Natural
NAME=Thiamphenicol (Thiophenicol)
PI=GNPS
DATACOLLECTOR=GNPS
SMILES=CS(=O)(=O)c1ccc(cc1)[C@H]([C@@H](CO)N=C(C(Cl)Cl)O)O
INCHI=InChI=1S/C12H15Cl2NO5S/c1-21(19,20)8-4-2-7(3-5-8)10(17)9(6-16)15-12(18)11(13)14/h2-5,9-11,16-17H,6H2,1H3,(H,15,18)/t9-,10-/m1/s1
FORMULA=C12H15Cl2NO5S
PUBMED=N/A
SUBMITUSER=BIOADREM
LIBRARYQUALITY=0
SPECTRUMID=CCMSLIB00000078520
SCANS=996
ID=CCMSLIB00000078520
103.057597011 	 6.8148052451392
106.032110542 	 3.2685227052516
107.0525116331 	 1.84742587688134
115.0542261926 	 7.37032491441121
117.0606710162 	 3.47522769846909
118.0651252299 	 19.3785931141399
119.0702701873 	 3.40417285705058
119.072950262 	 26.4194819456107
120.0569658468 	 4.69607906465991
120.0603366652 	 7.09256507977521
120.0780952194 	 10.5677927782443
128.0528459841 	 3.33957754667011
129.0573001978 	 3.19746786383309
129.9638494642 	 1.04644402816356
131.0702701873 	 6.04612105161165
132.0569658468 	 9.43091531554809
134.0634106704 	 4.10180220915962
146.060039852 	 20.7480136942058
150.0230789026 	 7.33802725922098
155.0258185568 	 1.72469478715845
155.0291893752 	 3.47522769846909
169.0625979936 	 1.10457980750598
170.0634106704 	 1.39525870421807
176.0261529078 	 1.33066339383761
177.0339779399 	 4.0307473677411
182.0367175941 	 1.10457980750598
183.0445426262 	 3.96615205736064
194.0367175941 	 4.0307473677411
197.0478201857 	 6.8148052451392
198.0583252925 	 100
199.0605866209 	 3.87571862282798
199.0634702499 	 12.0987016342614
206.0367175941 	 4.63148375427944
206.0400884125 	 5.00613655448614
229.0055703041 	 57.7740456042891
230.0133953362 	 11.6788321167883
232.0052359531 	 1.67947806989213
241.0055703041 	 12.2149731929462
241.0089411225 	 13.4229054970609
307.9909453346 	 64.5953103804664
310.9906109836 	 5.0836509269427
326.0015100209 	 3.21684645694723
338.0015100209 	 17.5053291131064
356.0120747072 	 0
END IONS

BEGIN IONS
PEPMASS=467.1989
CHARGE=1
MSLEVEL=2
RT=0
SOURCE_INSTRUMENT=qTOF
FILENAME=CCMSLIB00000078521.ms
IONMODE=Positive
ORGANISM=Natural
NAME=Clobetasol propionate
PI=GNPS
DATACOLLECTOR=GNPS
SMILES=CCC(=O)O[C@]1([C@@H](C)C[C@H]2[C@@H]3CCC4=CC(=O)C=C[C@]4(C)[C@@]3([C@@H](C[C@]12C)O)F)C(=O)CCl
INCHI=InChI=1S/C25H32ClFO5/c1-5-21(31)32-25(20(30)13-26)14(2)10-18-17-7-6-15-11-16(28)8-9-22(15,3)24(17,27)19(29)12-23(18,25)4/h8-9,11,14,17-19,29H,5-7,10,12-13H2,1-4H3/t14-,17-,18-,19+,22-,23-,24+,25+/m0/s1
FORMULA=C25H32ClFO5
PUBMED=N/A
SUBMITUSER=BIOADREM
LIBRARYQUALITY=0
SPECTRUMID=CCMSLIB00000078521
SCANS=997
ID=CCMSLIB00000078521
121.0647908789 	 5.7
121.1011763852 	 5.23
135.0804409431 	 4.33
147.0804409431 	 26.51
149.0960910073 	 4.24
159.0804409431 	 9.14
161.0960910073 	 5.96
171.0804409431 	 18.81
173.0960910073 	 9.26
185.0960910073 	 12.76
197.0960910073 	 3.55
203.1066556936 	 3.8
213.1273911357 	 10.53
223.1117410715 	 6.71
248.1195661036 	 5.71
249.1273911357 	 5.71
253.1586912641 	 10.86
263.1430411999 	 43.23
275.1430411999 	 5.12
277.1586912641 	 18.05
278.1665162962 	 30.25
279.1743413283 	 38.75
281.1536058862 	 4.93
291.1743413283 	 16.53
301.1586912641 	 14.31
306.1614309183 	 3.7
309.1849060146 	 8.99
319.1692559504 	 13.73
327.1510190704 	 15.71
329.1466826162 	 5.7
337.1353690062 	 12.82
337.1798206367 	 4.77
345.1615837567 	 8.12
355.1459336925 	 100
357.1415972383 	 25.7
373.1564983788 	 58.71
375.1521619246 	 22.02
447.1932778156 	 8.84
449.1889413614 	 6.16
467.1995060477 	 5.42
END IONS

BEGIN IONS
PEPMASS=319.0806
CHARGE=1
MSLEVEL=2
RT=0
SOURCE_INSTRUMENT=qTOF
FILENAME=CCMSLIB00000078522.ms
IONMODE=Positive
ORGANISM=Natural
NAME=Brompheniramine
PI=GNPS
DATACOLLECTOR=GNPS
SMILES=CN(C)CCC(c1ccc(cc1)Br)c1ccccn1
INCHI=InChI=1S/C16H19BrN2/c1-19(2)12-10-15(16-5-3-4-11-18-16)13-6-8-14(17)9-7-13/h3-9,11,15H,10,12H2,1-2H3
FORMULA=C16H19BrN2
PUBMED=N/A
SUBMITUSER=BIOADREM
LIBRARYQUALITY=0
SPECTRUMID=CCMSLIB00000078522
SCANS=998
ID=CCMSLIB00000078522
118.0651252299 	 0.61
167.072950262 	 10.23
180.0807752941 	 2.11
245.991287862 	 1.89
274.0225879904 	 100
319.0804372203 	 22.34
END IONS

BEGIN IONS
PEPMASS=449.1634
CHARGE=1
MSLEVEL=2
RT=0
SOURCE_INSTRUMENT=qTOF
FILENAME=CCMSLIB00000078524.ms
IONMODE=Positive
ORGANISM=Natural
NAME=Tolvaptan (OPC-41061)
PI=GNPS
DATACOLLECTOR=GNPS
SMILES=Cc1ccccc1C(=O)Nc1ccc(c(C)c1)C(=O)N1CCCC(c2cc(ccc12)Cl)O
INCHI=InChI=1S/C26H25ClN2O3/c1-16-6-3-4-7-20(16)25(31)28-19-10-11-21(17(2)14-19)26(32)29-13-5-8-24(30)22-15-18(27)9-12-23(22)29/h3-4,6-7,9-12,14-15,24,30H,5,8,13H2,1-2H3,(H,28,31)
FORMULA=C26H25ClN2O3
PUBMED=N/A
SUBMITUSER=BIOADREM
LIBRARYQUALITY=0
SPECTRUMID=CCMSLIB00000078524
SCANS=999
ID=CCMSLIB00000078524
119.0491408147 	 8.75
178.041802972 	 0.48
182.0492936531 	 0.52
252.1023918561 	 100
431.1520817029 	 8.16
449.1626463892 	 6.06
END IONS

BEGIN IONS
PEPMASS=270.2173
CHARGE=1
MSLEVEL=2
RT=0
SOURCE_INSTRUMENT=qTOF
FILENAME=CCMSLIB00000078525.ms
IONMODE=Positive
ORGANISM=Natural
NAME=Pramiracetam
PI=GNPS
DATACOLLECTOR=GNPS
SMILES=CC(C)N(CCN=C(CN1CCCC1=O)O)C(C)C
INCHI=InChI=1S/C14H27N3O2/c1-11(2)17(12(3)4)9-7-15-13(18)10-16-8-5-6-14(16)19/h11-12H,5-10H2,1-4H3,(H,15,18)
FORMULA=C14H27N3O2
PUBMED=N/A
SUBMITUSER=BIOADREM
LIBRARYQUALITY=0
SPECTRUMID=CCMSLIB00000078525
SCANS=1000
ID=CCMSLIB00000078525
98.060039852 	 38.12
125.0709388893 	 3.05
126.0549544741 	 4.05
169.0971536398 	 100
210.1600882476 	 3.2
228.1706529339 	 9.55
252.2070384402 	 2.4
270.2176031265 	 399.55
END IONS

BEGIN IONS
PEPMASS=313.2134
CHARGE=1
MSLEVEL=2
RT=0
SOURCE_INSTRUMENT=qTOF
FILENAME=CCMSLIB00000078526.ms
IONMODE=Positive
ORGANISM=Natural
NAME=Oseltamivir phosphate (Tamiflu)
PI=GNPS
DATACOLLECTOR=GNPS
SMILES=CCC(CC)O[C@@H]1C=C(C[C@@H]([C@H]1N=C(C)O)N)C(=O)OCC
INCHI=InChI=1S/C16H28N2O4/c1-5-12(6-2)22-14-9-11(16(20)21-7-3)8-13(17)15(14)18-10(4)19/h9,12-15H,5-8,17H2,1-4H3,(H,18,19)/t13-,14+,15+/m0/s1
FORMULA=C16H28N2O4
PUBMED=N/A
SUBMITUSER=BIOADREM
LIBRARYQUALITY=0
SPECTRUMID=CCMSLIB00000078526
SCANS=1001
ID=CCMSLIB00000078526
93.0334907505 	 0.82
93.0573001978 	 1.44
94.0651252299 	 4.88
109.0760242672 	 3.45
110.060039852 	 0.71
111.0440554368 	 1.09
119.060374203 	 2
120.0443897878 	 26.32
136.0756899162 	 5.75
137.0709388893 	 12.45
138.0549544741 	 9.02
140.0706045383 	 2.42
151.0865889535 	 2.31
154.0862546025 	 1.18
161.0709388893 	 2.07
162.0549544741 	 6.59
166.0862546025 	 100
168.0893286077 	 0.87
179.0815035756 	 8.39
180.0655191604 	 3.92
183.112803704 	 1.8
207.112803704 	 0.98
208.0968192888 	 72.55
225.1233683903 	 54.87
243.1339330766 	 12.67
296.1856342961 	 6.09
313.2121833976 	 9.59
END IONS

BEGIN IONS
PEPMASS=416.0902
CHARGE=1
MSLEVEL=2
RT=0
SOURCE_INSTRUMENT=qTOF
FILENAME=CCMSLIB00000078527.ms
IONMODE=Positive
ORGANISM=Natural
NAME=Acemetacin (Emflex)
PI=GNPS
DATACOLLECTOR=GNPS
SMILES=Cc1c(CC(=O)OCC(=O)O)c2cc(ccc2n1C(=O)c1ccc(cc1)Cl)OC
INCHI=InChI=1S/C21H18ClNO6/c1-12-16(10-20(26)29-11-19(24)25)17-9-15(28-2)7-8-18(17)23(12)21(27)13-3-5-14(22)6-4-13/h3-9H,10-11H2,1-2H3,(H,24,25)
FORMULA=C21H18ClNO6
PUBMED=N/A
SUBMITUSER=BIOADREM
LIBRARYQUALITY=0
SPECTRUMID=CCMSLIB00000078527
SCANS=1002
ID=CCMSLIB00000078527
71.072950262 	 0.805
93.0334907505 	 0.87
105.0698762568 	 1.04
107.085526321 	 0.84
110.9996038063 	 0.475
115.0542261926 	 0.84
119.085526321 	 4.295
130.0651252299 	 0.99
131.0127553084 	 1.525
133.1011763852 	 1.19
138.9945184284 	 100
139.9978335257 	 9.49
140.9949123589 	 19.23
157.0886003262 	 0.975
174.0913399804 	 10.04
215.0424379946 	 0.82
260.0917339109 	 5.23
281.0211271094 	 0.87
296.0446022057 	 0.855
312.0785824088 	 6.295
313.0837273662 	 2.01
416.0895410256 	 11.27
END IONS

BEGIN IONS
PEPMASS=339.2171
CHARGE=1
MSLEVEL=2
RT=0
SOURCE_INSTRUMENT=qTOF
FILENAME=CCMSLIB00000078528.ms
IONMODE=Positive
ORGANISM=Natural
NAME=Idebenone
PI=GNPS
DATACOLLECTOR=GNPS
SMILES=CC1=C(CCCCCCCCCCO)C(=O)C(=C(C1=O)OC)OC
INCHI=InChI=1S/C19H30O5/c1-14-15(12-10-8-6-4-5-7-9-11-13-20)17(22)19(24-3)18(23-2)16(14)21/h20H,4-13H2,1-3H3
FORMULA=C19H30O5
PUBMED=N/A
SUBMITUSER=BIOADREM
LIBRARYQUALITY=0
SPECTRUMID=CCMSLIB00000078528
SCANS=1003
ID=CCMSLIB00000078528
121.0647908789 	 0.76
123.0804409431 	 1.405
136.0518804689 	 1.29
137.059705501 	 1.6
137.1324765136 	 0.94
139.0753555652 	 1.965
145.0647908789 	 1.185
145.1011763852 	 0.865
151.0753555652 	 7.815
153.0546201231 	 1.51
154.0624451552 	 9.785
155.0702701873 	 1.495
161.059705501 	 0.62
165.0546201231 	 0.975
166.0624451552 	 0.705
167.0702701873 	 4.06
169.0859202515 	 6.51
171.0651848094 	 1.6
173.059705501 	 0.69
173.0960910073 	 1.01
175.0753555652 	 0.82
176.046795091 	 0.72
177.0546201231 	 2.415
177.0910056294 	 1.955
179.0702701873 	 1.565
181.0859202515 	 5.465
182.0573597773 	 8.265
183.0651848094 	 6.4
191.0702701873 	 3.835
191.1066556936 	 1.53
193.0859202515 	 2.585
197.0808348736 	 100
205.0859202515 	 2.07
207.1015703157 	 1.555
209.0808348736 	 2.445
211.0964849378 	 0.82
219.1015703157 	 0.755
223.0964849378 	 5.085
233.1172203799 	 0.805
233.1899913925 	 1.35
237.112135002 	 0.52
261.1849060146 	 9.08
271.1692559504 	 1.575
275.1641705725 	 0.615
289.1798206367 	 17.34
293.1747352588 	 0.86
293.2111207651 	 9.425
303.1954707009 	 2.035
307.190385323 	 8.345
321.2060353872 	 49.915
339.2166000735 	 31.37
END IONS

BEGIN IONS
PEPMASS=308.1856
CHARGE=1
MSLEVEL=2
RT=0
SOURCE_INSTRUMENT=qTOF
FILENAME=CCMSLIB00000078529.ms
IONMODE=Positive
ORGANISM=Natural
NAME=Buflomedil HCl
PI=GNPS
DATACOLLECTOR=GNPS
SMILES=COc1cc(c(C(=O)CCCN2CCCC2)c(c1)OC)OC
INCHI=InChI=1S/C17H25NO4/c1-20-13-11-15(21-2)17(16(12-13)22-3)14(19)7-6-10-18-8-4-5-9-18/h11-12H,4-10H2,1-3H3
FORMULA=C17H25NO4
PUBMED=N/A
SUBMITUSER=BIOADREM
LIBRARYQUALITY=0
SPECTRUMID=CCMSLIB00000078529
SCANS=1004
ID=CCMSLIB00000078529
95.085526321 	 1.50419649020819
98.060039852 	 5.0684881735276
103.0542261926 	 0.359699160701958
105.0698762568 	 0.697598372270465
109.0647908789 	 0.457798931802493
115.0542261926 	 1.10816408095048
121.0647908789 	 2.90302655960469
123.0804409431 	 0.85746466591578
133.0647908789 	 0.312465937579479
135.0440554368 	 0.70123169712604
135.0804409431 	 0.548632053191876
136.0518804689 	 2.00559532027759
137.0233199947 	 1.54779638847509
137.059705501 	 0.922864513316136
139.0753555652 	 1.17719725320641
140.1069900446 	 36.3332485557534
147.0440554368 	 0.287032663590452
147.0804409431 	 0.566798677469753
150.0311450268 	 0.359699160701958
150.0675305331 	 0.53773207862515
151.0389700589 	 0.970097736438615
151.0753555652 	 11.4595065944846
152.046795091 	 10.6638084511136
161.059705501 	 0.486865530647095
162.0675305331 	 0.31973258729063
163.0389700589 	 0.773898194237547
163.0753555652 	 0.708498346837191
165.0546201231 	 1.03549758383897
165.0910056294 	 1.24986375031792
167.0702701873 	 0.948297787305163
168.0780952194 	 0.468698906369219
174.0675305331 	 1.20626385205101
177.0546201231 	 0.639465174581259
177.0910056294 	 1.15903062892853
178.0624451552 	 7.21214983831704
179.0702701873 	 0.933764487882862
180.0417097131 	 7.96424808342114
181.0859202515 	 21.4983831704393
183.0889942567 	 6.75798423137013
189.0546201231 	 1.49329651564146
190.0624451552 	 1.13359735493951
191.0702701873 	 7.44104930421829
194.0937452836 	 0.421465683246739
195.0651848094 	 68.0921411183374
195.1015703157 	 4.64702249028086
196.0604337825 	 5.0684881735276
196.0730098415 	 3.64422483014206
200.0917339109 	 1.13359735493951
204.0780952194 	 1.50782981506377
209.1172203799 	 0.781164843948698
221.1172203799 	 1.10816408095048
222.0886599057 	 0.610398575736657
237.112135002 	 87.9736947280456
290.1750696098 	 2.46339425208008
306.1699842319 	 8.49834683719071
307.177809264 	 1.8711623006213
308.1856342961 	 100
END IONS

BEGIN IONS
PEPMASS=321.0188
CHARGE=1
MSLEVEL=2
RT=0
SOURCE_INSTRUMENT=qTOF
FILENAME=CCMSLIB00000078530.ms
IONMODE=Positive
ORGANISM=Natural
NAME=Lonidamine
PI=GNPS
DATACOLLECTOR=GNPS
SMILES=c1ccc2c(c1)c(C(=O)O)nn2Cc1ccc(cc1Cl)Cl
INCHI=InChI=1S/C15H10Cl2N2O2/c16-10-6-5-9(12(17)7-10)8-19-13-4-2-1-3-11(13)14(18-19)15(20)21/h1-7H,8H2,(H,20,21)
FORMULA=C15H10Cl2N2O2
PUBMED=N/A
SUBMITUSER=BIOADREM
LIBRARYQUALITY=0
SPECTRUMID=CCMSLIB00000078530
SCANS=1005
ID=CCMSLIB00000078530
82.9768569915 	 0.325
89.0385761284 	 0.22
98.9996038063 	 0.35
100.003406093 	 0.325
122.9996038063 	 5.325
124.003406093 	 0.565
132.9566087388 	 0.535
158.9762815484 	 100
159.9800838351 	 4.25
205.0760242672 	 0.31
240.0448769772 	 0.455
268.0397915993 	 0.405
303.0086443093 	 32.68
321.0192089956 	 8.405
END IONS

BEGIN IONS
PEPMASS=313.216
CHARGE=1
MSLEVEL=2
RT=0
SOURCE_INSTRUMENT=qTOF
FILENAME=CCMSLIB00000078531.ms
IONMODE=Positive
ORGANISM=Natural
NAME=Ethisterone
PI=GNPS
DATACOLLECTOR=GNPS
SMILES=C#C[C@]1(CC[C@H]2[C@@H]3CCC4=CC(=O)CC[C@]4(C)[C@@H]3CC[C@]12C)O
INCHI=InChI=1S/C21H28O2/c1-4-21(23)12-9-18-16-6-5-14-13-15(22)7-10-19(14,2)17(16)8-11-20(18,21)3/h1,13,16-18,23H,5-12H2,2-3H3/t16-,17-,18+,19+,20+,21-/m1/s1
FORMULA=C21H28O2
PUBMED=N/A
SUBMITUSER=BIOADREM
LIBRARYQUALITY=0
SPECTRUMID=CCMSLIB00000078531
SCANS=1006
ID=CCMSLIB00000078531
93.0334907505 	 0.59
111.0440554368 	 0.53
121.0284053726 	 0.46
123.0804409431 	 0.32
139.0542261926 	 0.94
139.0753555652 	 1.47
141.0698762568 	 0.25
228.1144807257 	 0.23
297.1849060146 	 0.96
298.1927310467 	 0.23
313.216206143 	 0
END IONS

BEGIN IONS
PEPMASS=329.2191
CHARGE=1
MSLEVEL=2
RT=0
SOURCE_INSTRUMENT=qTOF
FILENAME=CCMSLIB00000078532.ms
IONMODE=Positive
ORGANISM=Natural
NAME=Peramivir Trihydrate
PI=GNPS
DATACOLLECTOR=GNPS
SMILES=CCC(CC)[C@@H]([C@H]1[C@@H](C[C@@H]([C@H]1O)C(=O)O)NC(=N)N)N=C(C)O
INCHI=InChI=1S/C15H28N4O4/c1-4-8(5-2)12(18-7(3)20)11-10(19-15(16)17)6-9(13(11)21)14(22)23/h8-13,21H,4-6H2,1-3H3,(H,18,20)(H,22,23)(H4,16,17,19)/t9-,10+,11+,12-,13+/m0/s1
FORMULA=C15H28N4O4
PUBMED=N/A
SUBMITUSER=BIOADREM
LIBRARYQUALITY=0
SPECTRUMID=CCMSLIB00000078532
SCANS=1007
ID=CCMSLIB00000078532
100.1120754225 	 25.45
102.0675305331 	 6.63
105.0698762568 	 7.98
119.0491408147 	 6.93
119.0940796346 	 7.98
133.0647908789 	 6.33
133.1011763852 	 7.23
138.0913399804 	 6.33
140.0706045383 	 10.09
142.1226401088 	 31.33
147.112803704 	 10.69
149.1324765136 	 6.93
150.1362788003 	 11.75
164.1433755509 	 11.45
165.1273911357 	 12.35
193.1182830124 	 12.05
210.1448321139 	 22.44
228.1594195456 	 9.04
252.1594195456 	 6.48
253.1546685187 	 6.63
269.1859686471 	 12.2
270.1699842319 	 100
271.1764665933 	 10.39
312.1917823065 	 21.54
329.218331408 	 1063.4
END IONS

BEGIN IONS
PEPMASS=386.1332
CHARGE=1
MSLEVEL=2
RT=0
SOURCE_INSTRUMENT=qTOF
FILENAME=CCMSLIB00000078533.ms
IONMODE=Positive
ORGANISM=Natural
NAME=Nilvadipine (ARC029)
PI=GNPS
DATACOLLECTOR=GNPS
SMILES=CC(C)OC(=O)C1=C(C)NC(=C(C1c1cccc(c1)N(=O)=O)C(=O)OC)C#N
INCHI=InChI=1S/C19H19N3O6/c1-10(2)28-19(24)15-11(3)21-14(9-20)17(18(23)27-4)16(15)12-6-5-7-13(8-12)22(25)26/h5-8,10,16,21H,1-4H3
FORMULA=C19H19N3O6
PUBMED=N/A
SUBMITUSER=BIOADREM
LIBRARYQUALITY=0
SPECTRUMID=CCMSLIB00000078533
SCANS=1008
ID=CCMSLIB00000078533
195.0678648841 	 1.12
220.0631138572 	 2.61
221.0583628303 	 10.89
222.0760838467 	 1.59
223.0475233725 	 1.25
225.0658535114 	 1.64
236.0553484046 	 1.58
237.0658535114 	 8.11
238.0611024845 	 1.61
240.0502630267 	 1.96
243.0764181977 	 1.25
248.0553484046 	 1.18
249.0631734367 	 1.85
252.0529431014 	 3.61
253.0607681335 	 1.7
264.0529431014 	 3.34
265.0607681335 	 5.57
266.0659130909 	 12.38
270.0635077877 	 1.88
278.0685931656 	 2.92
279.0764181977 	 4.28
280.0842432298 	 10.28
281.0893881872 	 4.13
282.0635077877 	 1.59
284.0679244636 	 1.5
294.0509317287 	 12.79
295.0587567608 	 10.42
297.0505973777 	 1.09
298.0584224098 	 3.4
299.0662474419 	 1.46
309.074406825 	 6.74
310.0584224098 	 3.58
312.0628390857 	 35.93
313.0693214471 	 7.26
317.1006215755 	 1.32
326.0771464792 	 100
327.0849715113 	 18.74
344.0877111655 	 12.27
345.0955361976 	 2.96
358.139746736 	 2.13
368.1240966718 	 1.21
386.1346613581 	 17.25
END IONS

BEGIN IONS
PEPMASS=438.1707
CHARGE=1
MSLEVEL=2
RT=0
SOURCE_INSTRUMENT=qTOF
FILENAME=CCMSLIB00000078534.ms
IONMODE=Positive
ORGANISM=Natural
NAME=Pazopanib
PI=GNPS
DATACOLLECTOR=GNPS
SMILES=Cc1ccc(cc1S(=O)(=O)N)Nc1nccc(n1)N(C)c1ccc2c(C)n(C)nc2c1
INCHI=InChI=1S/C21H23N7O2S/c1-13-5-6-15(11-19(13)31(22,29)30)24-21-23-10-9-20(25-21)27(3)16-7-8-17-14(2)28(4)26-18(17)12-16/h5-12H,1-4H3,(H2,22,29,30)(H,23,24,25)
FORMULA=C21H23N7O2S
PUBMED=N/A
SUBMITUSER=BIOADREM
LIBRARYQUALITY=0
SPECTRUMID=CCMSLIB00000078534
SCANS=1009
ID=CCMSLIB00000078534
196.0869233045 	 0.52
223.0978223418 	 0.47
248.1182234329 	 0.34
275.1291224702 	 0.79
289.1447725344 	 0.58
299.1291224702 	 0.58
301.1321964754 	 2.76
302.1400215075 	 2.66
315.1478465396 	 1.05
316.1556715717 	 3.69
325.1321964754 	 0.71
326.1400215075 	 2.69
327.1352704806 	 4.91
328.1556715717 	 9.77
329.1634966038 	 2.02
330.1713216359 	 1.04
340.1556715717 	 1.25
341.1509205448 	 5.98
342.1587455769 	 14.2
344.1618195821 	 0.37
355.166570609 	 0.69
356.1743956411 	 1.02
357.1822206732 	 100
359.1852946784 	 3.26
373.1771352953 	 0.55
422.1393695805 	 0.67
438.1706697089 	 124.45
END IONS

BEGIN IONS
PEPMASS=366.112
CHARGE=1
MSLEVEL=2
RT=0
SOURCE_INSTRUMENT=qTOF
FILENAME=CCMSLIB00000078536.ms
IONMODE=Positive
ORGANISM=Natural
NAME=Amoxicillin (Amoxycillin)
PI=GNPS
DATACOLLECTOR=GNPS
SMILES=CC1(C)[C@H](C(=O)O)N2C(=O)[C@H]([C@@H]2S1)N=C([C@@H](c1ccc(cc1)O)N)O
INCHI=InChI=1S/C16H19N3O5S/c1-16(2)11(15(23)24)19-13(22)10(14(19)25-16)18-12(21)9(17)7-3-5-8(20)6-4-7/h3-6,9-11,14,20H,17H2,1-2H3,(H,18,21)(H,23,24)/t9-,10-,11+,14+/m1/s1
FORMULA=C16H19N3O5S
PUBMED=N/A
SUBMITUSER=BIOADREM
LIBRARYQUALITY=0
SPECTRUMID=CCMSLIB00000078536
SCANS=1010
ID=CCMSLIB00000078536
107.0491408147 	 2.74
114.0371959199 	 11.47
122.060039852 	 3.43
134.0362304047 	 2.72
134.060039852 	 5.1
160.0426752283 	 98.01
189.0658535114 	 6.35
190.0498690962 	 3.01
200.0501659094 	 3.87
201.0606710162 	 4.26
207.0764181977 	 4.78
208.0426752283 	 2.75
217.0607681335 	 3.01
223.0423408773 	 2.61
224.0164604778 	 2.22
226.0532399146 	 2.42
227.0610649467 	 5.56
234.087317235 	 2.04
236.0501659094 	 21.34
237.0566482708 	 6.44
249.0579909415 	 2.48
251.0035500678 	 3.35
252.0113750999 	 2.85
255.0559795688 	 6.05
263.0372554994 	 10.11
264.0450805315 	 69.84
265.0515628929 	 17.99
272.0825286703 	 8.33
277.019200132 	 2.69
305.084205692 	 100
306.0906880534 	 16.21
309.0413921371 	 2.14
311.1060037666 	 19.79
321.0903537024 	 5.08
322.1107547935 	 6
338.1169028039 	 2.44
339.1009183887 	 10.22
350.0805172976 	 20.77
366.111817426 	 0
END IONS

BEGIN IONS
PEPMASS=283.0689
CHARGE=1
MSLEVEL=2
RT=0
SOURCE_INSTRUMENT=qTOF
FILENAME=CCMSLIB00000078537.ms
IONMODE=Positive
ORGANISM=Natural
NAME=Niflumic acid
PI=GNPS
DATACOLLECTOR=GNPS
SMILES=c1cc(cc(c1)Nc1c(cccn1)C(=O)O)C(F)(F)F
INCHI=InChI=1S/C13H9F3N2O2/c14-13(15,16)8-3-1-4-9(7-8)18-11-10(12(19)20)5-2-6-17-11/h1-7H,(H,17,18)(H,19,20)
FORMULA=C13H9F3N2O2
PUBMED=N/A
SUBMITUSER=BIOADREM
LIBRARYQUALITY=0
SPECTRUMID=CCMSLIB00000078537
SCANS=1011
ID=CCMSLIB00000078537
125.0197324642 	 0.955
140.0494751657 	 0.425
141.0573001978 	 0.555
145.0259606963 	 15.92
163.0365253826 	 0.155
167.060374203 	 0.735
168.0681992351 	 14.9
170.0400533336 	 0.51
190.0462815657 	 1.84
195.0552888251 	 0.52
196.0631138572 	 11.04
197.0509523709 	 3.645
216.0493555709 	 0.35
217.057180603 	 17.9
225.045866993 	 0.73
236.055583803 	 1.03
237.0634088351 	 4.81
238.0474244199 	 1.71
244.044270193 	 0.15
245.0520952251 	 38.255
263.0626599114 	 0.645
264.0504984251 	 1.775
265.0583234572 	 100
283.0688881435 	 42.14
END IONS

BEGIN IONS
PEPMASS=463.0873
CHARGE=1
MSLEVEL=2
RT=0
SOURCE_INSTRUMENT=qTOF
FILENAME=CCMSLIB00000078538.ms
IONMODE=Positive
ORGANISM=Natural
NAME=Rimonabant (SR141716)
PI=GNPS
DATACOLLECTOR=GNPS
SMILES=Cc1c(C(=NN2CCCCC2)O)nn(c2ccc(cc2Cl)Cl)c1c1ccc(cc1)Cl
INCHI=InChI=1S/C22H21Cl3N4O/c1-14-20(22(30)27-28-11-3-2-4-12-28)26-29(19-10-9-17(24)13-18(19)25)21(14)15-5-7-16(23)8-6-15/h5-10,13H,2-4,11-12H2,1H3,(H,27,30)
FORMULA=C22H21Cl3N4O
PUBMED=N/A
SUBMITUSER=BIOADREM
LIBRARYQUALITY=0
SPECTRUMID=CCMSLIB00000078538
SCANS=1012
ID=CCMSLIB00000078538
99.0916743314 	 0.73
125.0152538705 	 0.32
137.0152538705 	 0.42
163.0183278757 	 0.21
164.0261529078 	 3.77
170.9762815484 	 0.53
172.9667794946 	 0.66
173.9871805857 	 0.36
191.0137296872 	 0.21
230.0838492993 	 0.61
238.041802972 	 0.32
240.0448769772 	 0.22
265.0527020093 	 1.79
266.0605270414 	 0.26
267.0450298156 	 0.45
274.016650854 	 0.32
275.0263057462 	 0.36
281.9638583278 	 0.88
293.0476166314 	 0.34
299.0137296872 	 3.8
300.0215547193 	 4.11
301.0168036924 	 1.62
303.0217075577 	 0.48
309.9807525371 	 0.26
327.0086443093 	 0.29
328.0164693414 	 1.69
331.0166221798 	 0.22
335.9744230141 	 0.26
337.0060574935 	 2.42
338.9978981104 	 2.02
362.9853220514 	 100
363.9913172234 	 17.5
365.9836450297 	 10.94
366.9824295588 	 8.35
377.9962210887 	 0.27
382.9904074293 	 42.29
383.9982324614 	 5.5
384.9929942451 	 5.49
463.085370447 	 138.78
END IONS

BEGIN IONS
PEPMASS=858.3682
CHARGE=1
MSLEVEL=2
RT=0
SOURCE_INSTRUMENT=qTOF
FILENAME=CCMSLIB00000078539.ms
IONMODE=Positive
ORGANISM=Natural
NAME=Cabazitaxel (Jevtana)
PI=GNPS
DATACOLLECTOR=GNPS
SMILES=CC1=C2[C@H](C(=O)[C@]3(C)[C@@H](C[C@@H]4[C@@](CO4)([C@H]3[C@H]([C@@](C[C@@H]1OC(=O)[C@@H]([C@H](c1ccccc1)N=C(O)OC(C)(C)C)O)(C2(C)C)O)OC(=O)c1ccccc1)OC(=O)C)OC)OC
INCHI=InChI=1S/C45H57NO14/c1-24-28(57-39(51)33(48)32(26-17-13-11-14-18-26)46-40(52)60-41(3,4)5)22-45(53)37(58-38(50)27-19-15-12-16-20-27)35-43(8,36(49)34(55-10)31(24)42(45,6)7)29(54-9)21-30-44(35,23-56-30)59-25(2)47/h11-20,28-30,32-35,37,48,53H,21-23H2,1-10H3,(H,46,52)/t28-,29+,30+,32-,33+,34+,35-,37+,43+,44-,45-/m0/s1
FORMULA=C45H57NO14
PUBMED=N/A
SUBMITUSER=BIOADREM
LIBRARYQUALITY=0
SPECTRUMID=CCMSLIB00000078539
SCANS=1013
ID=CCMSLIB00000078539
83.0491408147 	 0.711597271230299
83.085526321 	 1.19383674429546
105.0334907505 	 21.6713714420136
111.0804409431 	 1.68783815572806
113.0960910073 	 0.899788285109386
127.0753555652 	 0.970359915314044
133.0647908789 	 15.4728299223712
133.1011763852 	 7.40414020230534
135.0804409431 	 9.71536109150788
141.1273911357 	 0.999764761232651
149.059705501 	 7.77464126087979
155.0702701873 	 1.33498000470478
159.0804409431 	 10.7033639143731
159.1015703157 	 1.02916960715126
161.0960910073 	 9.68007527640555
163.0753555652 	 8.06868972006587
163.1117410715 	 9.12726417313573
165.0546201231 	 7.00423429781228
165.1273911357 	 7.66290284638908
171.1168264494 	 1.00564573041637
182.0784891499 	 1.87014820042343
182.0811692246 	 24.4530698659139
187.0964849378 	 1.01740766878382
187.1481265778 	 1.68783815572806
193.0944735651 	 6.48670900964479
198.1403015457 	 0.811573747353564
203.1430411999 	 1.57021877205363
209.1324765136 	 8.69207245354034
213.163776642 	 2.7111267936956
215.1430411999 	 2.217125382263
215.1794267062 	 0.935074100211715
223.1050382514 	 6.26911314984709
225.1273911357 	 9.23900258762644
226.0683183941 	 9.00376382027758
226.0709984688 	 44.9482474711833
229.1586912641 	 0.923312161844272
231.1743413283 	 1.01152669960009
235.1481265778 	 14.4436603152199
237.1273911357 	 17.7428840272877
239.1430411999 	 10.8915549282522
240.0839684583 	 1.24676546694895
241.1586912641 	 0.929193131027993
242.1665162962 	 0.735121147965185
243.1743413283 	 1.13502705245824
245.1899913925 	 1.52317101858386
251.1430411999 	 6.12208892025406
253.1586912641 	 8.72735826864267
255.137955822 	 12.4676546694895
259.1692559504 	 1.75840978593272
263.1430411999 	 7.29828275699835
265.151988444 	 7.51587861679605
281.1536058862 	 12.944013173371
282.1309186509 	 10.5975064690661
283.1328704441 	 6.3808515643378
287.1641705725 	 0.882145377558221
289.1798206367 	 1.4525993883792
291.137955822 	 15.6551399670666
295.1692559504 	 9.27428840272877
301.1798206367 	 0.829216654904728
309.1485205083 	 9.71536109150788
311.1641705725 	 14.8494471888967
313.1798206367 	 12.9792989884733
315.1590851946 	 9.93883792048929
319.190385323 	 1.21736062103035
321.2060353872 	 2.51705481063279
323.1641705725 	 13.091037402964
327.1954707009 	 9.05669254293107
329.204417945 	 1.18207480592802
333.2060353872 	 0.846859562455893
341.1747352588 	 21.706657257116
343.190385323 	 7.95695130557516
351.2166000735 	 2.26417313573277
355.190385323 	 13.4909433074571
371.1852999451 	 6.78075746883086
373.1942471892 	 0.746883086332628
373.2009500093 	 28.2286520818631
374.2020722213 	 10.2681721947777
401.1958646314 	 7.15125852740532
433.2153765618 	 1.80545753940249
433.2220793819 	 37.7617031286756
434.2146482803 	 0.793930839802399
434.2232015939 	 11.4031992472359
463.2048118755 	 6.30439896494942
493.2220793819 	 15.8021641966596
495.231026626 	 2.94636556104446
501.2415913123 	 0.741002117148906
523.2326440682 	 58.8096918372148
524.2337662802 	 32.4864737708774
555.2521559986 	 58.8096918372148
555.2588588187 	 48.9825923312162
556.2599810307 	 27.3876734885909
836.3851815443 	 100
END IONS

BEGIN IONS
PEPMASS=224.1285
CHARGE=1
MSLEVEL=2
RT=0
SOURCE_INSTRUMENT=qTOF
FILENAME=CCMSLIB00000078541.ms
IONMODE=Positive
ORGANISM=Natural
NAME=Bufexamac
PI=GNPS
DATACOLLECTOR=GNPS
SMILES=CCCCOc1ccc(cc1)CC(=NO)O
INCHI=InChI=1S/C12H17NO3/c1-2-3-8-16-11-6-4-10(5-7-11)9-12(14)13-15/h4-7,15H,2-3,8-9H2,1H3,(H,13,14)
FORMULA=C12H17NO3
PUBMED=N/A
SUBMITUSER=BIOADREM
LIBRARYQUALITY=0
SPECTRUMID=CCMSLIB00000078541
SCANS=1015
ID=CCMSLIB00000078541
95.0491408147 	 1.3455265610438
104.0494751657 	 1.3455265610438
107.0491408147 	 100
122.060039852 	 2.9648182665424
150.0549544741 	 5.58597390493942
163.1117410715 	 58.2479030754893
168.0655191604 	 9.28471575023299
191.1066556936 	 0.530055917986952
207.125379763 	 0.594128611369991
224.1281194172 	 38.5542870456663
END IONS

BEGIN IONS
PEPMASS=256.0171
CHARGE=1
MSLEVEL=2
RT=0
SOURCE_INSTRUMENT=qTOF
FILENAME=CCMSLIB00000078542.ms
IONMODE=Positive
ORGANISM=Natural
NAME=Lamotrigine
PI=GNPS
DATACOLLECTOR=GNPS
SMILES=c1cc(c(c(c1)Cl)Cl)c1c(N)[nH]c(=N)nn1
INCHI=InChI=1S/C9H7Cl2N5/c10-5-3-1-2-4(6(5)11)7-8(12)14-9(13)16-15-7/h1-3H,(H4,12,13,14,16)
FORMULA=C9H7Cl2N5
PUBMED=N/A
SUBMITUSER=BIOADREM
LIBRARYQUALITY=0
SPECTRUMID=CCMSLIB00000078542
SCANS=1016
ID=CCMSLIB00000078542
100.0181750373 	 0.272788035759044
108.9839537421 	 0.491269111872337
115.0290740746 	 0.297852786364776
122.9996038063 	 1.88528699139444
123.9948527794 	 0.835909432701145
131.060374203 	 1.13752193165678
132.9606314842 	 0.981702732057816
138.0105028436 	 1.1421171359345
144.9606314842 	 1.10493775586933
150.0105028436 	 0.452001002590024
151.0183278757 	 1.11287492689448
152.0135768488 	 2.31264098922216
156.9606314842 	 4.71467958893809
158.9762815484 	 5.55601971760381
159.9715305215 	 1.65678001503885
164.0010007898 	 0.528030746094076
165.0214018809 	 2.98938925557691
166.029226913 	 5.83298521179714
170.9637054894 	 1.15590274876765
171.9715305215 	 4.4093073773916
176.0135768488 	 0.220987551173866
178.016650854 	 0.416492605898571
179.0244758861 	 0.410644164090567
183.9715305215 	 4.19834572646002
185.9871805857 	 0.461609156988888
186.9824295588 	 5.55476648007352
193.0401259503 	 0.582337705739828
194.0353749234 	 0.224329517921297
210.9824295588 	 8.35491686857716
211.9776785319 	 2.51524772328515
220.0384489286 	 1.53855794134848
229.0042276334 	 1.61584092238282
256.0151266707 	 100
END IONS

BEGIN IONS
PEPMASS=326.9937
CHARGE=1
MSLEVEL=2
RT=0
SOURCE_INSTRUMENT=qTOF
FILENAME=CCMSLIB00000078543.ms
IONMODE=Positive
ORGANISM=Natural
NAME=Niclosamide (Niclocide)
PI=GNPS
DATACOLLECTOR=GNPS
SMILES=c1cc(c(cc1Cl)C(=Nc1ccc(cc1Cl)N(=O)=O)O)O
INCHI=InChI=1S/C13H8Cl2N2O4/c14-7-1-4-12(18)9(5-7)13(19)16-11-3-2-8(17(20)21)6-10(11)15/h1-6,18H,(H,16,19)
FORMULA=C13H8Cl2N2O4
PUBMED=N/A
SUBMITUSER=BIOADREM
LIBRARYQUALITY=0
SPECTRUMID=CCMSLIB00000078543
SCANS=1017
ID=CCMSLIB00000078543
92.0494751657 	 0.355
98.9996038063 	 9.91
113.9866933963 	 2.49
120.0205803405 	 0.51
127.0178406863 	 5.33
127.0183278757 	 2.375
145.0032532546 	 1.335
154.9894330505 	 100
155.9972580826 	 7.72
170.9950938715 	 0.52
174.0105028436 	 2.435
183.0678648841 	 0.335
211.0627795062 	 0.38
218.0367175941 	 3.265
262.9854103051 	 0.575
326.9933881756 	 68.47
END IONS

BEGIN IONS
PEPMASS=473.2427
CHARGE=1
MSLEVEL=2
RT=0
SOURCE_INSTRUMENT=qTOF
FILENAME=CCMSLIB00000078544.ms
IONMODE=Positive
ORGANISM=Natural
NAME=Linagliptin (BI-1356)
PI=GNPS
DATACOLLECTOR=GNPS
SMILES=CC#CCn1c2c(nc1N1CCC[C@H](C1)N)n(C)c(=O)n(Cc1nc(C)c3ccccc3n1)c2=O
INCHI=InChI=1S/C25H28N8O2/c1-4-5-13-32-21-22(29-24(32)31-12-8-9-17(26)14-31)30(3)25(35)33(23(21)34)15-20-27-16(2)18-10-6-7-11-19(18)28-20/h6-7,10-11,17H,8-9,12-15,26H2,1-3H3/t17-/m1/s1
FORMULA=C25H28N8O2
PUBMED=N/A
SUBMITUSER=BIOADREM
LIBRARYQUALITY=0
SPECTRUMID=CCMSLIB00000078544
SCANS=1018
ID=CCMSLIB00000078544
137.0835149483 	 0.189363105897675
139.0627795062 	 0.205643191925077
149.0709388893 	 0.372728285364203
153.0770868997 	 0.248485523576135
158.0838492993 	 2.78303786405271
165.0770868997 	 0.261338223071452
165.0784295704 	 0.280188848997918
177.113472406 	 1.07962675760666
178.1212974381 	 0.725749098168919
191.0927369639 	 0.414713770382239
194.1400215075 	 0.272477229300727
204.100561996 	 0.420711696813387
205.1083870281 	 3.96377252435587
206.1036360012 	 0.305894247988553
208.0829005591 	 0.535529145638222
220.1192860654 	 0.464410875097466
222.1349361296 	 0.392435757923689
236.1142006875 	 0.492686813987164
246.0985506233 	 2.40088426572528
247.0978223418 	 0.462697181831424
257.1396871565 	 0.580085170555322
263.1250997248 	 3.60304009185396
274.166236258 	 0.190219952530697
323.1250997248 	 0.612645342610126
335.1250997248 	 0.366730358933055
336.1329247569 	 3.29029107080124
337.12817373 	 3.69129529505514
348.1455008159 	 0.509823746647588
349.140749789 	 1.28355625626569
350.1359987621 	 8.7766800620357
351.1438237942 	 9.17340005312449
352.1430955127 	 1.05563505188206
362.1359987621 	 0.25191291010822
363.1438237942 	 2.26378880444189
364.1516488263 	 17.1369326604231
365.1594738584 	 2.81645488274054
366.1587455769 	 0.315319560951785
374.1359987621 	 0.446417095804022
374.1400215075 	 0.59293787005064
375.1438237942 	 3.63902765044085
376.1516488263 	 2.48485523576135
377.1594738584 	 0.520105906243841
386.1485748211 	 0.190219952530697
387.1563998532 	 0.244201290411029
388.1516488263 	 0.257910836539368
388.1556715717 	 0.309321634520637
390.1672988905 	 1.23814338471557
393.1907739868 	 0.31874694748387
402.1672988905 	 2.23379917228615
403.1751239226 	 9.30621128124277
404.1829489547 	 8.14432724686608
405.1822206732 	 1.17387988723898
419.193847992 	 1.16102718774367
420.2016730241 	 13.3950834140197
421.2009447426 	 1.30754796199028
456.2142490831 	 0.465267721730487
473.2407981846 	 100
END IONS

BEGIN IONS
PEPMASS=347.1379
CHARGE=1
MSLEVEL=2
RT=0
SOURCE_INSTRUMENT=qTOF
FILENAME=CCMSLIB00000078548.ms
IONMODE=Positive
ORGANISM=Natural
NAME=Bindarit
PI=GNPS
DATACOLLECTOR=GNPS
SMILES=CC(C)(C(=O)O)OCc1c2ccccc2n(Cc2ccccc2)n1
INCHI=InChI=1S/C19H20N2O3/c1-19(2,18(22)23)24-13-16-15-10-6-7-11-17(15)21(20-16)12-14-8-4-3-5-9-14/h3-11H,12-13H2,1-2H3,(H,22,23)
FORMULA=C19H20N2O3
PUBMED=N/A
SUBMITUSER=BIOADREM
LIBRARYQUALITY=0
SPECTRUMID=CCMSLIB00000078548
SCANS=1020
ID=CCMSLIB00000078548
113.1199004546 	 0.44
136.0181750373 	 0.44
200.1281194172 	 15.1
239.1178890819 	 21.75
325.1546685187 	 226.59
END IONS

BEGIN IONS
PEPMASS=304.2038
CHARGE=1
MSLEVEL=2
RT=0
SOURCE_INSTRUMENT=qTOF
FILENAME=CCMSLIB00000078549.ms
IONMODE=Positive
ORGANISM=Natural
NAME=Vildagliptin (LAF-237)
PI=GNPS
DATACOLLECTOR=GNPS
SMILES=C1C[C@@H](C#N)N(C1)C(=O)CNC12CC3CC(C1)CC(C3)(C2)O
INCHI=InChI=1S/C17H25N3O2/c18-9-14-2-1-3-20(14)15(21)10-19-16-5-12-4-13(6-16)8-17(22,7-12)11-16/h12-14,19,22H,1-8,10-11H2/t12?,13?,14-,16?,17?/m0/s1
FORMULA=C17H25N3O2
PUBMED=N/A
SUBMITUSER=BIOADREM
LIBRARYQUALITY=0
SPECTRUMID=CCMSLIB00000078549
SCANS=1021
ID=CCMSLIB00000078549
93.0698762568 	 1.11
97.0760242672 	 7.89
105.0698762568 	 0.34
107.085526321 	 2.15
109.0647908789 	 1.08
127.0865889535 	 1.09
133.1011763852 	 1.61
151.1117410715 	 15.61
154.0974879908 	 100
304.2019530623 	 147.79
END IONS

BEGIN IONS
PEPMASS=528.1847
CHARGE=1
MSLEVEL=2
RT=0
SOURCE_INSTRUMENT=qTOF
FILENAME=CCMSLIB00000078550.ms
IONMODE=Positive
ORGANISM=Natural
NAME=Daunorubicin HCl (Daunomycin HCl)
PI=GNPS
DATACOLLECTOR=GNPS
SMILES=C[C@H]1[C@H]([C@H](C[C@@H](O1)O[C@@H]1C[C@@](Cc2c1c(c1c(C(=O)c3cccc(c3C1=O)OC)c2O)O)(C(=O)C)O)N)O
INCHI=InChI=1S/C27H29NO10/c1-10-22(30)14(28)7-17(37-10)38-16-9-27(35,11(2)29)8-13-19(16)26(34)21-20(24(13)32)23(31)12-5-4-6-15(36-3)18(12)25(21)33/h4-6,10,14,16-17,22,30,32,34-35H,7-9,28H2,1-3H3/t10-,14-,16+,17-,22+,27-/m0/s1
FORMULA=C27H29NO10
PUBMED=N/A
SUBMITUSER=BIOADREM
LIBRARYQUALITY=0
SPECTRUMID=CCMSLIB00000078550
SCANS=1022
ID=CCMSLIB00000078550
95.0491408147 	 0.23
112.0756899162 	 0.23
113.059705501 	 1.26
130.0862546025 	 5.28
148.0968192888 	 0.36
265.0859202515 	 0.2
293.0808348736 	 0.98
303.0651848094 	 0.66
306.0522743994 	 11.29
307.0533966114 	 1.58
308.0612216435 	 0.26
321.0757494957 	 100
322.0768717077 	 31.25
323.0846967398 	 3.24
324.086648533 	 0.33
335.0913995599 	 0.45
345.0757494957 	 0.26
348.0628390857 	 0.53
363.086314182 	 37.24
365.0893881872 	 1.25
381.0968788683 	 5.42
528.1864221571 	 0.92
END IONS

BEGIN IONS
PEPMASS=389.1633
CHARGE=1
MSLEVEL=2
RT=0
SOURCE_INSTRUMENT=qTOF
FILENAME=CCMSLIB00000078552.ms
IONMODE=Positive
ORGANISM=Natural
NAME=Bepotastine Besilate
PI=GNPS
DATACOLLECTOR=GNPS
SMILES=c1ccnc(c1)[C@H](c1ccc(cc1)Cl)OC1CCN(CCCC(=O)O)CC1
INCHI=InChI=1S/C21H25ClN2O3/c22-17-8-6-16(7-9-17)21(19-4-1-2-12-23-19)27-18-10-14-24(15-11-18)13-3-5-20(25)26/h1-2,4,6-9,12,18,21H,3,5,10-11,13-15H2,(H,25,26)/t21-/m0/s1
FORMULA=C21H25ClN2O3
PUBMED=N/A
SUBMITUSER=BIOADREM
LIBRARYQUALITY=0
SPECTRUMID=CCMSLIB00000078552
SCANS=1023
ID=CCMSLIB00000078552
124.1120754225 	 2.38
142.0862546025 	 0.5
167.072950262 	 71.38
170.1175547309 	 27.55
202.041802972 	 100
205.041468621 	 3.04
263.094566824 	 0.48
389.1626463892 	 91.63
END IONS

BEGIN IONS
PEPMASS=315.0699
CHARGE=1
MSLEVEL=2
RT=0
SOURCE_INSTRUMENT=qTOF
FILENAME=CCMSLIB00000078553.ms
IONMODE=Positive
ORGANISM=Natural
NAME=Rofecoxib (Vioxx)
PI=GNPS
DATACOLLECTOR=GNPS
SMILES=CS(=O)(=O)c1ccc(cc1)C1=C(c2ccccc2)C(=O)OC1
INCHI=InChI=1S/C17H14O4S/c1-22(19,20)14-9-7-12(8-10-14)15-11-21-17(18)16(15)13-5-3-2-4-6-13/h2-10H,11H2,1H3
FORMULA=C17H14O4S
PUBMED=N/A
SUBMITUSER=BIOADREM
LIBRARYQUALITY=0
SPECTRUMID=CCMSLIB00000078553
SCANS=1024
ID=CCMSLIB00000078553
103.0542261926 	 0.31572124532168
130.0413157826 	 0.344993413762101
131.0491408147 	 0.589625107157045
152.0596817615 	 2.45677127982102
152.0620512247 	 0.411901227340205
164.0596817615 	 0.390992535597048
165.0675067936 	 2.99621552679449
165.0698762568 	 0.453718610826521
166.0753318257 	 0.679532481652623
166.0777012889 	 0.951345474313672
176.0596817615 	 0.31572124532168
176.0620512247 	 0.282267338532628
177.0675067936 	 1.54306145064503
178.0753318257 	 10.8056118928639
178.0777012889 	 6.95632174294854
181.0624214157 	 0.265540385138102
189.0675067936 	 13.3815627156209
189.0698762568 	 1.97168963137976
190.0753318257 	 8.31120496790516
190.0777012889 	 4.85290735358689
191.0831568578 	 20.9086917431576
191.085526321 	 16.0599661279194
192.0909818899 	 7.26995211909591
192.0933513531 	 18.4832835009513
193.0624214157 	 0.344993413762101
194.072615911 	 0.773621594496832
206.0702464478 	 6.71796265707655
206.072615911 	 12.1354046877287
207.0780714799 	 4.05001359064963
207.0804409431 	 3.30775503376754
208.085896512 	 0.430719049909047
208.0882659752 	 0.704622911744412
218.0702464478 	 2.1619587262425
218.072615911 	 7.43303991469254
222.0675305331 	 1.38415539339704
236.0808111341 	 0.290630815229891
236.0831805973 	 8.99701005708073
269.0630763194 	 38.3758128253915
287.0736410057 	 0.35544775963368
297.0579909415 	 41.8173834863153
315.0685556278 	 100
315.0713686598 	 0.135906496330525
END IONS

BEGIN IONS
PEPMASS=493.265
CHARGE=1
MSLEVEL=2
RT=0
SOURCE_INSTRUMENT=qTOF
FILENAME=CCMSLIB00000078554.ms
IONMODE=Positive
ORGANISM=Natural
NAME=Lurasidone HCl
PI=GNPS
DATACOLLECTOR=GNPS
SMILES=C1CC[C@@H](CN2C(=O)[C@@H]3[C@H]4CC[C@H](C4)[C@@H]3C2=O)[C@@H](C1)CN1CCN(CC1)c1c2ccccc2sn1
INCHI=InChI=1S/C28H36N4O2S/c33-27-24-18-9-10-19(15-18)25(24)28(34)32(27)17-21-6-2-1-5-20(21)16-30-11-13-31(14-12-30)26-22-7-3-4-8-23(22)35-29-26/h3-4,7-8,18-21,24-25H,1-2,5-6,9-17H2/t18-,19+,20-,21-,24+,25-/m0/s1
FORMULA=C28H36N4O2S
PUBMED=N/A
SUBMITUSER=BIOADREM
LIBRARYQUALITY=0
SPECTRUMID=CCMSLIB00000078554
SCANS=1025
ID=CCMSLIB00000078554
109.1011763852 	 8.45
120.0807752941 	 1.32
121.0647908789 	 0.23
121.0886003262 	 0.48
138.0913399804 	 0.26
148.0756899162 	 1.16
150.0371959199 	 0.41
150.0913399804 	 0.31
151.032444893 	 0.91
152.1433755509 	 0.74
166.0862546025 	 100
177.0480949572 	 35.7
178.0862546025 	 2.69
192.1019046667 	 1.43
203.0637450214 	 2.07
220.0902941229 	 17.18
274.1801549877 	 6.63
315.2067040892 	 0.27
317.2223541534 	 15.25
328.1841945081 	 1.38
343.2380042176 	 0.57
493.2631731106 	 254.42
END IONS

BEGIN IONS
PEPMASS=418.2336
CHARGE=1
MSLEVEL=2
RT=0
SOURCE_INSTRUMENT=qTOF
FILENAME=CCMSLIB00000078556.ms
IONMODE=Positive
ORGANISM=Natural
NAME=Cinepazide maleate
PI=GNPS
DATACOLLECTOR=GNPS
SMILES=COc1cc(/C=C/C(=O)N2CCN(CC2)CC(=O)N2CCCC2)cc(c1OC)OC
INCHI=InChI=1S/C22H31N3O5/c1-28-18-14-17(15-19(29-2)22(18)30-3)6-7-20(26)25-12-10-23(11-13-25)16-21(27)24-8-4-5-9-24/h6-7,14-15H,4-5,8-13,16H2,1-3H3/b7-6+
FORMULA=C22H31N3O5
PUBMED=N/A
SUBMITUSER=BIOADREM
LIBRARYQUALITY=0
SPECTRUMID=CCMSLIB00000078556
SCANS=1026
ID=CCMSLIB00000078556
119.0491408147 	 0.28
120.0556231761 	 0.21
130.0399731119 	 0.36
131.0491408147 	 0.34
132.0569658468 	 0.24
133.0647908789 	 0.49
135.0440554368 	 0.69
146.0362304047 	 0.32
147.0440554368 	 2.86
148.0505377982 	 0.61
149.059705501 	 0.5
150.0675305331 	 0.32
160.0518804689 	 0.69
161.059705501 	 1.06
162.0675305331 	 5.83
163.0389700589 	 3.23
163.0740128945 	 1.19
165.0910056294 	 0.46
174.0311450268 	 0.89
175.0389700589 	 2.39
176.0454524203 	 1.92
177.0546201231 	 1.43
178.0624451552 	 5.69
188.046795091 	 0.46
189.0546201231 	 1.76
190.0624451552 	 29.31
191.033884681 	 5.41
191.0689275166 	 4.92
193.0859202515 	 25.48
205.0495347452 	 0.34
206.0573597773 	 12.5
221.0808348736 	 100
264.1230340393 	 0.25
319.165233205 	 3.69
347.1601478271 	 1.06
418.2336471212 	 54.06
END IONS

BEGIN IONS
PEPMASS=457.1506
CHARGE=1
MSLEVEL=2
RT=0
SOURCE_INSTRUMENT=qTOF
FILENAME=CCMSLIB00000078557.ms
IONMODE=Positive
ORGANISM=Natural
NAME=Azilsartan (TAK-536)
PI=GNPS
DATACOLLECTOR=GNPS
SMILES=CCOc1nc2cccc(c2n1Cc1ccc(cc1)c1ccccc1c1nc(=O)o[nH]1)C(=O)O
INCHI=InChI=1S/C25H20N4O5/c1-2-33-24-26-20-9-5-8-19(23(30)31)21(20)29(24)14-15-10-12-16(13-11-15)17-6-3-4-7-18(17)22-27-25(32)34-28-22/h3-13H,2,14H2,1H3,(H,30,31)(H,27,28,32)
FORMULA=C25H20N4O5
PUBMED=N/A
SUBMITUSER=BIOADREM
LIBRARYQUALITY=0
SPECTRUMID=CCMSLIB00000078557
SCANS=1027
ID=CCMSLIB00000078557
153.0698762568 	 2.27
161.034553383 	 5.56
173.034553383 	 2.55
178.0651252299 	 1.13
179.0451180693 	 0.69
180.0807752941 	 24.83
181.0845775808 	 2.69
189.0658535114 	 3.52
190.0651252299 	 3.99
191.0451180693 	 4.01
191.0689275166 	 1.33
192.0681992351 	 3.08
195.0916743314 	 1.99
205.0760242672 	 2.88
206.0838492993 	 2.21
207.0916743314 	 42.63
208.0954766181 	 6.28
220.0994993635 	 0.64
221.0709388893 	 2.2
225.1022390177 	 0.61
233.0709388893 	 100
234.074741176 	 22.74
235.1229744598 	 3.01
239.0815035756 	 2.17
251.0815035756 	 33.69
252.0853058623 	 6.09
267.112803704 	 15.81
279.112803704 	 55.27
280.1166059907 	 18.2
339.1240370923 	 0.56
349.1083870281 	 4.06
351.0975475703 	 0.55
367.1189517144 	 3.03
385.1295164007 	 4.06
393.0982162723 	 1.58
411.1087809586 	 17.83
429.1193456449 	 6.54
439.140081087 	 22.71
457.1506457733 	 39.13
END IONS

BEGIN IONS
PEPMASS=583.2551
CHARGE=1
MSLEVEL=2
RT=0
SOURCE_INSTRUMENT=qTOF
FILENAME=CCMSLIB00000078559.ms
IONMODE=Positive
ORGANISM=Natural
NAME=Azelnidipine
PI=GNPS
DATACOLLECTOR=GNPS
SMILES=CC(C)OC(=O)C1=C(C)NC(=C(C1c1cccc(c1)N(=O)=O)C(=O)OC1CN(C1)C(c1ccccc1)c1ccccc1)N
INCHI=InChI=1S/C33H34N4O6/c1-20(2)42-32(38)27-21(3)35-31(34)29(28(27)24-15-10-16-25(17-24)37(40)41)33(39)43-26-18-36(19-26)30(22-11-6-4-7-12-22)23-13-8-5-9-14-23/h4-17,20,26,28,30,35H,18-19,34H2,1-3H3
FORMULA=C33H34N4O6
PUBMED=N/A
SUBMITUSER=BIOADREM
LIBRARYQUALITY=0
SPECTRUMID=CCMSLIB00000078559
SCANS=1028
ID=CCMSLIB00000078559
141.0698762568 	 0.39
151.0542261926 	 0.88
152.0620512247 	 12.16
153.0658535114 	 1.18
165.0698762568 	 14.99
166.0777012889 	 5.37
167.085526321 	 100
168.0893286077 	 31.17
222.1277254867 	 3.46
240.138290173 	 6.81
302.0771464792 	 2.27
344.1240966718 	 2.65
415.1612104596 	 1.09
583.2551108448 	 59.97
END IONS

BEGIN IONS
PEPMASS=394.1339
CHARGE=1
MSLEVEL=2
RT=0
SOURCE_INSTRUMENT=qTOF
FILENAME=CCMSLIB00000078561.ms
IONMODE=Positive
ORGANISM=Natural
NAME=Besifloxacin HCl (Besivance)
PI=GNPS
DATACOLLECTOR=GNPS
SMILES=C1CCN(C[C@@H](C1)N)c1c(cc2c(c1Cl)n(cc(c2=O)C(=O)O)C1CC1)F
INCHI=InChI=1S/C19H21ClFN3O3/c20-15-16-12(18(25)13(19(26)27)9-24(16)11-4-5-11)7-14(21)17(15)23-6-2-1-3-10(22)8-23/h7,9-11H,1-6,8,22H2,(H,26,27)/t10-/m1/s1
FORMULA=C19H21ClFN3O3
PUBMED=N/A
SUBMITUSER=BIOADREM
LIBRARYQUALITY=0
SPECTRUMID=CCMSLIB00000078561
SCANS=1029
ID=CCMSLIB00000078561
203.0615170572 	 2.42
210.0354551451 	 0.99
212.014719703 	 1.65
214.0536920251 	 1.16
215.0615170572 	 2.13
218.0241415351 	 2.65
220.0198050809 	 1.52
223.0068946709 	 1.14
224.014719703 	 1.84
225.0225447351 	 0.94
227.0615170572 	 1.55
228.0693420893 	 1.92
229.0771671214 	 2.21
237.0225447351 	 1.04
238.0303697672 	 12.14
239.0343718704 	 2.07
243.0928171856 	 4.55
250.0303697672 	 1.35
253.0538448635 	 1.34
255.0928171856 	 3.89
263.0381947993 	 3.3
264.0460198314 	 1.25
264.0824053377 	 1.22
265.0538448635 	 13.17
271.0632666956 	 1.6
279.0694949277 	 79.22
280.0734970309 	 11.32
281.068746004 	 20.63
291.0331094214 	 1.73
291.0694949277 	 5.67
292.0773199598 	 11.62
305.0851449919 	 1.42
309.0436741077 	 1.92
315.0769053871 	 2.58
323.0593241719 	 20.68
333.1164451203 	 44.48
335.1156961966 	 11.23
356.1160305476 	 3.43
358.1116940934 	 0.99
374.1265952339 	 1.38
376.1222587797 	 6.15
377.1062743645 	 100
378.1140993966 	 51.29
379.1093483697 	 70.71
394.132823466 	 42.21
END IONS

BEGIN IONS
PEPMASS=358.158
CHARGE=1
MSLEVEL=2
RT=0
SOURCE_INSTRUMENT=qTOF
FILENAME=CCMSLIB00000078562.ms
IONMODE=Positive
ORGANISM=Natural
NAME=Danofloxacin Mesylate
PI=GNPS
DATACOLLECTOR=GNPS
SMILES=CN1C[C@@H]2C[C@H]1CN2c1cc2c(cc1F)c(=O)c(cn2C1CC1)C(=O)O
INCHI=InChI=1S/C19H20FN3O3/c1-21-7-12-4-11(21)8-22(12)17-6-16-13(5-15(17)20)18(24)14(19(25)26)9-23(16)10-2-3-10/h5-6,9-12H,2-4,7-8H2,1H3,(H,25,26)/t11-,12-/m0/s1
FORMULA=C19H20FN3O3
PUBMED=N/A
SUBMITUSER=BIOADREM
LIBRARYQUALITY=0
SPECTRUMID=CCMSLIB00000078562
SCANS=1030
ID=CCMSLIB00000078562
178.0525491709 	 0.63
189.0447241388 	 0.66
202.0662680841 	 3.73
203.0615170572 	 2.39
203.0979025635 	 0.97
204.0681992351 	 0.76
214.0862546025 	 0.84
215.0615170572 	 5.45
216.0693420893 	 2.48
217.0771671214 	 2.49
219.0916743314 	 3.44
227.0615170572 	 0.68
227.0979025635 	 1.95
229.0771671214 	 5.3
230.0849921535 	 1.68
231.0928171856 	 6.27
237.1022390177 	 2.79
238.0974879908 	 1.22
239.0979025635 	 0.71
241.0771671214 	 1.95
242.0811692246 	 1.93
243.0889942567 	 0.77
245.1084672498 	 8.08
253.1209630871 	 1.82
255.0564316793 	 5.96
255.0928171856 	 1.18
257.1084672498 	 11.8
258.112469353 	 1.51
268.0968192888 	 0.65
271.124117314 	 8.72
283.124117314 	 25.71
284.1281194172 	 4.4
294.1600882476 	 2.86
314.1663164797 	 24.27
320.1393528055 	 1.83
340.1455810376 	 100
358.1561457239 	 270.71
END IONS

BEGIN IONS
PEPMASS=360.1718
CHARGE=1
MSLEVEL=2
RT=0
SOURCE_INSTRUMENT=qTOF
FILENAME=CCMSLIB00000078564.ms
IONMODE=Positive
ORGANISM=Natural
NAME=Enrofloxacin
PI=GNPS
DATACOLLECTOR=GNPS
SMILES=CCN1CCN(CC1)c1cc2c(cc1F)c(=O)c(cn2C1CC1)C(=O)O
INCHI=InChI=1S/C19H22FN3O3/c1-2-21-5-7-22(8-6-21)17-10-16-13(9-15(17)20)18(24)14(19(25)26)11-23(16)12-3-4-12/h9-12H,2-8H2,1H3,(H,25,26)
FORMULA=C19H22FN3O3
PUBMED=N/A
SUBMITUSER=BIOADREM
LIBRARYQUALITY=0
SPECTRUMID=CCMSLIB00000078564
SCANS=1031
ID=CCMSLIB00000078564
116.0494751657 	 0.581036423720812
135.0478783657 	 1.66684824054908
136.0557033978 	 2.09536260304318
148.0557033978 	 0.896974979119003
163.0666024351 	 1.51795765697062
169.0760242672 	 1.66321676290082
176.0506180199 	 0.911500889712024
176.0744274672 	 3.45353524349058
187.0666024351 	 0.788030649671351
189.045866993 	 6.47855612448705
189.0822524993 	 2.71271380324654
190.0536920251 	 1.31096343102008
191.0615170572 	 0.297781167156916
197.0709388893 	 0.581036423720812
202.0651252299 	 0.591930856665577
203.0615170572 	 20.8119984021498
204.0693420893 	 23.3685586665214
205.0771671214 	 3.94015324835676
215.0615170572 	 1.81573882412754
216.0693420893 	 1.77942404764499
217.0407816151 	 2.0772052148019
217.0771671214 	 3.80215709772306
217.1135526277 	 0.519301303700476
219.0916743314 	 0.555616080183026
225.1022390177 	 1.36543559574391
227.0979025635 	 1.08581181682827
229.0771671214 	 5.23659076878382
230.0849921535 	 1.40175037222646
231.0928171856 	 8.79180738642554
237.1022390177 	 0.337727421287722
238.0974879908 	 0.26509786832262
242.0849921535 	 0.482986527217925
243.0564316793 	 2.22609579838036
243.0928171856 	 0.562879035479537
245.1084672498 	 93.8882231179867
253.1209630871 	 0.2505719577296
257.1084672498 	 5.52347750299597
258.0673307166 	 1.1076006827178
271.0751557487 	 0.907869412063769
271.124117314 	 1.00591930856666
283.124117314 	 3.1521225986854
286.098630845 	 6.94701674111196
288.1506664155 	 2.84344699858372
294.1600882476 	 0.468460616624905
314.1663164797 	 11.6388858626575
316.1819665439 	 85.4123542869594
340.1455810376 	 14.6566437883575
342.1612311018 	 40.3457166721139
358.1561457239 	 36.3147764825507
360.1717957881 	 100
END IONS

BEGIN IONS
PEPMASS=328.1559
CHARGE=1
MSLEVEL=2
RT=0
SOURCE_INSTRUMENT=qTOF
FILENAME=CCMSLIB00000078568.ms
IONMODE=Positive
ORGANISM=Natural
NAME=Naloxone HCl
PI=GNPS
DATACOLLECTOR=GNPS
SMILES=C=CCN1CC[C@]23c4c5ccc(c4O[C@H]2C(=O)CC[C@]3([C@H]1C5)O)O
INCHI=InChI=1S/C19H21NO4/c1-2-8-20-9-7-18-15-11-3-4-12(21)16(15)24-17(18)13(22)5-6-19(18,23)14(20)10-11/h2-4,14,17,21,23H,1,5-10H2/t14-,17+,18+,19-/m1/s1
FORMULA=C19H21NO4
PUBMED=N/A
SUBMITUSER=BIOADREM
LIBRARYQUALITY=0
SPECTRUMID=CCMSLIB00000078568
SCANS=1033
ID=CCMSLIB00000078568
118.0651252299 	 1.35739626716027
128.0620512247 	 1.32654635199753
129.0698762568 	 1.2956964368348
146.060039852 	 4.41925034706155
152.0620512247 	 1.53092703995064
153.0698762568 	 7.47724818756749
154.0777012889 	 1.28798395804412
157.0647908789 	 5.69566558691964
158.0964253583 	 4.67761838654944
161.059705501 	 8.85006941230912
168.0807752941 	 1.26099028227672
171.0804409431 	 2.29831867962363
173.059705501 	 7.9785593089619
174.0549544741 	 3.66342742557458
180.0569658468 	 1.44223353385778
180.0807752941 	 1.89341354311276
181.0647908789 	 11.3643374980719
181.0886003262 	 1.21857164892797
184.0518804689 	 7.18031775412618
184.0756899162 	 3.49375289217955
185.059705501 	 7.9322844362178
186.0913399804 	 4.61591855622397
187.0753555652 	 1.75073268548512
187.0991650125 	 0.717260527533549
197.059705501 	 1.50393336418325
198.0675305331 	 3.68656486194663
198.0886599057 	 1.83942619157797
199.0753555652 	 13.0340891562548
208.0756899162 	 1.97439457041493
209.059705501 	 0.358630263766775
210.0913399804 	 1.56177695511337
212.0706045383 	 81.2586765386395
214.0862546025 	 6.23168286287213
222.0913399804 	 2.83047971618078
224.1043099699 	 2.86132963134351
224.1069900446 	 3.46675921641215
226.0862546025 	 16.9558846213173
227.0702701873 	 3.7675458892488
227.0940796346 	 10.6277957735616
240.1019046667 	 10.7511954342126
241.1097296988 	 0.636279500231374
242.1175547309 	 1.36510874595095
251.0940796346 	 5.55298472929199
252.1019046667 	 3.3317908375752
253.1097296988 	 42.1255591547123
254.0811692246 	 2.12478790683326
268.0968192888 	 3.10812895264538
268.1332047951 	 30.552984729292
269.1046443209 	 16.8363412000617
282.1488548593 	 4.7663118926423
292.1332047951 	 2.35616227055376
295.1202943851 	 0.188955730371741
310.1437694814 	 100
328.1543341677 	 69.2927656948943
END IONS

BEGIN IONS
PEPMASS=214.0643
CHARGE=1
MSLEVEL=2
RT=0
SOURCE_INSTRUMENT=qTOF
FILENAME=CCMSLIB00000078569.ms
IONMODE=Positive
ORGANISM=Natural
NAME=(R)-baclofen
PI=GNPS
DATACOLLECTOR=GNPS
SMILES=c1cc(ccc1[C@@H](CC(=O)O)CN)Cl
INCHI=InChI=1S/C10H12ClNO2/c11-9-3-1-7(2-4-9)8(6-12)5-10(13)14/h1-4,8H,5-6,12H2,(H,13,14)/t8-/m0/s1
FORMULA=C10H12ClNO2
PUBMED=N/A
SUBMITUSER=BIOADREM
LIBRARYQUALITY=0
SPECTRUMID=CCMSLIB00000078569
SCANS=1034
ID=CCMSLIB00000078569
89.0385761284 	 2.17
91.0542261926 	 2.92
102.0464011605 	 2.36
115.0542261926 	 10.37
116.0620512247 	 19.5
119.0491408147 	 2.36
119.072950262 	 3.66
125.0152538705 	 5.53
144.0569658468 	 23.17
151.0309039347 	 100
154.041802972 	 2.55
155.0258185568 	 4.29
161.0835149483 	 2.17
179.0258185568 	 19.19
196.0523676583 	 25.16
197.0363832431 	 34.97
198.0442082752 	 9.81
214.0629323446 	 14.72
END IONS

BEGIN IONS
PEPMASS=367.1102
CHARGE=1
MSLEVEL=2
RT=0
SOURCE_INSTRUMENT=qTOF
FILENAME=CCMSLIB00000078570.ms
IONMODE=Positive
ORGANISM=Natural
NAME=Atovaquone (Atavaquone)
PI=GNPS
DATACOLLECTOR=GNPS
SMILES=c1ccc2c(c1)C(=O)C(=C(C2=O)O)[C@H]1CC[C@@H](CC1)c1ccc(cc1)Cl
INCHI=InChI=1S/C22H19ClO3/c23-16-11-9-14(10-12-16)13-5-7-15(8-6-13)19-20(24)17-3-1-2-4-18(17)21(25)22(19)26/h1-4,9-13,15,26H,5-8H2/t13-,15-
FORMULA=C22H19ClO3
PUBMED=N/A
SUBMITUSER=BIOADREM
LIBRARYQUALITY=0
SPECTRUMID=CCMSLIB00000078570
SCANS=1035
ID=CCMSLIB00000078570
155.0491408147 	 4.74
159.0440554368 	 10.11
161.059705501 	 2.69
167.085526321 	 6.95
171.0440554368 	 16.9
173.059705501 	 5.63
175.0389700589 	 4.79
183.0440554368 	 4.16
187.0389700589 	 27.28
189.0546201231 	 25.43
194.072615911 	 5
195.0804409431 	 7.06
197.059705501 	 6.16
201.0546201231 	 3.37
212.0831805973 	 3.42
213.0546201231 	 8.27
219.0804409431 	 4
237.0910056294 	 17.69
255.1015703157 	 100
331.0884188136 	 9.37
349.0989834999 	 22.43
367.1095481862 	 142.02
END IONS

BEGIN IONS
PEPMASS=435.058
CHARGE=1
MSLEVEL=2
RT=0
SOURCE_INSTRUMENT=qTOF
FILENAME=CCMSLIB00000078571.ms
IONMODE=Positive
ORGANISM=Natural
NAME=Etravirine (TMC125)
PI=GNPS
DATACOLLECTOR=GNPS
SMILES=Cc1cc(cc(C)c1Oc1c(c(N)nc(Nc2ccc(cc2)C#N)n1)Br)C#N
INCHI=InChI=1S/C20H15BrN6O/c1-11-7-14(10-23)8-12(2)17(11)28-19-16(21)18(24)26-20(27-19)25-15-5-3-13(9-22)4-6-15/h3-8H,1-2H3,(H3,24,25,26,27)
FORMULA=C20H15BrN6O
PUBMED=N/A
SUBMITUSER=BIOADREM
LIBRARYQUALITY=0
SPECTRUMID=CCMSLIB00000078571
SCANS=1036
ID=CCMSLIB00000078571
97.0760242672 	 0.174420053322702
103.0542261926 	 0.648468841103331
108.0807752941 	 0.0990456731368201
119.060374203 	 0.455360924924626
126.0913399804 	 0.0803578102808163
130.0651252299 	 1.40158971420028
131.060374203 	 0.330775172551267
137.0821722776 	 0.0566865173298782
144.0556231761 	 5.31109062367628
144.9395866425 	 0.636010265865996
145.0760242672 	 0.666533775197468
145.9236022273 	 0.913213564896719
146.0586971813 	 0.386838761119278
146.0838492993 	 0.069145092567214
147.0916743314 	 0.0890788129469514
148.0756899162 	 0.455360924924626
150.1025733687 	 0.0853412403757506
155.060374203 	 0.702040714623876
156.0681992351 	 0.615453616724391
157.0760242672 	 0.46034435501956
159.0665222134 	 0.396805621309147
162.9501513288 	 5.15099793187651
167.047798144 	 0.310218523409663
169.0508721492 	 0.478409289113697
170.034887734 	 0.373757257120076
172.0869233045 	 0.602995041487056
196.0631138572 	 0.317693668552064
210.0774212507 	 0.302743378267261
213.0896629587 	 0.42732913064062
225.9848598134 	 0.0654075199960133
226.0723358728 	 0.404280766451549
228.9957588507 	 0.0921934567562853
248.9770347813 	 0.964293723369796
252.1369475023 	 0.113373034659756
256.006657888 	 0.113373034659756
257.0206346533 	 0.0678992350434804
265.9797744355 	 0.29526823312486
268.9834628299 	 0.0865870978994842
272.0267246281 	 0.0647845912341465
273.113472406 	 4.18919592355418
275.9879338186 	 0.50893279844517
284.0015725101 	 0.447262851020357
285.0021868993 	 0.27782622779259
286.0100119314 	 0.0965539580893529
287.9879338186 	 0.60797847158199
288.9719494034 	 0.450377494829691
289.9923504945 	 0.350708892931004
290.9678127657 	 0.869608551566043
296.0267246281 	 0.0747514514240151
299.0304130225 	 0.0598011611392121
303.9828484407 	 6.22928761866793
304.9906734728 	 3.32207908703561
306.9865368351 	 3.42112476017243
307.9943618672 	 1.08078140183889
315.0239849739 	 0.0579323748536118
317.0032495318 	 1.3224777614432
339.1352704806 	 0.485884434256099
355.1301851027 	 1.08638776069569
356.1380101348 	 0.320185383599532
435.0563477348 	 100
END IONS

BEGIN IONS
PEPMASS=476.2795
CHARGE=1
MSLEVEL=2
RT=0
SOURCE_INSTRUMENT=qTOF
FILENAME=CCMSLIB00000078573.ms
IONMODE=Positive
ORGANISM=Natural
NAME=Ulipristal
PI=GNPS
DATACOLLECTOR=GNPS
SMILES=CC(=O)[C@@]1(CC[C@H]2[C@@H]3CCC4=CC(=O)CCC4=C3[C@H](C[C@]12C)c1ccc(cc1)N(C)C)OC(=O)C
INCHI=InChI=1S/C30H37NO4/c1-18(32)30(35-19(2)33)15-14-27-25-12-8-21-16-23(34)11-13-24(21)28(25)26(17-29(27,30)3)20-6-9-22(10-7-20)31(4)5/h6-7,9-10,16,25-27H,8,11-15,17H2,1-5H3/t25-,26+,27-,29-,30+/m0/s1
FORMULA=C30H37NO4
PUBMED=N/A
SUBMITUSER=BIOADREM
LIBRARYQUALITY=0
SPECTRUMID=CCMSLIB00000078573
SCANS=1038
ID=CCMSLIB00000078573
122.0964253583 	 14.45
134.0964253583 	 71.76
148.1120754225 	 9.22
157.0647908789 	 5.42
159.0804409431 	 3.44
209.0960910073 	 2.38
211.1117410715 	 4.04
222.1277254867 	 3.25
226.1590256151 	 3.49
235.1481265778 	 3.21
236.1433755509 	 3.46
237.1273911357 	 2.88
238.1590256151 	 2.44
248.1433755509 	 2.49
249.151200583 	 3.42
251.1430411999 	 6.2
252.150866232 	 14.3
253.1586912641 	 56.18
262.1590256151 	 2.71
263.1668506472 	 7.34
264.1746756793 	 8
269.1536058862 	 3.74
273.151200583 	 4.3
274.1590256151 	 3.28
277.1586912641 	 8.77
279.1617652693 	 4.97
280.1695903014 	 4.44
288.1746756793 	 4.43
291.1617652693 	 2.32
292.1695903014 	 3.85
294.1852403656 	 2.32
295.1692559504 	 36.74
300.1746756793 	 2.39
306.1852403656 	 8.08
315.1981507756 	 18.13
317.1774153335 	 2.54
344.2008904298 	 2.64
358.216540494 	 17.8
373.2400155903 	 14.54
374.2478406224 	 19.63
383.2243655261 	 2.27
398.2478406224 	 5
401.2349302124 	 6.68
416.2584053087 	 100
417.2662303408 	 36.77
434.268969995 	 3.38
476.2795346813 	 194.83
END IONS

BEGIN IONS
PEPMASS=393.219
CHARGE=1
MSLEVEL=2
RT=0
SOURCE_INSTRUMENT=qTOF
FILENAME=CCMSLIB00000078574.ms
IONMODE=Positive
ORGANISM=Natural
NAME=Indacaterol Maleate
PI=GNPS
DATACOLLECTOR=GNPS
SMILES=CCc1cc2CC(Cc2cc1CC)NC[C@@H](c1ccc(c2c1ccc(n2)O)O)O
INCHI=InChI=1S/C24H28N2O3/c1-3-14-9-16-11-18(12-17(16)10-15(14)4-2)25-13-22(28)19-5-7-21(27)24-20(19)6-8-23(29)26-24/h5-10,18,22,25,27-28H,3-4,11-13H2,1-2H3,(H,26,29)/t22-/m0/s1
FORMULA=C24H28N2O3
PUBMED=N/A
SUBMITUSER=BIOADREM
LIBRARYQUALITY=0
SPECTRUMID=CCMSLIB00000078574
SCANS=1039
ID=CCMSLIB00000078574
115.0542261926 	 0.68
117.0698762568 	 9
129.0698762568 	 1.43
130.0777012889 	 0.35
142.0651252299 	 0.32
143.085526321 	 0.72
145.1011763852 	 45.33
158.060039852 	 1.66
160.0393044099 	 0.68
160.0756899162 	 0.41
167.060374203 	 0.35
168.0443897878 	 0.47
173.1324765136 	 31.74
176.0706045383 	 1.02
185.0709388893 	 0.94
186.0549544741 	 2.76
200.1433755509 	 0.45
203.0815035756 	 9.97
375.2067040892 	 100
393.2172687755 	 50.18
END IONS

BEGIN IONS
PEPMASS=340.123
CHARGE=1
MSLEVEL=2
RT=0
SOURCE_INSTRUMENT=qTOF
FILENAME=CCMSLIB00000078576.ms
IONMODE=Positive
ORGANISM=Natural
NAME=Moguisteine
PI=GNPS
DATACOLLECTOR=GNPS
SMILES=CCOC(=O)CC(=O)N1CCSC1COc1ccccc1OC
INCHI=InChI=1S/C16H21NO5S/c1-3-21-16(19)10-14(18)17-8-9-23-15(17)11-22-13-7-5-4-6-12(13)20-2/h4-7,15H,3,8-11H2,1-2H3
FORMULA=C16H21NO5S
PUBMED=N/A
SUBMITUSER=BIOADREM
LIBRARYQUALITY=0
SPECTRUMID=CCMSLIB00000078576
SCANS=1040
ID=CCMSLIB00000078576
73.0106468184 	 0.53
100.0215458557 	 2.54
102.0371959199 	 16.78
103.0389700589 	 1.5
121.0647908789 	 1.55
128.0164604778 	 24.06
131.0491408147 	 0.41
137.0055614405 	 0.59
138.0133864726 	 1.59
144.0113750999 	 0.44
149.059705501 	 6.03
153.0368615689 	 1.14
158.0811692246 	 4.6
166.0083010947 	 1.41
170.0270251641 	 36.39
181.031776191 	 1.77
188.0375898504 	 0.99
190.0532399146 	 10.04
216.0688899788 	 100
340.1213194798 	 3.55
END IONS

BEGIN IONS
PEPMASS=361.1572
CHARGE=1
MSLEVEL=2
RT=0
SOURCE_INSTRUMENT=qTOF
FILENAME=CCMSLIB00000078577.ms
IONMODE=Positive
ORGANISM=Natural
NAME=Nadifloxacin
PI=GNPS
DATACOLLECTOR=GNPS
SMILES=CC1CCc2c3c(cc(c2N2CCC(CC2)O)F)c(=O)c(cn13)C(=O)O
INCHI=InChI=1S/C19H21FN2O4/c1-10-2-3-12-16-13(18(24)14(19(25)26)9-22(10)16)8-15(20)17(12)21-6-4-11(23)5-7-21/h8-11,23H,2-7H2,1H3,(H,25,26)
FORMULA=C19H21FN2O4
PUBMED=N/A
SUBMITUSER=BIOADREM
LIBRARYQUALITY=0
SPECTRUMID=CCMSLIB00000078577
SCANS=1041
ID=CCMSLIB00000078577
243.0564316793 	 0.65
257.0720817435 	 4.19
269.0720817435 	 0.21
283.0877318077 	 5.59
299.1190319361 	 2.14
301.098296494 	 4.28
325.1346820003 	 2.85
343.1452466866 	 100
361.1558113729 	 113.08
END IONS

BEGIN IONS
PEPMASS=256.0225
CHARGE=1
MSLEVEL=2
RT=0
SOURCE_INSTRUMENT=qTOF
FILENAME=CCMSLIB00000078578.ms
IONMODE=Positive
ORGANISM=Natural
NAME=Sulfathiazole
PI=GNPS
DATACOLLECTOR=GNPS
SMILES=c1cc(ccc1N)S(=O)(=O)Nc1nccs1
INCHI=InChI=1S/C9H9N3O2S2/c10-7-1-3-8(4-2-7)16(13,14)12-9-11-5-6-15-9/h1-6H,10H2,(H,11,12)
FORMULA=C9H9N3O2S2
PUBMED=N/A
SUBMITUSER=BIOADREM
LIBRARYQUALITY=0
SPECTRUMID=CCMSLIB00000078578
SCANS=1042
ID=CCMSLIB00000078578
92.0494751657 	 3.4
94.0651252299 	 0.53
108.0443897878 	 13.94
156.0113750999 	 100
158.0092666099 	 4.6
190.0433439303 	 1.25
256.0208939287 	 81.75
END IONS

BEGIN IONS
PEPMASS=245.0957
CHARGE=1
MSLEVEL=2
RT=0
SOURCE_INSTRUMENT=qTOF
FILENAME=CCMSLIB00000078581.ms
IONMODE=Positive
ORGANISM=Natural
NAME=Biotin (Vitamin B7)
PI=GNPS
DATACOLLECTOR=GNPS
SMILES=C(CCC(=O)O)C[C@@H]1[C@@H]2[C@H](CS1)N=C(N2)O
INCHI=InChI=1S/C10H16N2O3S/c13-8(14)4-2-1-3-7-9-6(5-16-7)11-10(15)12-9/h6-7,9H,1-5H2,(H,13,14)(H2,11,12,15)/t6-,7+,9-/m0/s1
FORMULA=C10H16N2O3S
PUBMED=N/A
SUBMITUSER=BIOADREM
LIBRARYQUALITY=0
SPECTRUMID=CCMSLIB00000078581
SCANS=1044
ID=CCMSLIB00000078581
98.0964253583 	 100
105.0698762568 	 0.61
108.0807752941 	 0.57
123.0262968826 	 1.39
139.057597011 	 1.74
150.0913399804 	 2.76
156.0841461125 	 0.33
166.0684960483 	 1.22
167.0525116331 	 0.69
184.0790607346 	 1.13
199.0899597719 	 1.77
209.0743097077 	 1.07
227.084874394 	 48.68
245.0954390803 	 13.31
END IONS

BEGIN IONS
PEPMASS=279.091
CHARGE=1
MSLEVEL=2
RT=0
SOURCE_INSTRUMENT=qTOF
FILENAME=CCMSLIB00000078582.ms
IONMODE=Positive
ORGANISM=Natural
NAME=Sulfamethazine
PI=GNPS
DATACOLLECTOR=GNPS
SMILES=Cc1cc(C)nc(n1)NS(=O)(=O)c1ccc(cc1)N
INCHI=InChI=1S/C12H14N4O2S/c1-8-7-9(2)15-12(14-8)16-19(17,18)11-5-3-10(13)4-6-11/h3-7H,13H2,1-2H3,(H,14,15,16)
FORMULA=C12H14N4O2S
PUBMED=N/A
SUBMITUSER=BIOADREM
LIBRARYQUALITY=0
SPECTRUMID=CCMSLIB00000078582
SCANS=1045
ID=CCMSLIB00000078582
92.0494751657 	 2.73
93.0532774524 	 0.88
95.060374203 	 0.96
107.060374203 	 2.21
108.0443897878 	 19.47
122.0712732403 	 5.56
124.0869233045 	 50.07
156.0113750999 	 43.45
158.0058957915 	 2.54
186.0331731745 	 100
188.0290365368 	 2.45
189.0321480798 	 0.54
196.0539086166 	 0.48
204.0430471171 	 61.18
205.0430095793 	 4.56
206.0396012231 	 2.05
213.113472406 	 13.94
261.0804577181 	 1.03
279.0910224044 	 312.85
END IONS

BEGIN IONS
PEPMASS=256.1818
CHARGE=1
MSLEVEL=2
RT=0
SOURCE_INSTRUMENT=qTOF
FILENAME=CCMSLIB00000078585.ms
IONMODE=Positive
ORGANISM=Natural
NAME=Tripelennamine HCl
PI=GNPS
DATACOLLECTOR=GNPS
SMILES=CN(C)CCN(Cc1ccccc1)c1ccccn1
INCHI=InChI=1S/C16H21N3/c1-18(2)12-13-19(16-10-6-7-11-17-16)14-15-8-4-3-5-9-15/h3-11H,12-14H2,1-2H3
FORMULA=C16H21N3
PUBMED=N/A
SUBMITUSER=BIOADREM
LIBRARYQUALITY=0
SPECTRUMID=CCMSLIB00000078585
SCANS=1046
ID=CCMSLIB00000078585
91.0542261926 	 2.45
119.060374203 	 10.865
120.0681992351 	 5.805
211.1229744598 	 100
256.1808236897 	 14.78
END IONS

BEGIN IONS
PEPMASS=306.1097
CHARGE=1
MSLEVEL=2
RT=0
SOURCE_INSTRUMENT=qTOF
FILENAME=CCMSLIB00000078586.ms
IONMODE=Positive
ORGANISM=Natural
NAME=Entacapone
PI=GNPS
DATACOLLECTOR=GNPS
SMILES=CCN(CC)C(=O)/C(=C/c1cc(c(c(c1)O)O)N(=O)=O)/C#N
INCHI=InChI=1S/C14H15N3O5/c1-3-16(4-2)14(20)10(8-15)5-9-6-11(17(21)22)13(19)12(18)7-9/h5-7,18-19H,3-4H2,1-2H3/b10-5+
FORMULA=C14H15N3O5
PUBMED=N/A
SUBMITUSER=BIOADREM
LIBRARYQUALITY=0
SPECTRUMID=CCMSLIB00000078586
SCANS=1047
ID=CCMSLIB00000078586
100.0756899162 	 6.85
101.0260000694 	 4.83
103.0290740746 	 7.72
125.047129442 	 2.45
129.0209146915 	 7.84
131.0239886967 	 8.59
132.0080042815 	 2.97
133.0396387609 	 2.57
136.0393044099 	 2.3
142.0161636646 	 3.6
143.0239886967 	 3.64
146.060039852 	 2.89
157.0158293136 	 5.5
159.0189033188 	 24.62
161.034553383 	 6.45
170.0110782867 	 25.85
171.0162232441 	 12.79
173.034553383 	 2.69
175.0263939999 	 3.17
182.0447837183 	 3.48
185.0107439357 	 16.15
186.112469353 	 3.29
187.0138179409 	 26.52
187.0740128945 	 4.08
189.0294680051 	 3.09
203.021308622 	 5.98
205.0243826272 	 8.63
208.0240482762 	 2.97
215.008732563 	 11.16
215.1053130229 	 5.23
230.1049786719 	 3.29
233.0192972493 	 100
236.0427723456 	 2.97
240.0978819213 	 2.97
244.1080526771 	 3.01
278.1135319855 	 4.08
306.1084466076 	 784.4
END IONS

BEGIN IONS
PEPMASS=285.1273
CHARGE=1
MSLEVEL=2
RT=0
SOURCE_INSTRUMENT=qTOF
FILENAME=CCMSLIB00000078587.ms
IONMODE=Positive
ORGANISM=Natural
NAME=Articaine HCl
PI=GNPS
DATACOLLECTOR=GNPS
SMILES=CCCNC(C)C(=Nc1c(C)csc1C(=O)OC)O
INCHI=InChI=1S/C13H20N2O3S/c1-5-6-14-9(3)12(16)15-10-8(2)7-19-11(10)13(17)18-4/h7,9,14H,5-6H2,1-4H3,(H,15,16)
FORMULA=C13H20N2O3S
PUBMED=N/A
SUBMITUSER=BIOADREM
LIBRARYQUALITY=0
SPECTRUMID=CCMSLIB00000078587
SCANS=1048
ID=CCMSLIB00000078587
86.0964253583 	 54.42
124.0215458557 	 10.99
140.0164604778 	 84.18
142.019534483 	 20.64
147.0804409431 	 9.92
150.0371959199 	 25.2
166.0372930372 	 10.99
168.0113750999 	 88.74
170.0144491051 	 8.31
172.0393044099 	 28.42
174.0371959199 	 11.26
177.0784295704 	 12.87
195.0764181977 	 16.09
245.0379242014 	 12.06
253.1005244582 	 100
257.1318245866 	 9.38
285.1267392087 	 2703.49
END IONS

BEGIN IONS
PEPMASS=528.2163
CHARGE=1
MSLEVEL=2
RT=0
SOURCE_INSTRUMENT=qTOF
FILENAME=CCMSLIB00000078589.ms
IONMODE=Positive
ORGANISM=Natural
NAME=Gliquidone
PI=GNPS
DATACOLLECTOR=GNPS
SMILES=CC1(C)c2ccc(cc2C(=O)N(CCc2ccc(cc2)S(=O)(=O)NC(=NC2CCCCC2)O)C1=O)OC
INCHI=InChI=1S/C27H33N3O6S/c1-27(2)23-14-11-20(36-3)17-22(23)24(31)30(25(27)32)16-15-18-9-12-21(13-10-18)37(34,35)29-26(33)28-19-7-5-4-6-8-19/h9-14,17,19H,4-8,15-16H2,1-3H3,(H2,28,29,33)
FORMULA=C27H33N3O6S
PUBMED=N/A
SUBMITUSER=BIOADREM
LIBRARYQUALITY=0
SPECTRUMID=CCMSLIB00000078589
SCANS=1049
ID=CCMSLIB00000078589
103.0542261926 	 2.38
105.0698762568 	 1.04
117.0698762568 	 2.91
119.085526321 	 0.92
132.0655191604 	 0.35
133.0647908789 	 0.9
134.0362304047 	 0.39
146.060039852 	 0.48
147.0804409431 	 5.24
148.0842432298 	 0.95
160.0756899162 	 0.74
161.059705501 	 1.96
167.0161261268 	 16.34
174.0913399804 	 3.32
175.0753555652 	 2.81
184.0756899162 	 0.79
190.0862546025 	 0.88
202.0862546025 	 14.84
203.0900568892 	 2.36
218.0811692246 	 1.55
251.1430411999 	 0.77
266.1539402372 	 0.38
276.138290173 	 0.71
279.125379763 	 0.58
294.1488548593 	 3.57
295.1514973962 	 0.96
304.1332047951 	 0.91
307.1202943851 	 0.64
322.1437694814 	 6.18
323.1464120183 	 1.39
337.126836326 	 0.37
356.0951047293 	 0.51
358.1107547935 	 0.83
374.1056694156 	 0.34
386.1056694156 	 16.28
388.1087434208 	 1.27
403.1322185171 	 100
404.1314902356 	 25.58
421.1427832034 	 1.04
422.1420549219 	 0.45
429.111483075 	 1.13
446.1380321765 	 1.35
528.2162824975 	 2.63
END IONS

BEGIN IONS
PEPMASS=318.2216
CHARGE=1
MSLEVEL=2
RT=0
SOURCE_INSTRUMENT=qTOF
FILENAME=CCMSLIB00000078590.ms
IONMODE=Positive
ORGANISM=Natural
NAME=Butenafine HCl
PI=GNPS
DATACOLLECTOR=GNPS
SMILES=CC(C)(C)c1ccc(cc1)CN(C)Cc1cccc2ccccc12
INCHI=InChI=1S/C23H27N/c1-23(2,3)21-14-12-18(13-15-21)16-24(4)17-20-10-7-9-19-8-5-6-11-22(19)20/h5-15H,16-17H2,1-4H3
FORMULA=C23H27N
PUBMED=N/A
SUBMITUSER=BIOADREM
LIBRARYQUALITY=0
SPECTRUMID=CCMSLIB00000078590
SCANS=1050
ID=CCMSLIB00000078590
105.0698762568 	 0.78
115.0542261926 	 1.46
117.0698762568 	 0.67
119.085526321 	 0.95
132.0933513531 	 1.93
141.0698762568 	 100
147.1168264494 	 25.68
176.1433755509 	 3.17
231.1168264494 	 0.52
287.1794267062 	 1.09
318.2216258719 	 80.48
END IONS

BEGIN IONS
PEPMASS=288.1765
CHARGE=1
MSLEVEL=2
RT=0
SOURCE_INSTRUMENT=qTOF
FILENAME=CCMSLIB00000078592.ms
IONMODE=Positive
ORGANISM=Natural
NAME=Naftifine HCl
PI=GNPS
DATACOLLECTOR=GNPS
SMILES=CN(C/C=C/c1ccccc1)Cc1cccc2ccccc12
INCHI=InChI=1S/C21H21N/c1-22(16-8-11-18-9-3-2-4-10-18)17-20-14-7-13-19-12-5-6-15-21(19)20/h2-15H,16-17H2,1H3/b11-8+
FORMULA=C21H21N
PUBMED=N/A
SUBMITUSER=BIOADREM
LIBRARYQUALITY=0
SPECTRUMID=CCMSLIB00000078592
SCANS=1051
ID=CCMSLIB00000078592
91.0542261926 	 1.42
115.0542261926 	 23.37
117.0698762568 	 64.72
141.0698762568 	 100
170.0964253583 	 12.2
288.1746756793 	 52.63
END IONS

BEGIN IONS
PEPMASS=916.5264
CHARGE=1
MSLEVEL=2
RT=0
SOURCE_INSTRUMENT=qTOF
FILENAME=CCMSLIB00000078593.ms
IONMODE=Positive
ORGANISM=Natural
NAME=Tylosin tartrate
PI=GNPS
DATACOLLECTOR=GNPS
SMILES=CC[C@@H]1[C@H](C=C(C)C=CC(=O)[C@H](C)C[C@H](CC=O)[C@@H]([C@@H](C)[C@@H](CC(=O)O1)O)O[C@@H]1[C@@H]([C@H]([C@@H]([C@@H](C)O1)O[C@H]1C[C@](C)([C@H]([C@H](C)O1)O)O)N(C)C)O)CO[C@H]1[C@@H]([C@@H]([C@@H]([C@@H](C)O1)O)OC)OC
INCHI=InChI=1S/C46H77NO17/c1-13-33-30(22-58-45-42(57-12)41(56-11)37(52)26(5)60-45)18-23(2)14-15-31(49)24(3)19-29(16-17-48)39(25(4)32(50)20-34(51)62-33)64-44-38(53)36(47(9)10)40(27(6)61-44)63-35-21-46(8,55)43(54)28(7)59-35/h14-15,17-18,24-30,32-33,35-45,50,52-55H,13,16,19-22H2,1-12H3/b15-14+,23-18+/t24-,25+,26-,27-,28+,29+,30-,32-,33-,35+,36-,37-,38-,39-,40-,41-,42-,43+,44-,45-,46-/m1/s1
FORMULA=C46H77NO17
PUBMED=N/A
SUBMITUSER=BIOADREM
LIBRARYQUALITY=0
SPECTRUMID=CCMSLIB00000078593
SCANS=1052
ID=CCMSLIB00000078593
98.0964253583 	 0.81
100.0756899162 	 0.49
101.059705501 	 3.81
112.0756899162 	 0.41
114.0913399804 	 0.89
115.0991650125 	 0.42
116.0706045383 	 1.33
127.0753555652 	 3.53
130.0862546025 	 0.66
132.1019046667 	 5.24
144.1019046667 	 0.4
145.0859202515 	 8.13
156.1019046667 	 6.42
174.112469353 	 100
192.1230340393 	 0.48
318.1911136045 	 1.69
582.3636582412 	 0.36
772.4477818011 	 7.79
916.5264260526 	 189.48
END IONS

BEGIN IONS
PEPMASS=308.2027
CHARGE=1
MSLEVEL=2
RT=0
SOURCE_INSTRUMENT=qTOF
FILENAME=CCMSLIB00000078594.ms
IONMODE=Positive
ORGANISM=Natural
NAME=Benztropine mesylate
PI=GNPS
DATACOLLECTOR=GNPS
SMILES=CN1[C@@H]2CC[C@@H]1CC(C2)OC(c1ccccc1)c1ccccc1
INCHI=InChI=1S/C21H25NO/c1-22-18-12-13-19(22)15-20(14-18)23-21(16-8-4-2-5-9-16)17-10-6-3-7-11-17/h2-11,18-21H,12-15H2,1H3/t18-,19-/m1/s1
FORMULA=C21H25NO
PUBMED=N/A
SUBMITUSER=BIOADREM
LIBRARYQUALITY=0
SPECTRUMID=CCMSLIB00000078594
SCANS=1053
ID=CCMSLIB00000078594
98.0964253583 	 0.99
126.0913399804 	 0.33
142.1226401088 	 5.4
151.0542261926 	 0.5
152.0620512247 	 6.19
167.085526321 	 100
308.2008904298 	 142.43
END IONS

BEGIN IONS
PEPMASS=287.1615
CHARGE=1
MSLEVEL=2
RT=0
SOURCE_INSTRUMENT=qTOF
FILENAME=CCMSLIB00000078595.ms
IONMODE=Positive
ORGANISM=Natural
NAME=Abacavir sulfate
PI=GNPS
DATACOLLECTOR=GNPS
SMILES=C1=C[C@@H](C[C@@H]1CO)n1cnc2c(NC3CC3)[nH]c(=N)nc12
INCHI=InChI=1S/C14H18N6O/c15-14-18-12(17-9-2-3-9)11-13(19-14)20(7-16-11)10-4-1-8(5-10)6-21/h1,4,7-10,21H,2-3,5-6H2,(H3,15,17,18,19)/t8-,10+/m1/s1
FORMULA=C14H18N6O
PUBMED=N/A
SUBMITUSER=BIOADREM
LIBRARYQUALITY=0
SPECTRUMID=CCMSLIB00000078595
SCANS=1054
ID=CCMSLIB00000078595
109.0508721492 	 0.8
134.0461211223 	 2.58
136.0617711865 	 0.26
147.0665222134 	 0.56
150.0648451917 	 10.88
163.0726702238 	 1.31
164.0930713149 	 2.18
174.0774212507 	 8.5
176.0804952559 	 0.34
191.1039703522 	 100
287.1614852311 	 65.09
END IONS

BEGIN IONS
PEPMASS=311.2017
CHARGE=1
MSLEVEL=2
RT=0
SOURCE_INSTRUMENT=qTOF
FILENAME=CCMSLIB00000078596.ms
IONMODE=Positive
ORGANISM=Natural
NAME=Altrenogest
PI=GNPS
DATACOLLECTOR=GNPS
SMILES=C=CC[C@]1(CC[C@H]2[C@@H]3CCC4=CC(=O)CCC4=C3C=C[C@]12C)O
INCHI=InChI=1S/C21H26O2/c1-3-10-21(23)12-9-19-18-6-4-14-13-15(22)5-7-16(14)17(18)8-11-20(19,21)2/h3,8,11,13,18-19,23H,1,4-7,9-10,12H2,2H3/t18-,19+,20+,21-/m1/s1
FORMULA=C21H26O2
PUBMED=N/A
SUBMITUSER=BIOADREM
LIBRARYQUALITY=0
SPECTRUMID=CCMSLIB00000078596
SCANS=1055
ID=CCMSLIB00000078596
131.085526321 	 7.29
133.0647908789 	 4.7
143.085526321 	 3.1
144.0569658468 	 4.04
147.0804409431 	 4.19
155.085526321 	 7.89
157.0647908789 	 7.2
157.1011763852 	 6.43
159.0804409431 	 27.12
165.0698762568 	 3.21
167.085526321 	 3.26
169.1011763852 	 10.73
179.085526321 	 3.21
181.1011763852 	 8.86
183.0804409431 	 4.81
185.0960910073 	 10
193.1011763852 	 5.88
195.1168264494 	 7.66
197.0960910073 	 11.19
197.1324765136 	 6.5
199.1117410715 	 22.61
205.1011763852 	 3.65
207.1168264494 	 5.56
209.0960910073 	 7.48
210.1039160394 	 10.05
211.1117410715 	 16.07
212.1195661036 	 13.81
215.1430411999 	 10.21
223.1117410715 	 18.48
225.1273911357 	 29.88
227.1430411999 	 87.97
233.1324765136 	 3.58
251.1430411999 	 37.72
269.1536058862 	 100
293.1899913925 	 62.3
311.2005560788 	 666.09
END IONS

BEGIN IONS
PEPMASS=256.005
CHARGE=1
MSLEVEL=2
RT=0
SOURCE_INSTRUMENT=qTOF
FILENAME=CCMSLIB00000078597.ms
IONMODE=Positive
ORGANISM=Natural
NAME=Anagrelide hydrochloride
PI=GNPS
DATACOLLECTOR=GNPS
SMILES=c1cc2c(CN3CC(=NC3=N2)O)c(c1Cl)Cl
INCHI=InChI=1S/C10H7Cl2N3O/c11-6-1-2-7-5(9(6)12)3-15-4-8(16)14-10(15)13-7/h1-2H,3-4H2,(H,13,14,16)
FORMULA=C10H7Cl2N3O
PUBMED=N/A
SUBMITUSER=BIOADREM
LIBRARYQUALITY=0
SPECTRUMID=CCMSLIB00000078597
SCANS=1056
ID=CCMSLIB00000078597
135.9948527794 	 0.285663800212039
137.0026778115 	 0.188479208387325
151.0183278757 	 1.89068205913535
164.0135768488 	 0.197314171280481
171.9715305215 	 2.24408057486159
185.9871805857 	 0.765696784073507
198.9824295588 	 58.899752621039
228.0089786603 	 24.0693839085876
256.0038932824 	 100
END IONS

BEGIN IONS
PEPMASS=262.0886
CHARGE=1
MSLEVEL=2
RT=0
SOURCE_INSTRUMENT=qTOF
FILENAME=CCMSLIB00000078598.ms
IONMODE=Positive
ORGANISM=Natural
NAME=Flumequine
PI=GNPS
DATACOLLECTOR=GNPS
SMILES=CC1CCc2cc(cc3c2n1cc(c3=O)C(=O)O)F
INCHI=InChI=1S/C14H12FNO3/c1-7-2-3-8-4-9(15)5-10-12(8)16(7)6-11(13(10)17)14(18)19/h4-7H,2-3H2,1H3,(H,18,19)
FORMULA=C14H12FNO3
PUBMED=N/A
SUBMITUSER=BIOADREM
LIBRARYQUALITY=0
SPECTRUMID=CCMSLIB00000078598
SCANS=1057
ID=CCMSLIB00000078598
99.0229260642 	 0.871486436725175
126.0338251015 	 1.91481526942433
146.0400533336 	 5.64625015343071
147.0440554368 	 1.55271879219345
148.0557033978 	 1.16607340125199
174.0349679557 	 20.6885970295814
175.0389700589 	 2.51012642690561
201.0546201231 	 0.926721492573954
202.0298825778 	 80.2872222904137
216.0780952194 	 0.969682091567448
216.0819181483 	 0.239351908678041
220.0404472641 	 19.9091690192709
221.0482722962 	 3.00724192954462
244.0768327704 	 100
262.0873974567 	 54.4372161531852
END IONS

BEGIN IONS
PEPMASS=278.1903
CHARGE=1
MSLEVEL=2
RT=0
SOURCE_INSTRUMENT=qTOF
FILENAME=CCMSLIB00000078599.ms
IONMODE=Positive
ORGANISM=Natural
NAME=Amitriptyline HCl
PI=GNPS
DATACOLLECTOR=GNPS
SMILES=CN(C)CCC=C1c2ccccc2CCc2ccccc12
INCHI=InChI=1S/C20H23N/c1-21(2)15-7-12-20-18-10-5-3-8-16(18)13-14-17-9-4-6-11-19(17)20/h3-6,8-12H,7,13-15H2,1-2H3
FORMULA=C20H23N
PUBMED=N/A
SUBMITUSER=BIOADREM
LIBRARYQUALITY=0
SPECTRUMID=CCMSLIB00000078599
SCANS=1058
ID=CCMSLIB00000078599
91.0542261926 	 7.41
103.0542261926 	 1.65
105.0698762568 	 20.47
115.0542261926 	 6.99
117.0698762568 	 26.01
127.0542261926 	 0.62
128.0620512247 	 1.86
129.0698762568 	 9.63
141.0698762568 	 4.87
152.0620512247 	 0.47
153.0698762568 	 1.9
155.085526321 	 18.63
165.0698762568 	 1.75
166.0777012889 	 0.43
167.085526321 	 0.5
178.0777012889 	 13.53
179.085526321 	 21.88
190.0777012889 	 4.6
191.085526321 	 65.65
192.0933513531 	 15.7
193.1011763852 	 7.88
202.0777012889 	 2.15
203.085526321 	 17.68
205.1011763852 	 26.36
207.1168264494 	 2.03
217.1011763852 	 9.26
218.1090014173 	 40.66
233.1324765136 	 100
278.1903257435 	 239.95
END IONS

BEGIN IONS
PEPMASS=291.1863
CHARGE=1
MSLEVEL=2
RT=0
SOURCE_INSTRUMENT=qTOF
FILENAME=CCMSLIB00000078601.ms
IONMODE=Positive
ORGANISM=Natural
NAME=Azatadine maleate
PI=GNPS
DATACOLLECTOR=GNPS
SMILES=CN1CCC(=C2c3ccccc3CCc3cccnc23)CC1
INCHI=InChI=1S/C20H22N2/c1-22-13-10-16(11-14-22)19-18-7-3-2-5-15(18)8-9-17-6-4-12-21-20(17)19/h2-7,12H,8-11,13-14H2,1H3
FORMULA=C20H22N2
PUBMED=N/A
SUBMITUSER=BIOADREM
LIBRARYQUALITY=0
SPECTRUMID=CCMSLIB00000078601
SCANS=1059
ID=CCMSLIB00000078601
180.0807752941 	 0.42
206.0964253583 	 0.57
218.0964253583 	 2.52
219.1042503904 	 3.31
230.0964253583 	 1.12
232.1120754225 	 5.72
233.1199004546 	 37.56
244.1120754225 	 5.9
245.1199004546 	 44.29
248.1433755509 	 100
260.1433755509 	 41.93
291.1855747166 	 117.67
END IONS

BEGIN IONS
PEPMASS=462.1454
CHARGE=1
MSLEVEL=2
RT=0
SOURCE_INSTRUMENT=qTOF
FILENAME=CCMSLIB00000078602.ms
IONMODE=Positive
ORGANISM=Natural
NAME=Azlocillin sodium salt
PI=GNPS
DATACOLLECTOR=GNPS
SMILES=CC1(C)C(C(=O)O)N2C(=O)C(C2S1)N=C([C@@H](c1ccccc1)N=C(N1CCN=C1O)O)O
INCHI=InChI=1S/C20H23N5O6S/c1-20(2)13(17(28)29)25-15(27)12(16(25)32-20)22-14(26)11(10-6-4-3-5-7-10)23-19(31)24-9-8-21-18(24)30/h3-7,11-13,16H,8-9H2,1-2H3,(H,21,30)(H,22,26)(H,23,31)(H,28,29)/t11-,12?,13?,16?/m1/s1
FORMULA=C20H23N5O6S
PUBMED=N/A
SUBMITUSER=BIOADREM
LIBRARYQUALITY=0
SPECTRUMID=CCMSLIB00000078602
SCANS=1060
ID=CCMSLIB00000078602
87.0539461544 	 0.569241094732656
95.072950262 	 0.504611101444232
106.0651252299 	 0.334335926818961
114.0371959199 	 0.0534440329115812
117.0368615689 	 0.514554177334759
130.0611024845 	 1.95505729697482
146.060039852 	 0.0248576897263168
154.1100640498 	 0.7531879987074
160.0426752283 	 3.58945039648015
161.0709388893 	 0.935892018195829
164.0528459841 	 0.0484724949663178
173.0669161439 	 0.623928012130553
174.0509317287 	 1.58840637351165
174.0549544741 	 0.0807874916105297
175.0865889535 	 1.62693579258744
177.0658535114 	 1.23915583285689
192.0477606062 	 0.14044594695369
196.1120754225 	 3.92005766984017
197.1158777092 	 1.17452583956847
217.0641389519 	 1.51507618881901
218.0924026129 	 20.4330209550324
219.0950451498 	 1.61326406323796
219.0962048996 	 1.74376693430113
220.0968192888 	 0.132988640035795
246.087317235 	 3.90141440254543
246.0906880534 	 0.881205100797932
247.0899597719 	 0.439981108155808
248.0917339109 	 0.0559298018842129
259.1189517144 	 1.59710656491586
260.1215942513 	 0.973178552785304
263.1165464112 	 1.25779910015163
275.1138663365 	 1.63439309950533
300.0761006217 	 0.514554177334759
303.1087809586 	 12.8452111660742
304.1114234955 	 3.87034229038753
305.1080151393 	 0.523254368738969
344.1353300601 	 1.15712545676005
348.1012527397 	 0.504611101444232
358.1873656306 	 1.0825523875811
376.0961673618 	 2.09674612841482
380.1274674902 	 0.981878744189515
435.1207050906 	 0.64257127942529
461.1363551548 	 0.835218374804246
462.1441801869 	 100
END IONS

BEGIN IONS
PEPMASS=268.1707
CHARGE=1
MSLEVEL=2
RT=0
SOURCE_INSTRUMENT=qTOF
FILENAME=CCMSLIB00000078604.ms
IONMODE=Positive
ORGANISM=Natural
NAME=Azacyclonol
PI=GNPS
DATACOLLECTOR=GNPS
SMILES=c1ccc(cc1)C(c1ccccc1)(C1CCNCC1)O
INCHI=InChI=1S/C18H21NO/c20-18(15-7-3-1-4-8-15,16-9-5-2-6-10-16)17-11-13-19-14-12-17/h1-10,17,19-20H,11-14H2
FORMULA=C18H21NO
PUBMED=N/A
SUBMITUSER=BIOADREM
LIBRARYQUALITY=0
SPECTRUMID=CCMSLIB00000078604
SCANS=1062
ID=CCMSLIB00000078604
91.0542261926 	 4.21
103.0542261926 	 1.32
105.0698762568 	 4.27
115.0542261926 	 1.83
117.0698762568 	 1.82
119.085526321 	 0.21
127.0542261926 	 0.76
128.0620512247 	 11.75
129.0698762568 	 3.92
130.0651252299 	 2.66
132.0807752941 	 9.88
141.0698762568 	 0.69
143.085526321 	 33.42
145.0886003262 	 0.83
146.0964253583 	 0.8
152.0620512247 	 0.97
153.0698762568 	 0.46
155.085526321 	 0.48
165.0698762568 	 1.56
166.0777012889 	 2.11
167.085526321 	 12.5
172.1120754225 	 1.16
178.0777012889 	 0.98
179.085526321 	 1.1
181.1011763852 	 7.43
191.085526321 	 0.66
192.0933513531 	 0.55
193.1011763852 	 0.29
204.0933513531 	 1.1
205.1011763852 	 1.41
207.1168264494 	 1.29
219.1168264494 	 1.32
221.1324765136 	 1.71
251.1668506472 	 49.63
268.1695903014 	 42.07
END IONS

BEGIN IONS
PEPMASS=408.1716
CHARGE=1
MSLEVEL=2
RT=0
SOURCE_INSTRUMENT=qTOF
FILENAME=CCMSLIB00000078605.ms
IONMODE=Positive
ORGANISM=Natural
NAME=Trifluoperazine 2HCl
PI=GNPS
DATACOLLECTOR=GNPS
SMILES=CN1CCN(CCCN2c3ccccc3Sc3ccc(cc23)C(F)(F)F)CC1
INCHI=InChI=1S/C21H24F3N3S/c1-25-11-13-26(14-12-25)9-4-10-27-17-5-2-3-6-19(17)28-20-8-7-16(15-18(20)27)21(22,23)24/h2-3,5-8,15H,4,9-14H2,1H3
FORMULA=C21H24F3N3S
PUBMED=N/A
SUBMITUSER=BIOADREM
LIBRARYQUALITY=0
SPECTRUMID=CCMSLIB00000078605
SCANS=1063
ID=CCMSLIB00000078605
96.0807752941 	 0.393430155178214
98.0838492993 	 2.2362628522955
111.0916743314 	 2.58727860412736
112.0994993635 	 0.118467816243254
113.1073243956 	 25.5992862679713
117.0698762568 	 0.255948985710734
124.0994993635 	 0.188670966609627
138.1151494277 	 0.162344785222237
139.1229744598 	 0.963830751904992
141.138624524 	 29.2103608149416
191.0103106321 	 0.15356939142644
204.0055596052 	 0.11115498808009
211.045020952 	 0.125780644406418
224.0494751657 	 0.181358138446463
230.0245804878 	 0.0862913723253331
230.0775816941 	 0.640603747093151
231.0790982724 	 0.0877539379579659
231.0854067262 	 0.130168341304316
239.0763210804 	 0.627440656399456
241.069756662 	 0.117005250610621
242.043424152 	 0.308601348485513
244.0590742162 	 0.429994295994033
246.0525097978 	 0.141868866365378
247.0573971945 	 0.355403448729762
248.068159862 	 11.1900896552733
249.0730472587 	 1.78286750617934
260.0340023199 	 1.23294282830942
261.0355188982 	 0.228160238690711
261.0384565336 	 0.188670966609627
261.0759848941 	 0.115542684977988
262.0496523841 	 1.60443449899814
263.0511689624 	 0.393430155178214
264.0589939945 	 0.119930381875887
264.0653024483 	 0.118467816243254
266.018272034 	 0.112617553712723
266.0212096694 	 0.11115498808009
267.0324055199 	 0.773697219662732
268.040230552 	 0.216459713629649
269.0417471303 	 0.143331431998011
270.0747242804 	 0.0848288066927003
274.0838099262 	 0.700568938031094
275.0886973229 	 1.10131192137247
276.096522355 	 0.226697673058078
280.040230552 	 20.3091863747386
281.0417471303 	 1.83259473768885
281.0446847657 	 1.46987846079593
288.0589939945 	 0.16380735085487
288.0653024483 	 0.128705775671683
308.0715306804 	 3.07138782852881
309.0730472587 	 0.595264212481535
310.0712338672 	 0.17989557281383
348.1528943797 	 0.345165489301332
357.1357277372 	 0.118467816243254
368.1591226118 	 0.726895119418484
369.1606800387 	 0.143331431998011
388.1653508439 	 0.545536980972021
389.173175876 	 0.245711026282304
408.171579076 	 100
END IONS

BEGIN IONS
PEPMASS=337.1927
CHARGE=1
MSLEVEL=2
RT=0
SOURCE_INSTRUMENT=qTOF
FILENAME=CCMSLIB00000078607.ms
IONMODE=Positive
ORGANISM=Natural
NAME=Catharanthine
PI=GNPS
DATACOLLECTOR=GNPS
SMILES=CCC1=C[C@H]2C[C@@]3(c4c(CCN(C2)[C@H]13)c1ccccc1[nH]4)C(=O)OC
INCHI=InChI=1S/C21H24N2O2/c1-3-14-10-13-11-21(20(24)25-2)18-16(8-9-23(12-13)19(14)21)15-6-4-5-7-17(15)22-18/h4-7,10,13,19,22H,3,8-9,11-12H2,1-2H3/t13-,19+,21-/m0/s1
FORMULA=C21H24N2O2
PUBMED=N/A
SUBMITUSER=BIOADREM
LIBRARYQUALITY=0
SPECTRUMID=CCMSLIB00000078607
SCANS=1064
ID=CCMSLIB00000078607
91.0542261926 	 1.42
93.0698762568 	 1.65
103.0542261926 	 0.3
105.0698762568 	 0.33
115.0542261926 	 0.31
117.0698762568 	 0.45
130.0651252299 	 0.9
133.0647908789 	 1.52
144.0807752941 	 100
156.0807752941 	 0.49
165.0910056294 	 7.01
168.0807752941 	 5.94
170.0964253583 	 0.64
173.1073243956 	 20.33
196.0756899162 	 1.27
198.0913399804 	 0.26
228.1019046667 	 10.41
248.1433755509 	 2.17
277.1699246524 	 0.4
305.1648392745 	 1.74
337.191054025 	 150.72
END IONS

BEGIN IONS
PEPMASS=502.2952
CHARGE=1
MSLEVEL=2
RT=0
SOURCE_INSTRUMENT=qTOF
FILENAME=CCMSLIB00000078609.ms
IONMODE=Positive
ORGANISM=Natural
NAME=Fexofenadine HCl
PI=GNPS
DATACOLLECTOR=GNPS
SMILES=CC(C)(c1ccc(cc1)C(CCCN1CCC(CC1)C(c1ccccc1)(c1ccccc1)O)O)C(=O)O
INCHI=InChI=1S/C32H39NO4/c1-31(2,30(35)36)25-17-15-24(16-18-25)29(34)14-9-21-33-22-19-28(20-23-33)32(37,26-10-5-3-6-11-26)27-12-7-4-8-13-27/h3-8,10-13,15-18,28-29,34,37H,9,14,19-23H2,1-2H3,(H,35,36)
FORMULA=C32H39NO4
PUBMED=N/A
SUBMITUSER=BIOADREM
LIBRARYQUALITY=0
SPECTRUMID=CCMSLIB00000078609
SCANS=1065
ID=CCMSLIB00000078609
91.0542261926 	 1.975
105.0698762568 	 0.82
107.0491408147 	 0.6
115.0542261926 	 1.495
116.0620512247 	 0.515
117.0698762568 	 2.035
122.0964253583 	 0.945
124.1120754225 	 1.14
128.0620512247 	 2.805
129.0698762568 	 9.01
131.085526321 	 19.875
141.0698762568 	 1.25
142.0777012889 	 0.53
143.085526321 	 8.265
145.1011763852 	 1.575
155.085526321 	 0.865
156.0933513531 	 0.785
157.1011763852 	 0.945
167.085526321 	 1.91
169.1011763852 	 1.04
170.0964253583 	 0.495
171.1168264494 	 74.205
177.0910056294 	 2.005
181.1011763852 	 0.43
189.1273911357 	 2.915
199.1117410715 	 0.39
200.1433755509 	 0.255
204.0933513531 	 0.445
217.1223057578 	 1.405
219.1168264494 	 1.335
231.1168264494 	 0.51
246.1488548593 	 2.23
250.1590256151 	 4.21
252.1746756793 	 0.395
260.1645049235 	 1.33
262.1590256151 	 15.035
272.1645049235 	 1.265
280.1695903014 	 1.785
288.1746756793 	 1.3
298.1801549877 	 4.875
300.1958050519 	 0.455
466.2740553729 	 100
467.281880405 	 42.22
484.2846200592 	 40.045
485.2924450913 	 14.06
502.2951847455 	 58.92
END IONS

BEGIN IONS
PEPMASS=232.1439
CHARGE=1
MSLEVEL=2
RT=0
SOURCE_INSTRUMENT=qTOF
FILENAME=CCMSLIB00000078610.ms
IONMODE=Positive
ORGANISM=Natural
NAME=Amidopyrine
PI=GNPS
DATACOLLECTOR=GNPS
SMILES=Cc1c(c(=O)n(c2ccccc2)n1C)N(C)C
INCHI=InChI=1S/C13H17N3O/c1-10-12(14(2)3)13(17)16(15(10)4)11-8-6-5-7-9-11/h5-9H,1-4H3
FORMULA=C13H17N3O
PUBMED=N/A
SUBMITUSER=BIOADREM
LIBRARYQUALITY=0
SPECTRUMID=CCMSLIB00000078610
SCANS=1066
ID=CCMSLIB00000078610
97.0760242672 	 15.93
98.0838492993 	 23.34
106.0651252299 	 3.84
111.0916743314 	 36.83
113.1073243956 	 100
118.0651252299 	 6.71
133.0760242672 	 3.07
134.060039852 	 3.42
139.0865889535 	 10.69
149.1073243956 	 3.98
150.0913399804 	 2.66
159.0916743314 	 9.29
177.1022390177 	 9.29
187.0865889535 	 15.79
232.1444381834 	 154.09
END IONS

BEGIN IONS
PEPMASS=269.1062
CHARGE=1
MSLEVEL=2
RT=0
SOURCE_INSTRUMENT=qTOF
FILENAME=CCMSLIB00000078611.ms
IONMODE=Positive
ORGANISM=Natural
NAME=Moclobemide
PI=GNPS
DATACOLLECTOR=GNPS
SMILES=c1cc(ccc1C(=O)NCCN1CCOCC1)Cl
INCHI=InChI=1S/C13H17ClN2O2/c14-12-3-1-11(2-4-12)13(17)15-5-6-16-7-9-18-10-8-16/h1-4H,5-10H2,(H,15,17)
FORMULA=C13H17ClN2O2
PUBMED=N/A
SUBMITUSER=BIOADREM
LIBRARYQUALITY=0
SPECTRUMID=CCMSLIB00000078611
SCANS=1067
ID=CCMSLIB00000078611
110.9996038063 	 2.5184129246852
114.0913399804 	 0.789973865526253
138.9945184284 	 81.5157994773105
182.0367175941 	 100
185.0363832431 	 1.44333570919458
269.1051315103 	 41.2093133760988
END IONS

BEGIN IONS
PEPMASS=315.1889
CHARGE=1
MSLEVEL=2
RT=0
SOURCE_INSTRUMENT=qTOF
FILENAME=CCMSLIB00000078612.ms
IONMODE=Positive
ORGANISM=Natural
NAME=Pergolide mesylate
PI=GNPS
DATACOLLECTOR=GNPS
SMILES=CCCN1C[C@H](C[C@@H]2c3cccc4c3c(C[C@@H]12)c[nH]4)CSC
INCHI=InChI=1S/C19H26N2S/c1-3-7-21-11-13(12-22-2)8-16-15-5-4-6-17-19(15)14(10-20-17)9-18(16)21/h4-6,10,13,16,18,20H,3,7-9,11-12H2,1-2H3/t13-,16+,18+/m0/s1
FORMULA=C19H26N2S
PUBMED=N/A
SUBMITUSER=BIOADREM
LIBRARYQUALITY=0
SPECTRUMID=CCMSLIB00000078612
SCANS=1068
ID=CCMSLIB00000078612
129.0698762568 	 0.73
130.0651252299 	 3.09
143.085526321 	 0.8
144.0807752941 	 1.36
153.0698762568 	 1.65
154.0651252299 	 20.79
155.072950262 	 7.69
156.0807752941 	 4.03
165.0698762568 	 2.14
167.072950262 	 19.63
168.0807752941 	 8.98
170.0964253583 	 7.32
179.085526321 	 7.74
180.0807752941 	 20.11
182.0964253583 	 7.38
191.085526321 	 2.53
192.0807752941 	 4.96
193.0886003262 	 24.29
194.0964253583 	 7.18
195.1042503904 	 4.22
196.1120754225 	 10.99
198.1277254867 	 5.76
206.0964253583 	 2.34
207.1042503904 	 2.15
208.1120754225 	 100
210.1277254867 	 11.29
213.138624524 	 0.76
223.1229744598 	 0.97
224.1307994919 	 1.25
225.138624524 	 4.26
239.1542745882 	 1.55
244.1154462409 	 2.47
246.1310963051 	 2.41
256.1154462409 	 2.02
267.1855747166 	 5.91
273.1419953424 	 0.9
315.188945535 	 167.5
END IONS

BEGIN IONS
PEPMASS=399.2877
CHARGE=1
MSLEVEL=2
RT=0
SOURCE_INSTRUMENT=qTOF
FILENAME=CCMSLIB00000078613.ms
IONMODE=Positive
ORGANISM=Natural
NAME=Lithocholic acid
PI=GNPS
DATACOLLECTOR=GNPS
SMILES=C[C@H](CCC(=O)O)[C@@H]1CC[C@H]2[C@@H]3CC[C@@H]4C[C@@H](CC[C@]4(C)[C@H]3CC[C@]12C)O
INCHI=InChI=1S/C24H40O3/c1-15(4-9-22(26)27)19-7-8-20-18-6-5-16-14-17(25)10-12-23(16,2)21(18)11-13-24(19,20)3/h15-21,25H,4-14H2,1-3H3,(H,26,27)/t15-,16-,17-,18+,19+,20+,21+,23+,24-/m1/s1
FORMULA=C24H40O3
PUBMED=N/A
SUBMITUSER=BIOADREM
LIBRARYQUALITY=0
SPECTRUMID=CCMSLIB00000078613
SCANS=1069
ID=CCMSLIB00000078613
73.1011763852 	 8.93
85.1011763852 	 8.71
87.1168264494 	 20.16
99.1168264494 	 17.87
125.1324765136 	 13.75
127.1481265778 	 34.14
139.1481265778 	 10.08
141.163776642 	 12.71
142.1716016741 	 9.39
155.1430411999 	 8.93
167.1794267062 	 13.63
173.1536058862 	 28.18
181.1950767704 	 8.82
183.2107268346 	 9.62
187.1692559504 	 12.26
191.1794267062 	 8.82
193.1950767704 	 6.3
201.1849060146 	 8.36
213.1849060146 	 8.59
223.242026963 	 13.97
227.2005560788 	 17.75
231.1954707009 	 5.84
233.2263768988 	 5.73
241.216206143 	 6.99
281.2475062714 	 6.07
301.2889771556 	 75.26
302.2968021877 	 12.14
337.3101065282 	 100
377.3050211503 	 108.82
END IONS

BEGIN IONS
PEPMASS=445.1621
CHARGE=1
MSLEVEL=2
RT=0
SOURCE_INSTRUMENT=qTOF
FILENAME=CCMSLIB00000078614.ms
IONMODE=Positive
ORGANISM=Natural
NAME=Doxycycline HCl
PI=GNPS
DATACOLLECTOR=GNPS
SMILES=C[C@@H]1c2cccc(c2C(=O)C2=C([C@]3([C@H]([C@H](C(=C(C3=O)C(=N)O)O)N(C)C)[C@@H]([C@H]12)O)O)O)O
INCHI=InChI=1S/C22H24N2O8/c1-7-8-5-4-6-9(25)11(8)16(26)12-10(7)17(27)14-15(24(2)3)18(28)13(21(23)31)20(30)22(14,32)19(12)29/h4-7,10,14-15,17,25,27-29,32H,1-3H3,(H2,23,31)/t7-,10-,14-,15-,17-,22+/m1/s1
FORMULA=C22H24N2O8
PUBMED=N/A
SUBMITUSER=BIOADREM
LIBRARYQUALITY=0
SPECTRUMID=CCMSLIB00000078614
SCANS=1070
ID=CCMSLIB00000078614
98.060039852 	 1.25
126.0549544741 	 1.08
154.0498690962 	 3.94
173.059705501 	 0.59
187.0753555652 	 0.63
201.0546201231 	 4.58
213.0910056294 	 0.71
227.0702701873 	 0.63
239.0702701873 	 1.21
241.0859202515 	 2.24
251.0702701873 	 0.8
255.0651848094 	 0.7
257.0808348736 	 0.87
265.0859202515 	 0.7
267.0651848094 	 8.8
268.0689870961 	 1.58
269.0808348736 	 2.72
278.0573597773 	 0.81
283.0600994315 	 0.7
285.0757494957 	 1.01
291.0651848094 	 0.74
293.0808348736 	 3.4
294.0846371603 	 0.71
303.0651848094 	 1.22
306.0522743994 	 0.72
309.0757494957 	 0.9
311.0913995599 	 0.59
319.0600994315 	 0.88
321.0757494957 	 7.45
322.0795517824 	 1.85
334.0471890215 	 1.01
336.1230340393 	 0.59
337.0706641178 	 1.5
339.086314182 	 4.39
340.0901164687 	 1
349.0706641178 	 1.58
364.1179486614 	 0.77
367.0812288041 	 1.78
382.1285133477 	 0.98
392.1128632835 	 1.32
410.1234279698 	 4.24
428.1339926561 	 100
429.1418176882 	 42.04
445.1605417576 	 66.11
END IONS

BEGIN IONS
PEPMASS=341.1974
CHARGE=1
MSLEVEL=2
RT=0
SOURCE_INSTRUMENT=qTOF
FILENAME=CCMSLIB00000078617.ms
IONMODE=Positive
ORGANISM=Natural
NAME=Pentamidine HCl
PI=GNPS
DATACOLLECTOR=GNPS
SMILES=C(CCOc1ccc(cc1)C(=N)N)CCOc1ccc(cc1)C(=N)N
INCHI=InChI=1S/C19H24N4O2/c20-18(21)14-4-8-16(9-5-14)24-12-2-1-3-13-25-17-10-6-15(7-11-17)19(22)23/h4-11H,1-3,12-13H2,(H3,20,21)(H3,22,23)
FORMULA=C19H24N4O2
PUBMED=N/A
SUBMITUSER=BIOADREM
LIBRARYQUALITY=0
SPECTRUMID=CCMSLIB00000078617
SCANS=1071
ID=CCMSLIB00000078617
95.047798144 	 3.32
120.0443897878 	 53.88
136.0631138572 	 4.51
137.0709388893 	 55.01
139.0740128945 	 2.63
146.060039852 	 3
149.0709388893 	 14.83
152.0580284793 	 2.57
188.1069900446 	 4.63
280.1080526771 	 3
307.1441038324 	 6.51
324.1706529339 	 100
341.1972020354 	 335.11
END IONS

BEGIN IONS
PEPMASS=397.1682
CHARGE=1
MSLEVEL=2
RT=0
SOURCE_INSTRUMENT=qTOF
FILENAME=CCMSLIB00000078618.ms
IONMODE=Positive
ORGANISM=Natural
NAME=Mirabegron (YM178)
PI=GNPS
DATACOLLECTOR=GNPS
SMILES=c1ccc(cc1)[C@H](CNCCc1ccc(cc1)NC(=O)Cc1csc(=N)[nH]1)O
INCHI=InChI=1S/C21H24N4O2S/c22-21-25-18(14-28-21)12-20(27)24-17-8-6-15(7-9-17)10-11-23-13-19(26)16-4-2-1-3-5-16/h1-9,14,19,23,26H,10-13H2,(H2,22,25)(H,24,27)/t19-/m0/s1
FORMULA=C21H24N4O2S
PUBMED=N/A
SUBMITUSER=BIOADREM
LIBRARYQUALITY=0
SPECTRUMID=CCMSLIB00000078618
SCANS=1072
ID=CCMSLIB00000078618
103.0542261926 	 2.92
113.0167948288 	 8.83
118.0651252299 	 1.64
120.0807752941 	 16.56
128.0494751657 	 6.77
141.0117094509 	 6.13
144.0807752941 	 1.48
146.060039852 	 30.04
182.0838492993 	 1.44
215.0637450214 	 2.47
260.085208745 	 19
262.0849119318 	 1.73
265.1335391461 	 2.82
289.0793950856 	 1.25
361.1481433528 	 3.27
362.1321589376 	 2.18
379.1587080391 	 100
397.1692727254 	 29.49
END IONS

BEGIN IONS
PEPMASS=337.2122
CHARGE=1
MSLEVEL=2
RT=0
SOURCE_INSTRUMENT=qTOF
FILENAME=CCMSLIB00000078619.ms
IONMODE=Positive
ORGANISM=Natural
NAME=Acebutolol HCl
PI=GNPS
DATACOLLECTOR=GNPS
SMILES=CCCC(=Nc1ccc(c(c1)C(=O)C)OCC(CNC(C)C)O)O
INCHI=InChI=1S/C18H28N2O4/c1-5-6-18(23)20-14-7-8-17(16(9-14)13(4)21)24-11-15(22)10-19-12(2)3/h7-9,12,15,19,22H,5-6,10-11H2,1-4H3,(H,20,23)
FORMULA=C18H28N2O4
PUBMED=N/A
SUBMITUSER=BIOADREM
LIBRARYQUALITY=0
SPECTRUMID=CCMSLIB00000078619
SCANS=1073
ID=CCMSLIB00000078619
98.0964253583 	 1.99910008356367
103.0542261926 	 0.115703541813974
106.0651252299 	 0.24104904544578
110.060039852 	 2.15176447901266
115.0542261926 	 0.134987465449637
116.1069900446 	 16.069936363052
118.0651252299 	 0.12052452272289
120.0807752941 	 1.66645240084849
122.060039852 	 0.282027383171563
122.0964253583 	 0.216944140901202
132.0807752941 	 0.378447001349875
133.0522148199 	 0.184000771356945
134.060039852 	 0.539949861798547
134.0964253583 	 0.260332969081442
136.0756899162 	 0.632351995886096
144.0807752941 	 0.508613485890596
146.060039852 	 0.206498682265218
148.0756899162 	 5.50797068843607
150.0549544741 	 0.368805039532043
150.0913399804 	 0.768142958153886
151.0627795062 	 0.130969981358874
152.0706045383 	 0.396123931349232
160.0756899162 	 1.76367551584496
162.0913399804 	 0.517451950890274
164.0706045383 	 0.485312078164171
172.0756899162 	 0.508613485890596
180.1019046667 	 4.03676801439866
190.0862546025 	 0.96419618178312
192.1019046667 	 0.519862441344732
206.1175547309 	 0.564054766343125
216.1019046667 	 0.297293822716462
218.1175547309 	 6.52680465385357
222.112469353 	 2.82991579353346
230.1175547309 	 0.864562576332198
232.1332047951 	 0.131773478177026
234.112469353 	 0.900719933149065
242.1175547309 	 0.236228064536864
248.1281194172 	 1.07507874268818
260.1281194172 	 3.42369994214823
277.1546685187 	 0.233014077264254
278.1386841035 	 0.146236420903773
295.165233205 	 0.252298000899916
319.2016187113 	 7.62920228835894
337.2121833976 	 100
END IONS

BEGIN IONS
PEPMASS=448.1189
CHARGE=1
MSLEVEL=2
RT=0
SOURCE_INSTRUMENT=qTOF
FILENAME=CCMSLIB00000078620.ms
IONMODE=Positive
ORGANISM=Natural
NAME=Ampiroxicam
PI=GNPS
DATACOLLECTOR=GNPS
SMILES=CCOC(=O)OC(C)OC1=C(C(=Nc2ccccn2)O)N(C)S(=O)(=O)c2ccccc12
INCHI=InChI=1S/C20H21N3O7S/c1-4-28-20(25)30-13(2)29-18-14-9-5-6-10-15(14)31(26,27)23(3)17(18)19(24)22-16-11-7-8-12-21-16/h5-13H,4H2,1-3H3,(H,21,22,24)
FORMULA=C20H21N3O7S
PUBMED=N/A
SUBMITUSER=BIOADREM
LIBRARYQUALITY=0
SPECTRUMID=CCMSLIB00000078620
SCANS=1074
ID=CCMSLIB00000078620
70.0651252299 	 0.635256749602965
95.060374203 	 4.59237691900476
105.0447241388 	 0.701429327686607
107.060374203 	 0.158814187400741
112.0869233045 	 0.655108523028057
119.060374203 	 0.165431445209105
121.0396387609 	 10.0913181577554
121.0760242672 	 11.0574377977766
123.0916743314 	 5.41953414505029
124.0869233045 	 1.99179460031763
131.0161261268 	 1.23742721016411
135.0552888251 	 0.264690312334569
136.0869233045 	 0.29777660137639
146.0712732403 	 0.760984647961885
148.0505377982 	 0.648491265219693
153.0004760626 	 1.18448914769719
162.0661878624 	 1.34330333509794
163.0753555652 	 1.54182106934886
164.0818379266 	 6.14081524616199
167.0763210804 	 0.668343038644786
168.9953906847 	 8.02011646373743
169.006624073 	 0.860243515087348
169.0668190266 	 0.701429327686607
188.0402699251 	 1.73372154579142
189.0454148825 	 1.04552673372155
192.113138055 	 3.09687665431445
210.0219397862 	 4.27474854420328
211.1077183261 	 1.03229221810482
214.0644733029 	 0.999205929062996
230.0811692246 	 0.979354155637904
236.0375898504 	 0.383800952885124
238.0168544083 	 1.30359978824775
245.0431066966 	 0.668343038644786
250.0974879908 	 1.50873478030704
274.0684960483 	 1.73372154579142
275.0763210804 	 0.741132874536792
292.0790607346 	 1.76680783483324
296.0488232387 	 0.535997882477501
314.059387925 	 16.3644785600847
315.061162064 	 2.54102699841186
315.0645328824 	 0.661725780836421
316.0564110371 	 1.6278454208576
318.0880079787 	 0.701429327686607
332.0699526113 	 68.1842244573849
333.0750975687 	 13.8433033350979
334.0669757234 	 3.61964002117522
336.1052754851 	 4.06961355214399
358.0856026755 	 100
359.0907476329 	 20.1363155108523
360.0826257876 	 4.74457384859714
360.1012527397 	 10.5214399152991
361.0938216381 	 1.99179460031763
362.0982758518 	 0.363949179460032
448.1172967344 	 39.9682371625199
END IONS

BEGIN IONS
PEPMASS=311.1318
CHARGE=1
MSLEVEL=2
RT=0
SOURCE_INSTRUMENT=qTOF
FILENAME=CCMSLIB00000078623.ms
IONMODE=Positive
ORGANISM=Natural
NAME=Desloratadine
PI=GNPS
DATACOLLECTOR=GNPS
SMILES=c1cc2CCc3cc(ccc3C(=C3CCNCC3)c2nc1)Cl
INCHI=InChI=1S/C19H19ClN2/c20-16-5-6-17-15(12-16)4-3-14-2-1-9-22-19(14)18(17)13-7-10-21-11-8-13/h1-2,5-6,9,12,21H,3-4,7-8,10-11H2
FORMULA=C19H19ClN2
PUBMED=N/A
SUBMITUSER=BIOADREM
LIBRARYQUALITY=0
SPECTRUMID=CCMSLIB00000078623
SCANS=1076
ID=CCMSLIB00000078623
217.0886003262 	 0.230754681293739
230.0964253583 	 0.24966899943257
231.1042503904 	 1.34669945148477
232.1120754225 	 1.08189899754114
242.0964253583 	 0.162663135993947
243.1042503904 	 3.49158312842822
244.1120754225 	 3.66937771893323
245.1199004546 	 0.442595044448648
247.1355505188 	 0.737658407414413
252.0574530362 	 0.5598638169094
253.0652780683 	 2.37563835823719
258.1277254867 	 19.0202383204085
259.1355505188 	 75.6572725553244
265.0652780683 	 0.385852090032154
266.0731031004 	 2.82958199356913
267.0809281325 	 8.31851711745792
278.0731031004 	 1.13485908832987
279.0809281325 	 7.3009268015888
280.0887531646 	 5.52676376016645
281.0840021377 	 1.165121997352
282.1044032288 	 13.2589370153206
294.1044032288 	 19.6633251371288
311.1309523303 	 100
END IONS

BEGIN IONS
PEPMASS=585.2916
CHARGE=1
MSLEVEL=2
RT=0
SOURCE_INSTRUMENT=qTOF
FILENAME=CCMSLIB00000078625.ms
IONMODE=Positive
ORGANISM=Natural
NAME=Ouabain
PI=GNPS
DATACOLLECTOR=GNPS
SMILES=C[C@@H]1[C@@H]([C@H]([C@@H]([C@@H](O1)O[C@@H]1C[C@@H]([C@]2(CO)[C@@H]3[C@@H](CC[C@@]2(C1)O)[C@]1(CC[C@@H](C2=CC(=O)OC2)[C@@]1(C)C[C@H]3O)O)O)O)O)O
INCHI=InChI=1S/C29H44O12/c1-13-22(34)23(35)24(36)25(40-13)41-15-8-19(32)28(12-30)21-17(3-5-27(28,37)9-15)29(38)6-4-16(14-7-20(33)39-11-14)26(29,2)10-18(21)31/h7,13,15-19,21-25,30-32,34-38H,3-6,8-12H2,1-2H3/t13-,15-,16+,17-,18-,19+,21-,22+,23-,24+,25+,26-,27+,28-,29+/m1/s1
FORMULA=C29H44O12
PUBMED=N/A
SUBMITUSER=BIOADREM
LIBRARYQUALITY=0
SPECTRUMID=CCMSLIB00000078625
SCANS=1077
ID=CCMSLIB00000078625
141.0698762568 	 15.8
143.085526321 	 23.37
155.085526321 	 9.16
157.1011763852 	 47.41
159.1168264494 	 10.36
161.0960910073 	 12.88
170.1090014173 	 10.09
183.1168264494 	 10.49
233.1324765136 	 10.76
267.137955822 	 9.56
273.163776642 	 12.75
291.1743413283 	 9.16
319.1692559504 	 32.8
321.1849060146 	 15.27
323.1641705725 	 12.75
331.1692559504 	 17.8
332.1770809825 	 9.16
337.1798206367 	 79.68
349.1798206367 	 47.54
350.1876456688 	 25.37
351.1954707009 	 13.28
355.190385323 	 68.39
367.190385323 	 53.52
369.2060353872 	 9.03
373.2009500093 	 100
385.2009500093 	 66.14
403.2115146956 	 80.74
421.2220793819 	 39.31
423.2377294461 	 9.03
439.2326440682 	 70.12
440.2404691003 	 33.86
513.2482941324 	 9.03
531.2588588187 	 11.16
549.269423505 	 18.86
567.2799881913 	 10.62
585.2905528776 	 13.28
END IONS

BEGIN IONS
PEPMASS=274.0722
CHARGE=1
MSLEVEL=2
RT=0
SOURCE_INSTRUMENT=qTOF
FILENAME=CCMSLIB00000078626.ms
IONMODE=Positive
ORGANISM=Natural
NAME=Tolcapone
PI=GNPS
DATACOLLECTOR=GNPS
SMILES=Cc1ccc(cc1)C(=O)c1cc(c(c(c1)O)O)N(=O)=O
INCHI=InChI=1S/C14H11NO5/c1-8-2-4-9(5-3-8)13(17)10-6-11(15(19)20)14(18)12(16)7-10/h2-7,16,18H,1H3
FORMULA=C14H11NO5
PUBMED=N/A
SUBMITUSER=BIOADREM
LIBRARYQUALITY=0
SPECTRUMID=CCMSLIB00000078626
SCANS=1078
ID=CCMSLIB00000078626
50.0151010321 	 0.95
108.0205803405 	 2.9
119.0491408147 	 12.78
123.0076699305 	 2.78
136.0154949626 	 8.31
151.0025845526 	 12.16
182.008398212 	 100
274.0709984688 	 139.85
END IONS

BEGIN IONS
PEPMASS=375.1852
CHARGE=1
MSLEVEL=2
RT=0
SOURCE_INSTRUMENT=qTOF
FILENAME=CCMSLIB00000078630.ms
IONMODE=Positive
ORGANISM=Natural
NAME=Hydroxyzine 2HCl
PI=GNPS
DATACOLLECTOR=GNPS
SMILES=c1ccc(cc1)C(c1ccc(cc1)Cl)N1CCN(CC1)CCOCCO
INCHI=InChI=1S/C21H27ClN2O2/c22-20-8-6-19(7-9-20)21(18-4-2-1-3-5-18)24-12-10-23(11-13-24)14-16-26-17-15-25/h1-9,21,25H,10-17H2
FORMULA=C21H27ClN2O2
PUBMED=N/A
SUBMITUSER=BIOADREM
LIBRARYQUALITY=0
SPECTRUMID=CCMSLIB00000078630
SCANS=1081
ID=CCMSLIB00000078630
111.0916743314 	 0.21917007597896
115.0542261926 	 0.168030391583869
139.0542261926 	 0.255698421975453
141.0698762568 	 0.59906487434249
163.0542261926 	 0.321449444769141
164.0620512247 	 0.182641729982466
165.0698762568 	 61.0973115137347
166.0777012889 	 100
167.0815035756 	 19.2577440093513
168.0569658468 	 0.482174167153711
169.0647908789 	 0.263004091174752
183.0804409431 	 2.1551724137931
199.0309039347 	 1.45382817066043
201.0465539989 	 73.0566919929866
202.0503562856 	 36.1849795441262
375.1833818313 	 30.7641729982466
END IONS

BEGIN IONS
PEPMASS=379.24
CHARGE=1
MSLEVEL=2
RT=0
SOURCE_INSTRUMENT=qTOF
FILENAME=CCMSLIB00000078631.ms
IONMODE=Positive
ORGANISM=Natural
NAME=Doxapram HCl
PI=GNPS
DATACOLLECTOR=GNPS
SMILES=CCN1CC(CCN2CCOCC2)C(c2ccccc2)(c2ccccc2)C1=O
INCHI=InChI=1S/C24H30N2O2/c1-2-26-19-22(13-14-25-15-17-28-18-16-25)24(23(26)27,20-9-5-3-6-10-20)21-11-7-4-8-12-21/h3-12,22H,2,13-19H2,1H3
FORMULA=C24H30N2O2
PUBMED=N/A
SUBMITUSER=BIOADREM
LIBRARYQUALITY=0
SPECTRUMID=CCMSLIB00000078631
SCANS=1082
ID=CCMSLIB00000078631
91.0542261926 	 1.00315848763342
96.0807752941 	 0.731514291621809
97.0886003262 	 2.06121619598309
105.0698762568 	 0.268079311549513
117.0698762568 	 0.966796666120051
127.0542261926 	 0.201772460554553
128.0620512247 	 1.6583842517664
129.0698762568 	 6.82247588355661
131.085526321 	 0.112650349002189
134.0964253583 	 0.0812793657357565
140.1069900446 	 0.186799945813756
141.0698762568 	 0.28305182629031
143.085526321 	 9.85334065322943
145.0886003262 	 0.0841312733054322
152.0620512247 	 0.250967866131459
157.0647908789 	 0.945407359347483
160.1120754225 	 0.0698717354570538
165.0698762568 	 0.0976778342613916
167.085526321 	 11.1951631647618
172.1120754225 	 0.0641679203177025
186.1277254867 	 0.28946861832208
188.1069900446 	 0.39498919840008
195.0804409431 	 0.834895941022551
200.1069900446 	 0.129761794420243
204.0933513531 	 0.111224395217351
214.1226401088 	 0.426360181666512
219.1168264494 	 0.0976778342613916
247.1117410715 	 0.0812793657357565
264.1746756793 	 6.28988214491968
274.1590256151 	 0.313709832664323
292.1695903014 	 13.506634249984
379.2380042176 	 100
END IONS

BEGIN IONS
PEPMASS=344.2351
CHARGE=1
MSLEVEL=2
RT=0
SOURCE_INSTRUMENT=qTOF
FILENAME=CCMSLIB00000078632.ms
IONMODE=Positive
ORGANISM=Natural
NAME=Dibucaine (Cinchocaine) HCl
PI=GNPS
DATACOLLECTOR=GNPS
SMILES=CCCCOc1cc(c2ccccc2n1)C(=NCCN(CC)CC)O
INCHI=InChI=1S/C20H29N3O2/c1-4-7-14-25-19-15-17(16-10-8-9-11-18(16)22-19)20(24)21-12-13-23(5-2)6-3/h8-11,15H,4-7,12-14H2,1-3H3,(H,21,24)
FORMULA=C20H29N3O2
PUBMED=N/A
SUBMITUSER=BIOADREM
LIBRARYQUALITY=0
SPECTRUMID=CCMSLIB00000078632
SCANS=1083
ID=CCMSLIB00000078632
89.0385761284 	 0.269046078397984
115.0542261926 	 0.119197629669993
116.0494751657 	 25.2256240847325
118.0651252299 	 0.115791983107993
128.0494751657 	 0.745836597077955
130.0651252299 	 0.745836597077955
132.0443897878 	 0.248612199025985
142.0651252299 	 0.16347103497599
144.0443897878 	 31.6112113884821
146.060039852 	 1.21922146919593
152.0494751657 	 0.102169396859994
153.0447241388 	 0.974014916731942
156.0443897878 	 0.122603276231993
158.060039852 	 1.86969996253789
160.0756899162 	 0.463167932431972
169.0760242672 	 0.224772673091987
170.060039852 	 0.756053536763955
171.0552888251 	 10.7039471443654
172.0393044099 	 34.4719545005619
182.0964253583 	 0.180499267785989
187.0865889535 	 2.85733746551783
189.0658535114 	 0.16006538841399
197.0709388893 	 0.378026768381977
199.1229744598 	 0.177093621223989
200.1069900446 	 2.18301944624187
215.0815035756 	 92.6301808398324
227.1178890819 	 2.94588427612982
228.1019046667 	 8.22123080066751
243.1491892103 	 1.33501345230392
245.1284537682 	 0.388243708067977
253.1335391461 	 0.701563191771958
271.1441038324 	 100
288.1706529339 	 0.262234785273984
344.2332531907 	 32.925790961414
END IONS

BEGIN IONS
PEPMASS=299.2018
CHARGE=1
MSLEVEL=2
RT=0
SOURCE_INSTRUMENT=qTOF
FILENAME=CCMSLIB00000078634.ms
IONMODE=Positive
ORGANISM=Natural
NAME=Norethindrone (Norethisterone)
PI=GNPS
DATACOLLECTOR=GNPS
SMILES=C#C[C@@]1(CC[C@H]2[C@@H]3CCC4=CC(=O)CC[C@@H]4[C@@H]3CC[C@]12C)O
INCHI=InChI=1S/C20H26O2/c1-3-20(22)11-9-18-17-6-4-13-12-14(21)5-7-15(13)16(17)8-10-19(18,20)2/h1,12,15-18,22H,4-11H2,2H3/t15-,16-,17+,18-,19-,20-/m0/s1
FORMULA=C20H26O2
PUBMED=N/A
SUBMITUSER=BIOADREM
LIBRARYQUALITY=0
SPECTRUMID=CCMSLIB00000078634
SCANS=1084
ID=CCMSLIB00000078634
105.0698762568 	 32.91
107.0491408147 	 12.61
107.085526321 	 11.25
109.0647908789 	 83.62
117.0698762568 	 19.23
119.085526321 	 30.84
121.1011763852 	 13.82
129.0698762568 	 24.86
131.085526321 	 32.12
133.1011763852 	 18.23
135.0804409431 	 47.36
141.0698762568 	 11.61
142.0777012889 	 10.33
143.085526321 	 24
145.1011763852 	 51.42
146.1090014173 	 9.76
147.0804409431 	 13.89
149.0960910073 	 30.41
155.085526321 	 16.74
157.1011763852 	 27.21
159.0804409431 	 13.53
159.1168264494 	 21.51
161.0960910073 	 21.08
161.1324765136 	 17.95
163.1117410715 	 16.03
169.1011763852 	 18.66
171.1168264494 	 50
173.1324765136 	 14.03
175.1117410715 	 21.37
181.1011763852 	 17.81
183.1168264494 	 22.29
189.1273911357 	 18.95
195.1168264494 	 12.39
197.1324765136 	 11.11
199.1481265778 	 17.45
201.1273911357 	 10.26
211.1481265778 	 31.2
213.1273911357 	 12.68
213.163776642 	 25.21
221.1324765136 	 29.7
223.1481265778 	 19.23
229.1586912641 	 10.11
231.1743413283 	 100
235.1481265778 	 15.53
237.163776642 	 13.75
239.1794267062 	 23.01
241.1586912641 	 13.11
253.1586912641 	 9.76
257.1899913925 	 16.1
263.1794267062 	 36.04
281.1899913925 	 99.29
299.2005560788 	 2356.05
END IONS

BEGIN IONS
PEPMASS=426.0729
CHARGE=1
MSLEVEL=2
RT=0
SOURCE_INSTRUMENT=qTOF
FILENAME=CCMSLIB00000078637.ms
IONMODE=Positive
ORGANISM=Natural
NAME=Toltrazuril
PI=GNPS
DATACOLLECTOR=GNPS
SMILES=Cc1cc(ccc1Oc1ccc(cc1)SC(F)(F)F)n1c(=O)nc(n(C)c1=O)O
INCHI=InChI=1S/C18H14F3N3O4S/c1-10-9-11(24-16(26)22-15(25)23(2)17(24)27)3-8-14(10)28-12-4-6-13(7-5-12)29-18(19,20)21/h3-9H,1-2H3,(H,22,25,26)
FORMULA=C18H14F3N3O4S
PUBMED=N/A
SUBMITUSER=BIOADREM
LIBRARYQUALITY=0
SPECTRUMID=CCMSLIB00000078637
SCANS=1085
ID=CCMSLIB00000078637
115.0012249863 	 8.56
123.9955084442 	 2.56
133.0522148199 	 11.97
144.9920198663 	 3.14
148.0393044099 	 12.86
149.0419469468 	 1.98
164.9982480984 	 25.46
181.0647908789 	 7.75
182.043424152 	 2.6
182.072615911 	 11.74
192.9931627205 	 100
193.9944625867 	 13.95
194.9910542305 	 7.75
214.044686601 	 2.13
225.0784295704 	 11
229.0493180331 	 3.72
247.0551692303 	 2.52
248.0665817929 	 5.81
254.0571599608 	 7.21
256.0464981572 	 5.04
257.0442326552 	 2.48
283.039896201 	 7.67
284.0465952745 	 3.37
285.0328388235 	 3.41
286.0292306508 	 2.17
298.0469723094 	 4.73
299.0523118166 	 3.18
306.0394816283 	 10
308.1029672992 	 3.25
325.1057069534 	 11.27
326.0457098604 	 4.3
327.0472264387 	 2.6
354.0884600892 	 2.52
356.0699526113 	 3.14
359.0745840434 	 2.83
386.0605307792 	 3.49
406.0667590113 	 17.67
425.0651622113 	 6.01
426.0729872434 	 347.35
END IONS

BEGIN IONS
PEPMASS=362.1388
CHARGE=1
MSLEVEL=2
RT=0
SOURCE_INSTRUMENT=qTOF
FILENAME=CCMSLIB00000078638.ms
IONMODE=Positive
ORGANISM=Natural
NAME=Bisacodyl
PI=GNPS
DATACOLLECTOR=GNPS
SMILES=CC(=O)Oc1ccc(cc1)C(c1ccc(cc1)OC(=O)C)c1ccccn1
INCHI=InChI=1S/C22H19NO4/c1-15(24)26-19-10-6-17(7-11-19)22(21-5-3-4-14-23-21)18-8-12-20(13-9-18)27-16(2)25/h3-14,22H,1-2H3
FORMULA=C22H19NO4
PUBMED=N/A
SUBMITUSER=BIOADREM
LIBRARYQUALITY=0
SPECTRUMID=CCMSLIB00000078638
SCANS=1086
ID=CCMSLIB00000078638
128.0620512247 	 0.14
129.0698762568 	 0.235
139.0542261926 	 0.205
154.0651252299 	 1.055
156.0807752941 	 3.58
166.0651252299 	 0.72
167.072950262 	 12.48
170.060039852 	 0.2
183.0678648841 	 18.5
184.0756899162 	 100
199.0753555652 	 0.205
226.0862546025 	 1.42
227.0940796346 	 2.775
297.112135002 	 1.47
362.1386841035 	 77.945
END IONS

BEGIN IONS
PEPMASS=187.0538
CHARGE=1
MSLEVEL=2
RT=0
SOURCE_INSTRUMENT=qTOF
FILENAME=CCMSLIB00000078639.ms
IONMODE=Positive
ORGANISM=Natural
NAME=Carbimazole
PI=GNPS
DATACOLLECTOR=GNPS
SMILES=CCOC(=O)n1ccn(C)c1=S
INCHI=InChI=1S/C7H10N2O2S/c1-3-11-7(10)9-5-4-8(2)6(9)12/h4-5H,3H2,1-2H3
FORMULA=C7H10N2O2S
PUBMED=N/A
SUBMITUSER=BIOADREM
LIBRARYQUALITY=0
SPECTRUMID=CCMSLIB00000078639
SCANS=1087
ID=CCMSLIB00000078639
100.0089697967 	 1.09
115.032444893 	 100
143.0637450214 	 42.41
187.0535742656 	 38.25
END IONS

BEGIN IONS
PEPMASS=315.0818
CHARGE=1
MSLEVEL=2
RT=0
SOURCE_INSTRUMENT=qTOF
FILENAME=CCMSLIB00000078640.ms
IONMODE=Positive
ORGANISM=Natural
NAME=Valdecoxib
PI=GNPS
DATACOLLECTOR=GNPS
SMILES=Cc1c(c2ccc(cc2)S(=O)(=O)N)c(c2ccccc2)no1
INCHI=InChI=1S/C16H14N2O3S/c1-11-15(12-7-9-14(10-8-12)22(17,19)20)16(18-21-11)13-5-3-2-4-6-13/h2-10H,1H3,(H2,17,19,20)
FORMULA=C16H14N2O3S
PUBMED=N/A
SUBMITUSER=BIOADREM
LIBRARYQUALITY=0
SPECTRUMID=CCMSLIB00000078640
SCANS=1088
ID=CCMSLIB00000078640
103.0542261926 	 3.68434431699025
105.0698762568 	 0.302659591369833
115.0542261926 	 0.172380922118776
130.0651252299 	 0.16443710082298
131.0491408147 	 13.5553366591465
132.0569658468 	 21.377617489117
141.0698762568 	 0.149343840360967
147.0440554368 	 0.38924724349401
148.0756899162 	 0.195418003876585
149.059705501 	 0.109624733881987
152.0620512247 	 0.282005656000763
153.0698762568 	 0.180324743414572
163.0542261926 	 0.162053954434241
165.0698762568 	 6.83089193225509
168.0807752941 	 0.131867433510216
169.0647908789 	 0.120746083696101
177.0573001978 	 0.125512376473579
178.0777012889 	 0.170792157859617
179.072950262 	 0.140605636935591
180.0807752941 	 0.783260779765498
181.0647908789 	 0.189062946839948
191.072950262 	 1.92002160719392
191.0763210804 	 0.652982110514442
192.0807752941 	 4.90769279654285
193.0886003262 	 6.86346159956786
194.0964253583 	 0.466302310063233
195.0110407489 	 1.97086206348702
196.0756899162 	 2.14483174986495
204.0807752941 	 0.32887420164596
206.0964253583 	 0.807886625782467
208.0756899162 	 3.56280385116456
209.0835149483 	 0.271678688316228
212.0375898504 	 3.06869816656604
216.0807752941 	 0.160465190175082
217.0886003262 	 0.12392361221442
219.0678648841 	 0.454386578119539
219.0712357025 	 0.232753963966827
220.0756899162 	 23.8314638873884
224.0706045383 	 0.437704553398367
234.0913399804 	 4.29284102824823
235.0991650125 	 4.78059165581011
250.0862546025 	 0.494105684598519
251.0576941283 	 0.334434876553017
256.0426752283 	 0.162053954434241
267.0889942567 	 0.146960693972228
273.0692243298 	 1.17568555177783
315.0797890161 	 100
END IONS

BEGIN IONS
PEPMASS=306.0822
CHARGE=1
MSLEVEL=2
RT=0
SOURCE_INSTRUMENT=qTOF
FILENAME=CCMSLIB00000078642.ms
IONMODE=Positive
ORGANISM=Natural
NAME=Sertraline HCl
PI=GNPS
DATACOLLECTOR=GNPS
SMILES=CN[C@@H]1CC[C@@H](c2ccc(c(c2)Cl)Cl)c2ccccc12
INCHI=InChI=1S/C17H17Cl2N/c1-20-17-9-7-12(13-4-2-3-5-14(13)17)11-6-8-15(18)16(19)10-11/h2-6,8,10,12,17,20H,7,9H2,1H3/t12-,17+/m0/s1
FORMULA=C17H17Cl2N
PUBMED=N/A
SUBMITUSER=BIOADREM
LIBRARYQUALITY=0
SPECTRUMID=CCMSLIB00000078642
SCANS=1090
ID=CCMSLIB00000078642
122.9996038063 	 1.1
128.0620512247 	 2.89
132.9606314842 	 0.83
158.9762815484 	 100
162.0230789026 	 1.14
163.0309039347 	 0.25
196.9919316126 	 1.57
225.0465539989 	 0.66
239.0622040631 	 0.29
240.0700290952 	 2.69
260.0154067089 	 0.34
275.0388818052 	 95.71
306.0810809709 	 1.98
END IONS

BEGIN IONS
PEPMASS=518.3299
CHARGE=1
MSLEVEL=2
RT=0
SOURCE_INSTRUMENT=qTOF
FILENAME=CCMSLIB00000078643.ms
IONMODE=Positive
ORGANISM=Natural
NAME=Retapamulin
PI=GNPS
DATACOLLECTOR=GNPS
SMILES=C=C[C@@]1(C)C[C@H]([C@]2(C)[C@@H](C)CC[C@]3(CCC(=O)[C@@H]23)[C@@H](C)[C@@H]1O)OC(=O)CS[C@H]1C[C@@H]2CC[C@H](C1)N2C
INCHI=InChI=1S/C30H47NO4S/c1-7-28(4)16-24(35-25(33)17-36-22-14-20-8-9-21(15-22)31(20)6)29(5)18(2)10-12-30(19(3)27(28)34)13-11-23(32)26(29)30/h7,18-22,24,26-27,34H,1,8-17H2,2-6H3/t18-,19-,20-,21+,22-,24+,26-,27-,28-,29-,30-/m0/s1
FORMULA=C30H47NO4S
PUBMED=N/A
SUBMITUSER=BIOADREM
LIBRARYQUALITY=0
SPECTRUMID=CCMSLIB00000078643
SCANS=1091
ID=CCMSLIB00000078643
105.0698762568 	 1.02
107.085526321 	 0.93
109.1011763852 	 1.9
119.085526321 	 2.08
121.1011763852 	 1.63
124.1120754225 	 9.97
131.085526321 	 1.13
133.1011763852 	 3.49
135.0804409431 	 1.41
135.1168264494 	 1.09
143.085526321 	 1.09
145.1011763852 	 2.06
147.1168264494 	 2.86
149.0960910073 	 2.52
149.1324765136 	 1.38
156.0841461125 	 1.67
157.1011763852 	 1.04
159.1168264494 	 2.8
161.0960910073 	 1.09
161.1324765136 	 2.22
163.1117410715 	 10.61
165.1273911357 	 0.94
171.1168264494 	 1.72
173.1324765136 	 3.17
175.1117410715 	 2.86
175.1481265778 	 2.73
177.1273911357 	 2.72
183.1168264494 	 1.24
185.1324765136 	 1.95
187.1481265778 	 3.36
189.1273911357 	 1.55
189.163776642 	 1.07
191.1430411999 	 1.44
197.1324765136 	 1.29
199.1481265778 	 1.02
201.163776642 	 1.95
203.1430411999 	 2.58
205.1586912641 	 0.86
211.1481265778 	 1.54
213.163776642 	 0.89
215.1430411999 	 1.39
215.1794267062 	 1.61
216.1052754851 	 100
221.1536058862 	 2.04
227.1794267062 	 2.35
229.1586912641 	 1.22
229.1950767704 	 1.49
233.1536058862 	 0.89
245.1899913925 	 3.65
257.2263768988 	 1.36
267.2107268346 	 2.3
285.2212915209 	 4.83
303.2318562072 	 3
518.3298556923 	 86.43
END IONS

BEGIN IONS
PEPMASS=359.9622
CHARGE=1
MSLEVEL=2
RT=0
SOURCE_INSTRUMENT=qTOF
FILENAME=CCMSLIB00000078644.ms
IONMODE=Positive
ORGANISM=Natural
NAME=Methyclothiazide
PI=GNPS
DATACOLLECTOR=GNPS
SMILES=CN1C(CCl)Nc2cc(c(cc2S1(=O)=O)S(=O)(=O)N)Cl
INCHI=InChI=1S/C9H11Cl2N3O4S2/c1-14-9(4-10)13-6-2-5(11)7(19(12,15)16)3-8(6)20(14,17)18/h2-3,9,13H,4H2,1H3,(H2,12,15,16)
FORMULA=C9H11Cl2N3O4S2
PUBMED=N/A
SUBMITUSER=BIOADREM
LIBRARYQUALITY=0
SPECTRUMID=CCMSLIB00000078644
SCANS=1092
ID=CCMSLIB00000078644
120.9920198663 	 6.43
142.0054174657 	 9
149.9979267846 	 8.76
155.9828703468 	 11.21
157.016316503 	 17.99
158.0003320878 	 13.67
159.0110407489 	 7.71
159.9647217205 	 6.07
171.9715305215 	 8.64
184.9748456188 	 18.34
185.9746045267 	 8.18
186.9727371288 	 12.97
187.9538690846 	 6.19
189.9569430898 	 10.16
201.9883496552 	 9.11
204.9833018151 	 60.51
205.9495588457 	 6.07
206.9811933251 	 11.68
213.9695191488 	 13.08
216.9594923678 	 17.99
220.9782164372 	 46.03
222.9761079472 	 27.57
229.9882432182 	 16.71
232.9782164372 	 6.31
234.9797494841 	 7.59
236.9234969336 	 5.96
236.9572023652 	 9
245.9889250983 	 11.92
253.9500460351 	 6.89
254.9466376789 	 11.45
268.9423181203 	 93.69
270.9402096303 	 22.9
280.9548941793 	 6.89
286.9528828066 	 100
288.9507743166 	 46.5
311.8953303899 	 9.46
328.9218794914 	 31.78
343.9453545877 	 6.07
359.9640786571 	 71.26
END IONS

BEGIN IONS
PEPMASS=325.1711
CHARGE=1
MSLEVEL=2
RT=0
SOURCE_INSTRUMENT=qTOF
FILENAME=CCMSLIB00000078645.ms
IONMODE=Positive
ORGANISM=Natural
NAME=Escitalopram Oxalate
PI=GNPS
DATACOLLECTOR=GNPS
SMILES=CN(C)CCCC1(c2ccc(cc2)F)c2ccc(cc2CO1)C#N
INCHI=InChI=1S/C20H21FN2O/c1-23(2)11-3-10-20(17-5-7-18(21)8-6-17)19-9-4-15(13-22)12-16(19)14-24-20/h4-9,12H,3,10-11,14H2,1-2H3
FORMULA=C20H21FN2O
PUBMED=N/A
SUBMITUSER=BIOADREM
LIBRARYQUALITY=0
SPECTRUMID=CCMSLIB00000078645
SCANS=1093
ID=CCMSLIB00000078645
109.0448043605 	 23.9934423473034
116.0494751657 	 4.11702887889361
121.0448043605 	 0.308545966623229
123.0229260642 	 0.394299886502165
123.0240689184 	 0.156374795073353
129.0698762568 	 0.56328555214595
130.0651252299 	 0.272394804321325
133.0448043605 	 0.17907436210013
139.0553690468 	 0.212703350287948
140.0494751657 	 1.44268359325739
142.0651252299 	 0.269031905502543
144.0443897878 	 0.410273655891378
147.0604544247 	 0.117701458657363
154.0651252299 	 0.383370465341124
156.0807752941 	 1.84455000210181
159.0604544247 	 0.158056244482744
166.0651252299 	 5.64882929084871
168.0807752941 	 0.129471604523099
183.0604544247 	 0.153011896254571
184.0756899162 	 0.229517844381857
190.0651252299 	 0.296775820757493
190.0662680841 	 0.095842616335281
207.0604544247 	 0.241287990247593
214.0662680841 	 0.195888856194039
215.085526321 	 1.4401614191433
218.060039852 	 1.23166169237883
220.0682794568 	 0.321156837193661
221.0635284299 	 4.76186472739501
222.071353462 	 3.06107864979612
227.072950262 	 4.81567110849552
233.0761044889 	 0.663331792004708
234.071353462 	 14.674849720459
235.0791784941 	 1.16104081718441
236.0870035262 	 1.71928202110219
237.058443052 	 0.222792046744294
238.0662680841 	 2.31031148850309
240.0819181483 	 1.40148808272731
241.0886003262 	 0.644835848501408
242.0964253583 	 3.14262894615158
245.0761044889 	 0.240447265542898
246.071353462 	 2.79961326663584
247.0791784941 	 12.1829416957417
250.1026535904 	 1.21568792298962
261.0948285583 	 0.637269326159149
262.1026535904 	 19.9125646307117
280.1132182767 	 2.64323847156249
307.1605028203 	 1.84202782798773
325.1710675066 	 100
END IONS

BEGIN IONS
PEPMASS=231.0215
CHARGE=1
MSLEVEL=2
RT=0
SOURCE_INSTRUMENT=qTOF
FILENAME=CCMSLIB00000078646.ms
IONMODE=Positive
ORGANISM=Natural
NAME=Guanabenz (WY-8678) Acetate
PI=GNPS
DATACOLLECTOR=GNPS
SMILES=c1cc(c(/C=N/NC(=N)N)c(c1)Cl)Cl
INCHI=InChI=1S/C8H8Cl2N4/c9-6-2-1-3-7(10)5(6)4-13-14-8(11)12/h1-4H,(H4,11,12,14)/b13-4+
FORMULA=C8H8Cl2N4
PUBMED=N/A
SUBMITUSER=BIOADREM
LIBRARYQUALITY=0
SPECTRUMID=CCMSLIB00000078646
SCANS=1094
ID=CCMSLIB00000078646
100.0181750373 	 2.91
108.9839537421 	 1.66
123.9948527794 	 0.64
135.9948527794 	 6.75
144.9606314842 	 2.69
152.0135768488 	 0.6
153.0214018809 	 4.87
159.9715305215 	 0.87
164.0010007898 	 11.5
171.9715305215 	 100
178.016650854 	 0.41
186.9824295588 	 1.14
188.998079623 	 7.96
213.9933285961 	 69.6
231.0198776976 	 289.11
END IONS

BEGIN IONS
PEPMASS=260.1645
CHARGE=1
MSLEVEL=2
RT=0
SOURCE_INSTRUMENT=qTOF
FILENAME=CCMSLIB00000078648.ms
IONMODE=Positive
ORGANISM=Natural
NAME=Propranolol HCl
PI=GNPS
DATACOLLECTOR=GNPS
SMILES=CC(C)NCC(COc1cccc2ccccc12)O
INCHI=InChI=1S/C16H21NO2/c1-12(2)17-10-14(18)11-19-16-9-5-7-13-6-3-4-8-15(13)16/h3-9,12,14,17-18H,10-11H2,1-2H3
FORMULA=C16H21NO2
PUBMED=N/A
SUBMITUSER=BIOADREM
LIBRARYQUALITY=0
SPECTRUMID=CCMSLIB00000078648
SCANS=1095
ID=CCMSLIB00000078648
98.0964253583 	 16.49
115.0542261926 	 3.35
116.1069900446 	 77.91
128.0620512247 	 6.4
129.0698762568 	 23.52
141.0698762568 	 6.58
143.0491408147 	 4.21
145.0647908789 	 9.95
153.0698762568 	 12.94
154.0777012889 	 4.35
155.085526321 	 72.42
156.0569658468 	 1.83
157.0647908789 	 46.23
165.0698762568 	 18.76
168.0569658468 	 6.35
169.0647908789 	 1.56
181.0647908789 	 1.49
182.072615911 	 2.08
183.0804409431 	 100
199.1117410715 	 1.64
200.1069900446 	 2.1
201.0910056294 	 1.41
218.1175547309 	 33.84
225.1273911357 	 2.73
242.1539402372 	 8.54
260.1645049235 	 910.14
END IONS

BEGIN IONS
PEPMASS=832.439
CHARGE=1
MSLEVEL=2
RT=0
SOURCE_INSTRUMENT=qTOF
FILENAME=CCMSLIB00000078652.ms
IONMODE=Positive
ORGANISM=Natural
NAME=Pimecrolimus
PI=GNPS
DATACOLLECTOR=GNPS
SMILES=CC[C@@H]1C=C(C)C[C@H](C)C[C@@H]([C@H]2[C@H](C[C@@H](C)[C@@](C(=O)C(=O)N3CCCC[C@H]3C(=O)O[C@H](/C(=C/[C@@H]3CC[C@H]([C@@H](C3)OC)Cl)/C)[C@H](C)[C@H](CC1=O)O)(O)O2)OC)OC
INCHI=InChI=1S/C43H68ClNO11/c1-10-30-18-24(2)17-25(3)19-36(53-8)39-37(54-9)21-27(5)43(51,56-39)40(48)41(49)45-16-12-11-13-32(45)42(50)55-38(28(6)33(46)23-34(30)47)26(4)20-29-14-15-31(44)35(22-29)52-7/h18,20,25,27-33,35-39,46,51H,10-17,19,21-23H2,1-9H3/b24-18+,26-20+/t25-,27+,28+,29-,30+,31+,32-,33-,35+,36-,37-,38+,39-,43+/m0/s1
FORMULA=C43H68ClNO11
PUBMED=N/A
SUBMITUSER=BIOADREM
LIBRARYQUALITY=0
SPECTRUMID=CCMSLIB00000078652
SCANS=1098
ID=CCMSLIB00000078652
338.2478406224 	 2.58157389635317
353.268635644 	 0.618042226487524
365.2838917777 	 4.46641074856046
367.2842857082 	 2.51247600767754
381.2635502661 	 2.04030710172745
382.263309174 	 0.493282149712092
397.2584648882 	 0.704414587332054
399.2741149524 	 0.671785028790787
409.250398764 	 1.7447216890595
409.2584648882 	 2.7274472168906
409.3231697766 	 4.46641074856046
410.2582237961 	 0.948176583493282
426.2531384182 	 0.452975047984645
427.2690295745 	 1.79846449136276
427.3206712145 	 2.86180422264875
429.3237452197 	 2.72168905950096
443.2513681376 	 1.95393474088292
443.2639441966 	 1.12284069097889
444.2637031045 	 0.470249520153551
451.2928390218 	 1.95393474088292
453.2482941324 	 2.33781190019194
454.2480530403 	 1.17274472168906
471.2588588187 	 15.8675623800384
472.2586177266 	 1.36276391554702
472.2693639255 	 2.16314779270633
510.3425288686 	 0.508637236084453
536.2979839792 	 2.65259117082534
538.3374434907 	 0.470249520153551
539.4225494702 	 2.51247600767754
539.4696811754 	 2.51247600767754
554.3323581128 	 6.22264875239923
555.3401831449 	 0.861804222648752
555.4044008439 	 0.884836852207294
557.4591164891 	 2.72168905950096
564.3167080486 	 0.518234165067179
564.3319641823 	 2.02495201535509
565.3245330807 	 0.477927063339731
567.368502527 	 2.86180422264875
573.4149655302 	 1.74856046065259
581.4200509081 	 2.09404990403071
582.3272727349 	 38.3877159309021
583.3270316428 	 2.93090211132438
583.335097767 	 7.6084452975048
583.399315466 	 1.42610364683301
584.3065372928 	 1.81381957773512
584.3343694855 	 4.81573896353167
591.381078586 	 3.46833013435701
593.4200509081 	 2.86180422264875
601.4098801523 	 3.6468330134357
602.4177051844 	 0.744721689059501
609.3790672133 	 4.53742802303263
609.3916432723 	 0.566218809980806
611.3947172775 	 3.28023032629559
619.3759932081 	 2.71209213051823
620.3685621065 	 3.14011516314779
620.3793083054 	 0.483685220729367
621.3633238902 	 0.55278310940499
622.4313438759 	 2.65259117082534
637.3865578944 	 7.31861804222649
638.3898729917 	 0.792706333973129
639.3896318996 	 0.834932821497121
645.3997093965 	 1.27447216890595
655.3971225807 	 0.476007677543186
655.4442542859 	 2.44337811900192
657.4127726449 	 2.58157389635317
663.3658224523 	 0.763915547024952
663.3896318996 	 3.00191938579655
663.4102740828 	 0.804222648752399
681.3763871386 	 3.15355086372361
683.3794611438 	 0.675623800383877
699.3869518249 	 1.78886756238004
701.3769625817 	 2.2341650671785
701.3900258301 	 0.798464491362764
756.4681233127 	 1.67178502879079
774.478687999 	 4.18618042226488
775.4865130311 	 0.727447216890595
792.4448010548 	 2.50287907869482
793.4526260869 	 3.86564299424184
810.4553657411 	 100
END IONS

BEGIN IONS
PEPMASS=319.118
CHARGE=1
MSLEVEL=2
RT=0
SOURCE_INSTRUMENT=qTOF
FILENAME=CCMSLIB00000078679.ms
IONMODE=Positive
ORGANISM=Natural
NAME=NCGC00160272-01!5-(3-Furan-2-yl-acryloyl)-2,2-dimethyl-4,6-dioxo-cyclohexanecarboxylic acid methyl ester
PI=GNPS
DATACOLLECTOR=GNPS
SMILES=CC1(C)CC(=O)C(C(=O)/C=C/c2ccco2)C(=O)C1C(=O)OC
INCHI=InChI=1S/C17H18O6/c1-17(2)9-12(19)13(15(20)14(17)16(21)22-3)11(18)7-6-10-5-4-8-23-10/h4-8,13-14H,9H2,1-3H3/b7-6+
FORMULA=C17H18O6
PUBMED=N/A
SUBMITUSER=BIOADREM
LIBRARYQUALITY=0
SPECTRUMID=CCMSLIB00000078679
SCANS=1100
ID=CCMSLIB00000078679
95.0491408147 	 1.09
107.0491408147 	 2.69
109.0284053726 	 1.87
109.0647908789 	 0.96
121.0284053726 	 100
123.0440554368 	 1.02
135.0440554368 	 1.78
151.0389700589 	 6.36
163.0389700589 	 2.89
165.0546201231 	 4.47
183.0651848094 	 3.25
193.0495347452 	 15.58
211.0600994315 	 7.12
319.1176143104 	 0
END IONS

BEGIN IONS
PEPMASS=402.337
CHARGE=1
MSLEVEL=2
RT=0
SOURCE_INSTRUMENT=qTOF
FILENAME=CCMSLIB00000078680.ms
IONMODE=Positive
ORGANISM=Natural
NAME=NCGC00160316-01!6,7-didehydro-26,28didemethyl-16,28-secosolanidan-3,16-diol
PI=GNPS
DATACOLLECTOR=GNPS
SMILES=C[C@H]([C@@H]1CCCCN1)C1[C@H](CC2C3C=CC4C[C@H](CC[C@]4(C)[C@H]3CC[C@]12C)O)O
INCHI=InChI=1S/C26H43NO2/c1-16(22-6-4-5-13-27-22)24-23(29)15-21-19-8-7-17-14-18(28)9-11-25(17,2)20(19)10-12-26(21,24)3/h7-8,16-24,27-29H,4-6,9-15H2,1-3H3/t16-,17?,18+,19?,20+,21?,22+,23+,24?,25+,26+/m1/s1
FORMULA=C26H43NO2
PUBMED=N/A
SUBMITUSER=BIOADREM
LIBRARYQUALITY=0
SPECTRUMID=CCMSLIB00000078680
SCANS=1101
ID=CCMSLIB00000078680
111.0804409431 	 2.89
155.1430411999 	 3.08
283.2631563356 	 100
285.2662303408 	 3.47
288.2811521235 	 1.22
402.3366556297 	 0
END IONS

BEGIN IONS
PEPMASS=282.1496
CHARGE=1
MSLEVEL=2
RT=0
SOURCE_INSTRUMENT=qTOF
FILENAME=CCMSLIB00000078681.ms
IONMODE=Positive
ORGANISM=Natural
NAME=NCGC00160261-01!10b-Methyl-3,4,5,6,10b,11-hexahydro-2H-4b-aza-chrysene-1,12-dione
PI=GNPS
DATACOLLECTOR=GNPS
SMILES=C[C@]12CC(=O)C3=C(CCCC3=O)N2CCc2ccccc12
INCHI=InChI=1S/C18H19NO2/c1-18-11-16(21)17-14(7-4-8-15(17)20)19(18)10-9-12-5-2-3-6-13(12)18/h2-3,5-6H,4,7-11H2,1H3/t18-/m0/s1
FORMULA=C18H19NO2
PUBMED=N/A
SUBMITUSER=BIOADREM
LIBRARYQUALITY=0
SPECTRUMID=CCMSLIB00000078681
SCANS=1102
ID=CCMSLIB00000078681
109.0158293136 	 2.26366559485531
117.0698762568 	 0.090032154340836
128.0620512247 	 0.390139335476956
130.0651252299 	 0.227224008574491
143.085526321 	 0.295819935691318
182.0964253583 	 0.497320471596999
193.0886003262 	 0.265809217577706
196.1120754225 	 0.0943193997856377
205.0886003262 	 0.0943193997856377
206.0964253583 	 0.115755627009646
208.1120754225 	 0.428724544480171
210.0913399804 	 0.12433011789925
220.0882659752 	 2.37084673097535
221.0835149483 	 0.111468381564845
221.1199004546 	 0.115755627009646
222.1277254867 	 0.32583065380493
223.0991650125 	 0.0857449088960343
235.1117410715 	 2.20793140407288
236.1069900446 	 0.227224008574491
238.1226401088 	 0.660235798499464
240.138290173 	 0.685959271168274
248.1069900446 	 0.608788853161844
249.1148150767 	 2.07931404072883
251.0940796346 	 1.22615219721329
258.0913399804 	 2.09646302250804
264.138290173 	 6.34512325830654
266.1175547309 	 85.7449088960343
282.1488548593 	 100
END IONS

BEGIN IONS
PEPMASS=231.102
CHARGE=1
MSLEVEL=2
RT=0
SOURCE_INSTRUMENT=qTOF
FILENAME=CCMSLIB00000078683.ms
IONMODE=Positive
ORGANISM=Natural
NAME=NCGC00021127-04!NAPROXEN
PI=GNPS
DATACOLLECTOR=GNPS
SMILES=CC(c1ccc2cc(ccc2c1)OC)C(=O)O
INCHI=InChI=1S/C14H14O3/c1-9(14(15)16)10-3-4-12-8-13(17-2)6-5-11(12)7-10/h3-9H,1-2H3,(H,15,16)
FORMULA=C14H14O3
PUBMED=N/A
SUBMITUSER=BIOADREM
LIBRARYQUALITY=0
SPECTRUMID=CCMSLIB00000078683
SCANS=1104
ID=CCMSLIB00000078683
103.0542261926 	 4.56
115.0542261926 	 43.33
127.0542261926 	 3.09
128.0620512247 	 12.34
129.0698762568 	 6.37
141.0698762568 	 38.3
142.0777012889 	 45.94
143.0491408147 	 7.38
151.0542261926 	 8.58
152.0620512247 	 38.77
153.0698762568 	 71.97
154.0777012889 	 53.66
157.0647908789 	 4.56
158.072615911 	 30.18
169.0647908789 	 30.85
170.072615911 	 100
184.0882659752 	 4.29
185.0960910073 	 74.18
231.1015703157 	 0
END IONS

BEGIN IONS
PEPMASS=471.1888
CHARGE=1
MSLEVEL=2
RT=0
SOURCE_INSTRUMENT=qTOF
FILENAME=CCMSLIB00000078684.ms
IONMODE=Positive
ORGANISM=Natural
NAME=NCGC00160297-01!5-[2-(6-Hydroxy-4,7-dimethoxy-benzofuran-5-yl)-2-oxo-ethyl]-4-methoxy-6,6-dimethyl-5,6,7,8-tetrahydro-[1,3]dioxolo[4,5-g]isoquinolin-6-ium
PI=GNPS
DATACOLLECTOR=GNPS
SMILES=C[N+]1(C)CCc2cc3c(c(c2C1CC(=C1C(=O)C(=c2c(=C1OC)cco2)OC)O)OC)OCO3
INCHI=InChI=1S/C25H27NO8/c1-26(2)8-6-13-10-17-23(34-12-33-17)24(30-4)18(13)15(26)11-16(27)19-20(28)25(31-5)22-14(7-9-32-22)21(19)29-3/h7,9-10,15H,6,8,11-12H2,1-5H3/p+1
FORMULA=C25H28NO8+
PUBMED=N/A
SUBMITUSER=BIOADREM
LIBRARYQUALITY=0
SPECTRUMID=CCMSLIB00000078684
SCANS=1105
ID=CCMSLIB00000078684
133.0284053726 	 1.5
133.0647908789 	 1.4
144.0807752941 	 0.97
146.0362304047 	 0.88
147.0440554368 	 0.84
147.0804409431 	 1.31
160.0756899162 	 1.19
161.0835149483 	 2.29
173.059705501 	 0.9
174.0913399804 	 0.93
175.0991650125 	 2.26
176.1069900446 	 17.73
188.0706045383 	 1.04
189.0784295704 	 2.57
190.0862546025 	 0.8
190.9974991747 	 26.26
191.0702701873 	 8.92
193.0131492389 	 1.85
193.0495347452 	 0.76
193.0859202515 	 1.01
200.046795091 	 0.83
202.0862546025 	 4.16
203.0940796346 	 12.33
204.1019046667 	 10.8
206.020974271 	 44.22
208.0366243352 	 3.42
215.0702701873 	 6.9
218.0811692246 	 7.91
219.0889942567 	 9.22
221.0444493673 	 100
223.0600994315 	 4.2
232.0968192888 	 1.76
234.112469353 	 37.19
249.0757494957 	 2.76
250.1437694814 	 6.82
470.1809428487 	 2.67
471.1887678808 	 1.54
END IONS

BEGIN IONS
PEPMASS=368.1486
CHARGE=1
MSLEVEL=2
RT=0
SOURCE_INSTRUMENT=qTOF
FILENAME=CCMSLIB00000078685.ms
IONMODE=Positive
ORGANISM=Natural
NAME=NCGC00160189-01!8-OXO-PSEUDOPALMATINE
PI=GNPS
DATACOLLECTOR=GNPS
SMILES=COc1cc2CCn3c(cc4cc(c(cc4c3=O)OC)OC)c2cc1OC
INCHI=InChI=1S/C21H21NO5/c1-24-17-8-12-5-6-22-16(14(12)10-19(17)26-3)7-13-9-18(25-2)20(27-4)11-15(13)21(22)23/h7-11H,5-6H2,1-4H3
FORMULA=C21H21NO5
PUBMED=N/A
SUBMITUSER=BIOADREM
LIBRARYQUALITY=0
SPECTRUMID=CCMSLIB00000078685
SCANS=1106
ID=CCMSLIB00000078685
251.0940796346 	 2.18
262.0862546025 	 0.93
264.0655191604 	 0.96
267.0889942567 	 0.77
279.0889942567 	 4.89
280.0968192888 	 5.24
281.1046443209 	 2.85
292.0968192888 	 4.23
293.0682588146 	 1.08
293.1046443209 	 3.59
294.112469353 	 9.82
295.0839088788 	 1.78
295.1202943851 	 4.11
304.0604337825 	 1.3
305.1046443209 	 0.93
306.0760838467 	 4.13
306.112469353 	 1.37
307.0839088788 	 4.2
308.0917339109 	 12.91
309.099558943 	 7.84
310.1073839751 	 8.94
320.0917339109 	 4.43
321.099558943 	 9.21
322.1073839751 	 32.01
323.1152090072 	 7.76
324.1230340393 	 24.73
336.086648533 	 12.09
337.0944735651 	 9.11
337.1308590714 	 7.98
338.1022985972 	 7.31
352.1179486614 	 100
353.1257736935 	 29.8
368.1492487898 	 69.22
END IONS

BEGIN IONS
PEPMASS=299.092
CHARGE=1
MSLEVEL=2
RT=0
SOURCE_INSTRUMENT=qTOF
FILENAME=CCMSLIB00000078686.ms
IONMODE=Positive
ORGANISM=Natural
NAME=NCGC00160175-01!PTEROCARPIN METHYLETHER
PI=GNPS
DATACOLLECTOR=GNPS
SMILES=COc1ccc2c(c1)OC[C@H]1c3cc4c(cc3O[C@@H]21)OCO4
INCHI=InChI=1S/C17H14O5/c1-18-9-2-3-10-13(4-9)19-7-12-11-5-15-16(21-8-20-15)6-14(11)22-17(10)12/h2-6,12,17H,7-8H2,1H3/t12-,17-/m0/s1
FORMULA=C17H14O5
PUBMED=N/A
SUBMITUSER=BIOADREM
LIBRARYQUALITY=0
SPECTRUMID=CCMSLIB00000078686
SCANS=1107
ID=CCMSLIB00000078686
109.0647908789 	 6.63
119.0491408147 	 1.64
121.0284053726 	 6.07
123.0440554368 	 7.56
133.0284053726 	 3.15
137.059705501 	 39.42
146.0362304047 	 1.46
147.0440554368 	 3.71
151.0389700589 	 100
152.0831805973 	 1.66
175.0389700589 	 11.97
177.0546201231 	 3.5
227.0702701873 	 2.42
269.0808348736 	 5.9
283.0600994315 	 3.15
299.0913995599 	 0
END IONS

BEGIN IONS
PEPMASS=447.156
CHARGE=1
MSLEVEL=2
RT=0
SOURCE_INSTRUMENT=qTOF
FILENAME=CCMSLIB00000078687.ms
IONMODE=Positive
ORGANISM=Natural
NAME=NCGC00160147-01!2-[2-(4-Methyl-2-oxo-2H-chromen-7-yloxy)-acetyl]-1,2,3,4-tetrahydro-beta-carbolin-3-ylcarboxylic acid methyl ester
PI=GNPS
DATACOLLECTOR=GNPS
SMILES=Cc1cc(=O)oc2cc(ccc12)OCC(=O)N1Cc2c(C[C@@H]1C(=O)OC)c1ccccc1[nH]2
INCHI=InChI=1S/C25H22N2O6/c1-14-9-24(29)33-22-10-15(7-8-16(14)22)32-13-23(28)27-12-20-18(11-21(27)25(30)31-2)17-5-3-4-6-19(17)26-20/h3-10,21,26H,11-13H2,1-2H3/t21-/m1/s1
FORMULA=C25H22N2O6
PUBMED=N/A
SUBMITUSER=BIOADREM
LIBRARYQUALITY=0
SPECTRUMID=CCMSLIB00000078687
SCANS=1108
ID=CCMSLIB00000078687
142.0624451552 	 3.37
143.072950262 	 4.9
144.0807752941 	 5.32
154.0651252299 	 91.94
155.0702701873 	 8.16
156.0807752941 	 11.95
159.0440554368 	 9.79
166.0651252299 	 3.84
168.0807752941 	 19.17
169.0760242672 	 31.6
170.0573597773 	 24.64
171.0678648841 	 4.69
171.0916743314 	 6.21
177.0546201231 	 36.65
182.060039852 	 13.43
183.0651848094 	 3.32
183.0916743314 	 14.85
184.0756899162 	 11.53
193.0760242672 	 29.7
194.0811692246 	 6.11
195.0916743314 	 17.48
196.0994993635 	 7.85
198.0760838467 	 13.53
199.0865889535 	 8.16
209.0709388893 	 4.05
211.0865889535 	 51.55
212.0917339109 	 25.38
213.099558943 	 3.26
221.0709388893 	 10.53
222.0787639214 	 100
225.0658535114 	 4.42
239.0815035756 	 28.44
240.0893286077 	 12.06
447.1550624492 	 0
END IONS

BEGIN IONS
PEPMASS=440.134
CHARGE=1
MSLEVEL=2
RT=0
SOURCE_INSTRUMENT=qTOF
FILENAME=CCMSLIB00000078688.ms
IONMODE=Positive
ORGANISM=Natural
NAME=NCGC00160277-01!3-Methoxy-dictamnine-4-(2,3,4-trimethoxy)-benzoic acid
PI=GNPS
DATACOLLECTOR=GNPS
SMILES=COc1cc(cc(c1OC)OC)C(=O)Oc1ccc2c(c1OC)nc1c(cco1)c2OC
INCHI=InChI=1S/C23H21NO8/c1-26-16-10-12(11-17(27-2)20(16)29-4)23(25)32-15-7-6-13-18(21(15)30-5)24-22-14(8-9-31-22)19(13)28-3/h6-11H,1-5H3
FORMULA=C23H21NO8
PUBMED=N/A
SUBMITUSER=BIOADREM
LIBRARYQUALITY=0
SPECTRUMID=CCMSLIB00000078688
SCANS=1109
ID=CCMSLIB00000078688
95.0491408147 	 0.42
96.0569658468 	 0.76
105.0334907505 	 0.27
106.0413157826 	 0.27
107.0127553084 	 0.42
109.0284053726 	 1.1
109.0647908789 	 3.19
111.0804409431 	 0.68
113.0233199947 	 0.61
113.059705501 	 0.42
121.0284053726 	 1.51
122.0362304047 	 4.38
123.0440554368 	 0.64
124.0518804689 	 7.17
128.046795091 	 0.89
134.0362304047 	 0.54
137.0233199947 	 4.01
139.0753555652 	 12.57
141.0182346168 	 0.79
151.0389700589 	 2.65
152.046795091 	 22.07
156.0417097131 	 1.93
167.0702701873 	 8.86
195.0651848094 	 100
440.1339926561 	 0.8
END IONS

BEGIN IONS
PEPMASS=247.133
CHARGE=1
MSLEVEL=2
RT=0
SOURCE_INSTRUMENT=qTOF
FILENAME=CCMSLIB00000078689.ms
IONMODE=Positive
ORGANISM=Natural
NAME=NCGC00160322-01!DESMOTROPOSANTONIN
PI=GNPS
DATACOLLECTOR=GNPS
SMILES=Cc1cc(c(C)c2c1CC[C@H]1[C@H](C)C(=O)O[C@H]21)O
INCHI=InChI=1S/C15H18O3/c1-7-6-12(16)9(3)13-10(7)4-5-11-8(2)15(17)18-14(11)13/h6,8,11,14,16H,4-5H2,1-3H3/t8-,11-,14-/m0/s1
FORMULA=C15H18O3
PUBMED=N/A
SUBMITUSER=BIOADREM
LIBRARYQUALITY=0
SPECTRUMID=CCMSLIB00000078689
SCANS=1110
ID=CCMSLIB00000078689
105.0698762568 	 3.13
115.0542261926 	 12.95
116.0620512247 	 1.77
117.0698762568 	 6.36
127.0542261926 	 1.63
128.0620512247 	 5.88
129.0698762568 	 17
130.0777012889 	 10.33
131.085526321 	 3.48
133.1011763852 	 1.14
135.0804409431 	 1.36
139.0542261926 	 1.5
140.0620512247 	 5.35
143.085526321 	 3.6
144.0569658468 	 4.13
144.0933513531 	 2.05
145.0647908789 	 5.35
145.1011763852 	 26.8
146.072615911 	 2.05
154.0777012889 	 3.66
155.085526321 	 20.68
157.0647908789 	 14.4
158.072615911 	 100
160.0882659752 	 1.75
161.0960910073 	 2.81
172.0882659752 	 5.77
173.0960910073 	 84.32
186.1039160394 	 5.71
187.1117410715 	 1.42
201.1273911357 	 3.74
247.1328704441 	 0
END IONS

BEGIN IONS
PEPMASS=333.0996
CHARGE=1
MSLEVEL=2
RT=0
SOURCE_INSTRUMENT=qTOF
FILENAME=CCMSLIB00000078690.ms
IONMODE=Positive
ORGANISM=Natural
NAME=NCGC00015959-03!SANGUINARINE
PI=GNPS
DATACOLLECTOR=GNPS
SMILES=C[n+]1cc2c(ccc3c2OCO3)c2ccc3cc4c(cc3c12)OCO4
INCHI=InChI=1S/C20H14NO4/c1-21-8-15-12(4-5-16-20(15)25-10-22-16)13-3-2-11-6-17-18(24-9-23-17)7-14(11)19(13)21/h2-8H,9-10H2,1H3/q+1
FORMULA=C20H14NO4+
PUBMED=N/A
SUBMITUSER=BIOADREM
LIBRARYQUALITY=0
SPECTRUMID=CCMSLIB00000078690
SCANS=1111
ID=CCMSLIB00000078690
189.0698762568 	 5.81
201.0573001978 	 0.98
203.072950262 	 1.87
204.0807752941 	 1.75
214.0651252299 	 0.86
215.072950262 	 4.94
216.0807752941 	 10.91
217.0886003262 	 6.79
218.0964253583 	 15.34
220.0756899162 	 1.34
228.0807752941 	 1.38
229.0886003262 	 1.02
230.060039852 	 1.32
231.0678648841 	 2.38
232.0756899162 	 2.25
233.0835149483 	 4.12
235.0627795062 	 0.83
244.0756899162 	 18.19
245.0835149483 	 4.57
246.0913399804 	 26.09
247.0991650125 	 7.57
248.0706045383 	 1.15
248.1069900446 	 3.7
250.0862546025 	 0.94
258.0549544741 	 1.08
259.0627795062 	 3.45
261.0784295704 	 6.36
272.0706045383 	 3.27
273.0784295704 	 1.93
274.0862546025 	 46.45
275.0940796346 	 14.81
276.1019046667 	 8.69
278.0811692246 	 1.5
287.0576941283 	 6.39
288.0655191604 	 5.14
289.0733441925 	 8.5
302.0811692246 	 14.01
303.0889942567 	 6.24
304.0968192888 	 28.95
306.0760838467 	 2.24
316.0604337825 	 5.02
317.0682588146 	 48.97
332.0917339109 	 100
333.099558943 	 0
END IONS

BEGIN IONS
PEPMASS=381.181
CHARGE=1
MSLEVEL=2
RT=0
SOURCE_INSTRUMENT=qTOF
FILENAME=CCMSLIB00000078691.ms
IONMODE=Positive
ORGANISM=Natural
NAME=NCGC00160309-01!12-(3-(3,4-Dimethoxyphenyl)acryloyl)-cytisine
PI=GNPS
DATACOLLECTOR=GNPS
SMILES=COc1ccc(/C=C/C(=O)N2C[C@@H]3CC(C2)c2cccc(=O)n2C3)cc1OC
INCHI=InChI=1S/C22H24N2O4/c1-27-19-8-6-15(11-20(19)28-2)7-9-21(25)23-12-16-10-17(14-23)18-4-3-5-22(26)24(18)13-16/h3-9,11,16-17H,10,12-14H2,1-2H3/b9-7+/t16-,17?/m0/s1
FORMULA=C22H24N2O4
PUBMED=N/A
SUBMITUSER=BIOADREM
LIBRARYQUALITY=0
SPECTRUMID=CCMSLIB00000078691
SCANS=1112
ID=CCMSLIB00000078691
105.0698762568 	 1.31
119.0491408147 	 1.34
120.0569658468 	 1.34
133.0284053726 	 2.7
133.0647908789 	 2.42
134.060039852 	 1.21
147.0440554368 	 3.32
148.0518804689 	 10.15
158.060039852 	 1.29
160.0518804689 	 4.27
160.0756899162 	 5.68
163.0753555652 	 27.1
174.0913399804 	 2.52
176.046795091 	 2.24
191.0702701873 	 100
217.0971536398 	 6.12
381.1808832692 	 0
END IONS

BEGIN IONS
PEPMASS=357.2298
CHARGE=1
MSLEVEL=2
RT=0
SOURCE_INSTRUMENT=qTOF
FILENAME=CCMSLIB00000078692.ms
IONMODE=Positive
ORGANISM=Natural
NAME=NCGC00160197-01!(2-{4,5-Dimethoxy-2-[2-(4-methoxy-phenyl)-vinyl]-phenyl}-ethyl)-trimethyl-ammonium
PI=GNPS
DATACOLLECTOR=GNPS
SMILES=C[N+](C)(C)CCc1cc(c(cc1/C=C/c1ccc(cc1)OC)OC)OC
INCHI=InChI=1S/C22H30NO3/c1-23(2,3)14-13-19-16-22(26-6)21(25-5)15-18(19)10-7-17-8-11-20(24-4)12-9-17/h7-12,15-16H,13-14H2,1-6H3/q+1/b10-7+
FORMULA=C22H30NO3+
PUBMED=N/A
SUBMITUSER=BIOADREM
LIBRARYQUALITY=0
SPECTRUMID=CCMSLIB00000078692
SCANS=1113
ID=CCMSLIB00000078692
105.0698762568 	 2.88
115.0542261926 	 3.26
116.0620512247 	 2.22
121.0647908789 	 100
128.0620512247 	 3.64
129.0698762568 	 5.07
131.0491408147 	 3.92
135.0804409431 	 5.57
136.0518804689 	 1.82
143.0491408147 	 6.68
144.0569658468 	 13.64
145.0647908789 	 5.87
146.072615911 	 3
151.0753555652 	 17.18
158.072615911 	 15.42
159.0440554368 	 6.51
159.0804409431 	 20.45
163.0753555652 	 8.1
174.0675305331 	 18.97
176.0831805973 	 2.55
179.085526321 	 1.98
189.0910056294 	 34.4
191.085526321 	 2.43
207.0804409431 	 2.08
208.0882659752 	 2.09
209.0960910073 	 2.75
219.0804409431 	 2.98
223.1117410715 	 4.87
235.1117410715 	 5.15
236.0831805973 	 2.67
239.1066556936 	 5.89
251.1066556936 	 20.53
266.1301307899 	 22.16
267.1015703157 	 9.02
282.125045412 	 12.03
297.1485205083 	 12.76
357.2298448345 	 0
END IONS

BEGIN IONS
PEPMASS=253.2036
CHARGE=1
MSLEVEL=2
RT=0
SOURCE_INSTRUMENT=qTOF
FILENAME=CCMSLIB00000078693.ms
IONMODE=Positive
ORGANISM=Natural
NAME=NCGC00160280-01!N-methyl-metacryloyl-lupinine
PI=GNPS
DATACOLLECTOR=GNPS
SMILES=C=C(C)C(=O)OC[C@@H]1CCC[N@+]2(C)CCCC[C@H]12
INCHI=InChI=1S/C15H26NO2/c1-12(2)15(17)18-11-13-7-6-10-16(3)9-5-4-8-14(13)16/h13-14H,1,4-11H2,2-3H3/q+1/t13-,14+,16-/m0/s1
FORMULA=C15H26NO2+
PUBMED=N/A
SUBMITUSER=BIOADREM
LIBRARYQUALITY=0
SPECTRUMID=CCMSLIB00000078693
SCANS=1114
ID=CCMSLIB00000078693
95.085526321 	 1.48
96.0807752941 	 1.41
97.0886003262 	 0.7
98.0964253583 	 1.95
107.085526321 	 0.82
108.0807752941 	 0.92
109.0886003262 	 2.18
110.0964253583 	 2.84
111.1042503904 	 1.46
122.0964253583 	 1.4
124.1120754225 	 1.2
135.1168264494 	 0.69
136.1120754225 	 2.77
138.1277254867 	 4.57
150.1277254867 	 2.02
152.1433755509 	 6.68
153.151200583 	 1.76
166.1590256151 	 91.88
252.1958050519 	 100
253.203630084 	 0
END IONS

BEGIN IONS
PEPMASS=247.1799
CHARGE=1
MSLEVEL=2
RT=0
SOURCE_INSTRUMENT=qTOF
FILENAME=CCMSLIB00000078694.ms
IONMODE=Positive
ORGANISM=Natural
NAME=NCGC00160217-01!SOPHOCARPINE
PI=GNPS
DATACOLLECTOR=GNPS
SMILES=C1=CC(=O)N2C[C@@H]3CCCN4CCC[C@H]([C@H]2C1)[C@H]34
INCHI=InChI=1S/C15H22N2O/c18-14-7-1-6-13-12-5-3-9-16-8-2-4-11(15(12)16)10-17(13)14/h1,7,11-13,15H,2-6,8-10H2/t11-,12+,13+,15-/m0/s1
FORMULA=C15H22N2O
PUBMED=N/A
SUBMITUSER=BIOADREM
LIBRARYQUALITY=0
SPECTRUMID=CCMSLIB00000078694
SCANS=1115
ID=CCMSLIB00000078694
96.0807752941 	 52.07
108.0807752941 	 27.51
118.0651252299 	 12.13
134.060039852 	 11.24
136.1120754225 	 86.69
150.1277254867 	 23.08
160.1120754225 	 11.24
174.0913399804 	 12.72
176.1069900446 	 14.5
178.1226401088 	 13.02
179.1542745882 	 86.39
219.1491892103 	 11.54
245.1648392745 	 100
246.1726643066 	 10.65
247.1804893387 	 287.57
END IONS

BEGIN IONS
PEPMASS=332.186
CHARGE=1
MSLEVEL=2
RT=0
SOURCE_INSTRUMENT=qTOF
FILENAME=CCMSLIB00000078695.ms
IONMODE=Positive
ORGANISM=Natural
NAME=NCGC00017368-03!BUCHARAINE
PI=GNPS
DATACOLLECTOR=GNPS
SMILES=C/C(=C\COc1cc(nc2ccccc12)O)/CCC(C(C)(C)O)O
INCHI=InChI=1S/C19H25NO4/c1-13(8-9-17(21)19(2,3)23)10-11-24-16-12-18(22)20-15-7-5-4-6-14(15)16/h4-7,10,12,17,21,23H,8-9,11H2,1-3H3,(H,20,22)/b13-10+
FORMULA=C19H25NO4
PUBMED=N/A
SUBMITUSER=BIOADREM
LIBRARYQUALITY=0
SPECTRUMID=CCMSLIB00000078695
SCANS=1116
ID=CCMSLIB00000078695
107.085526321 	 0.47
113.1324765136 	 1.86333333333333
116.0494751657 	 2.48333333333333
120.0443897878 	 1.68333333333333
135.1168264494 	 0.666666666666667
140.0706045383 	 2.48333333333333
144.0443897878 	 11.9633333333333
153.1273911357 	 0.253333333333333
162.0549544741 	 100
164.034219032 	 1.59666666666667
171.137955822 	 1.77333333333333
196.0307510963 	 2.66
256.1457808541 	 1.86333333333333
266.060039852 	 2.48333333333333
296.1406954762 	 1.95
314.1750696098 	 1.64
332.1856342961 	 0
END IONS

BEGIN IONS
PEPMASS=316.1536
CHARGE=1
MSLEVEL=2
RT=0
SOURCE_INSTRUMENT=qTOF
FILENAME=CCMSLIB00000078697.ms
IONMODE=Positive
ORGANISM=Natural
NAME=NCGC00160299-01!2,3-Dimethoxy-15-methyl-4b,5,6,9,8a,10-hexahydro-16-oxa-8a-aza-cyclopenta[a]phenanthren-17-one
PI=GNPS
DATACOLLECTOR=GNPS
SMILES=C[C@H]1C2=C(CCC3c4cc(c(cc4CCN23)OC)OC)C(=O)O1
INCHI=InChI=1S/C18H21NO4/c1-10-17-12(18(20)23-10)4-5-14-13-9-16(22-3)15(21-2)8-11(13)6-7-19(14)17/h8-10,14H,4-7H2,1-3H3/t10-,14?/m0/s1
FORMULA=C18H21NO4
PUBMED=N/A
SUBMITUSER=BIOADREM
LIBRARYQUALITY=0
SPECTRUMID=CCMSLIB00000078697
SCANS=1118
ID=CCMSLIB00000078697
128.0620512247 	 8.12
131.072950262 	 9.11
147.0804409431 	 8.61
149.059705501 	 11.58
150.0675305331 	 8.12
158.072615911 	 17.82
159.0440554368 	 12.08
165.0910056294 	 8.12
174.0675305331 	 45.74
189.0910056294 	 27.92
199.1117410715 	 7.52
212.1069900446 	 8.12
224.1069900446 	 9.11
226.0862546025 	 12.28
227.0940796346 	 10.2
227.1304651409 	 8.42
240.1019046667 	 16.83
241.1097296988 	 14.46
242.1175547309 	 21.88
256.1332047951 	 44.65
266.1175547309 	 7.72
270.112469353 	 14.16
270.1488548593 	 32.28
271.1202943851 	 13.96
272.1281194172 	 23.47
272.1645049235 	 28.22
282.112469353 	 13.66
284.1281194172 	 10.69
298.1437694814 	 22.08
300.1230340393 	 100
301.1308590714 	 29.31
316.1543341677 	 219.31
END IONS

BEGIN IONS
PEPMASS=276.1223
CHARGE=1
MSLEVEL=2
RT=0
SOURCE_INSTRUMENT=qTOF
FILENAME=CCMSLIB00000078698.ms
IONMODE=Positive
ORGANISM=Natural
NAME=NCGC00015366-03!DUBINIDINE
PI=GNPS
DATACOLLECTOR=GNPS
SMILES=CC(CO)(C1Cc2c(c3ccccc3nc2O1)OC)O
INCHI=InChI=1S/C15H17NO4/c1-15(18,8-17)12-7-10-13(19-2)9-5-3-4-6-11(9)16-14(10)20-12/h3-6,12,17-18H,7-8H2,1-2H3
FORMULA=C15H17NO4
PUBMED=N/A
SUBMITUSER=BIOADREM
LIBRARYQUALITY=0
SPECTRUMID=CCMSLIB00000078698
SCANS=1119
ID=CCMSLIB00000078698
103.0542261926 	 5.43
115.0542261926 	 3.93
120.0443897878 	 2.17
129.0698762568 	 3.78
130.0651252299 	 98.89
132.0443897878 	 3.13
140.0494751657 	 1.46
142.0651252299 	 4.1
144.0807752941 	 2.08
146.060039852 	 3.18
153.0698762568 	 1.63
154.0651252299 	 4.18
156.0443897878 	 1.98
156.0807752941 	 3.41
158.060039852 	 33.47
160.0756899162 	 2.5
166.0651252299 	 3.95
168.0807752941 	 2.65
169.0522148199 	 4.03
170.060039852 	 9.18
170.0964253583 	 2.49
172.0393044099 	 2.61
172.0756899162 	 2.35
174.0549544741 	 12.16
175.0627795062 	 2.88
176.0706045383 	 6.77
180.0807752941 	 6.49
182.060039852 	 2.49
183.0678648841 	 14.66
184.0756899162 	 7.96
186.0549544741 	 59.53
188.0706045383 	 100
196.0756899162 	 3.65
198.0549544741 	 1.58
198.0913399804 	 3.45
200.0706045383 	 6.49
202.0862546025 	 8.77
216.1019046667 	 84.43
225.0784295704 	 10.05
230.1175547309 	 5.07
240.1019046667 	 3.16
258.112469353 	 5.34
276.1230340393 	 0.58
END IONS

BEGIN IONS
PEPMASS=285.113
CHARGE=1
MSLEVEL=2
RT=0
SOURCE_INSTRUMENT=qTOF
FILENAME=CCMSLIB00000078699.ms
IONMODE=Positive
ORGANISM=Natural
NAME=NCGC00160161-01!3,4-DIMETHOXYDALBERGIONE
PI=GNPS
DATACOLLECTOR=GNPS
SMILES=C=C[C@H](c1ccccc1)C1=CC(=O)C(=C(C1=O)OC)OC
INCHI=InChI=1S/C17H16O4/c1-4-12(11-8-6-5-7-9-11)13-10-14(18)16(20-2)17(21-3)15(13)19/h4-10,12H,1H2,2-3H3/t12-/m1/s1
FORMULA=C17H16O4
PUBMED=N/A
SUBMITUSER=BIOADREM
LIBRARYQUALITY=0
SPECTRUMID=CCMSLIB00000078699
SCANS=1120
ID=CCMSLIB00000078699
105.0334907505 	 7.38
115.0542261926 	 24.22
127.0542261926 	 11.27
128.0620512247 	 34.33
129.0698762568 	 24.87
146.0362304047 	 13.21
149.059705501 	 9.97
152.0620512247 	 30.7
153.0698762568 	 73.32
155.085526321 	 16.45
162.0464011605 	 7.51
163.0542261926 	 9.46
164.0620512247 	 11.01
165.0698762568 	 100
169.0647908789 	 28.76
171.0804409431 	 13.6
177.0546201231 	 12.05
181.0647908789 	 64.25
193.0647908789 	 30.96
209.059705501 	 23.06
210.0675305331 	 35.75
211.0753555652 	 31.74
221.059705501 	 26.04
225.0910056294 	 11.4
227.0702701873 	 14.51
238.0624451552 	 20.34
239.0702701873 	 26.04
253.0859202515 	 9.72
285.112135002 	 0
END IONS

BEGIN IONS
PEPMASS=308.1857
CHARGE=1
MSLEVEL=2
RT=0
SOURCE_INSTRUMENT=qTOF
FILENAME=CCMSLIB00000078700.ms
IONMODE=Positive
ORGANISM=Natural
NAME=NCGC00160253-01!1-(2-hydroxy-3-methyl)-butyl-hydrocotarnine
PI=GNPS
DATACOLLECTOR=GNPS
SMILES=CC(C)C(CC1c2c(CCN1C)cc1c(c2OC)OCO1)O
INCHI=InChI=1S/C17H25NO4/c1-10(2)13(19)8-12-15-11(5-6-18(12)3)7-14-16(17(15)20-4)22-9-21-14/h7,10,12-13,19H,5-6,8-9H2,1-4H3
FORMULA=C17H25NO4
PUBMED=N/A
SUBMITUSER=BIOADREM
LIBRARYQUALITY=0
SPECTRUMID=CCMSLIB00000078700
SCANS=1121
ID=CCMSLIB00000078700
105.0698762568 	 9.59
115.0542261926 	 16.7
117.0698762568 	 5.39
131.0491408147 	 4.57
132.0569658468 	 5.32
133.0647908789 	 20.55
135.0804409431 	 13.53
145.0647908789 	 12.12
149.059705501 	 5.1
157.1011763852 	 5.48
159.0804409431 	 4.18
160.0756899162 	 4.14
161.059705501 	 10.51
162.0913399804 	 21.35
163.0753555652 	 7.51
165.0546201231 	 10.26
173.059705501 	 8.46
176.0706045383 	 6.06
177.0546201231 	 3.87
178.0624451552 	 13.13
179.0702701873 	 32.46
185.0960910073 	 3.76
188.046795091 	 9.17
188.0706045383 	 6.06
189.0546201231 	 4.31
190.0862546025 	 11.72
191.0702701873 	 30.67
193.0859202515 	 56.08
203.0702701873 	 25.73
204.0655191604 	 24.89
205.0733441925 	 37.84
206.0811692246 	 9.93
208.0968192888 	 11.54
217.0859202515 	 5.36
217.1223057578 	 5.2
219.0889942567 	 20.05
220.0968192888 	 100
229.1223057578 	 4.22
236.1281194172 	 13.03
247.1328704441 	 4.17
290.1750696098 	 15.27
308.1856342961 	 8.45
END IONS

BEGIN IONS
PEPMASS=388.2119
CHARGE=1
MSLEVEL=2
RT=0
SOURCE_INSTRUMENT=qTOF
FILENAME=CCMSLIB00000078701.ms
IONMODE=Positive
ORGANISM=Natural
NAME=NCGC00160324-01!2-(2-Methoxy-phenyl)-5-oxo-tetrahydro-furan-3-carboyl-lupinine
PI=GNPS
DATACOLLECTOR=GNPS
SMILES=COc1ccccc1C1C(CC(=O)O1)C(=O)OC[C@@H]1CCCN2CCCCC12
INCHI=InChI=1S/C22H29NO5/c1-26-19-10-3-2-8-16(19)21-17(13-20(24)28-21)22(25)27-14-15-7-6-12-23-11-5-4-9-18(15)23/h2-3,8,10,15,17-18,21H,4-7,9,11-14H2,1H3/t15-,17?,18?,21?/m0/s1
FORMULA=C22H29NO5
PUBMED=N/A
SUBMITUSER=BIOADREM
LIBRARYQUALITY=0
SPECTRUMID=CCMSLIB00000078701
SCANS=1122
ID=CCMSLIB00000078701
96.0807752941 	 1.95
98.0964253583 	 11.55
105.0698762568 	 0.57
107.0491408147 	 1.13
107.085526321 	 0.94
110.0964253583 	 3.38
111.1042503904 	 0.84
115.0542261926 	 2.35
117.0698762568 	 1.15
121.0647908789 	 1.58
122.0964253583 	 1.59
124.1120754225 	 8.68
135.0440554368 	 0.56
136.1120754225 	 2.3
137.059705501 	 1.13
137.1199004546 	 2.29
145.0647908789 	 10.86
147.0804409431 	 12.29
150.1277254867 	 16.48
152.1433755509 	 100
160.0518804689 	 9.75
163.0753555652 	 1.58
168.138290173 	 7.2
170.1539402372 	 17.05
175.0753555652 	 11.35
203.0702701873 	 0.86
222.1488548593 	 0.72
330.2063697382 	 0.59
344.2220198024 	 14.85
388.2118490466 	 79.16
END IONS

BEGIN IONS
PEPMASS=351.098
CHARGE=1
MSLEVEL=2
RT=0
SOURCE_INSTRUMENT=qTOF
FILENAME=CCMSLIB00000078702.ms
IONMODE=Positive
ORGANISM=Natural
NAME=NCGC00160311-01!2-Methoxy-1-methyl-3-(1-methyl-2,5-dioxo-2,5-dihydro-1H-pyrrol-3-yl)-1H-benzo[f]indole-4,9-dione
PI=GNPS
DATACOLLECTOR=GNPS
SMILES=CN1C(=O)C=C(c2c3c(C(=O)c4ccccc4C3=O)n(C)c2OC)C1=O
INCHI=InChI=1S/C19H14N2O5/c1-20-12(22)8-11(18(20)25)13-14-15(21(2)19(13)26-3)17(24)10-7-5-4-6-9(10)16(14)23/h4-8H,1-3H3
FORMULA=C19H14N2O5
PUBMED=N/A
SUBMITUSER=BIOADREM
LIBRARYQUALITY=0
SPECTRUMID=CCMSLIB00000078702
SCANS=1123
ID=CCMSLIB00000078702
165.0698762568 	 11.29
167.0702701873 	 12.47
170.0573597773 	 8.27
181.0607681335 	 9.58
194.0573597773 	 11.02
195.0651848094 	 21.65
196.0730098415 	 8.66
197.047129442 	 12.07
200.0494751657 	 20.6
206.0573597773 	 9.06
209.0556827556 	 15.22
210.0549544741 	 20.34
221.047129442 	 14.96
221.0835149483 	 11.15
222.0549544741 	 75.59
223.0627795062 	 100
224.0679244636 	 14.96
238.0862546025 	 25.72
250.0498690962 	 52.76
251.0576941283 	 71
265.0607681335 	 13.65
268.0604337825 	 11.29
277.0369586862 	 19.16
279.0526087504 	 13.65
279.0764181977 	 9.58
280.0842432298 	 18.24
281.0920682619 	 18.9
308.0791578519 	 36.61
309.0757494957 	 9.58
335.0662474419 	 10.24
336.074072474 	 26.51
351.0975475703 	 0
END IONS

BEGIN IONS
PEPMASS=334.165
CHARGE=1
MSLEVEL=2
RT=0
SOURCE_INSTRUMENT=qTOF
FILENAME=CCMSLIB00000078703.ms
IONMODE=Positive
ORGANISM=Natural
NAME=NCGC00160255-01!CONVOLICINE
PI=GNPS
DATACOLLECTOR=GNPS
SMILES=CC(=O)N1[C@@H]2CCC1CC(C2)OC(=O)c1ccc(c(c1)OC)OC
INCHI=InChI=1S/C18H23NO5/c1-11(20)19-13-5-6-14(19)10-15(9-13)24-18(21)12-4-7-16(22-2)17(8-12)23-3/h4,7-8,13-15H,5-6,9-10H2,1-3H3/t13-,14?,15?/m1/s1
FORMULA=C18H23NO5
PUBMED=N/A
SUBMITUSER=BIOADREM
LIBRARYQUALITY=0
SPECTRUMID=CCMSLIB00000078703
SCANS=1124
ID=CCMSLIB00000078703
107.0127553084 	 0.36
108.0569658468 	 1.32
109.0284053726 	 0.89
109.0647908789 	 0.65
110.0964253583 	 100
111.0076699305 	 0.62
121.0284053726 	 0.58
122.0362304047 	 0.63
124.0518804689 	 3.29
137.059705501 	 0.38
139.0753555652 	 6.99
165.0546201231 	 5.69
183.0651848094 	 2.01
184.0730098415 	 0.68
227.0788235009 	 0.39
334.164898854 	 0
END IONS

BEGIN IONS
PEPMASS=526.234
CHARGE=1
MSLEVEL=2
RT=0
SOURCE_INSTRUMENT=qTOF
FILENAME=CCMSLIB00000078704.ms
IONMODE=Positive
ORGANISM=Natural
NAME=NCGC00160137-01!2-[2-(3,4-Dimethoxy-phenyl)-ethyl]-6-(4-methoxy-phenyl)-2,3,6,7,12,12a-hexahydro-pyrazino[1',2':1,6]pyrido[3,4-b]indole-1,4-dione
PI=GNPS
DATACOLLECTOR=GNPS
SMILES=COc1ccc(cc1)C1c2c(C[C@@H]3C(=O)N(CCc4ccc(c(c4)OC)OC)CC(=O)N13)c1ccccc1[nH]2
INCHI=InChI=1S/C31H31N3O5/c1-37-21-11-9-20(10-12-21)30-29-23(22-6-4-5-7-24(22)32-29)17-25-31(36)33(18-28(35)34(25)30)15-14-19-8-13-26(38-2)27(16-19)39-3/h4-13,16,25,30,32H,14-15,17-18H2,1-3H3/t25-,30?/m1/s1
FORMULA=C31H31N3O5
PUBMED=N/A
SUBMITUSER=BIOADREM
LIBRARYQUALITY=0
SPECTRUMID=CCMSLIB00000078704
SCANS=1125
ID=CCMSLIB00000078704
105.0698762568 	 1.86
121.0647908789 	 15.59
122.0712732403 	 1.21
134.0712732403 	 1.49
135.0440554368 	 1.11
135.0804409431 	 1.29
142.0651252299 	 3.24
150.0661878624 	 3.26
151.0753555652 	 1.49
154.0651252299 	 1.83
165.0896629587 	 20.71
168.0681992351 	 1.78
169.0760242672 	 100
170.0811692246 	 11.03
171.0916743314 	 1.29
177.0910056294 	 1.81
181.0733441925 	 1.4
183.0916743314 	 2.25
191.085526321 	 1.06
197.0709388893 	 20.71
198.0760838467 	 3.4
206.0937452836 	 1.97
207.1042503904 	 1.01
218.0964253583 	 9.32
219.100227645 	 3.21
220.0994993635 	 5.14
222.1151494277 	 1.94
233.0808348736 	 1.21
234.0886599057 	 2.68
235.0991650125 	 2.25
245.0835149483 	 2.17
246.0913399804 	 1.18
248.1069900446 	 8.37
249.112135002 	 4.27
250.1226401088 	 5.8
254.0924026129 	 1.12
260.1069900446 	 4.69
260.1307994919 	 1.65
289.1057069534 	 2.91
390.1812176202 	 5.23
391.1890426523 	 3.64
418.1761322423 	 23.53
526.2336471212 	 0
END IONS

BEGIN IONS
PEPMASS=296.1189
CHARGE=1
MSLEVEL=2
RT=0
SOURCE_INSTRUMENT=qTOF
FILENAME=CCMSLIB00000078705.ms
IONMODE=Positive
ORGANISM=Natural
NAME=NCGC00160283-01!1-(8-Quinolinyl)-beta-carboline
PI=GNPS
DATACOLLECTOR=GNPS
SMILES=c1ccc2c(c1)c1ccnc(c3cccc4cccnc34)c1[nH]2
INCHI=InChI=1S/C20H13N3/c1-2-9-17-14(7-1)15-10-12-22-19(20(15)23-17)16-8-3-5-13-6-4-11-21-18(13)16/h1-12,23H
FORMULA=C20H13N3
PUBMED=N/A
SUBMITUSER=BIOADREM
LIBRARYQUALITY=0
SPECTRUMID=CCMSLIB00000078705
SCANS=1126
ID=CCMSLIB00000078705
113.0385761284 	 0.99
115.0542261926 	 86.92
130.0651252299 	 6.31
140.0494751657 	 51.61
142.0651252299 	 21.57
167.060374203 	 100
169.0760242672 	 1.3
241.0886003262 	 1.7
268.0994993635 	 12.81
269.1073243956 	 14.69
279.0916743314 	 3.62
281.0947483366 	 3.99
295.1103984008 	 16.63
296.1182234329 	 603.96
END IONS

BEGIN IONS
PEPMASS=268.1339
CHARGE=1
MSLEVEL=2
RT=0
SOURCE_INSTRUMENT=qTOF
FILENAME=CCMSLIB00000078706.ms
IONMODE=Positive
ORGANISM=Natural
NAME=NCGC00160325-01!6,7-Dimethoxy-1-phenyl-3,4-dihydro-isoquinoline
PI=GNPS
DATACOLLECTOR=GNPS
SMILES=COc1cc2CCN=C(c3ccccc3)c2cc1OC
INCHI=InChI=1S/C17H17NO2/c1-19-15-10-13-8-9-18-17(12-6-4-3-5-7-12)14(13)11-16(15)20-2/h3-7,10-11H,8-9H2,1-2H3
FORMULA=C17H17NO2
PUBMED=N/A
SUBMITUSER=BIOADREM
LIBRARYQUALITY=0
SPECTRUMID=CCMSLIB00000078706
SCANS=1127
ID=CCMSLIB00000078706
103.0542261926 	 0.89
104.0494751657 	 0.93
116.0494751657 	 0.57
118.0651252299 	 1.17
119.0491408147 	 1.09
121.0647908789 	 0.51
128.0494751657 	 0.99
130.0651252299 	 0.72
146.060039852 	 3.95
147.0440554368 	 1.1
149.059705501 	 0.45
165.0698762568 	 0.88
174.0549544741 	 2.17
175.0627795062 	 0.89
176.0706045383 	 2.13
190.0862546025 	 0.42
192.0807752941 	 0.62
193.0886003262 	 1.08
194.0964253583 	 18.16
196.0756899162 	 1.92
204.0807752941 	 0.55
205.0886003262 	 0.68
206.0964253583 	 11.65
207.1042503904 	 11.75
208.1120754225 	 1.95
209.0835149483 	 2.8
210.0913399804 	 2.75
222.0913399804 	 8
223.0991650125 	 5.67
224.1069900446 	 36.22
234.0913399804 	 1.16
235.0991650125 	 0.89
236.1069900446 	 5.33
237.0784295704 	 1
238.0862546025 	 5.14
252.1019046667 	 100
253.1097296988 	 24.61
268.1332047951 	 41.28
END IONS

BEGIN IONS
PEPMASS=361.119
CHARGE=1
MSLEVEL=2
RT=0
SOURCE_INSTRUMENT=qTOF
FILENAME=CCMSLIB00000078707.ms
IONMODE=Positive
ORGANISM=Natural
NAME=NCGC00160301-01!1-(4-Oxo-4H-chromen-3-yl)-2,3,4,9-tetrahydro-1H-beta-carbolin-3-ylcarboxylic acid
PI=GNPS
DATACOLLECTOR=GNPS
SMILES=c1ccc2c(c1)c1CC(C(=O)O)NC(c3coc4ccccc4c3=O)c1[nH]2
INCHI=InChI=1S/C21H16N2O4/c24-20-12-6-2-4-8-17(12)27-10-14(20)19-18-13(9-16(23-19)21(25)26)11-5-1-3-7-15(11)22-18/h1-8,10,16,19,22-23H,9H2,(H,25,26)
FORMULA=C21H16N2O4
PUBMED=N/A
SUBMITUSER=BIOADREM
LIBRARYQUALITY=0
SPECTRUMID=CCMSLIB00000078707
SCANS=1128
ID=CCMSLIB00000078707
105.0334907505 	 2.84
115.0542261926 	 3.22
117.0698762568 	 2.84
118.0651252299 	 15.54
121.0284053726 	 100
130.0651252299 	 14.94
131.0491408147 	 3.6
142.0651252299 	 4.14
144.0443897878 	 2.84
144.0807752941 	 8.07
146.060039852 	 11.4
155.072950262 	 5.07
159.0440554368 	 41.88
167.072950262 	 30.59
186.0549544741 	 4.74
188.0706045383 	 3.82
270.0913399804 	 4.31
288.1019046667 	 35.82
290.1049786719 	 2.84
361.1182830124 	 0
END IONS

BEGIN IONS
PEPMASS=387.072
CHARGE=1
MSLEVEL=2
RT=0
SOURCE_INSTRUMENT=qTOF
FILENAME=CCMSLIB00000078708.ms
IONMODE=Positive
ORGANISM=Natural
NAME=NCGC00095566-02!STICTIC ACID
PI=GNPS
DATACOLLECTOR=GNPS
SMILES=Cc1cc(c(C=O)c2c1C(=O)Oc1c(C)c(c3c(c1O2)C(O)OC3=O)O)OC
INCHI=InChI=1S/C19H14O9/c1-6-4-9(25-3)8(5-20)15-10(6)17(22)27-14-7(2)13(21)11-12(16(14)26-15)19(24)28-18(11)23/h4-5,19,21,24H,1-3H3
FORMULA=C19H14O9
PUBMED=N/A
SUBMITUSER=BIOADREM
LIBRARYQUALITY=0
SPECTRUMID=CCMSLIB00000078708
SCANS=1129
ID=CCMSLIB00000078708
115.0542261926 	 4.48828349251083
117.0698762568 	 4.2064610406555
121.0647908789 	 2.67731329262565
145.0647908789 	 4.06554981472783
147.0804409431 	 4.33171546370231
160.0518804689 	 16.0951933615156
173.059705501 	 5.73560878868535
175.0753555652 	 15.8603413183028
185.059705501 	 3.16267418193205
188.046795091 	 4.89536036741297
191.033884681 	 8.26157298679609
192.0417097131 	 4.94233077605553
201.0546201231 	 13.485726214707
203.0702701873 	 34.3249308491206
213.0546201231 	 2.9069464015448
214.0624451552 	 8.51730076718334
229.0495347452 	 44.2200302698189
231.0651848094 	 98.4917279891446
242.0573597773 	 4.63963258702573
257.0444493673 	 11.3981524972601
257.0808348736 	 5.86608214602578
258.0522743994 	 4.6918219299619
259.0600994315 	 100
269.0444493673 	 6.45060278691091
269.0808348736 	 2.93304107301289
270.0522743994 	 18.4176191221752
283.0600994315 	 5.81911173738323
285.0393639894 	 5.63644903710662
285.0757494957 	 8.412922081311
313.0342786115 	 13.6161995720474
313.0706641178 	 16.5179270392986
315.0499286757 	 4.94233077605553
315.086314182 	 3.03220082459162
331.0448432978 	 3.62715933406398
341.0655787399 	 32.4148008976567
369.060493362 	 11.9670163352643
387.0710580483 	 0
END IONS

BEGIN IONS
PEPMASS=373.201
CHARGE=1
MSLEVEL=2
RT=0
SOURCE_INSTRUMENT=qTOF
FILENAME=CCMSLIB00000078709.ms
IONMODE=Positive
ORGANISM=Natural
NAME=NCGC00160185-01!3,3',4,4'-Tetramethoxy-7,7'-epoxylignan
PI=GNPS
DATACOLLECTOR=GNPS
SMILES=C[C@H]1[C@@H](C)[C@H](c2ccc(c(c2)OC)OC)O[C@@H]1c1ccc(c(c1)OC)OC
INCHI=InChI=1S/C22H28O5/c1-13-14(2)22(16-8-10-18(24-4)20(12-16)26-6)27-21(13)15-7-9-17(23-3)19(11-15)25-5/h7-14,21-22H,1-6H3/t13-,14+,21-,22+
FORMULA=C22H28O5
PUBMED=N/A
SUBMITUSER=BIOADREM
LIBRARYQUALITY=0
SPECTRUMID=CCMSLIB00000078709
SCANS=1130
ID=CCMSLIB00000078709
104.0620512247 	 1.275
107.0491408147 	 4.715
108.0569658468 	 3.225
109.0284053726 	 2.085
117.0698762568 	 1.965
121.0647908789 	 4.345
123.0804409431 	 1.435
124.0518804689 	 9.4
132.0569658468 	 1.8
133.0647908789 	 2.095
134.072615911 	 1.77
135.0440554368 	 4.91
136.0518804689 	 8.415
137.059705501 	 2.735
138.0675305331 	 5.08
139.0753555652 	 50.64
145.0647908789 	 1.335
147.0804409431 	 2.235
148.0882659752 	 0.43
149.059705501 	 2.65
150.0675305331 	 4.42
151.0753555652 	 100
159.0804409431 	 3.125
160.0882659752 	 2.59
163.0753555652 	 1.665
164.0831805973 	 6.9
165.0546201231 	 7.405
165.0910056294 	 11.605
167.0702701873 	 54.815
171.0804409431 	 1.82
176.0831805973 	 1.93
179.1066556936 	 54.9
186.1039160394 	 6.1
187.0753555652 	 5.03
191.1066556936 	 7.905
193.0859202515 	 1.265
195.1015703157 	 6.38
202.0988306615 	 17.86
217.1223057578 	 63.94
235.1328704441 	 47.585
355.190385323 	 5.42
373.2009500093 	 0
END IONS

BEGIN IONS
PEPMASS=221.1046
CHARGE=1
MSLEVEL=2
RT=0
SOURCE_INSTRUMENT=qTOF
FILENAME=CCMSLIB00000078710.ms
IONMODE=Positive
ORGANISM=Natural
NAME=NCGC00160227-01!N-METHYL-NORCOTAMINE
PI=GNPS
DATACOLLECTOR=GNPS
SMILES=CN1CCC2=CC3=C(C(=[O+]C)C2=C1)OCO3
INCHI=InChI=1S/C12H14NO3/c1-13-4-3-8-5-10-12(16-7-15-10)11(14-2)9(8)6-13/h5-6H,3-4,7H2,1-2H3/q+1
FORMULA=C12H14NO3+
PUBMED=N/A
SUBMITUSER=BIOADREM
LIBRARYQUALITY=0
SPECTRUMID=CCMSLIB00000078710
SCANS=1131
ID=CCMSLIB00000078710
95.072950262 	 0.96
102.0464011605 	 2.58
104.0494751657 	 4.07
106.0651252299 	 5.45
107.072950262 	 3.06
118.0651252299 	 20.7
119.072950262 	 11.87
120.0807752941 	 15.16
121.0886003262 	 6.56
122.060039852 	 0.99
130.0413157826 	 3.57
130.0651252299 	 1.33
131.0491408147 	 2.65
133.0522148199 	 1.42
134.060039852 	 2.66
135.0678648841 	 1.77
145.0284053726 	 1.65
146.0362304047 	 4.03
146.060039852 	 3.06
147.0678648841 	 20.6
148.0756899162 	 30.96
158.060039852 	 1.01
159.0678648841 	 4.07
165.0784295704 	 1.32
174.0311450268 	 2.34
175.0627795062 	 7.52
176.0706045383 	 15.04
177.0546201231 	 10.79
188.046795091 	 6.77
190.0498690962 	 1.7
204.0655191604 	 13.35
205.0733441925 	 100
220.0968192888 	 25.03
221.1046443209 	 0
END IONS

BEGIN IONS
PEPMASS=269.081
CHARGE=1
MSLEVEL=2
RT=0
SOURCE_INSTRUMENT=qTOF
FILENAME=CCMSLIB00000078711.ms
IONMODE=Positive
ORGANISM=Natural
NAME=NCGC00160339-01!(5-Hydroxy-benzofuran-3-yl)-(4-methoxy-phenyl)-methanone
PI=GNPS
DATACOLLECTOR=GNPS
SMILES=COc1ccc(cc1)C(=O)c1coc2ccc(cc12)O
INCHI=InChI=1S/C16H12O4/c1-19-12-5-2-10(3-6-12)16(18)14-9-20-15-7-4-11(17)8-13(14)15/h2-9,17H,1H3
FORMULA=C16H12O4
PUBMED=N/A
SUBMITUSER=BIOADREM
LIBRARYQUALITY=0
SPECTRUMID=CCMSLIB00000078711
SCANS=1132
ID=CCMSLIB00000078711
105.0334907505 	 28.3
107.0491408147 	 4.03
133.0284053726 	 25.57
135.0440554368 	 38.76
152.0620512247 	 1.63
161.0233199947 	 100
169.0647908789 	 1.29
197.059705501 	 1
269.0808348736 	 0
END IONS

BEGIN IONS
PEPMASS=354.1429
CHARGE=1
MSLEVEL=2
RT=0
SOURCE_INSTRUMENT=qTOF
FILENAME=CCMSLIB00000078712.ms
IONMODE=Positive
ORGANISM=Natural
NAME=NCGC00160320-01!4-(Cytisin-12-amido)-benzoic acid
PI=GNPS
DATACOLLECTOR=GNPS
SMILES=c1cc2[C@H]3C[C@H](CN(C3)C(=O)Nc3ccc(cc3)C(=O)O)Cn2c(=O)c1
INCHI=InChI=1S/C19H19N3O4/c23-17-3-1-2-16-14-8-12(10-22(16)17)9-21(11-14)19(26)20-15-6-4-13(5-7-15)18(24)25/h1-7,12,14H,8-11H2,(H,20,26)(H,24,25)/t12-,14+/m1/s1
FORMULA=C19H19N3O4
PUBMED=N/A
SUBMITUSER=BIOADREM
LIBRARYQUALITY=0
SPECTRUMID=CCMSLIB00000078712
SCANS=1133
ID=CCMSLIB00000078712
96.0417097131 	 1.065
104.0494751657 	 0.815
106.0624451552 	 3.035
108.0443897878 	 1.525
110.0573597773 	 1.96
112.0518804689 	 0.9
117.0573001978 	 3.55
118.0287397236 	 1.495
118.0651252299 	 1.44
120.0417097131 	 14.015
120.0443897878 	 11.605
121.0495347452 	 3.565
122.0573597773 	 0.955
122.060039852 	 1.44
130.0651252299 	 4.57
131.072950262 	 3.19
132.0443897878 	 5.355
132.0807752941 	 4.055
133.0522148199 	 10.135
134.0573597773 	 3.51
134.060039852 	 4.34
135.0651848094 	 1.075
142.0624451552 	 0.94
142.0651252299 	 1.13
144.0807752941 	 2.21
145.0495347452 	 0.76
145.0522148199 	 1.285
146.0236543457 	 100
146.060039852 	 28.35
147.0651848094 	 7.68
147.1015703157 	 0.885
148.0756899162 	 24.36
154.0624451552 	 1.31
154.0651252299 	 1.27
156.0807752941 	 4.45
158.060039852 	 7.645
159.0651848094 	 6.405
160.0756899162 	 70.1
161.0808348736 	 12.455
162.0886599057 	 2.63
171.0916743314 	 1.11
172.0730098415 	 6.435
172.0756899162 	 3.345
174.0913399804 	 36.28
175.0964849378 	 3.22
188.0706045383 	 3.76
189.1022390177 	 22.245
191.1178890819 	 3.68
199.0865889535 	 0.925
216.1104579803 	 3.355
217.0971536398 	 52.77
235.1077183261 	 1.33
336.1342674276 	 16.57
354.1448321139 	 11.635
END IONS

BEGIN IONS
PEPMASS=329.1027
CHARGE=1
MSLEVEL=2
RT=0
SOURCE_INSTRUMENT=qTOF
FILENAME=CCMSLIB00000078713.ms
IONMODE=Positive
ORGANISM=Natural
NAME=NCGC00160293-01!6-Methyl-5,7a,13,13b-tetraaza-pentaphene-8,14-dione
PI=GNPS
DATACOLLECTOR=GNPS
SMILES=Cc1cn2c(=O)c3ccccc3nc2n2c1nc1ccccc1c2=O
INCHI=InChI=1S/C19H12N4O2/c1-11-10-22-17(24)12-6-2-5-9-15(12)21-19(22)23-16(11)20-14-8-4-3-7-13(14)18(23)25/h2-10H,1H3
FORMULA=C19H12N4O2
PUBMED=N/A
SUBMITUSER=BIOADREM
LIBRARYQUALITY=0
SPECTRUMID=CCMSLIB00000078713
SCANS=1134
ID=CCMSLIB00000078713
119.0365647557 	 9.28
129.0447241388 	 34.82
130.0287397236 	 11.7
132.0443897878 	 6.53
145.0396387609 	 48.16
155.060374203 	 38.82
156.0443897878 	 14.17
156.0681992351 	 10.82
157.0760242672 	 23.61
158.060039852 	 6.43
167.060374203 	 6.86
168.0556231761 	 10.1
183.0552888251 	 20.59
184.0631138572 	 13.67
185.0709388893 	 13.56
210.0661878624 	 100
211.0740128945 	 39.21
218.0712732403 	 8.46
221.0709388893 	 20.92
231.0790982724 	 5.99
232.0882659752 	 6.1
235.0740128945 	 24.33
246.0661878624 	 6.21
246.1025733687 	 6.7
248.0818379266 	 9.56
257.0947483366 	 8.02
258.0899973097 	 19.17
260.0831805973 	 6.53
263.0689275166 	 47.61
264.0767525487 	 27.62
265.0845775808 	 6.81
271.0978223418 	 32.07
272.1056473739 	 34.6
273.113472406 	 32.56
274.0974879908 	 16.97
285.0770868997 	 11.2
286.0849119318 	 73.26
300.100561996 	 19.55
301.1083870281 	 90.99
313.0720015218 	 6.7
314.0798265539 	 25.1
329.1033016502 	 632.29
END IONS

BEGIN IONS
PEPMASS=392.135
CHARGE=1
MSLEVEL=2
RT=0
SOURCE_INSTRUMENT=qTOF
FILENAME=CCMSLIB00000078715.ms
IONMODE=Positive
ORGANISM=Natural
NAME=NCGC00160235-01!GLYCOPERINE
PI=GNPS
DATACOLLECTOR=GNPS
SMILES=C[C@@H]1[C@H]([C@H]([C@H]([C@@H](O1)Oc1ccc2c(c1OC)nc1c(cco1)c2OC)O)O)O
INCHI=InChI=1S/C19H21NO8/c1-8-13(21)14(22)15(23)19(27-8)28-11-5-4-9-12(17(11)25-3)20-18-10(6-7-26-18)16(9)24-2/h4-8,13-15,19,21-23H,1-3H3/t8-,13-,14-,15-,19+/m1/s1
FORMULA=C19H21NO8
PUBMED=N/A
SUBMITUSER=BIOADREM
LIBRARYQUALITY=0
SPECTRUMID=CCMSLIB00000078715
SCANS=1136
ID=CCMSLIB00000078715
156.0443897878 	 0.27
157.0522148199 	 0.28
160.0393044099 	 0.46
184.0393044099 	 1.33
188.034219032 	 2
200.0706045383 	 0.78
202.0498690962 	 1.16
203.0576941283 	 0.38
216.0291336541 	 15.22
228.0655191604 	 0.64
231.0526087504 	 100
246.0760838467 	 54.33
392.1339926561 	 0
END IONS

BEGIN IONS
PEPMASS=239.0819
CHARGE=1
MSLEVEL=2
RT=0
SOURCE_INSTRUMENT=qTOF
FILENAME=CCMSLIB00000078716.ms
IONMODE=Positive
ORGANISM=Natural
NAME=NCGC00160209-01!2-(2-Hydroxy-phenyl)-3H-quinazolin-4-one
PI=GNPS
DATACOLLECTOR=GNPS
SMILES=c1ccc2c(c1)c(nc(c1ccccc1O)n2)O
INCHI=InChI=1S/C14H10N2O2/c17-12-8-4-2-6-10(12)13-15-11-7-3-1-5-9(11)14(18)16-13/h1-8,17H,(H,15,16,18)
FORMULA=C14H10N2O2
PUBMED=N/A
SUBMITUSER=BIOADREM
LIBRARYQUALITY=0
SPECTRUMID=CCMSLIB00000078716
SCANS=1137
ID=CCMSLIB00000078716
102.0338251015 	 6.74
115.0542261926 	 2.14
117.0447241388 	 11.09
119.0365647557 	 1.65
119.060374203 	 3.66
120.0443897878 	 100
121.0284053726 	 41.57
139.0542261926 	 6.96
140.0494751657 	 9.51
142.0651252299 	 2.14
145.0396387609 	 40.64
151.0542261926 	 1.05
155.060374203 	 1.21
163.0502034472 	 2.24
166.0651252299 	 41.87
169.0760242672 	 2.84
170.060039852 	 4.04
178.0651252299 	 8.7
182.0838492993 	 2.74
183.0552888251 	 1.92
183.0916743314 	 2.88
192.0681992351 	 11.79
193.0760242672 	 8.07
194.060039852 	 14.8
195.0916743314 	 9.73
196.0756899162 	 43.4
197.0709388893 	 34.9
209.0709388893 	 2.35
210.0787639214 	 3.93
211.0865889535 	 92.99
221.0709388893 	 34.73
222.0549544741 	 19.54
239.0815035756 	 244.2
END IONS

BEGIN IONS
PEPMASS=312.0859
CHARGE=1
MSLEVEL=2
RT=0
SOURCE_INSTRUMENT=qTOF
FILENAME=CCMSLIB00000078717.ms
IONMODE=Positive
ORGANISM=Natural
NAME=NCGC00160281-01!9,10-Dimethoxy-6aH-benzo[4,5][1,3]oxazino[2,3-a]isoindole-5,11-dione
PI=GNPS
DATACOLLECTOR=GNPS
SMILES=COc1ccc2c(c1OC)C(=O)N1c3ccccc3C(=O)O[C@H]21
INCHI=InChI=1S/C17H13NO5/c1-21-12-8-7-10-13(14(12)22-2)15(19)18-11-6-4-3-5-9(11)17(20)23-16(10)18/h3-8,16H,1-2H3/t16-/m1/s1
FORMULA=C17H13NO5
PUBMED=N/A
SUBMITUSER=BIOADREM
LIBRARYQUALITY=0
SPECTRUMID=CCMSLIB00000078717
SCANS=1138
ID=CCMSLIB00000078717
108.0205803405 	 6.27
109.0284053726 	 7.2
111.0103500052 	 7.07
120.0205803405 	 6.93
121.0284053726 	 14.93
132.0443897878 	 6.93
135.0440554368 	 8.53
145.0284053726 	 6.8
146.0236543457 	 11.87
149.0233199947 	 9.47
151.0389700589 	 12.93
163.0389700589 	 32
165.0546201231 	 28.27
167.072950262 	 20.4
178.0624451552 	 10.53
190.0498690962 	 6.8
193.0495347452 	 100
223.0600994315 	 8.67
225.0784295704 	 6.4
238.0498690962 	 10.4
240.0655191604 	 33.87
268.0604337825 	 11.2
269.0682588146 	 11.47
284.0917339109 	 56.93
312.086648533 	 37.33
END IONS

BEGIN IONS
PEPMASS=382.1285
CHARGE=1
MSLEVEL=2
RT=0
SOURCE_INSTRUMENT=qTOF
FILENAME=CCMSLIB00000078718.ms
IONMODE=Positive
ORGANISM=Natural
NAME=NCGC00160329-01!4-Hydroxy-3-(4-methoxy-6-methyl-5,6,7,8-tetrahydro-[1,3]dioxolo[4,5-g]isoquinolin-5-yl)-chromen-2-one
PI=GNPS
DATACOLLECTOR=GNPS
SMILES=CN1CCc2cc3c(c(c2C1c1c(c2ccccc2oc1=O)O)OC)OCO3
INCHI=InChI=1S/C21H19NO6/c1-22-8-7-11-9-14-19(27-10-26-14)20(25-2)15(11)17(22)16-18(23)12-5-3-4-6-13(12)28-21(16)24/h3-6,9,17,23H,7-8,10H2,1-2H3
FORMULA=C21H19NO6
PUBMED=N/A
SUBMITUSER=BIOADREM
LIBRARYQUALITY=0
SPECTRUMID=CCMSLIB00000078718
SCANS=1139
ID=CCMSLIB00000078718
103.0542261926 	 3.2
107.0491408147 	 7.6
118.0651252299 	 5.61
119.0491408147 	 4.78
121.0284053726 	 7.98
121.0647908789 	 14.03
133.0647908789 	 3.39
135.0678648841 	 4.44
136.0518804689 	 2.87
136.0756899162 	 4.61
137.059705501 	 4.2
146.060039852 	 9.26
147.0678648841 	 5.52
149.0233199947 	 4.33
149.059705501 	 4.23
150.0913399804 	 16.7
152.046795091 	 4.27
161.059705501 	 4.08
162.0913399804 	 11.39
163.0627795062 	 3.13
165.0546201231 	 8.56
175.0389700589 	 30.33
176.0706045383 	 4.13
177.0784295704 	 5.09
178.0862546025 	 13.65
179.0702701873 	 38.1
189.0546201231 	 11.14
190.0862546025 	 7.68
192.0655191604 	 11.86
193.0733441925 	 19.35
205.0733441925 	 20.07
206.0811692246 	 9.09
207.0889942567 	 100
208.0968192888 	 64.91
216.0417097131 	 3.51
220.0968192888 	 39.74
231.0651848094 	 7.71
262.1073839751 	 4.12
382.1285133477 	 3.36
END IONS

BEGIN IONS
PEPMASS=297.076
CHARGE=1
MSLEVEL=2
RT=0
SOURCE_INSTRUMENT=qTOF
FILENAME=CCMSLIB00000078719.ms
IONMODE=Positive
ORGANISM=Natural
NAME=NCGC00160319-01!(2-Oxo-2H-chromen-7-yloxy)-phenyl-acetic acid
PI=GNPS
DATACOLLECTOR=GNPS
SMILES=c1ccc(cc1)C(C(=O)O)Oc1ccc2ccc(=O)oc2c1
INCHI=InChI=1S/C17H12O5/c18-15-9-7-11-6-8-13(10-14(11)22-15)21-16(17(19)20)12-4-2-1-3-5-12/h1-10,16H,(H,19,20)
FORMULA=C17H12O5
PUBMED=N/A
SUBMITUSER=BIOADREM
LIBRARYQUALITY=0
SPECTRUMID=CCMSLIB00000078719
SCANS=1140
ID=CCMSLIB00000078719
107.0491408147 	 40.81
119.0491408147 	 15.38
135.0440554368 	 8.5
163.0389700589 	 100
223.0753555652 	 1.27
297.0757494957 	 0
END IONS

BEGIN IONS
PEPMASS=249.135
CHARGE=1
MSLEVEL=2
RT=0
SOURCE_INSTRUMENT=qTOF
FILENAME=CCMSLIB00000078720.ms
IONMODE=Positive
ORGANISM=Natural
NAME=NCGC00160286-01!7-Prenyl-theophylline
PI=GNPS
DATACOLLECTOR=GNPS
SMILES=CC(=CCn1cnc2c1c(=O)n(C)c(=O)n2C)C
INCHI=InChI=1S/C12H16N4O2/c1-8(2)5-6-16-7-13-10-9(16)11(17)15(4)12(18)14(10)3/h5,7H,6H2,1-4H3
FORMULA=C12H16N4O2
PUBMED=N/A
SUBMITUSER=BIOADREM
LIBRARYQUALITY=0
SPECTRUMID=CCMSLIB00000078720
SCANS=1141
ID=CCMSLIB00000078720
96.0556231761 	 3.97
107.0239886967 	 0.96
109.0270627019 	 2.17
124.0505377982 	 55.25
181.0720015218 	 100
249.1346017786 	 0
END IONS

BEGIN IONS
PEPMASS=213.1022
CHARGE=1
MSLEVEL=2
RT=0
SOURCE_INSTRUMENT=qTOF
FILENAME=CCMSLIB00000078721.ms
IONMODE=Positive
ORGANISM=Natural
NAME=NCGC00016435-05!HARMINE
PI=GNPS
DATACOLLECTOR=GNPS
SMILES=Cc1c2c(ccn1)c1ccc(cc1[nH]2)OC
INCHI=InChI=1S/C13H12N2O/c1-8-13-11(5-6-14-8)10-4-3-9(16-2)7-12(10)15-13/h3-7,15H,1-2H3
FORMULA=C13H12N2O
PUBMED=N/A
SUBMITUSER=BIOADREM
LIBRARYQUALITY=0
SPECTRUMID=CCMSLIB00000078721
SCANS=1142
ID=CCMSLIB00000078721
115.0542261926 	 0.625
118.0651252299 	 0.44
128.0494751657 	 0.42
142.0651252299 	 1.24
155.060374203 	 5.975
169.0760242672 	 49.77
170.0838492993 	 100
197.0709388893 	 0.35
198.0787639214 	 49.11
213.1022390177 	 25.065
END IONS

BEGIN IONS
PEPMASS=302.1943
CHARGE=1
MSLEVEL=2
RT=0
SOURCE_INSTRUMENT=qTOF
FILENAME=CCMSLIB00000078722.ms
IONMODE=Positive
ORGANISM=Natural
NAME=NCGC00160190-01!HELIOCURASSAVICINE N-OXYDE
PI=GNPS
DATACOLLECTOR=GNPS
SMILES=CC(C)C(C(C)O)(C(=O)OC[C@@H]1CCN2(=O)CCCC12)O
INCHI=InChI=1S/C15H27NO5/c1-10(2)15(19,11(3)17)14(18)21-9-12-6-8-16(20)7-4-5-13(12)16/h10-13,17,19H,4-9H2,1-3H3/t11?,12-,13?,15?,16?/m0/s1
FORMULA=C15H27NO5
PUBMED=N/A
SUBMITUSER=BIOADREM
LIBRARYQUALITY=0
SPECTRUMID=CCMSLIB00000078722
SCANS=1143
ID=CCMSLIB00000078722
96.0807752941 	 0.92
97.0886003262 	 1.11
108.0807752941 	 0.43
110.0964253583 	 5.25
122.0964253583 	 1.98
123.1042503904 	 0.82
124.1120754225 	 14.65
140.1069900446 	 10.17
141.1148150767 	 16.98
158.1175547309 	 100
302.1961989824 	 14.53
END IONS

BEGIN IONS
PEPMASS=374.2316
CHARGE=1
MSLEVEL=2
RT=0
SOURCE_INSTRUMENT=qTOF
FILENAME=CCMSLIB00000078723.ms
IONMODE=Positive
ORGANISM=Natural
NAME=NCGC00160225-01!SONGORINE N-OXIDE
PI=GNPS
DATACOLLECTOR=GNPS
SMILES=CCN1(=O)C[C@]2(C)CC[C@@H]([C@@]34C2CC(C14)[C@]12CC(C(=C)[C@H]2O)C(=O)CC31)O
INCHI=InChI=1S/C22H31NO4/c1-4-23(27)10-20(3)6-5-17(25)22-15(20)7-13(18(22)23)21-9-12(11(2)19(21)26)14(24)8-16(21)22/h12-13,15-19,25-26H,2,4-10H2,1,3H3/t12?,13?,15?,16?,17-,18?,19+,20-,21+,22+,23?/m0/s1
FORMULA=C22H31NO4
PUBMED=N/A
SUBMITUSER=BIOADREM
LIBRARYQUALITY=0
SPECTRUMID=CCMSLIB00000078723
SCANS=1144
ID=CCMSLIB00000078723
159.1042503904 	 10.35
180.138290173 	 9.08
186.125045412 	 19.25
200.1069900446 	 18.49
200.1433755509 	 11.54
212.1406954762 	 10.26
213.151200583 	 10.18
214.1590256151 	 10.09
228.138290173 	 35.54
229.1434351304 	 13.23
239.1277850662 	 17.22
240.1356100983 	 12.13
242.1512601625 	 11.28
245.1774153335 	 29.18
246.1852403656 	 26.29
254.1512601625 	 10.35
256.1332047951 	 16.12
256.1695903014 	 14.08
258.1852403656 	 13.57
270.1488548593 	 15.1
270.1825602909 	 20.7
271.1930653977 	 18.32
286.216540494 	 11.37
296.1982103551 	 10.35
298.1801549877 	 76.59
299.1879800198 	 48.35
310.216540494 	 12.64
311.2243655261 	 10.26
312.2321905582 	 35.03
314.2114551161 	 53.27
324.1958050519 	 15.1
328.2271051803 	 42.15
329.2349302124 	 30.2
338.2114551161 	 18.24
339.2192801482 	 28.33
340.2271051803 	 69.8
356.2220198024 	 100
357.2298448345 	 79.9
374.2325844887 	 471.84
END IONS

BEGIN IONS
PEPMASS=221.1177
CHARGE=1
MSLEVEL=2
RT=0
SOURCE_INSTRUMENT=qTOF
FILENAME=CCMSLIB00000078724.ms
IONMODE=Positive
ORGANISM=Natural
NAME=NCGC00160199-01!PRECOCENE II
PI=GNPS
DATACOLLECTOR=GNPS
SMILES=CC1(C)C=Cc2cc(c(cc2O1)OC)OC
INCHI=InChI=1S/C13H16O3/c1-13(2)6-5-9-7-11(14-3)12(15-4)8-10(9)16-13/h5-8H,1-4H3
FORMULA=C13H16O3
PUBMED=N/A
SUBMITUSER=BIOADREM
LIBRARYQUALITY=0
SPECTRUMID=CCMSLIB00000078724
SCANS=1145
ID=CCMSLIB00000078724
103.0542261926 	 19.52
105.0698762568 	 9.19
107.0491408147 	 16.81
115.0542261926 	 17.01
121.0647908789 	 7.93
128.0620512247 	 15.14
130.0777012889 	 9.6
131.0491408147 	 24.95
132.0569658468 	 15.45
135.0440554368 	 16.81
135.0804409431 	 14.09
147.0440554368 	 9.71
147.0804409431 	 8.04
148.0518804689 	 52.09
149.059705501 	 12.11
151.0753555652 	 49.06
161.059705501 	 17.33
161.0960910073 	 6.47
163.0389700589 	 13.57
163.0753555652 	 11.06
176.046795091 	 56.58
191.0702701873 	 100
193.1223057578 	 7.72
205.0859202515 	 26.1
221.1172203799 	 3.97
END IONS

BEGIN IONS
PEPMASS=243.1014
CHARGE=1
MSLEVEL=2
RT=0
SOURCE_INSTRUMENT=qTOF
FILENAME=CCMSLIB00000078725.ms
IONMODE=Positive
ORGANISM=Natural
NAME=NCGC00094931-03!2-Hydroxy-3-prenylnaphthoquinone
PI=GNPS
DATACOLLECTOR=GNPS
SMILES=CC(=CCC1=C(C(=O)c2ccccc2C1=O)O)C
INCHI=InChI=1S/C15H14O3/c1-9(2)7-8-12-13(16)10-5-3-4-6-11(10)14(17)15(12)18/h3-7,18H,8H2,1-2H3
FORMULA=C15H14O3
PUBMED=N/A
SUBMITUSER=BIOADREM
LIBRARYQUALITY=0
SPECTRUMID=CCMSLIB00000078725
SCANS=1146
ID=CCMSLIB00000078725
103.0542261926 	 25.51
105.0334907505 	 34.32
127.0542261926 	 2.31
131.0491408147 	 21.07
133.0284053726 	 2.36
153.0546201231 	 0.99
155.0491408147 	 17.87
159.0440554368 	 100
160.0307510963 	 4.62
179.0702701873 	 2.72
181.0647908789 	 4.76
187.0178406863 	 100
187.0389700589 	 57.9
188.0256657184 	 7.29
225.0910056294 	 4.53
243.1015703157 	 4.01
END IONS

BEGIN IONS
PEPMASS=217.086
CHARGE=1
MSLEVEL=2
RT=0
SOURCE_INSTRUMENT=qTOF
FILENAME=CCMSLIB00000078726.ms
IONMODE=Positive
ORGANISM=Natural
NAME=NCGC00160318-01!3-(2-Methyl-2H-chromen-3-yl)-acrylic acid
PI=GNPS
DATACOLLECTOR=GNPS
SMILES=C[C@H]1C(=Cc2ccccc2O1)/C=C/C(=O)O
INCHI=InChI=1S/C13H12O3/c1-9-10(6-7-13(14)15)8-11-4-2-3-5-12(11)16-9/h2-9H,1H3,(H,14,15)/b7-6+/t9-/m0/s1
FORMULA=C13H12O3
PUBMED=N/A
SUBMITUSER=BIOADREM
LIBRARYQUALITY=0
SPECTRUMID=CCMSLIB00000078726
SCANS=1147
ID=CCMSLIB00000078726
100.0307510963 	 6.12
102.0464011605 	 2.25
103.0542261926 	 5.12
107.0491408147 	 2.48
115.0542261926 	 9.84
117.0334907505 	 3.36
117.0698762568 	 2.22
118.0413157826 	 32.03
127.0542261926 	 2.08
128.0620512247 	 38.55
129.0334907505 	 13.51
130.0413157826 	 2.48
131.0491408147 	 20.06
132.0569658468 	 6.17
133.0647908789 	 2.45
141.0698762568 	 4.61
143.085526321 	 6.26
144.0569658468 	 4.64
145.0284053726 	 5.97
146.0362304047 	 31.64
151.0542261926 	 3.44
152.0620512247 	 32.29
153.0698762568 	 11.49
154.0777012889 	 3.04
156.0205803405 	 21.68
157.0647908789 	 7.4
161.059705501 	 15.99
169.0647908789 	 4.15
171.0804409431 	 16.39
172.0882659752 	 2.13
173.0233199947 	 19.89
174.0311450268 	 77.38
217.0859202515 	 0
END IONS

BEGIN IONS
PEPMASS=253.086
CHARGE=1
MSLEVEL=2
RT=0
SOURCE_INSTRUMENT=qTOF
FILENAME=CCMSLIB00000078727.ms
IONMODE=Positive
ORGANISM=Natural
NAME=NCGC00160252-01!3-(4-methoxy-phenyl)-isochromen-1-one
PI=GNPS
DATACOLLECTOR=GNPS
SMILES=COc1ccc(cc1)c1cc2ccccc2c(=O)o1
INCHI=InChI=1S/C16H12O3/c1-18-13-8-6-11(7-9-13)15-10-12-4-2-3-5-14(12)16(17)19-15/h2-10H,1H3
FORMULA=C16H12O3
PUBMED=N/A
SUBMITUSER=BIOADREM
LIBRARYQUALITY=0
SPECTRUMID=CCMSLIB00000078727
SCANS=1148
ID=CCMSLIB00000078727
140.0620512247 	 10.06
142.0413157826 	 1.24
151.0542261926 	 3.4
152.0620512247 	 3.13
153.0698762568 	 2.6
154.0777012889 	 2.61
163.0542261926 	 36.87
164.0620512247 	 63.83
167.0491408147 	 3.1
168.0569658468 	 35.4
176.0620512247 	 19.03
178.0777012889 	 19.91
181.0647908789 	 6.64
182.072615911 	 2.96
191.0491408147 	 1.21
192.0569658468 	 38.54
194.072615911 	 7.92
207.0804409431 	 67.37
209.059705501 	 2.06
210.0675305331 	 6.25
220.0518804689 	 4.44
235.0753555652 	 100
253.0859202515 	 0
END IONS

BEGIN IONS
PEPMASS=445.3426
CHARGE=1
MSLEVEL=2
RT=0
SOURCE_INSTRUMENT=qTOF
FILENAME=CCMSLIB00000078728.ms
IONMODE=Positive
ORGANISM=Natural
NAME=NCGC00160284-01!6-HYDROXYIMINO-IMPERIALINE
PI=GNPS
DATACOLLECTOR=GNPS
SMILES=C[C@H]1CC[C@H]2[C@](C)([C@@H]3CC[C@@H]4[C@@H](C[C@H]5[C@H]4C/C(=N\O)/[C@H]4C[C@H](CC[C@]54C)O)[C@@H]3CN2C1)O
INCHI=InChI=1S/C27H44N2O3/c1-15-4-7-25-27(3,31)21-6-5-17-18(20(21)14-29(25)13-15)11-22-19(17)12-24(28-32)23-10-16(30)8-9-26(22,23)2/h15-23,25,30-32H,4-14H2,1-3H3/b28-24+/t15-,16-,17+,18+,19-,20-,21+,22-,23+,25-,26+,27-/m0/s1
FORMULA=C27H44N2O3
PUBMED=N/A
SUBMITUSER=BIOADREM
LIBRARYQUALITY=0
SPECTRUMID=CCMSLIB00000078728
SCANS=1149
ID=CCMSLIB00000078728
112.1120754225 	 0.57
136.1120754225 	 0.35
138.1277254867 	 8.49
150.1277254867 	 0.39
162.1277254867 	 1.38
163.1328704441 	 0.87
164.1433755509 	 1.33
176.1433755509 	 0.56
177.1485205083 	 0.74
188.1406954762 	 0.64
190.1590256151 	 0.44
192.1746756793 	 0.51
202.1563455404 	 0.4
216.1746756793 	 0.48
217.1825007114 	 0.56
218.1903257435 	 5.01
219.1954707009 	 1.15
230.1876456688 	 0.83
232.2059758077 	 2.18
244.2059758077 	 2.39
245.2111207651 	 0.91
258.2216258719 	 31.52
269.2012247808 	 1.42
272.2372759361 	 5.94
273.2424208935 	 4.13
297.2325249092 	 7.84
312.2658959898 	 0.99
326.2842261287 	 1.18
340.2971961182 	 1.24
341.2587396597 	 0.51
342.2791407508 	 1.36
353.295125166 	 0.42
356.294790815 	 0.63
357.3026158471 	 0.75
370.3104408792 	 5.12
381.2900397881 	 1.05
393.3237452197 	 1.41
395.3056898523 	 5.59
409.3213399165 	 1.68
427.3319046028 	 100
445.3424692891 	 26.22
END IONS

BEGIN IONS
PEPMASS=332.201
CHARGE=1
MSLEVEL=2
RT=0
SOURCE_INSTRUMENT=qTOF
FILENAME=CCMSLIB00000078729.ms
IONMODE=Positive
ORGANISM=Natural
NAME=NCGC00160181-01!MAHANIMBINE
PI=GNPS
DATACOLLECTOR=GNPS
SMILES=CC(=CCCC1(C)C=Cc2c3c(cc(C)c2O1)c1ccccc1[nH]3)C
INCHI=InChI=1S/C23H25NO/c1-15(2)8-7-12-23(4)13-11-18-21-19(14-16(3)22(18)25-23)17-9-5-6-10-20(17)24-21/h5-6,8-11,13-14,24H,7,12H2,1-4H3
FORMULA=C23H25NO
PUBMED=N/A
SUBMITUSER=BIOADREM
LIBRARYQUALITY=0
SPECTRUMID=CCMSLIB00000078729
SCANS=1150
ID=CCMSLIB00000078729
167.072950262 	 7.09
168.0807752941 	 2.2
180.0807752941 	 3.22
181.0886003262 	 3.81
182.0964253583 	 12.4
183.0678648841 	 0.92
191.072950262 	 1.37
193.0886003262 	 1.87
194.0964253583 	 6
196.0756899162 	 2.69
205.0886003262 	 3.79
206.0964253583 	 4.19
208.0756899162 	 0.89
208.1120754225 	 1.42
210.0913399804 	 15.45
217.0886003262 	 1.32
218.0964253583 	 2.56
220.0756899162 	 3.86
220.1120754225 	 2.2
222.0913399804 	 1.07
222.1277254867 	 1.96
232.1120754225 	 2.08
233.0835149483 	 5.17
234.0913399804 	 6.63
235.0991650125 	 6.26
238.1226401088 	 1.91
246.0913399804 	 2.63
248.1069900446 	 100
260.1069900446 	 1.3
261.1148150767 	 3.65
264.138290173 	 1.73
276.138290173 	 3.37
332.2008904298 	 0
END IONS

BEGIN IONS
PEPMASS=253.144
CHARGE=1
MSLEVEL=2
RT=0
SOURCE_INSTRUMENT=qTOF
FILENAME=CCMSLIB00000078730.ms
IONMODE=Positive
ORGANISM=Natural
NAME=NCGC00160304-01!4-(4-Methyl-pent-3-enyl)-cyclohex-4-ene-1,2-dicarboxylic acid
PI=GNPS
DATACOLLECTOR=GNPS
SMILES=CC(=CCCC1=CC[C@@H]([C@@H](C1)C(=O)O)C(=O)O)C
INCHI=InChI=1S/C14H20O4/c1-9(2)4-3-5-10-6-7-11(13(15)16)12(8-10)14(17)18/h4,6,11-12H,3,5,7-8H2,1-2H3,(H,15,16)(H,17,18)/t11-,12+/m0/s1
FORMULA=C14H20O4
PUBMED=N/A
SUBMITUSER=BIOADREM
LIBRARYQUALITY=0
SPECTRUMID=CCMSLIB00000078730
SCANS=1151
ID=CCMSLIB00000078730
97.0647908789 	 6.82
105.0698762568 	 39.87
107.085526321 	 8.77
109.0647908789 	 4.74
111.0440554368 	 3.64
117.0698762568 	 5.39
119.085526321 	 51.56
121.1011763852 	 9.09
125.059705501 	 9.81
131.085526321 	 7.4
133.1011763852 	 33.25
137.059705501 	 13.44
137.0960910073 	 2.92
139.0753555652 	 4.55
143.085526321 	 5.84
145.1011763852 	 11.1
147.0804409431 	 3.9
147.1168264494 	 7.14
151.0753555652 	 11.23
159.1168264494 	 9.81
161.1324765136 	 100
165.0910056294 	 3.12
189.1273911357 	 15.32
207.137955822 	 14.87
253.1434351304 	 0
END IONS

BEGIN IONS
PEPMASS=230.0798
CHARGE=1
MSLEVEL=2
RT=0
SOURCE_INSTRUMENT=qTOF
FILENAME=CCMSLIB00000078732.ms
IONMODE=Positive
ORGANISM=Natural
NAME=NCGC00160208-01!6-Demethoxy-isomaculosidine
PI=GNPS
DATACOLLECTOR=GNPS
SMILES=Cn1c2c(cccc2OC)c(=O)c2ccoc12
INCHI=InChI=1S/C13H11NO3/c1-14-11-8(4-3-5-10(11)16-2)12(15)9-6-7-17-13(9)14/h3-7H,1-2H3
FORMULA=C13H11NO3
PUBMED=N/A
SUBMITUSER=BIOADREM
LIBRARYQUALITY=0
SPECTRUMID=CCMSLIB00000078732
SCANS=1152
ID=CCMSLIB00000078732
102.0464011605 	 1.45
103.0542261926 	 2.33
104.0494751657 	 0.685
107.0491408147 	 0.925
115.0542261926 	 2.21
116.0494751657 	 1.55
117.0573001978 	 1.035
118.0413157826 	 1.24
119.0365647557 	 0.45
128.0494751657 	 5.73
129.0573001978 	 2.05
130.0651252299 	 15.11
131.0491408147 	 9.895
131.072950262 	 2.92
132.0569658468 	 0.865
133.0522148199 	 2.3
135.0440554368 	 1.44
140.0494751657 	 2.865
141.0573001978 	 1.61
142.0413157826 	 2.05
142.0651252299 	 1.34
144.0443897878 	 2.47
145.0522148199 	 0.47
146.0236543457 	 1.915
156.0443897878 	 2.83
157.0522148199 	 0.56
158.060039852 	 20.5
159.0440554368 	 7.29
159.0678648841 	 10.9
168.0443897878 	 0.735
169.0522148199 	 1.19
170.0362304047 	 3.85
170.060039852 	 8.98
172.0393044099 	 33.21
184.0393044099 	 0.955
185.047129442 	 6.9
186.0549544741 	 59.73
187.0627795062 	 50.21
198.0549544741 	 4.445
199.0627795062 	 0.455
200.034219032 	 9.255
214.0498690962 	 41.115
215.0576941283 	 100
230.0811692246 	 18.84
END IONS

BEGIN IONS
PEPMASS=240.1001
CHARGE=1
MSLEVEL=2
RT=0
SOURCE_INSTRUMENT=qTOF
FILENAME=CCMSLIB00000078733.ms
IONMODE=Positive
ORGANISM=Natural
NAME=NCGC00160263-01!2-(3-Methyl-5-oxo-2,5-dihydro-furan-2-ylmethyl)-quinoline
PI=GNPS
DATACOLLECTOR=GNPS
SMILES=CC1=CC(=O)OC1Cc1ccc2ccccc2n1
INCHI=InChI=1S/C15H13NO2/c1-10-8-15(17)18-14(10)9-12-7-6-11-4-2-3-5-13(11)16-12/h2-8,14H,9H2,1H3
FORMULA=C15H13NO2
PUBMED=N/A
SUBMITUSER=BIOADREM
LIBRARYQUALITY=0
SPECTRUMID=CCMSLIB00000078733
SCANS=1153
ID=CCMSLIB00000078733
115.0542261926 	 4.38
117.0573001978 	 1.16
128.0494751657 	 8.45
142.0651252299 	 7.53
143.072950262 	 100
167.072950262 	 2.62
168.0807752941 	 2.02
170.060039852 	 0.43
178.0651252299 	 1.57
179.072950262 	 2.82
184.1120754225 	 5.48
193.0886003262 	 4.16
194.0964253583 	 18.99
207.0678648841 	 0.78
212.1069900446 	 7.29
222.0913399804 	 1.22
240.1019046667 	 2.99
END IONS

BEGIN IONS
PEPMASS=268.1794
CHARGE=1
MSLEVEL=2
RT=0
SOURCE_INSTRUMENT=qTOF
FILENAME=CCMSLIB00000078734.ms
IONMODE=Positive
ORGANISM=Natural
NAME=NCGC00160349-01!BREVICARINE
PI=GNPS
DATACOLLECTOR=GNPS
SMILES=Cc1c2c(c(CCCCNC)cn1)c1ccccc1[nH]2
INCHI=InChI=1S/C17H21N3/c1-12-17-16(14-8-3-4-9-15(14)20-17)13(11-19-12)7-5-6-10-18-2/h3-4,8-9,11,18,20H,5-7,10H2,1-2H3
FORMULA=C17H21N3
PUBMED=N/A
SUBMITUSER=BIOADREM
LIBRARYQUALITY=0
SPECTRUMID=CCMSLIB00000078734
SCANS=1154
ID=CCMSLIB00000078734
115.0542261926 	 1.3
141.0698762568 	 3.35
152.0620512247 	 1.75
154.0651252299 	 7.07
168.0807752941 	 24.02
178.0777012889 	 1.82
181.0760242672 	 7.4
183.0916743314 	 3.59
195.0916743314 	 73
196.0994993635 	 72.8
207.0916743314 	 2.57
209.1073243956 	 31.89
221.1073243956 	 20.79
222.1151494277 	 7.98
237.138624524 	 100
268.1808236897 	 24.28
END IONS

BEGIN IONS
PEPMASS=249.0651
CHARGE=1
MSLEVEL=2
RT=0
SOURCE_INSTRUMENT=qTOF
FILENAME=CCMSLIB00000078735.ms
IONMODE=Positive
ORGANISM=Natural
NAME=NCGC00160337-01!TRYPTANTHRINE
PI=GNPS
DATACOLLECTOR=GNPS
SMILES=c1ccc2c(c1)c(=O)n1c3ccccc3C(=O)c1n2
INCHI=InChI=1S/C15H8N2O2/c18-13-10-6-2-4-8-12(10)17-14(13)16-11-7-3-1-5-9(11)15(17)19/h1-8H
FORMULA=C15H8N2O2
PUBMED=N/A
SUBMITUSER=BIOADREM
LIBRARYQUALITY=0
SPECTRUMID=CCMSLIB00000078735
SCANS=1155
ID=CCMSLIB00000078735
102.0338251015 	 11.3571135711357
103.0416501336 	 1.58783406015878
129.0447241388 	 2.51593425025159
130.0287397236 	 74.5462000074546
139.0542261926 	 3.57449029035745
140.0494751657 	 3.35457900033546
166.0651252299 	 9.67609676096761
177.0573001978 	 0.708188900070819
179.060374203 	 1.5580155801558
191.060374203 	 1.31946774013195
192.0681992351 	 4.68522867046852
193.0760242672 	 2.40038764024004
194.060039852 	 0.611278840061128
205.0760242672 	 0.689552350068955
206.060039852 	 0.663461180066346
221.0709388893 	 26.29989936263
249.0658535114 	 100
END IONS

BEGIN IONS
PEPMASS=351.054
CHARGE=1
MSLEVEL=2
RT=0
SOURCE_INSTRUMENT=qTOF
FILENAME=CCMSLIB00000078736.ms
IONMODE=Positive
ORGANISM=Natural
NAME=NCGC00160269-01!3,4-Dihydroxy-2-hydroxymethyl-3,4,4a,12a-tetrahydro-2H-1,5-dioxa-12-thia-naphthacene-6,11-dione
PI=GNPS
DATACOLLECTOR=GNPS
SMILES=c1ccc2c(c1)C(=O)C1=C(C2=O)S[C@H]2[C@@H]([C@H]([C@@H]([C@@H](CO)O2)O)O)O1
INCHI=InChI=1S/C16H14O7S/c17-5-8-11(20)12(21)14-16(22-8)24-15-10(19)7-4-2-1-3-6(7)9(18)13(15)23-14/h1-4,8,11-12,14,16-17,20-21H,5H2/t8-,11-,12+,14-,16+/m1/s1
FORMULA=C16H14O7S
PUBMED=N/A
SUBMITUSER=BIOADREM
LIBRARYQUALITY=0
SPECTRUMID=CCMSLIB00000078736
SCANS=1156
ID=CCMSLIB00000078736
105.0334907505 	 14.95
115.0542261926 	 10.09
121.007276 	 21.08
128.046795091 	 10.99
131.0491408147 	 14.77
133.007276 	 13.33
146.0362304047 	 9.37
147.0229260642 	 19.28
149.0055614405 	 79.1
157.0284053726 	 8.83
161.0021906221 	 20.9
170.0184718505 	 9.37
171.0229260642 	 14.23
173.0233199947 	 10.09
177.0004760626 	 88.11
184.0307510963 	 9.19
188.9971052442 	 66.67
198.0675305331 	 11.35
199.0212115047 	 16.4
201.0216054352 	 9.73
203.0161261268 	 49.91
204.0205803405 	 12.97
216.9953906847 	 100
227.0127553084 	 45.05
228.0205803405 	 9.55
231.0110407489 	 47.57
243.0110407489 	 12.97
351.0532994941 	 0
END IONS

BEGIN IONS
PEPMASS=375.0877
CHARGE=1
MSLEVEL=2
RT=0
SOURCE_INSTRUMENT=qTOF
FILENAME=CCMSLIB00000078737.ms
IONMODE=Positive
ORGANISM=Natural
NAME=NCGC00160267-01!7-Hydroxy-2-phenoxy-3-(2-carboxybenzyl)chromone
PI=GNPS
DATACOLLECTOR=GNPS
SMILES=c1ccc(cc1)Oc1c(=O)c2ccc(cc2oc1c1ccccc1C(=O)O)O
INCHI=InChI=1S/C22H14O6/c23-13-10-11-17-18(12-13)28-20(15-8-4-5-9-16(15)22(25)26)21(19(17)24)27-14-6-2-1-3-7-14/h1-12,23H,(H,25,26)
FORMULA=C22H14O6
PUBMED=N/A
SUBMITUSER=BIOADREM
LIBRARYQUALITY=0
SPECTRUMID=CCMSLIB00000078737
SCANS=1157
ID=CCMSLIB00000078737
141.0698762568 	 10.4
155.0491408147 	 7.31
165.0698762568 	 10.05
169.0647908789 	 7.45
181.0647908789 	 9.6
193.0647908789 	 7.52
197.059705501 	 42.39
209.059705501 	 5.13
221.059705501 	 18.16
224.046795091 	 5.1
225.0546201231 	 100
231.0804409431 	 6.27
236.046795091 	 67.07
237.0546201231 	 38.82
245.0960910073 	 4.68
252.0417097131 	 11.85
253.0495347452 	 68.25
255.0804409431 	 14.94
258.0675305331 	 4.37
259.0753555652 	 4.92
264.0417097131 	 19.17
265.0495347452 	 28.46
273.0910056294 	 8.49
280.0366243352 	 5.13
281.0444493673 	 86.79
283.0753555652 	 7.35
301.0859202515 	 17.23
311.0702701873 	 7.69
315.0651848094 	 8.53
329.0808348736 	 42.98
357.0757494957 	 91.16
375.086314182 	 27.11
END IONS

BEGIN IONS
PEPMASS=217.0966
CHARGE=1
MSLEVEL=2
RT=0
SOURCE_INSTRUMENT=qTOF
FILENAME=CCMSLIB00000078738.ms
IONMODE=Positive
ORGANISM=Natural
NAME=NCGC00160221-01!1,2,3,4-Tetrahydro-6-Methoxy-1-oxo-beta-carboline
PI=GNPS
DATACOLLECTOR=GNPS
SMILES=COc1ccc2c(c1)c1CCNC(=O)c1[nH]2
INCHI=InChI=1S/C12H12N2O2/c1-16-7-2-3-10-9(6-7)8-4-5-13-12(15)11(8)14-10/h2-3,6,14H,4-5H2,1H3,(H,13,15)
FORMULA=C12H12N2O2
PUBMED=N/A
SUBMITUSER=BIOADREM
LIBRARYQUALITY=0
SPECTRUMID=CCMSLIB00000078738
SCANS=1158
ID=CCMSLIB00000078738
102.0464011605 	 19.18
105.0573001978 	 8.53
115.0542261926 	 14.64
116.0494751657 	 15.76
117.0573001978 	 30.12
118.0651252299 	 42.17
127.0542261926 	 8.62
129.0573001978 	 49.3
130.0651252299 	 97.41
131.072950262 	 74.24
132.0443897878 	 35.22
142.0651252299 	 19.37
143.072950262 	 25.67
144.0443897878 	 14.74
144.0807752941 	 14.09
145.0760242672 	 70.71
146.060039852 	 58.76
147.0678648841 	 80.17
155.060374203 	 16.22
156.0443897878 	 21.69
156.0681992351 	 32.72
157.0522148199 	 23.26
157.0760242672 	 14.74
158.060039852 	 10.66
159.0678648841 	 45.32
160.0756899162 	 66.45
162.0913399804 	 89.25
171.0678648841 	 7.88
172.0756899162 	 75.53
173.0709388893 	 47.08
174.0787639214 	 100
188.0944139856 	 29.84
189.1022390177 	 81.84
217.0971536398 	 16.68
END IONS

BEGIN IONS
PEPMASS=211.097
CHARGE=1
MSLEVEL=2
RT=0
SOURCE_INSTRUMENT=qTOF
FILENAME=CCMSLIB00000078739.ms
IONMODE=Positive
ORGANISM=Natural
NAME=NCGC00160335-01!4,7,7-Trimethyl-2,3-dioxo-bicyclo[2.2.1]heptane-1-carboxylic acid
PI=GNPS
DATACOLLECTOR=GNPS
SMILES=CC1(C)C2(C)CC[C@]1(C(=O)C2=O)C(=O)O
INCHI=InChI=1S/C11H14O4/c1-9(2)10(3)4-5-11(9,8(14)15)7(13)6(10)12/h4-5H2,1-3H3,(H,14,15)/t10?,11-/m0/s1
FORMULA=C11H14O4
PUBMED=N/A
SUBMITUSER=BIOADREM
LIBRARYQUALITY=0
SPECTRUMID=CCMSLIB00000078739
SCANS=1159
ID=CCMSLIB00000078739
109.0647908789 	 0.22
114.0464011605 	 0.52
115.0542261926 	 2.15
143.0702701873 	 0.34
178.0624451552 	 0.28
211.0964849378 	 0
END IONS

BEGIN IONS
PEPMASS=208.061
CHARGE=1
MSLEVEL=2
RT=0
SOURCE_INSTRUMENT=qTOF
FILENAME=CCMSLIB00000078740.ms
IONMODE=Positive
ORGANISM=Natural
NAME=NCGC00160341-01!7,8-Dimethoxy-benzo[d][1,2]oxazin-1-one
PI=GNPS
DATACOLLECTOR=GNPS
SMILES=COc1ccc2cnoc(=O)c2c1OC
INCHI=InChI=1S/C10H9NO4/c1-13-7-4-3-6-5-11-15-10(12)8(6)9(7)14-2/h3-5H,1-2H3
FORMULA=C10H9NO4
PUBMED=N/A
SUBMITUSER=BIOADREM
LIBRARYQUALITY=0
SPECTRUMID=CCMSLIB00000078740
SCANS=1160
ID=CCMSLIB00000078740
104.0130896594 	 1.15
115.0542261926 	 2.21
115.9978335257 	 1
117.0209146915 	 1.51
119.0365647557 	 2.21
130.0287397236 	 0.98
132.0080042815 	 3.8
132.0443897878 	 1.04
134.060039852 	 1.12
140.0494751657 	 2.97
142.0651252299 	 1.69
146.0236543457 	 7.13
147.0314793778 	 3.15
155.0576941283 	 1.45
162.0185689678 	 2.55
167.021308622 	 1.08
176.034219032 	 1.35
183.0526087504 	 7.39
190.0498690962 	 14.06
208.0604337825 	 0
END IONS

BEGIN IONS
PEPMASS=260.128
CHARGE=1
MSLEVEL=2
RT=0
SOURCE_INSTRUMENT=qTOF
FILENAME=CCMSLIB00000078741.ms
IONMODE=Positive
ORGANISM=Natural
NAME=NCGC00160238-01!RIBALININE
PI=GNPS
DATACOLLECTOR=GNPS
SMILES=CC1(C)[C@@H](Cc2c(=O)c3ccccc3n(C)c2O1)O
INCHI=InChI=1S/C15H17NO3/c1-15(2)12(17)8-10-13(18)9-6-4-5-7-11(9)16(3)14(10)19-15/h4-7,12,17H,8H2,1-3H3/t12-/m1/s1
FORMULA=C15H17NO3
PUBMED=N/A
SUBMITUSER=BIOADREM
LIBRARYQUALITY=0
SPECTRUMID=CCMSLIB00000078741
SCANS=1161
ID=CCMSLIB00000078741
106.0651252299 	 16.53
115.0542261926 	 1.33
116.0494751657 	 1.56
117.0573001978 	 3.29
118.0651252299 	 1.62
128.0494751657 	 1.32
130.0651252299 	 1.9
132.0807752941 	 4.34
134.060039852 	 49.85
142.0651252299 	 1.22
143.072950262 	 1.51
144.0807752941 	 12.49
146.060039852 	 6.76
154.0651252299 	 1
157.0886003262 	 1.83
158.0964253583 	 1.7
160.0756899162 	 15.69
162.0549544741 	 4.38
170.060039852 	 1.22
172.0756899162 	 9.52
180.0807752941 	 1.5
181.0886003262 	 1.95
184.0756899162 	 4.81
185.047129442 	 3.12
186.0913399804 	 1.63
186.1277254867 	 0.98
188.0706045383 	 100
196.1120754225 	 1.45
198.0913399804 	 2
199.0991650125 	 1.07
200.0706045383 	 22.19
208.0756899162 	 1.1
209.0835149483 	 4.28
212.0706045383 	 8.77
214.0862546025 	 1.34
214.1226401088 	 2.31
224.1069900446 	 8.6
226.0862546025 	 7.79
227.0940796346 	 6.87
242.1175547309 	 39.39
260.1281194172 	 3.05
END IONS

BEGIN IONS
PEPMASS=328.1444
CHARGE=1
MSLEVEL=2
RT=0
SOURCE_INSTRUMENT=qTOF
FILENAME=CCMSLIB00000078742.ms
IONMODE=Positive
ORGANISM=Natural
NAME=NCGC00160300-01!2-Formyl-komarovicine
PI=GNPS
DATACOLLECTOR=GNPS
SMILES=c1ccc2c(c1)c1CCN(C=O)C(c3cccc4cccnc34)c1[nH]2
INCHI=InChI=1S/C21H17N3O/c25-13-24-12-10-16-15-7-1-2-9-18(15)23-20(16)21(24)17-8-3-5-14-6-4-11-22-19(14)17/h1-9,11,13,21,23H,10,12H2
FORMULA=C21H17N3O
PUBMED=N/A
SUBMITUSER=BIOADREM
LIBRARYQUALITY=0
SPECTRUMID=CCMSLIB00000078742
SCANS=1162
ID=CCMSLIB00000078742
115.0542261926 	 11.5
130.0651252299 	 14.56
141.0573001978 	 6.86
142.0651252299 	 100
160.0756899162 	 7.7
167.072950262 	 11.08
241.0886003262 	 5.06
255.0916743314 	 8.33
256.0994993635 	 53.38
257.1073243956 	 62.97
268.0994993635 	 12.76
271.1229744598 	 43.35
281.1073243956 	 13.82
282.1151494277 	 10.44
283.1229744598 	 57.91
328.1444381834 	 3.38
END IONS

BEGIN IONS
PEPMASS=348.131
CHARGE=1
MSLEVEL=2
RT=0
SOURCE_INSTRUMENT=qTOF
FILENAME=CCMSLIB00000078743.ms
IONMODE=Positive
ORGANISM=Natural
NAME=NCGC00017361-03!KINETIN RIBOSIDE
PI=GNPS
DATACOLLECTOR=GNPS
SMILES=c1cc(CNc2c3c(ncn2)n(cn3)[C@H]2[C@@H]([C@@H]([C@@H](CO)O2)O)O)oc1
INCHI=InChI=1S/C15H17N5O5/c21-5-9-11(22)12(23)15(25-9)20-7-19-10-13(17-6-18-14(10)20)16-4-8-2-1-3-24-8/h1-3,6-7,9,11-12,15,21-23H,4-5H2,(H,16,17,18)/t9-,11-,12-,15-/m1/s1
FORMULA=C15H17N5O5
PUBMED=N/A
SUBMITUSER=BIOADREM
LIBRARYQUALITY=0
SPECTRUMID=CCMSLIB00000078743
SCANS=1163
ID=CCMSLIB00000078743
119.035222085 	 2.43
119.0365647557 	 2
121.0522148199 	 2.9
136.0617711865 	 5.01
145.0522148199 	 0.625
148.0631138572 	 100
173.0695962186 	 2.6
188.0930713149 	 12.25
198.0774212507 	 0.865
216.087985937 	 55.325
348.1302446822 	 0
END IONS

BEGIN IONS
PEPMASS=383.1977
CHARGE=1
MSLEVEL=2
RT=0
SOURCE_INSTRUMENT=qTOF
FILENAME=CCMSLIB00000078744.ms
IONMODE=Positive
ORGANISM=Natural
NAME=NCGC00160192-01!RESERPININE
PI=GNPS
DATACOLLECTOR=GNPS
SMILES=C[C@H]1[C@@H]2CN3CCc4c5ccc(cc5[nH]c4[C@@H]3C[C@@H]2C(=CO1)C(=O)OC)OC
INCHI=InChI=1S/C22H26N2O4/c1-12-17-10-24-7-6-15-14-5-4-13(26-2)8-19(14)23-21(15)20(24)9-16(17)18(11-28-12)22(25)27-3/h4-5,8,11-12,16-17,20,23H,6-7,9-10H2,1-3H3/t12-,16-,17-,20-/m0/s1
FORMULA=C22H26N2O4
PUBMED=N/A
SUBMITUSER=BIOADREM
LIBRARYQUALITY=0
SPECTRUMID=CCMSLIB00000078744
SCANS=1164
ID=CCMSLIB00000078744
115.0542261926 	 1.34
117.0698762568 	 0.65
130.0651252299 	 2.48
131.072950262 	 7.98
142.0651252299 	 1.13
143.072950262 	 9.9
144.0807752941 	 3.92
145.0859202515 	 0.68
147.0804409431 	 1.89
153.0546201231 	 1.09
158.060039852 	 1.7
159.0678648841 	 17.88
160.0756899162 	 3.51
162.0913399804 	 2.54
169.0886003262 	 0.58
170.060039852 	 0.71
171.0651848094 	 0.63
172.0756899162 	 1.06
173.0835149483 	 2.25
174.0913399804 	 100
178.0862546025 	 3.26
184.0756899162 	 0.65
185.0835149483 	 1.04
186.0913399804 	 1.73
188.1069900446 	 1.32
190.0862546025 	 2.2
197.0835149483 	 0.98
199.0964849378 	 0.66
200.1069900446 	 4.87
208.0968192888 	 0.87
212.1069900446 	 1.7
222.112469353 	 9.07
229.1335391461 	 1.53
237.1148150767 	 0.83
249.112135002 	 0.82
252.138290173 	 2.49
264.1356100983 	 0.56
281.1621591998 	 1.04
294.1488548593 	 0.73
351.1703185829 	 0.84
383.1965333334 	 2.72
END IONS

BEGIN IONS
PEPMASS=285.075
CHARGE=1
MSLEVEL=2
RT=0
SOURCE_INSTRUMENT=qTOF
FILENAME=CCMSLIB00000078745.ms
IONMODE=Positive
ORGANISM=Natural
NAME=NCGC00043889-02!7-Hydroxy-3-(2-methoxy-phenoxy)-chromen-4-one
PI=GNPS
DATACOLLECTOR=GNPS
SMILES=COc1ccccc1Oc1coc2cc(ccc2c1=O)O
INCHI=InChI=1S/C16H12O5/c1-19-12-4-2-3-5-13(12)21-15-9-20-14-8-10(17)6-7-11(14)16(15)18/h2-9,17H,1H3
FORMULA=C16H12O5
PUBMED=N/A
SUBMITUSER=BIOADREM
LIBRARYQUALITY=0
SPECTRUMID=CCMSLIB00000078745
SCANS=1165
ID=CCMSLIB00000078745
95.0491408147 	 8.51
106.0413157826 	 12.25
107.0491408147 	 14.13
108.0569658468 	 97.47
109.0284053726 	 12.54
120.0205803405 	 7.48
121.0284053726 	 100
123.0440554368 	 18.8
134.0362304047 	 84.28
135.0440554368 	 10.94
137.0233199947 	 39.94
141.0698762568 	 9.26
149.0233199947 	 78.02
162.0311450268 	 12.82
163.0389700589 	 9.07
167.033884681 	 36.2
168.0569658468 	 8.89
185.059705501 	 6.36
186.0675305331 	 7.02
197.059705501 	 26.01
213.0546201231 	 7.11
214.0624451552 	 7.2
224.046795091 	 7.11
229.0859202515 	 27.13
241.0495347452 	 12.35
253.0495347452 	 64.08
269.0444493673 	 19.93
270.0522743994 	 11.13
285.0757494957 	 60.9
END IONS

BEGIN IONS
PEPMASS=314.139
CHARGE=1
MSLEVEL=2
RT=0
SOURCE_INSTRUMENT=qTOF
FILENAME=CCMSLIB00000078746.ms
IONMODE=Positive
ORGANISM=Natural
NAME=NCGC00160240-01!PERFAMINE
PI=GNPS
DATACOLLECTOR=GNPS
SMILES=CC(=CCC1(C(=O)C=Cc2c(c3ccoc3nc12)OC)OC)C
INCHI=InChI=1S/C18H19NO4/c1-11(2)7-9-18(22-4)14(20)6-5-12-15(21-3)13-8-10-23-17(13)19-16(12)18/h5-8,10H,9H2,1-4H3
FORMULA=C18H19NO4
PUBMED=N/A
SUBMITUSER=BIOADREM
LIBRARYQUALITY=0
SPECTRUMID=CCMSLIB00000078746
SCANS=1166
ID=CCMSLIB00000078746
130.0651252299 	 3.64718831298779
132.0443897878 	 0.330198118871323
140.0494751657 	 3.06183710226136
142.0651252299 	 5.59335601360816
143.0365647557 	 3.35701420852511
156.0443897878 	 0.805483289973984
157.0522148199 	 0.395237142285371
160.0393044099 	 0.660396237742646
162.0185689678 	 0.165099059435661
168.0443897878 	 6.3588152891735
170.060039852 	 7.2393436061637
171.0440554368 	 3.412047228337
171.1042503904 	 3.12187312387432
174.0549544741 	 0.255153091855113
184.0393044099 	 1.61596958174905
185.047129442 	 16.5999599759856
186.0549544741 	 0.940564338603162
188.034219032 	 20.2321392835701
198.0549544741 	 7.17930758455073
200.0706045383 	 35.3662197318391
202.0498690962 	 0.875525315189113
211.0263939999 	 38.7282369421653
212.034219032 	 0.30518310986592
212.0706045383 	 0.195117070242145
213.0784295704 	 21.0726435861517
214.0498690962 	 0.255153091855113
216.0291336541 	 34.7158294976986
216.0655191604 	 15.0690414248549
217.0284053726 	 8.2999799879928
225.0420440641 	 0.405243145887533
227.0576941283 	 7.53452071242746
228.0655191604 	 0.310186111667
228.1019046667 	 20.0120072043226
230.0447837183 	 0.300180108064839
231.0526087504 	 100
238.0862546025 	 0.260156093656194
240.0655191604 	 0.450270162097258
245.0682588146 	 3.17690614368621
246.0760838467 	 10.5663398038823
247.0753555652 	 7.41444866920152
252.0655191604 	 2.0412247348409
264.1019046667 	 4.4726836101661
266.0811692246 	 0.190114068441065
272.1281194172 	 4.70782469481689
282.112469353 	 0.510306183710226
296.1281194172 	 3.53211927156294
314.1386841035 	 9.22553532119271
END IONS

BEGIN IONS
PEPMASS=348.181
CHARGE=1
MSLEVEL=2
RT=0
SOURCE_INSTRUMENT=qTOF
FILENAME=CCMSLIB00000078748.ms
IONMODE=Positive
ORGANISM=Natural
NAME=NCGC00160200-01!FOLIOSIDINE ACETONIDE
PI=GNPS
DATACOLLECTOR=GNPS
SMILES=CC1(C)C(COc2cccc3c(cc(=O)n(C)c23)OC)OC(C)(C)O1
INCHI=InChI=1S/C19H25NO5/c1-18(2)15(24-19(3,4)25-18)11-23-13-9-7-8-12-14(22-6)10-16(21)20(5)17(12)13/h7-10,15H,11H2,1-6H3
FORMULA=C19H25NO5
PUBMED=N/A
SUBMITUSER=BIOADREM
LIBRARYQUALITY=0
SPECTRUMID=CCMSLIB00000078748
SCANS=1168
ID=CCMSLIB00000078748
116.0494751657 	 1
118.0651252299 	 0.94
130.0651252299 	 0.31
131.0491408147 	 0.25
132.0569658468 	 0.875
132.0807752941 	 0.335
134.060039852 	 1.685
135.0678648841 	 0.695
144.0443897878 	 1.89
145.0284053726 	 2.68
145.0522148199 	 0.435
146.060039852 	 4.635
147.0440554368 	 4.15
147.0678648841 	 1.54
148.0393044099 	 1.965
148.0756899162 	 1.25
149.047129442 	 0.42
158.060039852 	 1.375
159.0314793778 	 0.48
159.0678648841 	 0.51
160.0756899162 	 2.02
162.0549544741 	 9.225
163.0627795062 	 2.83
172.0393044099 	 1.77
173.047129442 	 10.795
174.0549544741 	 11.38
175.0627795062 	 3.115
176.0706045383 	 8.96
177.0784295704 	 2.96
188.0706045383 	 9.395
190.0498690962 	 24.625
191.0576941283 	 27.815
192.0655191604 	 9.26
202.0498690962 	 1.665
202.0862546025 	 1.365
203.0576941283 	 2.83
204.0655191604 	 20.015
205.0733441925 	 100
206.0811692246 	 76.555
215.0576941283 	 0.39
218.0811692246 	 12.48
230.0811692246 	 5.76
244.1332047951 	 0.87
246.112469353 	 0.865
272.1281194172 	 1.95
290.1386841035 	 65.395
348.1805489182 	 0.085
END IONS

BEGIN IONS
PEPMASS=381.1806
CHARGE=1
MSLEVEL=2
RT=0
SOURCE_INSTRUMENT=qTOF
FILENAME=CCMSLIB00000078749.ms
IONMODE=Positive
ORGANISM=Natural
NAME=NCGC00160180-01!KOPSINE
PI=GNPS
DATACOLLECTOR=GNPS
SMILES=COC(=O)N1c2ccccc2[C@@]23[C@@H]4CN5CCC[C@]6(CC[C@]13[C@@](C6)(C4=O)O)[C@@H]25
INCHI=InChI=1S/C22H24N2O4/c1-28-18(26)24-15-6-3-2-5-13(15)22-14-11-23-10-4-7-19(17(22)23)8-9-21(22,24)20(27,12-19)16(14)25/h2-3,5-6,14,17,27H,4,7-12H2,1H3/t14-,17+,19-,20-,21-,22-/m1/s1
FORMULA=C22H24N2O4
PUBMED=N/A
SUBMITUSER=BIOADREM
LIBRARYQUALITY=0
SPECTRUMID=CCMSLIB00000078749
SCANS=1169
ID=CCMSLIB00000078749
110.0964253583 	 6.88
132.0443897878 	 10.23
138.0913399804 	 6.7
142.0651252299 	 6.08
143.072950262 	 12.8
144.0807752941 	 8.12
157.0886003262 	 5.93
158.0964253583 	 11.62
162.0913399804 	 14.76
170.060039852 	 16.06
174.0913399804 	 23.8
188.0706045383 	 39.42
192.1019046667 	 9.87
194.0964253583 	 11.44
204.0807752941 	 7.5
206.0964253583 	 58.6
214.0862546025 	 18.23
221.1073243956 	 16.75
223.1229744598 	 10.52
234.0913399804 	 29.4
238.0862546025 	 59.48
240.1019046667 	 23.33
251.1178890819 	 19.77
252.1019046667 	 12.83
255.112803704 	 21.87
266.1175547309 	 32.22
267.112803704 	 14.08
277.1335391461 	 6.19
281.1284537682 	 64.76
282.1362788003 	 100
283.1441038324 	 51.39
303.1491892103 	 8.06
307.1441038324 	 7.08
319.1441038324 	 7.41
321.1597538966 	 28.01
331.1441038324 	 7.53
335.1754039608 	 7.79
349.1546685187 	 10.58
351.1703185829 	 9.66
363.1703185829 	 26.17
381.1808832692 	 727.06
END IONS

BEGIN IONS
PEPMASS=335.14
CHARGE=1
MSLEVEL=2
RT=0
SOURCE_INSTRUMENT=qTOF
FILENAME=CCMSLIB00000078750.ms
IONMODE=Positive
ORGANISM=Natural
NAME=NCGC00160334-01!3-(4-Methoxy-benzylidene)-2,3,11,11a-tetrahydro-6H-pyrazino[1,2-b]isoquinoline-1,4-dione
PI=GNPS
DATACOLLECTOR=GNPS
SMILES=COc1ccc(cc1)/C=C\1/C(=O)N2Cc3ccccc3C[C@H]2C(=N1)O
INCHI=InChI=1S/C20H18N2O3/c1-25-16-8-6-13(7-9-16)10-17-20(24)22-12-15-5-3-2-4-14(15)11-18(22)19(23)21-17/h2-10,18H,11-12H2,1H3,(H,21,23)/b17-10-/t18-/m0/s1
FORMULA=C20H18N2O3
PUBMED=N/A
SUBMITUSER=BIOADREM
LIBRARYQUALITY=0
SPECTRUMID=CCMSLIB00000078750
SCANS=1170
ID=CCMSLIB00000078750
103.0542261926 	 10.77
105.0698762568 	 6.49
115.0542261926 	 10.93
117.0573001978 	 14.07
118.0413157826 	 2.67
121.0647908789 	 66.06
128.0494751657 	 4.45
130.0651252299 	 100
132.0807752941 	 65.06
133.0522148199 	 24.06
146.060039852 	 6.33
148.0756899162 	 49.63
158.060039852 	 6.85
160.0756899162 	 10.15
161.047129442 	 3.24
171.0916743314 	 7.95
176.0706045383 	 10.04
199.0865889535 	 55.75
215.0815035756 	 3.77
247.1077183261 	 2.77
262.1311934224 	 3.97
307.1441038324 	 11.72
335.1390184545 	 0
END IONS

BEGIN IONS
PEPMASS=429.2014
CHARGE=1
MSLEVEL=2
RT=0
SOURCE_INSTRUMENT=qTOF
FILENAME=CCMSLIB00000078751.ms
IONMODE=Positive
ORGANISM=Natural
NAME=NCGC00160292-01!ELEGANTISSINE
PI=GNPS
DATACOLLECTOR=GNPS
SMILES=C[C@H]1[C@@H]2CN3CC[C@@]4(c5ccc(c(c5N=C4O)OC)OC)[C@H]3C[C@@H]2C(=CO1)C(=O)OC
INCHI=InChI=1S/C23H28N2O6/c1-12-14-10-25-8-7-23(18(25)9-13(14)15(11-31-12)21(26)30-4)16-5-6-17(28-2)20(29-3)19(16)24-22(23)27/h5-6,11-14,18H,7-10H2,1-4H3,(H,24,27)/t12-,13-,14-,18+,23+/m0/s1
FORMULA=C23H28N2O6
PUBMED=N/A
SUBMITUSER=BIOADREM
LIBRARYQUALITY=0
SPECTRUMID=CCMSLIB00000078751
SCANS=1171
ID=CCMSLIB00000078751
108.0807752941 	 3.79
124.0393044099 	 2.68
130.0651252299 	 3.83
146.060039852 	 2.7
147.0678648841 	 1.73
148.0756899162 	 1.7
158.060039852 	 3.37
159.0678648841 	 5.44
160.0756899162 	 8.26
161.0835149483 	 4.85
162.0549544741 	 3.33
162.0913399804 	 1.63
172.0393044099 	 8.54
174.0549544741 	 5.84
176.0706045383 	 4.83
177.0784295704 	 3.08
178.0862546025 	 7.47
187.0627795062 	 29.77
189.0784295704 	 36.59
190.0498690962 	 4.07
192.0655191604 	 9.06
192.1019046667 	 4.28
204.0655191604 	 2.31
205.0733441925 	 13.31
218.0811692246 	 11.33
220.0968192888 	 100
230.1049786719 	 7.03
246.099893294 	 2.6
247.1077183261 	 1.9
261.1233683903 	 12.8
273.1233683903 	 14.03
297.1233683903 	 1.81
299.1390184545 	 4.4
325.1182830124 	 7.17
353.1495831408 	 1.42
369.1808832692 	 4
397.1757978913 	 48.37
429.2020126418 	 35.33
END IONS

BEGIN IONS
PEPMASS=351.254
CHARGE=1
MSLEVEL=2
RT=0
SOURCE_INSTRUMENT=qTOF
FILENAME=CCMSLIB00000078752.ms
IONMODE=Positive
ORGANISM=Natural
NAME=NCGC00160223-01!3,16,17-trihydroxy-17-acetyl-androstane
PI=GNPS
DATACOLLECTOR=GNPS
SMILES=CC(=O)[C@]1([C@@H](CC2C3CCC4CC(CC[C@]4(C)C3CC[C@]12C)O)O)O
INCHI=InChI=1S/C21H34O4/c1-12(22)21(25)18(24)11-17-15-5-4-13-10-14(23)6-8-19(13,2)16(15)7-9-20(17,21)3/h13-18,23-25H,4-11H2,1-3H3/t13?,14?,15?,16?,17?,18-,19+,20+,21-/m1/s1
FORMULA=C21H34O4
PUBMED=N/A
SUBMITUSER=BIOADREM
LIBRARYQUALITY=0
SPECTRUMID=CCMSLIB00000078752
SCANS=1172
ID=CCMSLIB00000078752
105.0698762568 	 34.34
107.085526321 	 47.52
109.1011763852 	 34.99
119.085526321 	 56.37
131.085526321 	 18.57
133.1011763852 	 24.19
135.1168264494 	 22.68
143.085526321 	 16.85
144.0933513531 	 15.33
145.1011763852 	 39.52
147.1168264494 	 62.42
149.1324765136 	 21.81
156.0933513531 	 16.2
159.1168264494 	 100
161.1324765136 	 76.67
171.1168264494 	 74.51
173.1324765136 	 36.93
183.1168264494 	 17.06
185.1324765136 	 46
187.1481265778 	 35.21
199.1481265778 	 18.57
202.1716016741 	 18.57
215.1794267062 	 19.44
223.1481265778 	 20.09
227.1794267062 	 25.49
253.1950767704 	 24.41
269.2263768988 	 20.95
351.2529855798 	 0
END IONS

BEGIN IONS
PEPMASS=254.166
CHARGE=1
MSLEVEL=2
RT=0
SOURCE_INSTRUMENT=qTOF
FILENAME=CCMSLIB00000078753.ms
IONMODE=Positive
ORGANISM=Natural
NAME=NCGC00160193-01!ANABASAMINE
PI=GNPS
DATACOLLECTOR=GNPS
SMILES=CN1CCCCC1c1ccc(c2cccnc2)nc1
INCHI=InChI=1S/C16H19N3/c1-19-10-3-2-6-16(19)14-7-8-15(18-12-14)13-5-4-9-17-11-13/h4-5,7-9,11-12,16H,2-3,6,10H2,1H3
FORMULA=C16H19N3
PUBMED=N/A
SUBMITUSER=BIOADREM
LIBRARYQUALITY=0
SPECTRUMID=CCMSLIB00000078753
SCANS=1173
ID=CCMSLIB00000078753
102.0464011605 	 2.98
103.0542261926 	 2.435
115.0542261926 	 12.715
116.0494751657 	 3.325
117.0573001978 	 17.19
130.0651252299 	 20.86
141.0573001978 	 12.485
142.0651252299 	 36.735
143.072950262 	 12.715
144.0807752941 	 7.78
154.0651252299 	 3.735
155.072950262 	 3.875
156.0681992351 	 3.635
157.0760242672 	 45.78
167.072950262 	 9.185
169.0760242672 	 84.815
170.0838492993 	 65.45
171.0916743314 	 100
178.0651252299 	 3.015
181.0760242672 	 2.945
183.0916743314 	 61.775
193.0760242672 	 12.335
194.0838492993 	 68.53
195.0916743314 	 49.245
196.0994993635 	 12.715
197.1073243956 	 24.78
207.0916743314 	 44.82
209.1073243956 	 33.54
223.1229744598 	 41.655
254.1651736255 	 24.775
END IONS

BEGIN IONS
PEPMASS=413.019
CHARGE=1
MSLEVEL=2
RT=0
SOURCE_INSTRUMENT=qTOF
FILENAME=CCMSLIB00000078754.ms
IONMODE=Positive
ORGANISM=Natural
NAME=NCGC00095464-02!LEOIDIN
PI=GNPS
DATACOLLECTOR=GNPS
SMILES=Cc1c2c(c(c(c1Cl)O)Cl)Oc1c(C)c(c(c(C)c1OC2=O)O)C(=O)OC
INCHI=InChI=1S/C18H14Cl2O7/c1-5-9-16(11(20)13(22)10(5)19)26-14-6(2)8(17(23)25-4)12(21)7(3)15(14)27-18(9)24/h21-22H,1-4H3
FORMULA=C18H14Cl2O7
PUBMED=N/A
SUBMITUSER=BIOADREM
LIBRARYQUALITY=0
SPECTRUMID=CCMSLIB00000078754
SCANS=1174
ID=CCMSLIB00000078754
149.0152538705 	 10.52
184.9919316126 	 9.11
206.0129081468 	 6.13
212.9868462347 	 13.34
228.9817608568 	 4.06
240.9817608568 	 24.19
256.9766754789 	 3.81
268.9766754789 	 18.14
281.9925666352 	 4.06
296.971590101 	 32.15
298.9661107926 	 13.5
324.9665047231 	 100
326.9610254147 	 60.4
328.9614193452 	 4.81
342.9770694094 	 6.38
352.9978048515 	 12.59
413.0189342241 	 0
END IONS

BEGIN IONS
PEPMASS=422.091
CHARGE=1
MSLEVEL=2
RT=0
SOURCE_INSTRUMENT=qTOF
FILENAME=CCMSLIB00000078755.ms
IONMODE=Positive
ORGANISM=Natural
NAME=NCGC00160268-01!3-(4-Methyl-thiazol-2-yl)-7-(3,4,5-trihydroxy-6-hydroxymethyl-tetrahydro-pyran-2-yloxy)-chromen-4-one
PI=GNPS
DATACOLLECTOR=GNPS
SMILES=Cc1csc(c2coc3cc(ccc3c2=O)O[C@H]2[C@@H]([C@@H]([C@@H]([C@@H](CO)O2)O)O)O)n1
INCHI=InChI=1S/C19H19NO8S/c1-8-7-29-18(20-8)11-6-26-12-4-9(2-3-10(12)14(11)22)27-19-17(25)16(24)15(23)13(5-21)28-19/h2-4,6-7,13,15-17,19,21,23-25H,5H2,1H3/t13-,15-,16-,17-,19-/m1/s1
FORMULA=C19H19NO8S
PUBMED=N/A
SUBMITUSER=BIOADREM
LIBRARYQUALITY=0
SPECTRUMID=CCMSLIB00000078755
SCANS=1175
ID=CCMSLIB00000078755
99.9977364084 	 0.33
124.0215458557 	 1.52
132.0443897878 	 0.31
137.0233199947 	 0.39
187.0423408773 	 0.47
188.034219032 	 12.08
189.0368615689 	 0.92
200.9640905563 	 0.3
204.0477606062 	 0.64
232.0426752283 	 2.69
260.0375898504 	 100
262.0346129625 	 4.35
263.0372554994 	 0.65
422.0904132819 	 0
END IONS

BEGIN IONS
PEPMASS=223.0713
CHARGE=1
MSLEVEL=2
RT=0
SOURCE_INSTRUMENT=qTOF
FILENAME=CCMSLIB00000078756.ms
IONMODE=Positive
ORGANISM=Natural
NAME=NCGC00160264-01!6,7-Dimethoxy-quinazoline-2,4-diol
PI=GNPS
DATACOLLECTOR=GNPS
SMILES=COc1cc2c(cc1OC)nc(nc2O)O
INCHI=InChI=1S/C10H10N2O4/c1-15-7-3-5-6(4-8(7)16-2)11-10(14)12-9(5)13/h3-4H,1-2H3,(H2,11,12,13,14)
FORMULA=C10H10N2O4
PUBMED=N/A
SUBMITUSER=BIOADREM
LIBRARYQUALITY=0
SPECTRUMID=CCMSLIB00000078756
SCANS=1176
ID=CCMSLIB00000078756
110.0362304047 	 10.66
118.0651252299 	 9.22
120.0080042815 	 38.32
122.0236543457 	 16.6
125.059705501 	 33.81
134.0236543457 	 9.43
134.047463793 	 10.86
135.0314793778 	 26.84
149.047129442 	 10.86
150.0549544741 	 48.98
152.0706045383 	 80.33
161.0107439357 	 11.27
161.059705501 	 9.63
163.0263939999 	 17.42
180.0655191604 	 10.45
190.0134835899 	 35.04
191.0451180693 	 9.02
205.0607681335 	 27.66
206.0447837183 	 100
207.0526087504 	 19.88
223.0713328198 	 9.84
END IONS

BEGIN IONS
PEPMASS=261.149
CHARGE=1
MSLEVEL=2
RT=0
SOURCE_INSTRUMENT=qTOF
FILENAME=CCMSLIB00000078757.ms
IONMODE=Positive
ORGANISM=Natural
NAME=NCGC00160195-01!2-(5-Hydroxymethyl-8-methyl-3-oxa-bicyclo[3.3.1]non-7-en-2-yl)-phenol
PI=GNPS
DATACOLLECTOR=GNPS
SMILES=CC1=CC[C@@]2(CC1C(c1ccccc1O)OC2)CO
INCHI=InChI=1S/C16H20O3/c1-11-6-7-16(9-17)8-13(11)15(19-10-16)12-4-2-3-5-14(12)18/h2-6,13,15,17-18H,7-10H2,1H3/t13?,15?,16-/m1/s1
FORMULA=C16H20O3
PUBMED=N/A
SUBMITUSER=BIOADREM
LIBRARYQUALITY=0
SPECTRUMID=CCMSLIB00000078757
SCANS=1177
ID=CCMSLIB00000078757
105.0698762568 	 6.87
107.0491408147 	 100
115.0542261926 	 6.53
119.085526321 	 3.33
131.0491408147 	 9.12
145.0647908789 	 7.14
173.0960910073 	 2.99
201.1273911357 	 2.93
261.1485205083 	 0
END IONS

BEGIN IONS
PEPMASS=403.118
CHARGE=1
MSLEVEL=2
RT=0
SOURCE_INSTRUMENT=qTOF
FILENAME=CCMSLIB00000078758.ms
IONMODE=Positive
ORGANISM=Natural
NAME=NCGC00160346-01!4-Methoxy-benzoic acid 4-(4-methoxy-phenyl)-2-oxo-2H-chromen-7-yl ester
PI=GNPS
DATACOLLECTOR=GNPS
SMILES=COc1ccc(cc1)c1cc(=O)oc2cc(ccc12)OC(=O)c1ccc(cc1)OC
INCHI=InChI=1S/C24H18O6/c1-27-17-7-3-15(4-8-17)21-14-23(25)30-22-13-19(11-12-20(21)22)29-24(26)16-5-9-18(28-2)10-6-16/h3-14H,1-2H3
FORMULA=C24H18O6
PUBMED=N/A
SUBMITUSER=BIOADREM
LIBRARYQUALITY=0
SPECTRUMID=CCMSLIB00000078758
SCANS=1178
ID=CCMSLIB00000078758
135.0440554368 	 100
310.0988306615 	 3.65
403.1176143104 	 0
END IONS

BEGIN IONS
PEPMASS=290.175
CHARGE=1
MSLEVEL=2
RT=0
SOURCE_INSTRUMENT=qTOF
FILENAME=CCMSLIB00000078759.ms
IONMODE=Positive
ORGANISM=Natural
NAME=NCGC00160291-01!Tropan-3-yl-carboxylic acid (2-hydroxy-1-phenyl)-ethyl ester
PI=GNPS
DATACOLLECTOR=GNPS
SMILES=CN1[C@H]2CC[C@@H]1CC(C2)C(=O)OC(CO)c1ccccc1
INCHI=InChI=1S/C17H23NO3/c1-18-14-7-8-15(18)10-13(9-14)17(20)21-16(11-19)12-5-3-2-4-6-12/h2-6,13-16,19H,7-11H2,1H3/t13?,14-,15+,16?
FORMULA=C17H23NO3
PUBMED=N/A
SUBMITUSER=BIOADREM
LIBRARYQUALITY=0
SPECTRUMID=CCMSLIB00000078759
SCANS=1179
ID=CCMSLIB00000078759
95.085526321 	 2
96.0807752941 	 3.51
103.0542261926 	 13.48
108.0807752941 	 0.73
109.0886003262 	 2.31
121.0647908789 	 6.66
124.1120754225 	 100
142.1226401088 	 17.48
290.1750696098 	 66.42
END IONS

BEGIN IONS
PEPMASS=393.1333
CHARGE=1
MSLEVEL=2
RT=0
SOURCE_INSTRUMENT=qTOF
FILENAME=CCMSLIB00000078760.ms
IONMODE=Positive
ORGANISM=Natural
NAME=NCGC00095794-02!DEHYDROROTENONE
PI=GNPS
DATACOLLECTOR=GNPS
SMILES=C=C(C)C1Cc2c(ccc3c(=O)c4c5cc(c(cc5OCc4oc23)OC)OC)O1
INCHI=InChI=1S/C23H20O6/c1-11(2)16-8-14-15(28-16)6-5-12-22(24)21-13-7-18(25-3)19(26-4)9-17(13)27-10-20(21)29-23(12)14/h5-7,9,16H,1,8,10H2,2-4H3
FORMULA=C23H20O6
PUBMED=N/A
SUBMITUSER=BIOADREM
LIBRARYQUALITY=0
SPECTRUMID=CCMSLIB00000078760
SCANS=1180
ID=CCMSLIB00000078760
248.0831805973 	 8.71
260.0831805973 	 5.43
263.0702701873 	 7.63
276.0780952194 	 15.46
277.0859202515 	 11.99
278.0573597773 	 5.49
279.1015703157 	 13.5
287.0702701873 	 9.53
288.0780952194 	 7.89
289.0859202515 	 12.3
290.0937452836 	 8.96
292.0730098415 	 6.56
293.0808348736 	 49.78
301.0859202515 	 11.67
303.0651848094 	 100
304.0730098415 	 24.29
305.0808348736 	 7.7
307.0964849378 	 12.43
315.1015703157 	 6.94
317.0808348736 	 13.06
317.1172203799 	 10.85
318.0886599057 	 47.51
319.0964849378 	 54.32
331.0600994315 	 21.39
332.0679244636 	 30.54
333.112135002 	 66.56
335.0913995599 	 22.52
346.0835745278 	 16.03
347.0913995599 	 82.59
361.1070496241 	 27.63
362.1148746562 	 35.39
393.1332643746 	 14.32
END IONS

BEGIN IONS
PEPMASS=330.2053
CHARGE=1
MSLEVEL=2
RT=0
SOURCE_INSTRUMENT=qTOF
FILENAME=CCMSLIB00000078761.ms
IONMODE=Positive
ORGANISM=Natural
NAME=NCGC00160250-01!2-methoxy-phenylacryloyl-lupinine
PI=GNPS
DATACOLLECTOR=GNPS
SMILES=COc1ccccc1/C=C\C(=O)OC[C@@H]1CCCN2CCCC[C@H]12
INCHI=InChI=1S/C20H27NO3/c1-23-19-10-3-2-7-16(19)11-12-20(22)24-15-17-8-6-14-21-13-5-4-9-18(17)21/h2-3,7,10-12,17-18H,4-6,8-9,13-15H2,1H3/b12-11-/t17-,18+/m0/s1
FORMULA=C20H27NO3
PUBMED=N/A
SUBMITUSER=BIOADREM
LIBRARYQUALITY=0
SPECTRUMID=CCMSLIB00000078761
SCANS=1181
ID=CCMSLIB00000078761
95.072950262 	 0.21
96.0807752941 	 1.12
98.0964253583 	 3.6
103.0542261926 	 3.73
105.0698762568 	 17.43
107.085526321 	 0.79
109.1011763852 	 0.88
110.0964253583 	 2.99
115.0542261926 	 0.98
118.0413157826 	 11.22
122.0964253583 	 0.28
124.1120754225 	 4.52
133.0647908789 	 1.62
136.1120754225 	 1.54
137.1199004546 	 1.05
146.0362304047 	 13.08
152.1433755509 	 50.65
161.059705501 	 100
170.1539402372 	 3.74
330.2063697382 	 20.13
END IONS

BEGIN IONS
PEPMASS=366.1339
CHARGE=1
MSLEVEL=2
RT=0
SOURCE_INSTRUMENT=qTOF
FILENAME=CCMSLIB00000078762.ms
IONMODE=Positive
ORGANISM=Natural
NAME=NCGC00160212-01!THALICSINE
PI=GNPS
DATACOLLECTOR=GNPS
SMILES=CN(C)CCc1c2ccc3cc4c(c5c3c2c(cc1OC)oc5=O)OCO4
INCHI=InChI=1S/C21H19NO5/c1-22(2)7-6-12-13-5-4-11-8-16-20(26-10-25-16)19-17(11)18(13)15(27-21(19)23)9-14(12)24-3/h4-5,8-9H,6-7,10H2,1-3H3
FORMULA=C21H19NO5
PUBMED=N/A
SUBMITUSER=BIOADREM
LIBRARYQUALITY=0
SPECTRUMID=CCMSLIB00000078762
SCANS=1182
ID=CCMSLIB00000078762
166.0777012889 	 1.34
178.0777012889 	 1.27
179.085526321 	 4.03
189.0698762568 	 3.15
192.0569658468 	 0.87
204.0569658468 	 1.41
205.0647908789 	 3.88
207.0804409431 	 9.24
217.0647908789 	 1.4
220.0518804689 	 1.92
221.059705501 	 2.2
222.0675305331 	 2.2
231.0440554368 	 1.15
232.0518804689 	 0.75
233.059705501 	 2.12
234.0675305331 	 1.55
235.0753555652 	 5.95
249.0546201231 	 2.96
250.0624451552 	 1.78
259.0389700589 	 3.09
260.046795091 	 2.71
262.0624451552 	 3.3
263.0702701873 	 12.46
264.0417097131 	 0.85
275.033884681 	 1.11
276.0417097131 	 1.55
277.0495347452 	 3.66
278.0573597773 	 4.2
290.0573597773 	 50.71
291.0651848094 	 14.49
305.0444493673 	 2.29
306.0522743994 	 100
321.0757494957 	 59.44
366.1335987256 	 1.92
END IONS

BEGIN IONS
PEPMASS=468.2493
CHARGE=1
MSLEVEL=2
RT=0
SOURCE_INSTRUMENT=qTOF
FILENAME=CCMSLIB00000078763.ms
IONMODE=Positive
ORGANISM=Natural
NAME=NCGC00160306-01!10-Dehydroxy-10-(N-epsilon-caprolactam-3-yl)-amino-demecolceine
PI=GNPS
DATACOLLECTOR=GNPS
SMILES=CN[C@H]1CCc2cc(c(c(c2c2ccc(c(=O)cc12)N[C@@H]1CCCCN=C1O)OC)OC)OC
INCHI=InChI=1S/C26H33N3O5/c1-27-18-10-8-15-13-22(32-2)24(33-3)25(34-4)23(15)16-9-11-19(21(30)14-17(16)18)29-20-7-5-6-12-28-26(20)31/h9,11,13-14,18,20,27H,5-8,10,12H2,1-4H3,(H,28,31)(H,29,30)/t18-,20+/m0/s1
FORMULA=C26H33N3O5
PUBMED=N/A
SUBMITUSER=BIOADREM
LIBRARYQUALITY=0
SPECTRUMID=CCMSLIB00000078763
SCANS=1183
ID=CCMSLIB00000078763
219.1042503904 	 8.43
220.1053726024 	 6.47
240.1144807257 	 5.6
252.1144807257 	 9.19
253.0818975061 	 5.89
258.112469353 	 6.99
264.1019046667 	 10.23
267.0916743314 	 12.48
268.0994993635 	 8.26
269.1006215755 	 13.46
270.112469353 	 9.07
272.1281194172 	 7.45
279.0804409431 	 8.67
279.125379763 	 7.51
280.0994993635 	 16.35
281.1131976345 	 10.17
282.112469353 	 33.33
283.1202943851 	 9.3
286.1073839751 	 10.51
286.1352161678 	 8.32
294.112469353 	 13.92
295.1229744598 	 52.05
296.0944139856 	 14.1
296.1281194172 	 19.64
297.1359444493 	 14.38
299.1304651409 	 12.77
300.1230340393 	 18.2
307.1202943851 	 6.01
309.1233683903 	 10.23
310.1073839751 	 31.08
311.1152090072 	 41.54
312.113138055 	 8.26
312.1553968002 	 12.07
313.1335391461 	 7.28
314.1386841035 	 8.9
324.125714114 	 7.8
325.1308590714 	 25.42
326.1386841035 	 33.85
327.1366131513 	 8.2
340.1570142424 	 38.36
341.1495831408 	 21.03
342.1600882476 	 19.06
356.1730582371 	 13.58
357.1835633439 	 100
358.1887083013 	 29.52
392.1856342961 	 6.64
409.1996073386 	 8.78
468.2492971854 	 33.8
END IONS

BEGIN IONS
PEPMASS=354.192
CHARGE=1
MSLEVEL=2
RT=0
SOURCE_INSTRUMENT=qTOF
FILENAME=CCMSLIB00000078764.ms
IONMODE=Positive
ORGANISM=Natural
NAME=NCGC00160345-01!N-[2-(4-sec-Butyl-phenoxy)-4,5-dihydroxy-6-hydroxymethyl-tetrahydro-pyran-3-yl]-acetamide
PI=GNPS
DATACOLLECTOR=GNPS
SMILES=CCC(C)c1ccc(cc1)O[C@H]1[C@@H]([C@H]([C@@H]([C@@H](CO)O1)O)O)N=C(C)O
INCHI=InChI=1S/C18H27NO6/c1-4-10(2)12-5-7-13(8-6-12)24-18-15(19-11(3)21)17(23)16(22)14(9-20)25-18/h5-8,10,14-18,20,22-23H,4,9H2,1-3H3,(H,19,21)/t10?,14-,15-,16-,17-,18-/m1/s1
FORMULA=C18H27NO6
PUBMED=N/A
SUBMITUSER=BIOADREM
LIBRARYQUALITY=0
SPECTRUMID=CCMSLIB00000078764
SCANS=1184
ID=CCMSLIB00000078764
96.0443897878 	 20.02
98.0236543457 	 1.83
98.060039852 	 5.69
99.0440554368 	 3.33
101.0233199947 	 1.87
108.0443897878 	 2.07
109.0284053726 	 6.7
114.0549544741 	 1.99
123.0440554368 	 1.95
126.0549544741 	 13
138.0549544741 	 100
140.0706045383 	 1.83
144.0655191604 	 43.38
150.0549544741 	 2.36
156.0655191604 	 2.07
168.0655191604 	 7.51
186.0760838467 	 8.73
354.1911136045 	 0
END IONS

BEGIN IONS
PEPMASS=245.118
CHARGE=1
MSLEVEL=2
RT=0
SOURCE_INSTRUMENT=qTOF
FILENAME=CCMSLIB00000078765.ms
IONMODE=Positive
ORGANISM=Natural
NAME=NCGC00160288-01!2-Oxo-1(10),3,5-guaiatrien-12,8-olide
PI=GNPS
DATACOLLECTOR=GNPS
SMILES=CC1=CC(=O)C2=C(C)C[C@H]3[C@H](C=C12)[C@H](C)C(=O)O3
INCHI=InChI=1S/C15H16O3/c1-7-4-12(16)14-8(2)5-13-11(6-10(7)14)9(3)15(17)18-13/h4,6,9,11,13H,5H2,1-3H3/t9-,11+,13-/m0/s1
FORMULA=C15H16O3
PUBMED=N/A
SUBMITUSER=BIOADREM
LIBRARYQUALITY=0
SPECTRUMID=CCMSLIB00000078765
SCANS=1185
ID=CCMSLIB00000078765
103.0542261926 	 12.82
105.0698762568 	 10.09
115.0542261926 	 20.64
116.0620512247 	 9.94
117.0698762568 	 23.07
119.085526321 	 18.21
121.0647908789 	 6.07
128.0620512247 	 70.94
129.0698762568 	 41.81
131.0491408147 	 8.19
131.085526321 	 17.91
133.0647908789 	 9.1
133.1011763852 	 9.41
135.0804409431 	 6.68
141.0698762568 	 62.22
142.0777012889 	 29.59
143.085526321 	 50.23
145.0647908789 	 37.48
145.1011763852 	 7.89
146.072615911 	 13.13
153.0698762568 	 14.95
155.085526321 	 15.78
156.0933513531 	 47.8
157.1011763852 	 9.48
160.0882659752 	 14.8
161.0960910073 	 20.41
165.0698762568 	 9.86
169.0647908789 	 17.53
171.0804409431 	 100
174.1039160394 	 7.06
175.1117410715 	 8.88
183.0804409431 	 17.6
184.0882659752 	 30.5
199.1117410715 	 18.13
200.1195661036 	 9.64
245.1172203799 	 0
END IONS

BEGIN IONS
PEPMASS=245.0806
CHARGE=1
MSLEVEL=2
RT=0
SOURCE_INSTRUMENT=qTOF
FILENAME=CCMSLIB00000078766.ms
IONMODE=Positive
ORGANISM=Natural
NAME=NCGC00160233-01!8,8-Dimethyl-10H-pyrano[2,3-f]chromen-2,9-dione
PI=GNPS
DATACOLLECTOR=GNPS
SMILES=CC1(C)C(=O)Cc2c(ccc3ccc(=O)oc23)O1
INCHI=InChI=1S/C14H12O4/c1-14(2)11(15)7-9-10(18-14)5-3-8-4-6-12(16)17-13(8)9/h3-6H,7H2,1-2H3
FORMULA=C14H12O4
PUBMED=N/A
SUBMITUSER=BIOADREM
LIBRARYQUALITY=0
SPECTRUMID=CCMSLIB00000078766
SCANS=1186
ID=CCMSLIB00000078766
105.0334907505 	 8.4
115.0542261926 	 14.96
119.0491408147 	 11.4
127.0542261926 	 24.22
128.0620512247 	 84.76
131.0491408147 	 27.78
141.0698762568 	 10.68
147.0440554368 	 58.26
152.0620512247 	 17.24
161.0233199947 	 15.67
171.0804409431 	 11.4
175.0389700589 	 100
180.0569658468 	 6.84
184.0518804689 	 15.1
189.0182346168 	 10.4
245.0808348736 	 12.82
END IONS

BEGIN IONS
PEPMASS=303.087
CHARGE=1
MSLEVEL=2
RT=0
SOURCE_INSTRUMENT=qTOF
FILENAME=CCMSLIB00000078767.ms
IONMODE=Positive
ORGANISM=Natural
NAME=NCGC00160273-01!4-Hydroxy-3-[3-(4-hydroxy-3-methoxy-phenyl)-acryloyl]-6-methyl-pyran-2-one
PI=GNPS
DATACOLLECTOR=GNPS
SMILES=Cc1cc(c(C(=O)/C=C/c2ccc(c(c2)OC)O)c(=O)o1)O
INCHI=InChI=1S/C16H14O6/c1-9-7-13(19)15(16(20)22-9)12(18)6-4-10-3-5-11(17)14(8-10)21-2/h3-8,17,19H,1-2H3/b6-4+
FORMULA=C16H14O6
PUBMED=N/A
SUBMITUSER=BIOADREM
LIBRARYQUALITY=0
SPECTRUMID=CCMSLIB00000078767
SCANS=1187
ID=CCMSLIB00000078767
117.0334907505 	 7.67
125.0233199947 	 2.1
134.0362304047 	 2.91
145.0284053726 	 8.66
149.059705501 	 2.32
153.0182346168 	 100
171.0287993031 	 21.8
303.086314182 	 0
END IONS

BEGIN IONS
PEPMASS=389.145
CHARGE=1
MSLEVEL=2
RT=0
SOURCE_INSTRUMENT=qTOF
FILENAME=CCMSLIB00000078768.ms
IONMODE=Positive
ORGANISM=Natural
NAME=NCGC00160232-01!VERBENALIN
PI=GNPS
DATACOLLECTOR=GNPS
SMILES=C[C@H]1CC(=O)[C@H]2C(=COC([C@H]12)O[C@@H]1C(C([C@H](C(CO)O1)O)O)O)C(=O)OC
INCHI=InChI=1S/C17H24O10/c1-6-3-8(19)11-7(15(23)24-2)5-25-16(10(6)11)27-17-14(22)13(21)12(20)9(4-18)26-17/h5-6,9-14,16-18,20-22H,3-4H2,1-2H3/t6-,9?,10+,11+,12-,13?,14?,16?,17+/m0/s1
FORMULA=C17H24O10
PUBMED=N/A
SUBMITUSER=BIOADREM
LIBRARYQUALITY=0
SPECTRUMID=CCMSLIB00000078768
SCANS=1188
ID=CCMSLIB00000078768
105.0698762568 	 3.72
109.0284053726 	 4.13
111.0804409431 	 7.28
121.0647908789 	 6.72
127.0389700589 	 6.47
133.0647908789 	 4.37
139.0389700589 	 15.45
139.0753555652 	 26.13
149.059705501 	 34.87
167.0702701873 	 5.99
177.0546201231 	 100
195.0651848094 	 72.57
389.1442229914 	 0
END IONS

BEGIN IONS
PEPMASS=246.1108
CHARGE=1
MSLEVEL=2
RT=0
SOURCE_INSTRUMENT=qTOF
FILENAME=CCMSLIB00000078769.ms
IONMODE=Positive
ORGANISM=Natural
NAME=NCGC00160249-01!2,3-Dihydro-6-Methoxy-4-Methyl-2-Hydroxyethylfuro[3,2-c]quinoline
PI=GNPS
DATACOLLECTOR=GNPS
SMILES=Cc1c2CC(CO)Oc2c2cccc(c2n1)OC
INCHI=InChI=1S/C14H15NO3/c1-8-11-6-9(7-16)18-14(11)10-4-3-5-12(17-2)13(10)15-8/h3-5,9,16H,6-7H2,1-2H3
FORMULA=C14H15NO3
PUBMED=N/A
SUBMITUSER=BIOADREM
LIBRARYQUALITY=0
SPECTRUMID=CCMSLIB00000078769
SCANS=1189
ID=CCMSLIB00000078769
116.0494751657 	 0.58
117.0573001978 	 1.46
118.0413157826 	 1.71
130.0651252299 	 4
131.072950262 	 3.52
133.0522148199 	 0.91
134.060039852 	 1.64
142.0651252299 	 0.66
148.0756899162 	 1.05
156.0807752941 	 1.25
157.0886003262 	 0.68
158.060039852 	 1.4
159.0678648841 	 9.56
167.072950262 	 0.69
170.060039852 	 2.1
172.0393044099 	 3.49
174.0913399804 	 1.16
184.0756899162 	 2.02
185.0835149483 	 14.03
186.0549544741 	 3.13
187.0627795062 	 100
190.0498690962 	 0.83
198.0549544741 	 0.66
202.0862546025 	 83.27
212.0706045383 	 3.74
213.0784295704 	 28.33
228.1019046667 	 4.18
231.0889942567 	 3.06
246.112469353 	 9.95
END IONS

BEGIN IONS
PEPMASS=384.2771
CHARGE=1
MSLEVEL=2
RT=0
SOURCE_INSTRUMENT=qTOF
FILENAME=CCMSLIB00000078770.ms
IONMODE=Positive
ORGANISM=Natural
NAME=NCGC00160344-01!4N-butyl-ajmalinium
PI=GNPS
DATACOLLECTOR=GNPS
SMILES=CCCC[N+]12C3C[C@@H](C(CC)[C@H]2O)[C@H]2[C@@H]1CC1(c4ccccc4N(C)C31)[C@H]2O
INCHI=InChI=1S/C24H35N2O2/c1-4-6-11-26-18-12-15(14(5-2)23(26)28)20-19(26)13-24(22(20)27)16-9-7-8-10-17(16)25(3)21(18)24/h7-10,14-15,18-23,27-28H,4-6,11-13H2,1-3H3/q+1/t14?,15-,18?,19-,20-,21?,22-,23+,24?,26?/m0/s1
FORMULA=C24H35N2O2+
PUBMED=N/A
SUBMITUSER=BIOADREM
LIBRARYQUALITY=0
SPECTRUMID=CCMSLIB00000078770
SCANS=1190
ID=CCMSLIB00000078770
110.0964253583 	 0.74
130.0651252299 	 0.71
131.072950262 	 2.77
132.0807752941 	 1.2
136.1120754225 	 2.93
138.0913399804 	 0.69
138.1277254867 	 0.87
143.072950262 	 0.98
144.0807752941 	 9.98
145.0886003262 	 2.28
146.0964253583 	 0.95
157.0886003262 	 1.6
158.0964253583 	 15.56
160.0756899162 	 0.85
164.1433755509 	 0.86
167.072950262 	 1.04
169.0886003262 	 0.81
170.0964253583 	 1.79
171.1042503904 	 0.83
172.0756899162 	 1.24
172.1120754225 	 0.73
174.0913399804 	 1.17
181.0886003262 	 1.09
182.0964253583 	 3.92
184.1120754225 	 2.61
186.0913399804 	 0.74
194.0964253583 	 3.61
194.1539402372 	 1.17
195.1042503904 	 1.74
196.1120754225 	 1.89
208.1120754225 	 1.97
210.1277254867 	 4.09
212.1069900446 	 1.93
212.1433755509 	 1.4
220.1120754225 	 1.56
226.1226401088 	 0.68
238.1226401088 	 3.12
238.1590256151 	 1
241.1699246524 	 1.02
266.1539402372 	 0.79
293.2012247808 	 0.77
309.1961394029 	 0.71
311.2117894671 	 1.26
327.2067040892 	 13.26
365.2587396597 	 0.93
383.269304346 	 100
384.2771293781 	 0
END IONS

BEGIN IONS
PEPMASS=377.1009
CHARGE=1
MSLEVEL=2
RT=0
SOURCE_INSTRUMENT=qTOF
FILENAME=CCMSLIB00000078771.ms
IONMODE=Positive
ORGANISM=Natural
NAME=NCGC00160275-01!RESISTOMYCIN
PI=GNPS
DATACOLLECTOR=GNPS
SMILES=Cc1cc(c2c3c1c(cc1c3c3c(c(cc(c3C(=O)C1(C)C)O)O)C2=O)O)O
INCHI=InChI=1S/C22H16O6/c1-7-4-9(23)15-18-13(7)10(24)5-8-14(18)19-16(20(15)27)11(25)6-12(26)17(19)21(28)22(8,2)3/h4-6,23-26H,1-3H3
FORMULA=C22H16O6
PUBMED=N/A
SUBMITUSER=BIOADREM
LIBRARYQUALITY=0
SPECTRUMID=CCMSLIB00000078771
SCANS=1191
ID=CCMSLIB00000078771
298.0624451552 	 2
315.0651848094 	 1.89
316.0730098415 	 3.13
317.0808348736 	 6.66
333.0757494957 	 12.38
334.0835745278 	 2.69
343.0600994315 	 2.11
344.0679244636 	 2.88
345.0757494957 	 7.83
346.0471890215 	 2.58
361.0706641178 	 43.65
362.0784891499 	 100
377.1019642462 	 30.62
END IONS

BEGIN IONS
PEPMASS=287.201
CHARGE=1
MSLEVEL=2
RT=0
SOURCE_INSTRUMENT=qTOF
FILENAME=CCMSLIB00000078772.ms
IONMODE=Positive
ORGANISM=Natural
NAME=NCGC00160259-01!8-(4-Methoxy-2,3,6-trimethyl-phenyl)-6-methyl-octa-3,5-dien-2-one
PI=GNPS
DATACOLLECTOR=GNPS
SMILES=C/C(=C\C=C\C(=O)C)/CCc1c(C)cc(c(C)c1C)OC
INCHI=InChI=1S/C19H26O2/c1-13(8-7-9-15(3)20)10-11-18-14(2)12-19(21-6)17(5)16(18)4/h7-9,12H,10-11H2,1-6H3/b9-7+,13-8+
FORMULA=C19H26O2
PUBMED=N/A
SUBMITUSER=BIOADREM
LIBRARYQUALITY=0
SPECTRUMID=CCMSLIB00000078772
SCANS=1192
ID=CCMSLIB00000078772
103.0542261926 	 1.56
105.0698762568 	 9.86
107.085526321 	 0.56
115.0542261926 	 1.59
116.0620512247 	 0.62
117.0698762568 	 2.17
118.0777012889 	 2.42
119.085526321 	 1.53
120.0933513531 	 0.89
131.085526321 	 3.56
132.0933513531 	 0.59
133.1011763852 	 17.12
147.0804409431 	 0.36
148.0882659752 	 2.27
163.1117410715 	 100
287.2005560788 	 0
END IONS

BEGIN IONS
PEPMASS=312.1594
CHARGE=1
MSLEVEL=2
RT=0
SOURCE_INSTRUMENT=qTOF
FILENAME=CCMSLIB00000078773.ms
IONMODE=Positive
ORGANISM=Natural
NAME=NCGC00160239-01!THEBAINE
PI=GNPS
DATACOLLECTOR=GNPS
SMILES=CN1CC[C@]23C4=CC=C([C@@H]3Oc3c(ccc(C[C@@H]14)c23)OC)OC
INCHI=InChI=1S/C19H21NO3/c1-20-9-8-19-12-5-7-15(22-3)18(19)23-17-14(21-2)6-4-11(16(17)19)10-13(12)20/h4-7,13,18H,8-10H2,1-3H3/t13-,18+,19+/m1/s1
FORMULA=C19H21NO3
PUBMED=N/A
SUBMITUSER=BIOADREM
LIBRARYQUALITY=0
SPECTRUMID=CCMSLIB00000078773
SCANS=1193
ID=CCMSLIB00000078773
152.0620512247 	 19.19
165.0698762568 	 26.35
166.0777012889 	 23.39
177.0698762568 	 41.11
178.0777012889 	 51.88
180.0569658468 	 27.23
180.0933513531 	 9.37
181.0647908789 	 25.24
189.0698762568 	 42.88
190.0777012889 	 50.26
194.072615911 	 30.63
195.0804409431 	 43.17
197.059705501 	 17.49
205.0647908789 	 50.48
206.072615911 	 34.17
207.0804409431 	 28.19
212.0831805973 	 14.54
217.0647908789 	 26.27
218.072615911 	 42.88
219.0804409431 	 15.13
221.0960910073 	 39.85
223.0753555652 	 27.75
225.0546201231 	 12.77
233.059705501 	 21.85
235.0753555652 	 21.03
236.046795091 	 66.2
237.0910056294 	 21.18
240.0780952194 	 17.34
249.0910056294 	 28.34
251.0702701873 	 100
255.1015703157 	 17.56
266.0937452836 	 34.54
267.1015703157 	 9.3
281.1172203799 	 14.69
312.1594195456 	 19.04
END IONS

BEGIN IONS
PEPMASS=273.113
CHARGE=1
MSLEVEL=2
RT=0
SOURCE_INSTRUMENT=qTOF
FILENAME=CCMSLIB00000078774.ms
IONMODE=Positive
ORGANISM=Natural
NAME=NCGC00160149-01!(R)-ANGOLENSIN
PI=GNPS
DATACOLLECTOR=GNPS
SMILES=C[C@H](c1ccc(cc1)OC)C(=O)c1ccc(cc1O)O
INCHI=InChI=1S/C16H16O4/c1-10(11-3-6-13(20-2)7-4-11)16(19)14-8-5-12(17)9-15(14)18/h3-10,17-18H,1-2H3/t10-/m1/s1
FORMULA=C16H16O4
PUBMED=N/A
SUBMITUSER=BIOADREM
LIBRARYQUALITY=0
SPECTRUMID=CCMSLIB00000078774
SCANS=1194
ID=CCMSLIB00000078774
103.0542261926 	 13.57
105.0698762568 	 63.84
107.0491408147 	 4.65
119.0491408147 	 32.58
120.0569658468 	 11.07
121.0647908789 	 11.71
123.0440554368 	 4.56
133.0647908789 	 6.76
135.0804409431 	 100
137.0233199947 	 15.34
137.059705501 	 54.97
165.0546201231 	 9.31
169.0647908789 	 2.74
239.0702701873 	 3.67
255.1015703157 	 2.69
273.112135002 	 0
END IONS

BEGIN IONS
PEPMASS=281.1629
CHARGE=1
MSLEVEL=2
RT=0
SOURCE_INSTRUMENT=qTOF
FILENAME=CCMSLIB00000078775.ms
IONMODE=Positive
ORGANISM=Natural
NAME=NCGC00160343-01!1-Phenyl-2-(3,4,5,6-tetrahydro-2H-[2,3']bipyridinyl-1-yl)-ethanone
PI=GNPS
DATACOLLECTOR=GNPS
SMILES=c1ccc(cc1)C(=O)CN1CCCCC1c1cccnc1
INCHI=InChI=1S/C18H20N2O/c21-18(15-7-2-1-3-8-15)14-20-12-5-4-10-17(20)16-9-6-11-19-13-16/h1-3,6-9,11,13,17H,4-5,10,12,14H2
FORMULA=C18H20N2O
PUBMED=N/A
SUBMITUSER=BIOADREM
LIBRARYQUALITY=0
SPECTRUMID=CCMSLIB00000078775
SCANS=1195
ID=CCMSLIB00000078775
105.0698762568 	 4.95
117.0573001978 	 55.18
118.0651252299 	 55.18
120.0807752941 	 37.91
128.0620512247 	 4.67
130.0651252299 	 83.94
132.0807752941 	 100
134.0964253583 	 8.59
144.0807752941 	 19.33
146.0964253583 	 31.28
170.0964253583 	 20.26
171.1042503904 	 20.73
174.0913399804 	 5.88
188.1069900446 	 17.09
281.1648392745 	 19.05
END IONS

BEGIN IONS
PEPMASS=252.101
CHARGE=1
MSLEVEL=2
RT=0
SOURCE_INSTRUMENT=qTOF
FILENAME=CCMSLIB00000078776.ms
IONMODE=Positive
ORGANISM=Natural
NAME=NCGC00160205-01!N-methyl-2,4-Dihydroxy-3-phenylquinoline
PI=GNPS
DATACOLLECTOR=GNPS
SMILES=Cn1c2ccccc2c(c(c2ccccc2)c1=O)O
INCHI=InChI=1S/C16H13NO2/c1-17-13-10-6-5-9-12(13)15(18)14(16(17)19)11-7-3-2-4-8-11/h2-10,18H,1H3
FORMULA=C16H13NO2
PUBMED=N/A
SUBMITUSER=BIOADREM
LIBRARYQUALITY=0
SPECTRUMID=CCMSLIB00000078776
SCANS=1196
ID=CCMSLIB00000078776
103.0542261926 	 3.62
106.0651252299 	 23.54
116.0494751657 	 30.15
117.0334907505 	 7.21
118.0651252299 	 17.02
120.0443897878 	 14.62
128.0494751657 	 21.99
134.060039852 	 100
145.0284053726 	 4.93
146.060039852 	 64.68
151.0542261926 	 3
165.0698762568 	 54.87
177.0698762568 	 4.68
178.0777012889 	 46.71
179.085526321 	 35.1
180.0807752941 	 19.19
190.0651252299 	 18.33
191.072950262 	 30.95
193.0886003262 	 16.73
196.1120754225 	 8.39
204.0807752941 	 38.23
206.0964253583 	 41.76
209.0835149483 	 6.75
218.060039852 	 5.41
219.0678648841 	 83.54
234.0913399804 	 37.52
236.0706045383 	 37.34
237.0784295704 	 4.66
252.1019046667 	 207.01
END IONS

BEGIN IONS
PEPMASS=303.16
CHARGE=1
MSLEVEL=2
RT=0
SOURCE_INSTRUMENT=qTOF
FILENAME=CCMSLIB00000078777.ms
IONMODE=Positive
ORGANISM=Natural
NAME=NCGC00015741-06!NORDIHYDROGUAIARETIC ACID
PI=GNPS
DATACOLLECTOR=GNPS
SMILES=C[C@@H](Cc1ccc(c(c1)O)O)[C@H](C)Cc1ccc(c(c1)O)O
INCHI=InChI=1S/C18H22O4/c1-11(7-13-3-5-15(19)17(21)9-13)12(2)8-14-4-6-16(20)18(22)10-14/h3-6,9-12,19-22H,7-8H2,1-2H3/t11-,12+
FORMULA=C18H22O4
PUBMED=N/A
SUBMITUSER=BIOADREM
LIBRARYQUALITY=0
SPECTRUMID=CCMSLIB00000078777
SCANS=1197
ID=CCMSLIB00000078777
119.085526321 	 3.31
123.0440554368 	 100
133.0647908789 	 11.86
145.1011763852 	 3.61
147.1168264494 	 3.09
175.1117410715 	 9.94
193.1223057578 	 6.11
303.1590851946 	 0
END IONS

BEGIN IONS
PEPMASS=300.087
CHARGE=1
MSLEVEL=2
RT=0
SOURCE_INSTRUMENT=qTOF
FILENAME=CCMSLIB00000078778.ms
IONMODE=Positive
ORGANISM=Natural
NAME=NCGC00160307-01!N-[3-(3,4-Dihydroxy-phenyl)-acryloyl]-2-hydroxy-benzamide
PI=GNPS
DATACOLLECTOR=GNPS
SMILES=c1ccc(c(c1)C(=O)N=C(/C=C/c1ccc(c(c1)O)O)O)O
INCHI=InChI=1S/C16H13NO5/c18-12-4-2-1-3-11(12)16(22)17-15(21)8-6-10-5-7-13(19)14(20)9-10/h1-9,18-20H,(H,17,21,22)/b8-6+
FORMULA=C16H13NO5
PUBMED=N/A
SUBMITUSER=BIOADREM
LIBRARYQUALITY=0
SPECTRUMID=CCMSLIB00000078778
SCANS=1198
ID=CCMSLIB00000078778
95.0491408147 	 1.705
97.007276 	 2.335
107.0491408147 	 2.24
117.0334907505 	 49.34
119.0365647557 	 2.29
121.0284053726 	 7.235
122.0362304047 	 1.705
135.0440554368 	 69.715
145.0284053726 	 36.34
163.0389700589 	 100
165.0420440641 	 1.795
172.0029189036 	 2.56
180.0655191604 	 0.975
300.086648533 	 0
END IONS

BEGIN IONS
PEPMASS=496.2695
CHARGE=1
MSLEVEL=2
RT=0
SOURCE_INSTRUMENT=qTOF
FILENAME=CCMSLIB00000078779.ms
IONMODE=Positive
ORGANISM=Natural
NAME=NCGC00160230-01!6-BENZOYLHETERATISINE
PI=GNPS
DATACOLLECTOR=GNPS
SMILES=CCN1C[C@]2(C)CC[C@@H]([C@@]34C5C[C@@H]6CC[C@@](C5C(=O)O6)(C([C@H](C23)OC(=O)c2ccccc2)C14)O)OC
INCHI=InChI=1S/C29H37NO6/c1-4-30-15-27(2)12-11-19(34-3)29-18-14-17-10-13-28(33,20(18)26(32)35-17)21(24(29)30)22(23(27)29)36-25(31)16-8-6-5-7-9-16/h5-9,17-24,33H,4,10-15H2,1-3H3/t17-,18?,19-,20?,21?,22+,23?,24?,27-,28+,29-/m0/s1
FORMULA=C29H37NO6
PUBMED=N/A
SUBMITUSER=BIOADREM
LIBRARYQUALITY=0
SPECTRUMID=CCMSLIB00000078779
SCANS=1199
ID=CCMSLIB00000078779
98.0964253583 	 3.25
105.0334907505 	 17
110.0964253583 	 5.45
117.0698762568 	 1.55
122.0964253583 	 4.75
124.1120754225 	 25
129.0698762568 	 1.81
130.0777012889 	 1.71
131.085526321 	 3.32
141.0698762568 	 1.64
143.085526321 	 4.77
145.1011763852 	 2.89
155.085526321 	 3.62
157.1011763852 	 5.57
159.0804409431 	 1.97
167.085526321 	 1.64
169.1011763852 	 5.75
171.1168264494 	 2.72
174.1277254867 	 2.26
181.1011763852 	 5.01
183.1168264494 	 4.89
185.0960910073 	 1.99
188.1433755509 	 2.25
189.151200583 	 6.23
195.1168264494 	 4.64
197.0960910073 	 2.32
199.1117410715 	 3.03
209.1324765136 	 1.67
211.1481265778 	 1.49
239.1430411999 	 1.73
241.1223057578 	 4.29
259.1328704441 	 1.54
260.1281194172 	 1.55
267.137955822 	 2.65
298.216540494 	 3.32
314.1750696098 	 3.86
324.1958050519 	 9.2
342.2063697382 	 100
344.2134664888 	 3.25
374.2325844887 	 10.18
446.2325844887 	 17.79
464.243149175 	 23.1
496.2693639255 	 163.11
END IONS

BEGIN IONS
PEPMASS=307.0601
CHARGE=1
MSLEVEL=2
RT=0
SOURCE_INSTRUMENT=qTOF
FILENAME=CCMSLIB00000078780.ms
IONMODE=Positive
ORGANISM=Natural
NAME=NCGC00160336-01!7'-Hydroxy-[3,4']bichromenyl-2,2'-dione
PI=GNPS
DATACOLLECTOR=GNPS
SMILES=c1ccc2c(c1)cc(c1cc(=O)oc3cc(ccc13)O)c(=O)o2
INCHI=InChI=1S/C18H10O5/c19-11-5-6-12-13(9-17(20)22-16(12)8-11)14-7-10-3-1-2-4-15(10)23-18(14)21/h1-9,19H
FORMULA=C18H10O5
PUBMED=N/A
SUBMITUSER=BIOADREM
LIBRARYQUALITY=0
SPECTRUMID=CCMSLIB00000078780
SCANS=1200
ID=CCMSLIB00000078780
152.0620512247 	 22.97
155.085526321 	 5.96
165.0698762568 	 51.96
166.0777012889 	 17.3
167.085526321 	 18.17
176.0620512247 	 18.24
177.0698762568 	 26.38
178.0777012889 	 93.9
181.0647908789 	 38.59
183.0440554368 	 5.96
189.0698762568 	 67.15
191.085526321 	 8.21
194.072615911 	 14.32
195.0804409431 	 18.46
205.0647908789 	 35.68
207.0804409431 	 64.32
209.059705501 	 13.01
211.0753555652 	 8.87
217.0647908789 	 7.34
218.072615911 	 32.12
221.059705501 	 15.41
222.0675305331 	 14.83
223.0753555652 	 50.51
233.059705501 	 15.84
234.0675305331 	 30.23
235.0753555652 	 21.44
237.0546201231 	 12.86
239.0702701873 	 12.14
251.0702701873 	 22.89
262.0624451552 	 9.16
263.0702701873 	 100
265.0495347452 	 54.58
279.0651848094 	 19.62
307.0600994315 	 54.36
END IONS

BEGIN IONS
PEPMASS=414.3349
CHARGE=1
MSLEVEL=2
RT=0
SOURCE_INSTRUMENT=qTOF
FILENAME=CCMSLIB00000078781.ms
IONMODE=Positive
ORGANISM=Natural
NAME=NCGC00160274-01!PETILINE
PI=GNPS
DATACOLLECTOR=GNPS
SMILES=CC1CCC(=NC1)C(C)[C@H]1CCC2C3CC(=O)C4C[C@H](CC[C@]4(C)C3CC[C@]12C)O
INCHI=InChI=1S/C27H43NO2/c1-16-5-8-24(28-15-16)17(2)20-6-7-21-19-14-25(30)23-13-18(29)9-11-27(23,4)22(19)10-12-26(20,21)3/h16-23,29H,5-15H2,1-4H3/t16?,17?,18-,19?,20+,21?,22?,23?,26+,27+/m0/s1
FORMULA=C27H43NO2
PUBMED=N/A
SUBMITUSER=BIOADREM
LIBRARYQUALITY=0
SPECTRUMID=CCMSLIB00000078781
SCANS=1201
ID=CCMSLIB00000078781
95.085526321 	 17.66
98.0964253583 	 23.19
105.0698762568 	 5.82
107.085526321 	 28.44
109.1011763852 	 14.33
112.1120754225 	 9.5
119.085526321 	 10.78
121.0647908789 	 8.65
121.1011763852 	 11.56
123.1168264494 	 5.74
124.1120754225 	 5.74
125.1199004546 	 13.12
126.1277254867 	 100
131.085526321 	 8.94
133.1011763852 	 11.49
135.1168264494 	 33.26
147.1168264494 	 12.98
149.1324765136 	 54.96
151.1355505188 	 4.18
152.1433755509 	 9.57
159.1168264494 	 7.3
161.0960910073 	 6.17
173.1324765136 	 5.96
177.1273911357 	 5.46
197.1324765136 	 5.6
215.1430411999 	 4.89
287.2005560788 	 5.53
370.2740553729 	 4.68
414.3366556297 	 793.83
END IONS

BEGIN IONS
PEPMASS=373.166
CHARGE=1
MSLEVEL=2
RT=0
SOURCE_INSTRUMENT=qTOF
FILENAME=CCMSLIB00000078782.ms
IONMODE=Positive
ORGANISM=Natural
NAME=NCGC00160254-01!Cyclo(tryptophyltryptophyl)
PI=GNPS
DATACOLLECTOR=GNPS
SMILES=c1ccc2c(c1)c(C[C@H]1C(=N[C@@H](Cc3c[nH]c4ccccc34)C(=N1)O)O)c[nH]2
INCHI=InChI=1S/C22H20N4O2/c27-21-19(9-13-11-23-17-7-3-1-5-15(13)17)25-22(28)20(26-21)10-14-12-24-18-8-4-2-6-16(14)18/h1-8,11-12,19-20,23-24H,9-10H2,(H,25,28)(H,26,27)/t19-,20-/m0/s1
FORMULA=C22H20N4O2
PUBMED=N/A
SUBMITUSER=BIOADREM
LIBRARYQUALITY=0
SPECTRUMID=CCMSLIB00000078782
SCANS=1202
ID=CCMSLIB00000078782
103.0542261926 	 2.18
115.0542261926 	 0.8
128.0494751657 	 1.67
130.0651252299 	 100
132.0807752941 	 3.23
142.0651252299 	 1.51
144.0807752941 	 2.57
155.060374203 	 0.74
159.0916743314 	 2.77
169.0760242672 	 2.97
259.1229744598 	 0.74
373.165901907 	 0
END IONS

BEGIN IONS
PEPMASS=443.207
CHARGE=1
MSLEVEL=2
RT=0
SOURCE_INSTRUMENT=qTOF
FILENAME=CCMSLIB00000078783.ms
IONMODE=Positive
ORGANISM=Natural
NAME=NCGC00160270-01!8-(2-methylbut-2-enoyl)-11-(3-methylbut-2enoyl)-2-oxo-1(10),3-guaiadien-12,6-olide
PI=GNPS
DATACOLLECTOR=GNPS
SMILES=C/C=C(\C)/C(=O)O[C@H]1CC(=C2C(=O)C=C(C)[C@H]2[C@H]2C1[C@@](C)(C(=O)O2)OC(=O)C=C(C)C)C
INCHI=InChI=1S/C25H30O7/c1-8-13(4)23(28)30-17-11-15(6)19-16(26)10-14(5)20(19)22-21(17)25(7,24(29)31-22)32-18(27)9-12(2)3/h8-10,17,20-22H,11H2,1-7H3/b13-8+/t17-,20+,21?,22-,25-/m0/s1
FORMULA=C25H30O7
PUBMED=N/A
SUBMITUSER=BIOADREM
LIBRARYQUALITY=0
SPECTRUMID=CCMSLIB00000078783
SCANS=1203
ID=CCMSLIB00000078783
105.0698762568 	 4.57
115.0542261926 	 4.07
127.0542261926 	 3.71
128.0620512247 	 12.07
129.0698762568 	 6.69
130.0777012889 	 4.75
131.085526321 	 5.92
141.0698762568 	 6.96
143.085526321 	 6.28
144.0933513531 	 3.93
145.1011763852 	 5.65
153.0698762568 	 6.74
154.0777012889 	 17.86
155.085526321 	 8.36
156.0933513531 	 18.85
157.0647908789 	 5.79
157.1011763852 	 6.46
158.072615911 	 5.97
159.0804409431 	 9.45
159.1168264494 	 15.24
167.085526321 	 6.28
169.1011763852 	 33.18
171.0804409431 	 7.28
172.0882659752 	 42.81
173.0960910073 	 15.69
175.0753555652 	 4.16
179.085526321 	 17
181.0647908789 	 6.15
182.072615911 	 19.98
187.1117410715 	 32.73
197.0960910073 	 71.75
200.0831805973 	 24.23
201.0910056294 	 9.4
215.1066556936 	 31.37
225.0910056294 	 37.25
228.0780952194 	 20.16
229.0859202515 	 4.43
243.1015703157 	 100
443.2064293177 	 0
END IONS

BEGIN IONS
PEPMASS=279.207
CHARGE=1
MSLEVEL=2
RT=0
SOURCE_INSTRUMENT=qTOF
FILENAME=CCMSLIB00000078784.ms
IONMODE=Positive
ORGANISM=Natural
NAME=NCGC00160256-01!Sparteine-15-carboxylic acid
PI=GNPS
DATACOLLECTOR=GNPS
SMILES=C1CCN2C[C@H]3C[C@@H](CN4[C@@H]3CCCC4C(=O)O)[C@@H]2C1
INCHI=InChI=1S/C16H26N2O2/c19-16(20)15-6-3-5-14-11-8-12(10-18(14)15)13-4-1-2-7-17(13)9-11/h11-15H,1-10H2,(H,19,20)/t11-,12+,13+,14-,15?/m1/s1
FORMULA=C16H26N2O2
PUBMED=N/A
SUBMITUSER=BIOADREM
LIBRARYQUALITY=0
SPECTRUMID=CCMSLIB00000078784
SCANS=1204
ID=CCMSLIB00000078784
121.0284053726 	 12.57
279.2067040892 	 0
END IONS

BEGIN IONS
PEPMASS=363.217
CHARGE=1
MSLEVEL=2
RT=0
SOURCE_INSTRUMENT=qTOF
FILENAME=CCMSLIB00000078785.ms
IONMODE=Positive
ORGANISM=Natural
NAME=NCGC00160174-01!HUMULONE
PI=GNPS
DATACOLLECTOR=GNPS
SMILES=CC(=CCC1=C([C@](CC=C(C)C)(C(=C(C(=O)CC(C)C)C1=O)O)O)O)C
INCHI=InChI=1S/C21H30O5/c1-12(2)7-8-15-18(23)17(16(22)11-14(5)6)20(25)21(26,19(15)24)10-9-13(3)4/h7,9,14,24-26H,8,10-11H2,1-6H3/t21-/m1/s1
FORMULA=C21H30O5
PUBMED=N/A
SUBMITUSER=BIOADREM
LIBRARYQUALITY=0
SPECTRUMID=CCMSLIB00000078785
SCANS=1205
ID=CCMSLIB00000078785
103.0542261926 	 6.56
111.0440554368 	 3.59
121.0284053726 	 4.43
129.0698762568 	 2.86
133.0284053726 	 4.54
139.0389700589 	 9.02
141.0182346168 	 4.93
147.0804409431 	 10.26
161.059705501 	 4.99
167.033884681 	 96.75
169.0495347452 	 8.18
175.0753555652 	 9.81
178.0624451552 	 3.08
179.033884681 	 31.89
179.0702701873 	 11.88
180.0417097131 	 4.04
185.059705501 	 8.02
193.0859202515 	 4.43
203.0702701873 	 19.17
206.0573597773 	 9.7
211.0964849378 	 2.8
221.0808348736 	 72.7
239.0913995599 	 100
363.2166000735 	 0
END IONS

BEGIN IONS
PEPMASS=275.1275
CHARGE=1
MSLEVEL=2
RT=0
SOURCE_INSTRUMENT=qTOF
FILENAME=CCMSLIB00000078786.ms
IONMODE=Positive
ORGANISM=Natural
NAME=NCGC00095427-02!7-METHYL ETHER HETEROPEUCENIN
PI=GNPS
DATACOLLECTOR=GNPS
SMILES=CC(=CCc1c(cc(c2c(=O)cc(C)oc12)O)OC)C
INCHI=InChI=1S/C16H18O4/c1-9(2)5-6-11-14(19-4)8-13(18)15-12(17)7-10(3)20-16(11)15/h5,7-8,18H,6H2,1-4H3
FORMULA=C16H18O4
PUBMED=N/A
SUBMITUSER=BIOADREM
LIBRARYQUALITY=0
SPECTRUMID=CCMSLIB00000078786
SCANS=1206
ID=CCMSLIB00000078786
115.0542261926 	 0.91
135.0440554368 	 1.03
149.0233199947 	 2.79
161.059705501 	 1.88
163.0389700589 	 3.6
164.046795091 	 3.41
171.0440554368 	 0.71
175.0753555652 	 1.18
176.046795091 	 1.63
177.0182346168 	 2.33
177.0546201231 	 2.96
179.033884681 	 1.2
181.0495347452 	 1.65
185.059705501 	 0.61
187.0389700589 	 2.84
189.0546201231 	 6.34
192.0417097131 	 0.9
198.0675305331 	 0.65
201.0546201231 	 2.68
203.0702701873 	 1.86
204.0417097131 	 0.8
205.0495347452 	 26.8
215.0702701873 	 1.04
216.0417097131 	 1.01
217.0495347452 	 100
219.0651848094 	 4.32
226.0624451552 	 0.86
227.0702701873 	 1.86
230.0573597773 	 2.86
231.0651848094 	 3.55
241.0859202515 	 5.36
243.0651848094 	 4.13
244.0730098415 	 2.88
245.0808348736 	 15.48
259.0964849378 	 5.34
275.1277850662 	 70.72
END IONS

BEGIN IONS
PEPMASS=237.0385
CHARGE=1
MSLEVEL=2
RT=0
SOURCE_INSTRUMENT=qTOF
FILENAME=CCMSLIB00000078787.ms
IONMODE=Positive
ORGANISM=Natural
NAME=NCGC00160271-01!2,3,5,8-Tetrahydroxy-6-methyl-1,4-naphthoquinone
PI=GNPS
DATACOLLECTOR=GNPS
SMILES=Cc1cc(c2c(c1O)C(=O)C(=C(C2=O)O)O)O
INCHI=InChI=1S/C11H8O6/c1-3-2-4(12)5-6(7(3)13)9(15)11(17)10(16)8(5)14/h2,12-13,16-17H,1H3
FORMULA=C11H8O6
PUBMED=N/A
SUBMITUSER=BIOADREM
LIBRARYQUALITY=0
SPECTRUMID=CCMSLIB00000078787
SCANS=1207
ID=CCMSLIB00000078787
105.0334907505 	 12.93
107.0491408147 	 12.59
191.033884681 	 22.79
209.0444493673 	 100
219.0287993031 	 5.44
237.0393639894 	 31.97
END IONS

BEGIN IONS
PEPMASS=297.0757
CHARGE=1
MSLEVEL=2
RT=0
SOURCE_INSTRUMENT=qTOF
FILENAME=CCMSLIB00000078788.ms
IONMODE=Positive
ORGANISM=Natural
NAME=NCGC00160228-01!3-(2,3-Dihydro-1,4-benzodioxin-6-yl)-7-hydroxy-chromen-2-one
PI=GNPS
DATACOLLECTOR=GNPS
SMILES=c1cc(cc2c1cc(c1ccc3c(c1)OCCO3)c(=O)o2)O
INCHI=InChI=1S/C17H12O5/c18-12-3-1-11-7-13(17(19)22-15(11)9-12)10-2-4-14-16(8-10)21-6-5-20-14/h1-4,7-9,18H,5-6H2
FORMULA=C17H12O5
PUBMED=N/A
SUBMITUSER=BIOADREM
LIBRARYQUALITY=0
SPECTRUMID=CCMSLIB00000078788
SCANS=1208
ID=CCMSLIB00000078788
115.0542261926 	 6.74
127.0542261926 	 1.45
128.0620512247 	 3.58
129.0698762568 	 2.73
139.0542261926 	 3.09
141.0698762568 	 18.34
151.0542261926 	 3.86
152.0620512247 	 5.66
153.0698762568 	 2.98
155.0491408147 	 1.74
156.0569658468 	 1.51
157.0647908789 	 29.84
165.0698762568 	 2.79
167.0491408147 	 3.41
167.085526321 	 1.68
168.0569658468 	 7.78
169.0647908789 	 29.76
181.0647908789 	 10.95
183.0804409431 	 3.66
185.059705501 	 28.8
195.0804409431 	 3.73
197.059705501 	 47.18
209.059705501 	 2.39
213.0546201231 	 13.13
215.0702701873 	 4.5
221.059705501 	 1.33
223.0753555652 	 4.4
225.0546201231 	 17.97
239.0702701873 	 1.73
241.0859202515 	 100
269.0808348736 	 6.9
297.0757494957 	 9.43
END IONS

BEGIN IONS
PEPMASS=294.1484
CHARGE=1
MSLEVEL=2
RT=0
SOURCE_INSTRUMENT=qTOF
FILENAME=CCMSLIB00000078790.ms
IONMODE=Positive
ORGANISM=Natural
NAME=NCGC00160247-01!STEPHENANTHRINE
PI=GNPS
DATACOLLECTOR=GNPS
SMILES=CN(C)CCc1cc2c(c3c4ccccc4ccc13)OCO2
INCHI=InChI=1S/C19H19NO2/c1-20(2)10-9-14-11-17-19(22-12-21-17)18-15-6-4-3-5-13(15)7-8-16(14)18/h3-8,11H,9-10,12H2,1-2H3
FORMULA=C19H19NO2
PUBMED=N/A
SUBMITUSER=BIOADREM
LIBRARYQUALITY=0
SPECTRUMID=CCMSLIB00000078790
SCANS=1209
ID=CCMSLIB00000078790
151.0542261926 	 0.26
152.0620512247 	 0.59
153.0698762568 	 0.41
163.0542261926 	 0.24
165.0698762568 	 5.88
176.0620512247 	 0.64
177.0698762568 	 1.67
178.0777012889 	 16.62
181.0647908789 	 0.36
189.0698762568 	 16.48
190.0777012889 	 31.42
191.085526321 	 100
200.0620512247 	 1.17
201.0698762568 	 13.11
202.0777012889 	 11.4
203.085526321 	 11.37
205.0647908789 	 3.97
206.072615911 	 2.03
207.0804409431 	 0.81
218.072615911 	 3.45
219.0804409431 	 53.95
231.0804409431 	 2.93
233.059705501 	 0.34
234.0675305331 	 0.62
249.0910056294 	 58.54
294.1488548593 	 0.11
END IONS

BEGIN IONS
PEPMASS=457.1857
CHARGE=1
MSLEVEL=2
RT=0
SOURCE_INSTRUMENT=qTOF
FILENAME=CCMSLIB00000078791.ms
IONMODE=Positive
ORGANISM=Natural
NAME=NCGC00160140-01!LOBARIC ACID
PI=GNPS
DATACOLLECTOR=GNPS
SMILES=CCCCCc1c(c(cc2c1Oc1cc(c(cc1C(=O)O2)C(=O)CCCC)OC)O)C(=O)O
INCHI=InChI=1S/C25H28O8/c1-4-6-8-9-14-22(24(28)29)18(27)12-21-23(14)32-20-13-19(31-3)15(17(26)10-7-5-2)11-16(20)25(30)33-21/h11-13,27H,4-10H2,1-3H3,(H,28,29)
FORMULA=C25H28O8
PUBMED=N/A
SUBMITUSER=BIOADREM
LIBRARYQUALITY=0
SPECTRUMID=CCMSLIB00000078791
SCANS=1210
ID=CCMSLIB00000078791
105.0698762568 	 1.84
158.072615911 	 2.41
173.0960910073 	 3.025
199.0753555652 	 2.29
201.0910056294 	 4.92
217.0859202515 	 4.68
227.0702701873 	 9.72
236.0831805973 	 2.15
249.0910056294 	 2.72
250.0988306615 	 2.92
251.0702701873 	 5.39
252.0780952194 	 2.8
255.0651848094 	 9.54
256.0730098415 	 2.14
263.1066556936 	 2.59
264.0780952194 	 6.895
265.1223057578 	 8.02
267.0651848094 	 7.24
269.0808348736 	 3.07
269.1172203799 	 7.65
271.0964849378 	 2.1
273.112135002 	 1.98
277.0859202515 	 2.75
278.0937452836 	 4.84
279.0651848094 	 1.915
279.1015703157 	 2.375
280.0730098415 	 5.34
281.1172203799 	 2.98
287.1277850662 	 4.15
291.0651848094 	 5.725
292.0730098415 	 2.475
293.0808348736 	 4.45
293.1172203799 	 10.87
298.0471890215 	 2.26
307.0964849378 	 4.445
308.1043099699 	 8.315
309.112135002 	 9.575
311.1277850662 	 2.955
323.0913995599 	 6.23
323.1277850662 	 5.26
335.0913995599 	 2.205
336.099224592 	 2.28
337.1070496241 	 8.11
341.1747352588 	 2.17
343.190385323 	 2.235
351.086314182 	 9.615
353.1747352588 	 1.905
355.1176143104 	 4.145
364.1305247204 	 2.075
365.1747352588 	 6.7
369.0968788683 	 22.54
371.1852999451 	 6.05
379.1539998167 	 26.775
380.1618248488 	 8.35
393.1696498809 	 9.075
395.1852999451 	 2.92
397.164564503 	 79.98
421.164564503 	 100
439.1751291893 	 5.915
457.1856938756 	 1.245
END IONS

BEGIN IONS
PEPMASS=295.133
CHARGE=1
MSLEVEL=2
RT=0
SOURCE_INSTRUMENT=qTOF
FILENAME=CCMSLIB00000078792.ms
IONMODE=Positive
ORGANISM=Natural
NAME=NCGC00095709-02!TANSHINONE IIA
PI=GNPS
DATACOLLECTOR=GNPS
SMILES=Cc1coc2c3ccc4c(CCCC4(C)C)c3C(=O)C(=O)c12
INCHI=InChI=1S/C19H18O3/c1-10-9-22-18-12-6-7-13-11(5-4-8-19(13,2)3)15(12)17(21)16(20)14(10)18/h6-7,9H,4-5,8H2,1-3H3
FORMULA=C19H18O3
PUBMED=N/A
SUBMITUSER=BIOADREM
LIBRARYQUALITY=0
SPECTRUMID=CCMSLIB00000078792
SCANS=1211
ID=CCMSLIB00000078792
152.0620512247 	 2.9
153.0698762568 	 12.68
165.0698762568 	 5.06
166.0777012889 	 4.09
167.085526321 	 10.32
177.0698762568 	 8.085
178.0777012889 	 35.09
179.085526321 	 26.975
180.0933513531 	 9.115
181.0647908789 	 5.08
182.1090014173 	 3.35
183.0804409431 	 4.66
189.0698762568 	 2.805
190.0777012889 	 5.48
191.085526321 	 57.245
192.0933513531 	 26.22
195.0804409431 	 16.68
205.0647908789 	 12.2
205.1011763852 	 33.205
206.072615911 	 21.73
206.1090014173 	 55.97
207.0804409431 	 36.85
210.1039160394 	 3.515
215.085526321 	 5.765
216.0933513531 	 13.455
217.1011763852 	 4.375
219.0804409431 	 43.045
220.0882659752 	 38.485
221.0960910073 	 3.395
221.1324765136 	 24.2
222.0675305331 	 5.03
223.0753555652 	 15.79
231.1168264494 	 7.03
233.0960910073 	 15.245
234.0675305331 	 17.635
234.1039160394 	 50.8
235.0753555652 	 43.855
237.0910056294 	 16.29
245.0960910073 	 4.25
247.0753555652 	 12.065
248.0831805973 	 20.045
249.1273911357 	 100
251.0702701873 	 35.05
252.0780952194 	 82.585
259.1117410715 	 3.31
261.0910056294 	 5.15
262.0988306615 	 62.95
265.0859202515 	 37.555
266.0937452836 	 53
267.137955822 	 2.785
277.1223057578 	 79.11
280.1093953478 	 45.655
295.1328704441 	 11.32
END IONS

BEGIN IONS
PEPMASS=246.0918
CHARGE=1
MSLEVEL=2
RT=0
SOURCE_INSTRUMENT=qTOF
FILENAME=CCMSLIB00000078793.ms
IONMODE=Positive
ORGANISM=Natural
NAME=NCGC00160331-01!2-Methyl-naphtho[1,2,3-de]quinolin-8-one
PI=GNPS
DATACOLLECTOR=GNPS
SMILES=Cc1cc2c3ccccc3C(=O)c3cccc(c23)n1
INCHI=InChI=1S/C17H11NO/c1-10-9-14-11-5-2-3-6-12(11)17(19)13-7-4-8-15(18-10)16(13)14/h2-9H,1H3
FORMULA=C17H11NO
PUBMED=N/A
SUBMITUSER=BIOADREM
LIBRARYQUALITY=0
SPECTRUMID=CCMSLIB00000078793
SCANS=1212
ID=CCMSLIB00000078793
127.0542261926 	 2.31
151.0542261926 	 25.18
155.0491408147 	 1.57
165.0698762568 	 2.56
169.0647908789 	 6.28
175.0542261926 	 4.45
176.0620512247 	 100
177.0698762568 	 54.08
181.0647908789 	 2.92
189.0698762568 	 5.21
191.085526321 	 5.88
193.0647908789 	 3.84
195.0804409431 	 2.13
202.0651252299 	 34.82
203.072950262 	 35.28
216.0807752941 	 12.28
217.0886003262 	 69.59
218.0964253583 	 51.7
220.0756899162 	 9.86
228.0807752941 	 5.57
230.060039852 	 18.35
231.0678648841 	 15.62
245.0835149483 	 52.55
246.0913399804 	 684.62
END IONS

BEGIN IONS
PEPMASS=217.0973
CHARGE=1
MSLEVEL=2
RT=0
SOURCE_INSTRUMENT=qTOF
FILENAME=CCMSLIB00000078794.ms
IONMODE=Positive
ORGANISM=Natural
NAME=NCGC00160211-01!2,3-Dihydro-1H-pyrrolo[2,1-c][1,4]benzodiazepine-5,11(10H,11aH)-dione
PI=GNPS
DATACOLLECTOR=GNPS
SMILES=c1ccc2c(c1)C(=O)N1CCC[C@H]1C(=N2)O
INCHI=InChI=1S/C12H12N2O2/c15-11-10-6-3-7-14(10)12(16)8-4-1-2-5-9(8)13-11/h1-2,4-5,10H,3,6-7H2,(H,13,15)/t10-/m0/s1
FORMULA=C12H12N2O2
PUBMED=N/A
SUBMITUSER=BIOADREM
LIBRARYQUALITY=0
SPECTRUMID=CCMSLIB00000078794
SCANS=1213
ID=CCMSLIB00000078794
106.0651252299 	 13.03
117.0573001978 	 14.01
129.0658535114 	 14.33
130.0287397236 	 14.01
131.072950262 	 28.01
143.072950262 	 14.98
148.0393044099 	 100
154.0651252299 	 15.64
171.0916743314 	 16.94
184.0631138572 	 72.31
199.0865889535 	 32.9
217.0971536398 	 161.56
END IONS

BEGIN IONS
PEPMASS=258.186
CHARGE=1
MSLEVEL=2
RT=0
SOURCE_INSTRUMENT=qTOF
FILENAME=CCMSLIB00000078795.ms
IONMODE=Positive
ORGANISM=Natural
NAME=NCGC00160303-01!17-Methylmorphinan-3-ol
PI=GNPS
DATACOLLECTOR=GNPS
SMILES=CN1CC[C@@]23CCCC[C@H]2C1Cc1ccc(cc31)O
INCHI=InChI=1S/C17H23NO/c1-18-9-8-17-7-3-2-4-14(17)16(18)10-12-5-6-13(19)11-15(12)17/h5-6,11,14,16,19H,2-4,7-10H2,1H3/t14-,16?,17-/m0/s1
FORMULA=C17H23NO
PUBMED=N/A
SUBMITUSER=BIOADREM
LIBRARYQUALITY=0
SPECTRUMID=CCMSLIB00000078795
SCANS=1214
ID=CCMSLIB00000078795
105.0698762568 	 3.13
107.0491408147 	 4.84
115.0542261926 	 1.23
116.0620512247 	 0.49
117.0698762568 	 1.33
121.0647908789 	 2.11
126.0464011605 	 0.29
127.0542261926 	 1.34
128.0620512247 	 2.63
129.0698762568 	 4.81
131.0491408147 	 2.91
131.085526321 	 1.59
133.0647908789 	 36.29
141.0698762568 	 1.48
142.0777012889 	 0.58
143.085526321 	 0.64
144.0569658468 	 1.72
145.0647908789 	 15.86
147.0804409431 	 1.39
153.0698762568 	 0.71
157.0647908789 	 100
159.0804409431 	 14.68
166.0777012889 	 0.85
170.072615911 	 0.31
171.0804409431 	 2.6
171.1168264494 	 2.58
173.0960910073 	 1.04
179.085526321 	 0.3
181.1011763852 	 0.98
184.0882659752 	 0.39
185.0960910073 	 3.73
197.0960910073 	 0.58
199.1117410715 	 56.68
201.1273911357 	 30.98
227.1430411999 	 1.86
258.1852403656 	 57.98
END IONS

BEGIN IONS
PEPMASS=206.045
CHARGE=1
MSLEVEL=2
RT=0
SOURCE_INSTRUMENT=qTOF
FILENAME=CCMSLIB00000078796.ms
IONMODE=Positive
ORGANISM=Natural
NAME=NCGC00094846-03!XANTHURENIC ACID
PI=GNPS
DATACOLLECTOR=GNPS
SMILES=c1cc2c(cc(C(=O)O)nc2c(c1)O)O
INCHI=InChI=1S/C10H7NO4/c12-7-3-1-2-5-8(13)4-6(10(14)15)11-9(5)7/h1-4,12H,(H,11,13)(H,14,15)
FORMULA=C10H7NO4
PUBMED=N/A
SUBMITUSER=BIOADREM
LIBRARYQUALITY=0
SPECTRUMID=CCMSLIB00000078796
SCANS=1215
ID=CCMSLIB00000078796
104.0494751657 	 17.38
105.0334907505 	 11.38
115.0542261926 	 4.66
132.0443897878 	 100
135.0440554368 	 4.57
178.0498690962 	 38.17
206.0447837183 	 0
END IONS

BEGIN IONS
PEPMASS=414.192
CHARGE=1
MSLEVEL=2
RT=0
SOURCE_INSTRUMENT=qTOF
FILENAME=CCMSLIB00000078797.ms
IONMODE=Positive
ORGANISM=Natural
NAME=NCGC00160332-01!N-(2-(2,3,4',5'-tetramethoxychalcon-2-yl)-ethyl)-acetamide
PI=GNPS
DATACOLLECTOR=GNPS
SMILES=CC(=NCCc1cc(c(cc1C(=O)/C=C/c1cccc(c1OC)OC)OC)OC)O
INCHI=InChI=1S/C23H27NO6/c1-15(25)24-12-11-17-13-21(28-3)22(29-4)14-18(17)19(26)10-9-16-7-6-8-20(27-2)23(16)30-5/h6-10,13-14H,11-12H2,1-5H3,(H,24,25)/b10-9+
FORMULA=C23H27NO6
PUBMED=N/A
SUBMITUSER=BIOADREM
LIBRARYQUALITY=0
SPECTRUMID=CCMSLIB00000078797
SCANS=1216
ID=CCMSLIB00000078797
103.0542261926 	 4.61
105.0698762568 	 3.47
107.0491408147 	 2.03
119.0491408147 	 2.37
120.0569658468 	 5.86
131.0491408147 	 2.59
133.0284053726 	 3.29
133.0647908789 	 3.35
134.072615911 	 2.07
135.0440554368 	 1.61
135.0804409431 	 5.05
136.0518804689 	 3
147.0440554368 	 10.47
148.0518804689 	 18.07
150.0675305331 	 13.51
151.0753555652 	 3.12
163.0753555652 	 3.2
165.0910056294 	 46.46
175.0389700589 	 1.96
176.046795091 	 93.91
189.0910056294 	 1.68
190.0862546025 	 4.65
191.0702701873 	 100
193.0733441925 	 2.72
208.0968192888 	 47.53
217.0859202515 	 3.74
293.1046443209 	 2.24
296.1281194172 	 4.36
306.112469353 	 2.7
308.1281194172 	 4.11
320.1281194172 	 3.12
322.1437694814 	 14.42
323.1152090072 	 3.37
324.1230340393 	 6.25
338.1386841035 	 14.26
354.1699842319 	 26.67
414.1911136045 	 0
END IONS

BEGIN IONS
PEPMASS=456.2749
CHARGE=1
MSLEVEL=2
RT=0
SOURCE_INSTRUMENT=qTOF
FILENAME=CCMSLIB00000078799.ms
IONMODE=Positive
ORGANISM=Natural
NAME=NCGC00160314-01!1,2,3,4-Tetrahydro-6,7-dimethoxy-1-methylisoquinolinyl-8,12dihydro-5,6-epoxy-2-hydroxyalantolactone
PI=GNPS
DATACOLLECTOR=GNPS
SMILES=C[C@H]1CCC[C@]2(C)C[C@@H]3[C@@H]([C@@H](CN4CCc5cc(c(cc5[C@@H]4C)OC)OC)C(=O)O3)[C@H]3[C@@]12O3
INCHI=InChI=1S/C27H37NO5/c1-15-7-6-9-26(3)13-22-23(24-27(15,26)33-24)19(25(29)32-22)14-28-10-8-17-11-20(30-4)21(31-5)12-18(17)16(28)2/h11-12,15-16,19,22-24H,6-10,13-14H2,1-5H3/t15-,16-,19+,22+,23+,24-,26+,27-/m0/s1
FORMULA=C27H37NO5
PUBMED=N/A
SUBMITUSER=BIOADREM
LIBRARYQUALITY=0
SPECTRUMID=CCMSLIB00000078799
SCANS=1218
ID=CCMSLIB00000078799
105.0698762568 	 4.82
109.1011763852 	 2.4
121.0647908789 	 4.59
131.085526321 	 4.13
133.1011763852 	 2.15
143.085526321 	 2.31
145.0647908789 	 2.98
145.1011763852 	 3.58
147.0804409431 	 4.19
150.0675305331 	 2.46
157.1011763852 	 2.54
159.0804409431 	 3.8
159.1168264494 	 6.47
160.0882659752 	 22.67
161.059705501 	 2.13
164.0831805973 	 4.67
165.0910056294 	 10.67
174.0913399804 	 2.8
176.0831805973 	 14.22
178.0988306615 	 11.99
179.1066556936 	 20.48
185.1324765136 	 6.29
188.1069900446 	 7.36
189.1148150767 	 8.36
190.0862546025 	 8.63
191.1066556936 	 51.01
193.1223057578 	 17.85
203.1430411999 	 11.77
205.1097296988 	 5.57
207.125379763 	 5.33
208.1332047951 	 4.13
213.1273911357 	 3.11
217.1223057578 	 2.48
220.1332047951 	 100
231.137955822 	 4.66
235.1328704441 	 3.27
249.1485205083 	 10.42
260.1645049235 	 2.91
278.1750696098 	 59.39
438.2638846171 	 3.3
456.2744493034 	 120.57
END IONS

BEGIN IONS
PEPMASS=543.3208
CHARGE=1
MSLEVEL=2
RT=0
SOURCE_INSTRUMENT=qTOF
FILENAME=CCMSLIB00000078800.ms
IONMODE=Positive
ORGANISM=Natural
NAME=NCGC00160302-01!BELLADONNINE
PI=GNPS
DATACOLLECTOR=GNPS
SMILES=CN1C2CCC1CC(C2)OC(=O)C1CCC(c2ccccc2)(c2ccccc12)C(=O)OC1CC2CCC(C1)N2C
INCHI=InChI=1S/C34H42N2O4/c1-35-23-12-13-24(35)19-27(18-23)39-32(37)30-16-17-34(22-8-4-3-5-9-22,31-11-7-6-10-29(30)31)33(38)40-28-20-25-14-15-26(21-28)36(25)2/h3-11,23-28,30H,12-21H2,1-2H3
FORMULA=C34H42N2O4
PUBMED=N/A
SUBMITUSER=BIOADREM
LIBRARYQUALITY=0
SPECTRUMID=CCMSLIB00000078800
SCANS=1219
ID=CCMSLIB00000078800
107.0702701873 	 4.34
124.1120754225 	 39.41
125.1199004546 	 4.71
173.059705501 	 5.33
201.1273911357 	 4.71
251.1066556936 	 3.72
266.2240311751 	 4.34
325.0859202515 	 5.95
373.1223057578 	 4.83
375.2318562072 	 5.95
376.2356584939 	 5.2
381.0658535114 	 5.45
420.2169344245 	 100
421.1182830124 	 5.33
421.216206143 	 54.4
543.321733847 	 72.12
END IONS

BEGIN IONS
PEPMASS=276.0321
CHARGE=1
MSLEVEL=2
RT=0
SOURCE_INSTRUMENT=qTOF
FILENAME=CCMSLIB00000078801.ms
IONMODE=Positive
ORGANISM=Natural
NAME=NCGC00160278-01!7,8-Dihydroxy-3-(2-methyl-thiazol-4-yl)-chromen-4-one
PI=GNPS
DATACOLLECTOR=GNPS
SMILES=Cc1nc(cs1)c1coc2c(ccc(c2O)O)c1=O
INCHI=InChI=1S/C13H9NO4S/c1-6-14-9(5-19-6)8-4-18-13-7(11(8)16)2-3-10(15)12(13)17/h2-5,15,17H,1H3
FORMULA=C13H9NO4S
PUBMED=N/A
SUBMITUSER=BIOADREM
LIBRARYQUALITY=0
SPECTRUMID=CCMSLIB00000078801
SCANS=1220
ID=CCMSLIB00000078801
95.0127553084 	 12.24
107.0491408147 	 6.38
108.0205803405 	 8.27
109.0284053726 	 3.05
123.0076699305 	 55.29
126.9848259984 	 8.45
133.0106468184 	 12.88
135.0076699305 	 2.75
135.0440554368 	 3.57
137.0233199947 	 18.43
145.0284053726 	 6.01
151.0025845526 	 10.53
153.0182346168 	 2.29
161.0055614405 	 56.3
163.0389700589 	 30.3
173.0233199947 	 3.94
179.0161261268 	 16.94
189.0004760626 	 33.17
191.033884681 	 30.45
203.033884681 	 3.94
207.0110407489 	 14.46
216.9953906847 	 14.31
235.005955371 	 100
276.0325044725 	 61.67
END IONS

BEGIN IONS
PEPMASS=258.1122
CHARGE=1
MSLEVEL=2
RT=0
SOURCE_INSTRUMENT=qTOF
FILENAME=CCMSLIB00000078802.ms
IONMODE=Positive
ORGANISM=Natural
NAME=NCGC00017285-04!HAPLAMINE
PI=GNPS
DATACOLLECTOR=GNPS
SMILES=CC1(C)C=Cc2c(c3cc(ccc3nc2O)OC)O1
INCHI=InChI=1S/C15H15NO3/c1-15(2)7-6-10-13(19-15)11-8-9(18-3)4-5-12(11)16-14(10)17/h4-8H,1-3H3,(H,16,17)
FORMULA=C15H15NO3
PUBMED=N/A
SUBMITUSER=BIOADREM
LIBRARYQUALITY=0
SPECTRUMID=CCMSLIB00000078802
SCANS=1221
ID=CCMSLIB00000078802
117.0573001978 	 8.85
120.0443897878 	 9.69
122.060039852 	 55.27
133.0522148199 	 4.94
135.0440554368 	 6.7
145.0522148199 	 11.4
150.0549544741 	 14.45
154.0651252299 	 8.16
158.060039852 	 17.56
160.0756899162 	 25.07
161.047129442 	 7.15
162.0549544741 	 14.1
168.0807752941 	 12.41
169.0886003262 	 13.14
170.060039852 	 21.4
172.0393044099 	 7.48
172.0756899162 	 8.97
173.047129442 	 41.03
176.034219032 	 7.82
176.0706045383 	 13.55
182.060039852 	 7.18
183.0678648841 	 5.24
184.0756899162 	 5.94
185.047129442 	 8.36
186.0549544741 	 18.7
187.0627795062 	 5.51
187.0991650125 	 5.7
188.0706045383 	 33
196.0756899162 	 9.44
197.0835149483 	 72.51
198.0549544741 	 30.77
199.0627795062 	 10.38
200.0706045383 	 42.05
201.0420440641 	 18.28
202.0862546025 	 7.32
204.0655191604 	 95.54
207.0678648841 	 5.4
212.1069900446 	 5.95
214.0498690962 	 12.18
214.0862546025 	 9.73
215.0576941283 	 5.4
215.0940796346 	 19.34
216.0655191604 	 100
225.0784295704 	 16.69
228.0655191604 	 41.56
230.0811692246 	 7.21
230.1175547309 	 10.63
240.1019046667 	 38.44
242.0811692246 	 35.17
243.0889942567 	 36.06
258.112469353 	 93.06
END IONS

BEGIN IONS
PEPMASS=384.254
CHARGE=1
MSLEVEL=2
RT=0
SOURCE_INSTRUMENT=qTOF
FILENAME=CCMSLIB00000078803.ms
IONMODE=Positive
ORGANISM=Natural
NAME=NCGC00160348-01!13-(3-(2-methoxyphenyl)-1-azapropyl) isoalantolactone
PI=GNPS
DATACOLLECTOR=GNPS
SMILES=C=C1CCC[C@]2(C)C[C@@H]3[C@H](CC12)[C@@H](CNCCc1ccccc1OC)C(=O)O3
INCHI=InChI=1S/C24H33NO3/c1-16-7-6-11-24(2)14-22-18(13-20(16)24)19(23(26)28-22)15-25-12-10-17-8-4-5-9-21(17)27-3/h4-5,8-9,18-20,22,25H,1,6-7,10-15H2,2-3H3/t18-,19-,20?,22-,24-/m1/s1
FORMULA=C24H33NO3
PUBMED=N/A
SUBMITUSER=BIOADREM
LIBRARYQUALITY=0
SPECTRUMID=CCMSLIB00000078803
SCANS=1222
ID=CCMSLIB00000078803
103.0542261926 	 7.26
105.0698762568 	 31.5
107.0491408147 	 0.27
107.085526321 	 0.55
119.085526321 	 0.32
120.0569658468 	 5.58
135.0804409431 	 100
164.1069900446 	 24.21
384.2533199308 	 25.13
END IONS

BEGIN IONS
PEPMASS=426.3004
CHARGE=1
MSLEVEL=2
RT=0
SOURCE_INSTRUMENT=qTOF
FILENAME=CCMSLIB00000078804.ms
IONMODE=Positive
ORGANISM=Natural
NAME=NCGC00160229-01!VERALODINE
PI=GNPS
DATACOLLECTOR=GNPS
SMILES=C[C@@H]1CC[C@H]2[C@H](C)[C@H]3CC[C@@H]4[C@@H](C[C@H]5C4[C@H](CC4=CC(=O)CC[C@]54C)O)[C@@H]3C(=O)N2C1
INCHI=InChI=1S/C27H39NO3/c1-14-4-7-22-15(2)18-5-6-19-20(24(18)26(31)28(22)13-14)12-21-25(19)23(30)11-16-10-17(29)8-9-27(16,21)3/h10,14-15,18-25,30H,4-9,11-13H2,1-3H3/t14-,15-,18-,19-,20-,21+,22+,23+,24-,25?,27+/m1/s1
FORMULA=C27H39NO3
PUBMED=N/A
SUBMITUSER=BIOADREM
LIBRARYQUALITY=0
SPECTRUMID=CCMSLIB00000078804
SCANS=1223
ID=CCMSLIB00000078804
98.0964253583 	 8.71
107.085526321 	 1.28
109.0647908789 	 3.36
119.085526321 	 2.32
121.0647908789 	 3.19
123.0804409431 	 3.47
126.0913399804 	 28.41
131.085526321 	 5.08
133.1011763852 	 3.1
145.1011763852 	 3.93
147.1168264494 	 1.35
149.0960910073 	 1.33
157.1011763852 	 1.58
159.1168264494 	 5.51
169.1011763852 	 1.86
175.1117410715 	 1.4
180.138290173 	 4.15
185.1324765136 	 1.43
234.1852403656 	 1.58
237.163776642 	 2.47
255.1743413283 	 1.52
272.2008904298 	 2.54
274.216540494 	 1.99
284.2008904298 	 2.74
284.2372759361 	 1.41
286.216540494 	 4.71
298.216540494 	 7.49
300.2321905582 	 4.99
312.2321905582 	 15.72
326.2478406224 	 3.12
338.2478406224 	 2.76
362.2842261287 	 1.48
380.294790815 	 9.01
390.2791407508 	 10.24
408.2897054371 	 100
426.3002701234 	 4.76
END IONS

BEGIN IONS
PEPMASS=370.1642
CHARGE=1
MSLEVEL=2
RT=0
SOURCE_INSTRUMENT=qTOF
FILENAME=CCMSLIB00000078805.ms
IONMODE=Positive
ORGANISM=Natural
NAME=NCGC00017386-03!CRYPTOPINE
PI=GNPS
DATACOLLECTOR=GNPS
SMILES=CN1CCc2cc(c(cc2C(=O)Cc2ccc3c(c2C1)OCO3)OC)OC
INCHI=InChI=1S/C21H23NO5/c1-22-7-6-14-9-19(24-2)20(25-3)10-15(14)17(23)8-13-4-5-18-21(16(13)11-22)27-12-26-18/h4-5,9-10H,6-8,11-12H2,1-3H3
FORMULA=C21H23NO5
PUBMED=N/A
SUBMITUSER=BIOADREM
LIBRARYQUALITY=0
SPECTRUMID=CCMSLIB00000078805
SCANS=1224
ID=CCMSLIB00000078805
107.0491408147 	 3.23
119.0491408147 	 1.595
135.0440554368 	 6.72
147.0440554368 	 7.38
147.0678648841 	 1.6
149.059705501 	 22.175
150.0675305331 	 10.16
151.0753555652 	 4.815
160.0756899162 	 5
161.0835149483 	 4.615
162.0913399804 	 6.86
163.0389700589 	 1.52
165.0910056294 	 31.58
175.0389700589 	 7.17
178.0862546025 	 3.89
188.0706045383 	 7.735
189.0784295704 	 6.625
190.0862546025 	 67.285
194.1175547309 	 4.115
204.1019046667 	 100
205.1097296988 	 46.4
209.0960910073 	 1.56
219.0804409431 	 5.64
220.0882659752 	 5.585
222.112469353 	 15.31
225.0910056294 	 6.055
232.0882659752 	 5.1
237.0910056294 	 1.51
247.0753555652 	 4.89
248.0831805973 	 6.35
249.0910056294 	 2.3
250.0988306615 	 2.505
251.1066556936 	 1.855
252.0780952194 	 4.595
253.0859202515 	 5.51
253.1223057578 	 4.045
260.0831805973 	 3.72
263.1066556936 	 12.96
265.0859202515 	 4.66
266.0937452836 	 3.14
276.0780952194 	 3.175
278.0937452836 	 5.65
279.1015703157 	 5.33
280.1093953478 	 1.62
281.1172203799 	 5.55
283.0964849378 	 6.38
291.1015703157 	 13.29
309.112135002 	 4.935
311.1277850662 	 6.295
320.1281194172 	 3.945
336.1230340393 	 7.245
337.1308590714 	 3.24
339.1226996883 	 4.4
352.1543341677 	 5.86
370.164898854 	 27.89
END IONS

BEGIN IONS
PEPMASS=211.054
CHARGE=1
MSLEVEL=2
RT=0
SOURCE_INSTRUMENT=qTOF
FILENAME=CCMSLIB00000078806.ms
IONMODE=Positive
ORGANISM=Natural
NAME=NCGC00160312-01!2-Pyridin-3-yl-thiazolidine-4-carboxylic acid
PI=GNPS
DATACOLLECTOR=GNPS
SMILES=c1cc(cnc1)C1N[C@@H](CS1)C(=O)O
INCHI=InChI=1S/C9H10N2O2S/c12-9(13)7-5-14-8(11-7)6-2-1-3-10-4-6/h1-4,7-8,11H,5H2,(H,12,13)/t7-,8?/m0/s1
FORMULA=C9H10N2O2S
PUBMED=N/A
SUBMITUSER=BIOADREM
LIBRARYQUALITY=0
SPECTRUMID=CCMSLIB00000078806
SCANS=1225
ID=CCMSLIB00000078806
108.0655191604 	 7.24
147.0526087504 	 9.9
164.0553484046 	 9.14
211.0560766861 	 16.38
END IONS

BEGIN IONS
PEPMASS=257.081
CHARGE=1
MSLEVEL=2
RT=0
SOURCE_INSTRUMENT=qTOF
FILENAME=CCMSLIB00000078807.ms
IONMODE=Positive
ORGANISM=Natural
NAME=NCGC00090504-04!2',4,4'-Trihydroxychalcone
PI=GNPS
DATACOLLECTOR=GNPS
SMILES=c1cc(ccc1/C=C/C(=O)c1ccc(cc1O)O)O
INCHI=InChI=1S/C15H12O4/c16-11-4-1-10(2-5-11)3-8-14(18)13-7-6-12(17)9-15(13)19/h1-9,16-17,19H/b8-3+
FORMULA=C15H12O4
PUBMED=N/A
SUBMITUSER=BIOADREM
LIBRARYQUALITY=0
SPECTRUMID=CCMSLIB00000078807
SCANS=1226
ID=CCMSLIB00000078807
101.0385761284 	 2.09
109.0284053726 	 5.02
119.0491408147 	 23.43
137.0233199947 	 100
139.0542261926 	 2.44
147.0440554368 	 30.45
168.0569658468 	 3.83
183.0804409431 	 7.31
257.0808348736 	 0
END IONS

BEGIN IONS
PEPMASS=396.1435
CHARGE=1
MSLEVEL=2
RT=0
SOURCE_INSTRUMENT=qTOF
FILENAME=CCMSLIB00000078808.ms
IONMODE=Positive
ORGANISM=Natural
NAME=NCGC00160257-01!3-(6,7-Dimethoxy-isoquinolin-1-yl)-3-(3,4-dimethoxy-phenyl)-acrylic acid
PI=GNPS
DATACOLLECTOR=GNPS
SMILES=COc1ccc(cc1OC)/C(=C\C(=O)O)/c1c2cc(c(cc2ccn1)OC)OC
INCHI=InChI=1S/C22H21NO6/c1-26-17-6-5-13(9-18(17)27-2)16(12-21(24)25)22-15-11-20(29-4)19(28-3)10-14(15)7-8-23-22/h5-12H,1-4H3,(H,24,25)/b16-12+
FORMULA=C22H21NO6
PUBMED=N/A
SUBMITUSER=BIOADREM
LIBRARYQUALITY=0
SPECTRUMID=CCMSLIB00000078808
SCANS=1227
ID=CCMSLIB00000078808
210.0549544741 	 1.98
233.0835149483 	 4.67
234.0913399804 	 4.66
246.0913399804 	 4.76
248.0706045383 	 2.87
261.0784295704 	 5.73
262.0862546025 	 12.5
263.0913995599 	 3.59
264.1019046667 	 4.39
273.0784295704 	 4.26
274.0862546025 	 6.09
275.0913995599 	 4.13
276.1019046667 	 3.73
277.0733441925 	 3.04
277.1097296988 	 3.68
289.0733441925 	 2.65
289.1070496241 	 1.89
290.0811692246 	 29.38
290.1148746562 	 6.4
291.0889942567 	 15.34
292.0968192888 	 14.87
302.0811692246 	 7.78
304.0968192888 	 10.1
305.0682588146 	 5.38
305.1046443209 	 8.25
306.112469353 	 40.77
307.1176143104 	 7.47
317.1046443209 	 3.88
318.0760838467 	 16.69
319.0839088788 	 18.24
320.0917339109 	 37.18
322.1073839751 	 1.9
333.099558943 	 5.71
334.1073839751 	 100
335.1152090072 	 26.78
347.0788235009 	 5.54
348.086648533 	 12.24
350.1386841035 	 18.71
362.1022985972 	 44.71
363.1101236293 	 35.31
378.1335987256 	 96.46
396.1441634119 	 3.59
END IONS

BEGIN IONS
PEPMASS=309.1584
CHARGE=1
MSLEVEL=2
RT=0
SOURCE_INSTRUMENT=qTOF
FILENAME=CCMSLIB00000078809.ms
IONMODE=Positive
ORGANISM=Natural
NAME=NCGC00160220-01!VINCANIDINE
PI=GNPS
DATACOLLECTOR=GNPS
SMILES=C/C=C\1/CN2CC[C@@]34c5cccc(c5NC4=C(C=O)[C@@H]1C[C@H]23)O
INCHI=InChI=1S/C19H20N2O2/c1-2-11-9-21-7-6-19-14-4-3-5-15(23)17(14)20-18(19)13(10-22)12(11)8-16(19)21/h2-5,10,12,16,20,23H,6-9H2,1H3/b11-2-/t12-,16+,19-/m1/s1
FORMULA=C19H20N2O2
PUBMED=N/A
SUBMITUSER=BIOADREM
LIBRARYQUALITY=0
SPECTRUMID=CCMSLIB00000078809
SCANS=1228
ID=CCMSLIB00000078809
134.060039852 	 21.46
146.060039852 	 59.56
154.0651252299 	 17.96
160.0756899162 	 36.94
166.0651252299 	 25.28
170.060039852 	 34.1
174.0913399804 	 24.79
183.0678648841 	 71
184.0756899162 	 100
187.0865889535 	 33.22
196.0756899162 	 83.02
199.0627795062 	 34.19
202.0862546025 	 29.8
207.0678648841 	 25.99
208.0756899162 	 37.61
209.0835149483 	 34.55
210.0913399804 	 64.61
215.0815035756 	 55.65
220.0756899162 	 35.65
221.0835149483 	 63.68
222.0913399804 	 54.32
225.1022390177 	 25.99
234.0913399804 	 40.18
236.1069900446 	 75.7
238.1226401088 	 81.33
246.0913399804 	 18.94
251.1178890819 	 28.12
252.138290173 	 32.37
253.1335391461 	 16.81
254.1175547309 	 17.65
265.1335391461 	 17.21
266.1175547309 	 43.33
279.1491892103 	 16.54
280.1332047951 	 21.91
281.1648392745 	 23.81
291.1491892103 	 22.26
309.1597538966 	 158.85
END IONS

BEGIN IONS
PEPMASS=489.2146
CHARGE=1
MSLEVEL=2
RT=0
SOURCE_INSTRUMENT=qTOF
FILENAME=CCMSLIB00000078810.ms
IONMODE=Positive
ORGANISM=Natural
NAME=NCGC00160317-01!8-(3,4-Dimethoxy-phenyl)-2,3,10,11-tetramethoxy-5,6,13a-tridehydro-berbinium
PI=GNPS
DATACOLLECTOR=GNPS
SMILES=COc1ccc(cc1OC)C1c2cc(c(cc2Cc2c3cc(c(cc3cc[n+]12)OC)OC)OC)OC
INCHI=InChI=1S/C29H30NO6/c1-31-23-8-7-18(13-24(23)32-2)29-21-16-28(36-6)26(34-4)14-19(21)11-22-20-15-27(35-5)25(33-3)12-17(20)9-10-30(22)29/h7-10,12-16,29H,11H2,1-6H3/q+1
FORMULA=C29H30NO6+
PUBMED=N/A
SUBMITUSER=BIOADREM
LIBRARYQUALITY=0
SPECTRUMID=CCMSLIB00000078810
SCANS=1229
ID=CCMSLIB00000078810
277.1097296988 	 2.91
278.0811692246 	 2.57
278.1175547309 	 2.7
290.0811692246 	 2.82
291.0889942567 	 2.69
292.0968192888 	 2.48
293.1046443209 	 3.7
294.112469353 	 6.99
305.1046443209 	 2.09
306.112469353 	 22.49
307.1202943851 	 11.76
308.0917339109 	 2.45
318.0760838467 	 2.24
320.0917339109 	 2.33
321.099558943 	 2.32
322.1073839751 	 38.71
323.1152090072 	 12.28
334.1073839751 	 57.26
335.1152090072 	 24.7
337.1308590714 	 2.16
338.1386841035 	 27.05
350.1386841035 	 64.83
398.1386841035 	 3.07
399.1465091356 	 2.29
414.1335987256 	 2.76
414.1699842319 	 2.79
426.1335987256 	 3.26
428.1492487898 	 5.13
429.1570738219 	 2.96
430.164898854 	 3.11
442.164898854 	 4.77
444.1805489182 	 11.71
456.1441634119 	 5.52
458.1598134761 	 18.95
472.1754635403 	 40.97
488.2067636687 	 100
489.2145887008 	 0
END IONS

BEGIN IONS
PEPMASS=393.134
CHARGE=1
MSLEVEL=2
RT=0
SOURCE_INSTRUMENT=qTOF
FILENAME=CCMSLIB00000078811.ms
IONMODE=Positive
ORGANISM=Natural
NAME=NCGC00160327-01!5,9-Dimethyl-3-(3-methoxyphenyl)-psolen-6-yl propionic acid
PI=GNPS
DATACOLLECTOR=GNPS
SMILES=Cc1c(CCC(=O)O)c(=O)oc2c(C)c3c(cc12)c(co3)c1cccc(c1)OC
INCHI=InChI=1S/C23H20O6/c1-12-16(7-8-20(24)25)23(26)29-22-13(2)21-18(10-17(12)22)19(11-28-21)14-5-4-6-15(9-14)27-3/h4-6,9-11H,7-8H2,1-3H3,(H,24,25)
FORMULA=C23H20O6
PUBMED=N/A
SUBMITUSER=BIOADREM
LIBRARYQUALITY=0
SPECTRUMID=CCMSLIB00000078811
SCANS=1230
ID=CCMSLIB00000078811
202.0777012889 	 1.09
203.085526321 	 2.05
215.085526321 	 2.16
216.0933513531 	 1.26
217.1011763852 	 1.56
219.0804409431 	 1.79
228.0933513531 	 0.9
230.1090014173 	 0.83
231.0804409431 	 6.01
234.1039160394 	 4.58
244.0882659752 	 0.63
245.0960910073 	 2.67
246.1039160394 	 5.49
247.0753555652 	 1.65
248.1195661036 	 0.71
249.1273911357 	 2.02
259.1117410715 	 0.95
261.0910056294 	 1.4
261.1273911357 	 1.11
262.0988306615 	 16.39
274.0988306615 	 1.5
276.1144807257 	 2.49
277.1223057578 	 4.27
289.1223057578 	 3.51
290.0937452836 	 14.24
291.137955822 	 0.89
304.1093953478 	 3.23
305.1172203799 	 43.62
319.1328704441 	 1.9
333.112135002 	 100
347.1277850662 	 15.15
375.1226996883 	 0.83
393.1332643746 	 0
END IONS

BEGIN IONS
PEPMASS=384.1809
CHARGE=1
MSLEVEL=2
RT=0
SOURCE_INSTRUMENT=qTOF
FILENAME=CCMSLIB00000078812.ms
IONMODE=Positive
ORGANISM=Natural
NAME=NCGC00160170-01!6,7-Dimethoxy-1-[2-(2,3,4-trimethoxy-phenyl)-vinyl]-3,4-dihydro-isoquinoline
PI=GNPS
DATACOLLECTOR=GNPS
SMILES=COc1ccc(/C=C/C2=NCCc3cc(c(cc23)OC)OC)c(c1OC)OC
INCHI=InChI=1S/C22H25NO5/c1-24-18-9-7-14(21(27-4)22(18)28-5)6-8-17-16-13-20(26-3)19(25-2)12-15(16)10-11-23-17/h6-9,12-13H,10-11H2,1-5H3/b8-6+
FORMULA=C22H25NO5
PUBMED=N/A
SUBMITUSER=BIOADREM
LIBRARYQUALITY=0
SPECTRUMID=CCMSLIB00000078812
SCANS=1231
ID=CCMSLIB00000078812
214.0862546025 	 6.54
226.0862546025 	 8.59
242.1175547309 	 7.19
250.1226401088 	 7.96
252.1019046667 	 8.75
262.1226401088 	 9.72
264.1019046667 	 8.86
264.138290173 	 7.14
266.1175547309 	 7.71
267.125379763 	 6.89
268.0968192888 	 8.19
276.138290173 	 7.52
278.1175547309 	 31.28
279.125379763 	 16.66
280.0968192888 	 11.01
280.1332047951 	 13.51
282.112469353 	 11.95
292.0968192888 	 7.52
292.1332047951 	 21.67
294.112469353 	 17.77
294.1488548593 	 23.44
295.1202943851 	 13.95
296.1281194172 	 19.69
298.1437694814 	 14.99
306.112469353 	 23.93
307.1202943851 	 12.13
308.1281194172 	 36.64
310.1073839751 	 20.21
311.1152090072 	 9.69
322.1437694814 	 88.9
324.1230340393 	 23.5
325.1308590714 	 15.87
326.1386841035 	 41.54
336.1230340393 	 9.16
338.1022985972 	 21.1
338.1386841035 	 59.76
339.1101236293 	 10.04
340.1179486614 	 10.18
340.1543341677 	 25.92
350.1386841035 	 63.17
352.1179486614 	 8.73
354.1335987256 	 100
368.1492487898 	 86.15
369.1570738219 	 33.14
384.1805489182 	 155.27
END IONS

BEGIN IONS
PEPMASS=253.0965
CHARGE=1
MSLEVEL=2
RT=0
SOURCE_INSTRUMENT=qTOF
FILENAME=CCMSLIB00000078813.ms
IONMODE=Positive
ORGANISM=Natural
NAME=NCGC00160219-01!METHYLHALFORDINOL
PI=GNPS
DATACOLLECTOR=GNPS
SMILES=COc1ccc(cc1)c1cnc(c2cccnc2)o1
INCHI=InChI=1S/C15H12N2O2/c1-18-13-6-4-11(5-7-13)14-10-17-15(19-14)12-3-2-8-16-9-12/h2-10H,1H3
FORMULA=C15H12N2O2
PUBMED=N/A
SUBMITUSER=BIOADREM
LIBRARYQUALITY=0
SPECTRUMID=CCMSLIB00000078813
SCANS=1232
ID=CCMSLIB00000078813
106.0287397236 	 1.42
132.0443897878 	 1.54
154.0651252299 	 4.3
155.072950262 	 3.39
166.0651252299 	 0.82
167.072950262 	 0.83
181.0760242672 	 5.54
182.0838492993 	 5.73
183.0678648841 	 0.79
192.0681992351 	 0.83
193.0760242672 	 1.94
195.0678648841 	 0.49
209.0709388893 	 1.85
210.0787639214 	 100
221.0709388893 	 0.33
225.1022390177 	 3.7
238.0736785435 	 75.33
253.0971536398 	 47.75
END IONS

BEGIN IONS
PEPMASS=355.1545
CHARGE=1
MSLEVEL=2
RT=0
SOURCE_INSTRUMENT=qTOF
FILENAME=CCMSLIB00000078814.ms
IONMODE=Positive
ORGANISM=Natural
NAME=NCGC00160265-01!1,5-Bis-(2,4-dimethoxy-phenyl)-penta-1,4-dien-3-one
PI=GNPS
DATACOLLECTOR=GNPS
SMILES=COc1ccc(/C=C/C(=O)/C=C/c2ccc(cc2OC)OC)c(c1)OC
INCHI=InChI=1S/C21H22O5/c1-23-18-11-7-15(20(13-18)25-3)5-9-17(22)10-6-16-8-12-19(24-2)14-21(16)26-4/h5-14H,1-4H3/b9-5+,10-6+
FORMULA=C21H22O5
PUBMED=N/A
SUBMITUSER=BIOADREM
LIBRARYQUALITY=0
SPECTRUMID=CCMSLIB00000078814
SCANS=1233
ID=CCMSLIB00000078814
103.0542261926 	 14.25
105.0334907505 	 4.58
105.0698762568 	 7.74
121.0647908789 	 10.54
133.0284053726 	 39.29
135.0804409431 	 17.95
137.059705501 	 12.66
139.0753555652 	 3.45
143.0491408147 	 3.17
147.0440554368 	 2.77
148.0518804689 	 100
158.072615911 	 5.85
161.059705501 	 7.35
163.0753555652 	 8.96
167.0702701873 	 2.6
173.059705501 	 2.43
174.0675305331 	 15.12
176.046795091 	 69.56
189.0910056294 	 11.79
191.0702701873 	 83.24
239.1066556936 	 3
267.1015703157 	 11.14
282.125045412 	 4.61
355.1539998167 	 1.1
END IONS

BEGIN IONS
PEPMASS=443.1683
CHARGE=1
MSLEVEL=2
RT=0
SOURCE_INSTRUMENT=qTOF
FILENAME=CCMSLIB00000078815.ms
IONMODE=Positive
ORGANISM=Natural
NAME=NCGC00160206-01!PEUARENARINE
PI=GNPS
DATACOLLECTOR=GNPS
SMILES=C/C=C(\C)/C(=O)OC1C(c2cc3ccc(=O)oc3cc2OC1(C)C)OC(=O)C1(C)C(C)O1
INCHI=InChI=1S/C24H26O8/c1-7-12(2)21(26)30-20-19(29-22(27)24(6)13(3)31-24)15-10-14-8-9-18(25)28-16(14)11-17(15)32-23(20,4)5/h7-11,13,19-20H,1-6H3/b12-7+
FORMULA=C24H26O8
PUBMED=N/A
SUBMITUSER=BIOADREM
LIBRARYQUALITY=0
SPECTRUMID=CCMSLIB00000078815
SCANS=1234
ID=CCMSLIB00000078815
107.0491408147 	 2.64
129.0698762568 	 3.1
131.0491408147 	 2.65
143.085526321 	 6.85
147.0440554368 	 6.48
155.085526321 	 1.99
161.0960910073 	 1.96
171.0804409431 	 8.25
175.0389700589 	 7.04
176.046795091 	 24.59
183.0804409431 	 5.84
185.059705501 	 17.01
187.0389700589 	 11.51
189.0182346168 	 21.84
199.0753555652 	 7.74
202.0624451552 	 2.16
203.033884681 	 3.13
205.0495347452 	 3.17
211.0753555652 	 4.31
213.0546201231 	 26.99
217.0859202515 	 60.3
227.0702701873 	 55.87
228.0780952194 	 28.71
229.0859202515 	 35.06
230.0573597773 	 2.33
245.0808348736 	 100
443.1700438114 	 2.42
END IONS

BEGIN IONS
PEPMASS=265.1896
CHARGE=1
MSLEVEL=2
RT=0
SOURCE_INSTRUMENT=qTOF
FILENAME=CCMSLIB00000078816.ms
IONMODE=Positive
ORGANISM=Natural
NAME=NCGC00160338-01!ALLOMATRINE 1N-OXIDE
PI=GNPS
DATACOLLECTOR=GNPS
SMILES=C1C[C@@H]2[C@@H]3CCCN4(=O)CCC[C@H](CN2C(=O)C1)[C@H]34
INCHI=InChI=1S/C15H24N2O2/c18-14-7-1-6-13-12-5-3-9-17(19)8-2-4-11(15(12)17)10-16(13)14/h11-13,15H,1-10H2/t11-,12+,13-,15-,17-/m1/s1
FORMULA=C15H24N2O2
PUBMED=N/A
SUBMITUSER=BIOADREM
LIBRARYQUALITY=0
SPECTRUMID=CCMSLIB00000078816
SCANS=1235
ID=CCMSLIB00000078816
120.0807752941 	 16.1
133.0886003262 	 22.73
135.0916743314 	 16.86
136.1120754225 	 53.22
150.1277254867 	 71.97
161.0835149483 	 15.15
162.1277254867 	 17.8
163.1229744598 	 12.69
164.1069900446 	 12.69
164.1307994919 	 12.5
175.1355505188 	 10.61
176.1069900446 	 24.05
190.1226401088 	 9.47
205.1335391461 	 69.7
207.1855747166 	 9.28
219.1491892103 	 20.64
247.1804893387 	 100
265.191054025 	 157.01
END IONS

BEGIN IONS
PEPMASS=392.185
CHARGE=1
MSLEVEL=2
RT=0
SOURCE_INSTRUMENT=qTOF
FILENAME=CCMSLIB00000078817.ms
IONMODE=Positive
ORGANISM=Natural
NAME=NCGC00160310-01!1-(4-Methoxy-6-methyl-5,6,7,8-tetrahydro-[1,3]dioxolo[4,5-g]isoquinolin-9-yl)-4-methyl-5-phenyl-penta-2,4-dien-1-one
PI=GNPS
DATACOLLECTOR=GNPS
SMILES=C/C(=C\c1ccccc1)/C=C/C(=O)c1c2CCN(C)Cc2c(c2c1OCO2)OC
INCHI=InChI=1S/C24H25NO4/c1-16(13-17-7-5-4-6-8-17)9-10-20(26)21-18-11-12-25(2)14-19(18)22(27-3)24-23(21)28-15-29-24/h4-10,13H,11-12,14-15H2,1-3H3/b10-9+,16-13+
FORMULA=C24H25NO4
PUBMED=N/A
SUBMITUSER=BIOADREM
LIBRARYQUALITY=0
SPECTRUMID=CCMSLIB00000078817
SCANS=1236
ID=CCMSLIB00000078817
105.0698762568 	 10
115.0542261926 	 10.47
128.0620512247 	 76.82
129.0698762568 	 53.51
131.085526321 	 7.69
141.0698762568 	 11.07
142.0777012889 	 8.01
143.085526321 	 34.46
145.0647908789 	 11.65
157.0647908789 	 14.02
169.0647908789 	 7.9
171.0804409431 	 59
173.059705501 	 9.17
179.0702701873 	 10.31
185.059705501 	 16.56
187.0753555652 	 9.54
189.0546201231 	 10.3
191.0702701873 	 11.64
199.0753555652 	 8.35
202.0624451552 	 8.09
203.0702701873 	 13.77
205.0495347452 	 49.39
207.0651848094 	 8.12
213.0546201231 	 11.05
215.0702701873 	 62.01
219.0651848094 	 9.74
227.0702701873 	 8.64
231.0651848094 	 12.29
232.0730098415 	 9.8
243.0651848094 	 78.93
258.0886599057 	 82.64
273.0910056294 	 9.64
286.0988306615 	 14.48
301.0859202515 	 8.2
303.1015703157 	 10.5
316.1093953478 	 7.56
319.0964849378 	 9.26
321.1485205083 	 8.54
331.1328704441 	 16.42
334.1199600341 	 9.19
349.1434351304 	 100
361.1434351304 	 31.25
392.1856342961 	 5.98
END IONS

BEGIN IONS
PEPMASS=310.1434
CHARGE=1
MSLEVEL=2
RT=0
SOURCE_INSTRUMENT=qTOF
FILENAME=CCMSLIB00000078818.ms
IONMODE=Positive
ORGANISM=Natural
NAME=NCGC00160201-01!6-[1-(6,6-Dimethyl-3-oxo-bicyclo[3.1.0]hex-2-ylidene)-ethylamino]-chromen-2-one
PI=GNPS
DATACOLLECTOR=GNPS
SMILES=C/C(=C\1/C(=O)C[C@@H]2[C@@H]1C2(C)C)/Nc1ccc2c(ccc(=O)o2)c1
INCHI=InChI=1S/C19H19NO3/c1-10(17-14(21)9-13-18(17)19(13,2)3)20-12-5-6-15-11(8-12)4-7-16(22)23-15/h4-8,13,18,20H,9H2,1-3H3/b17-10+/t13-,18+/m1/s1
FORMULA=C19H19NO3
PUBMED=N/A
SUBMITUSER=BIOADREM
LIBRARYQUALITY=0
SPECTRUMID=CCMSLIB00000078818
SCANS=1237
ID=CCMSLIB00000078818
117.0334907505 	 21.18
130.0651252299 	 1.95
132.0443897878 	 6.45
133.0522148199 	 3.08
141.0698762568 	 2.25
144.0807752941 	 2.08
145.0284053726 	 4.87
156.0807752941 	 4.25
158.060039852 	 3.77
159.0440554368 	 2.22
160.0393044099 	 12.25
161.047129442 	 7.81
162.0549544741 	 7.67
168.0807752941 	 4.4
169.0647908789 	 2.52
172.0393044099 	 2.94
174.0549544741 	 3.11
184.0756899162 	 8.53
186.0549544741 	 100
188.0706045383 	 4.18
196.0756899162 	 7.23
198.0549544741 	 5.36
199.0627795062 	 5.6
200.0706045383 	 2.48
212.0706045383 	 61.97
214.0862546025 	 6.57
224.0706045383 	 22.6
225.0784295704 	 9.52
226.0862546025 	 5
238.0862546025 	 31.8
239.0940796346 	 14.09
240.0655191604 	 13.46
240.1019046667 	 28.74
252.0655191604 	 3.7
254.0811692246 	 2.99
266.0811692246 	 8.74
267.0889942567 	 20.78
280.0968192888 	 3.12
282.1488548593 	 5.83
292.1332047951 	 1.98
310.1437694814 	 18.46
END IONS

BEGIN IONS
PEPMASS=395.1489
CHARGE=1
MSLEVEL=2
RT=0
SOURCE_INSTRUMENT=qTOF
FILENAME=CCMSLIB00000078819.ms
IONMODE=Positive
ORGANISM=Natural
NAME=NCGC00160168-01!MACLUROXANTHONE
PI=GNPS
DATACOLLECTOR=GNPS
SMILES=C=CC(C)(C)c1c2c(C=CC(C)(C)O2)c(c2c(=O)c3ccc(c(c3oc12)O)O)O
INCHI=InChI=1S/C23H22O6/c1-6-22(2,3)15-19-12(9-10-23(4,5)29-19)17(26)14-16(25)11-7-8-13(24)18(27)20(11)28-21(14)15/h6-10,24,26-27H,1H2,2-5H3
FORMULA=C23H22O6
PUBMED=N/A
SUBMITUSER=BIOADREM
LIBRARYQUALITY=0
SPECTRUMID=CCMSLIB00000078819
SCANS=1238
ID=CCMSLIB00000078819
219.0804409431 	 4.07
241.0495347452 	 5.14
255.0651848094 	 4.82
257.0444493673 	 6.47
265.0859202515 	 6.81
269.0444493673 	 8.23
271.0600994315 	 4.13
273.0393639894 	 15.04
283.0600994315 	 13.86
285.0393639894 	 100
293.0808348736 	 25.93
294.0522743994 	 4.39
295.0600994315 	 8.44
297.0393639894 	 30.76
298.0471890215 	 7.82
299.0550140536 	 45.72
309.0757494957 	 12.59
310.0471890215 	 3.9
311.0550140536 	 31.66
313.0706641178 	 8.72
321.0757494957 	 49.96
323.0550140536 	 15.77
324.0628390857 	 15.29
325.0706641178 	 15.4
327.086314182 	 9.97
335.0913995599 	 17.33
337.0706641178 	 9.8
337.1070496241 	 5.39
338.0784891499 	 6.7
339.086314182 	 59.8
341.1019642462 	 38.58
347.0913995599 	 5
351.086314182 	 8.89
353.1019642462 	 55.08
365.1019642462 	 25.58
367.1176143104 	 6.04
377.1383497525 	 11.42
379.1176143104 	 4.7
380.1254393425 	 5.35
395.1489144388 	 121.81
END IONS

BEGIN IONS
PEPMASS=381.17
CHARGE=1
MSLEVEL=2
RT=0
SOURCE_INSTRUMENT=qTOF
FILENAME=CCMSLIB00000078820.ms
IONMODE=Positive
ORGANISM=Natural
NAME=NCGC00160241-01!2-oxo-8-phenylacetyl-1(10),3-guaiadien-12,6-olide
PI=GNPS
DATACOLLECTOR=GNPS
SMILES=CC1=CC(=O)C2=C(C)C[C@@H](C3[C@H](C)C(=O)O[C@@H]3C12)OC(=O)Cc1ccccc1
INCHI=InChI=1S/C23H24O5/c1-12-9-16(24)19-13(2)10-17(21-14(3)23(26)28-22(21)20(12)19)27-18(25)11-15-7-5-4-6-8-15/h4-9,14,17,20-22H,10-11H2,1-3H3/t14-,17-,20?,21?,22+/m0/s1
FORMULA=C23H24O5
PUBMED=N/A
SUBMITUSER=BIOADREM
LIBRARYQUALITY=0
SPECTRUMID=CCMSLIB00000078820
SCANS=1239
ID=CCMSLIB00000078820
105.0698762568 	 9.74
107.0491408147 	 6.33
107.085526321 	 7.42
119.085526321 	 28.45
128.0620512247 	 15.97
129.0698762568 	 14.24
131.085526321 	 14.42
133.0647908789 	 9.03
133.1011763852 	 9.2
135.0804409431 	 12.2
141.0698762568 	 11.21
142.0777012889 	 12.28
143.085526321 	 32.6
145.0647908789 	 8.75
145.1011763852 	 11.11
147.0804409431 	 30.31
147.1168264494 	 18.03
149.0960910073 	 10.04
155.085526321 	 5.16
156.0933513531 	 38.65
157.0647908789 	 15.03
157.1011763852 	 11.85
158.072615911 	 8.24
159.0804409431 	 11.47
160.0882659752 	 10.55
161.0960910073 	 22.63
161.1324765136 	 23.62
163.0753555652 	 9.66
165.0698762568 	 7.12
166.0777012889 	 9.43
171.0804409431 	 37.4
171.1168264494 	 28.73
172.0882659752 	 38.19
173.0960910073 	 12.74
174.1039160394 	 9.84
175.0753555652 	 12.74
175.1117410715 	 11.31
181.1011763852 	 12.13
183.0804409431 	 5.44
184.0882659752 	 40.27
189.0910056294 	 16.76
189.1273911357 	 40.07
199.1117410715 	 68.7
217.1223057578 	 44.67
227.1066556936 	 7.98
245.1172203799 	 100
381.1696498809 	 0
END IONS

BEGIN IONS
PEPMASS=309.16
CHARGE=1
MSLEVEL=2
RT=0
SOURCE_INSTRUMENT=qTOF
FILENAME=CCMSLIB00000078821.ms
IONMODE=Positive
ORGANISM=Natural
NAME=NCGC00160326-01!1H-(Indol-3-yl)-6,7-dimethoxy-1,2,3,4-tetrahydro-isoquinoline
PI=GNPS
DATACOLLECTOR=GNPS
SMILES=COc1cc2CCNC(c2cc1OC)c1c[nH]c2ccccc12
INCHI=InChI=1S/C19H20N2O2/c1-22-17-9-12-7-8-20-19(14(12)10-18(17)23-2)15-11-21-16-6-4-3-5-13(15)16/h3-6,9-11,19-21H,7-8H2,1-2H3
FORMULA=C19H20N2O2
PUBMED=N/A
SUBMITUSER=BIOADREM
LIBRARYQUALITY=0
SPECTRUMID=CCMSLIB00000078821
SCANS=1240
ID=CCMSLIB00000078821
103.0542261926 	 0.62
117.0573001978 	 1.23
118.0651252299 	 5.89
130.0651252299 	 12.78
131.0491408147 	 2.47
132.0569658468 	 1.83
133.0647908789 	 1.16
134.060039852 	 3.26
145.0522148199 	 1.51
146.060039852 	 90.89
148.0756899162 	 0.86
150.0675305331 	 0.65
159.0440554368 	 0.61
160.0756899162 	 11.44
161.0835149483 	 100
162.0549544741 	 4.94
175.0753555652 	 2.96
176.0706045383 	 2.28
177.0784295704 	 4.69
191.085526321 	 0.63
192.1019046667 	 13.74
206.0964253583 	 0.65
217.0886003262 	 2.51
218.0964253583 	 3.99
230.0964253583 	 2.01
234.0913399804 	 2.23
245.0835149483 	 1.31
246.0913399804 	 11.17
248.1069900446 	 2.67
260.1069900446 	 8.29
261.1148150767 	 9.2
262.0862546025 	 1.17
276.1019046667 	 5.44
277.1097296988 	 3.55
292.1332047951 	 3.01
309.1597538966 	 0
END IONS

BEGIN IONS
PEPMASS=365.1128
CHARGE=1
MSLEVEL=2
RT=0
SOURCE_INSTRUMENT=qTOF
FILENAME=CCMSLIB00000078822.ms
IONMODE=Positive
ORGANISM=Natural
NAME=NCGC00095986-02!10-HYDROXY-CAMPTOTHECIN
PI=GNPS
DATACOLLECTOR=GNPS
SMILES=CC[C@@]1(c2cc3c4c(cc5cc(ccc5n4)O)Cn3c(=O)c2COC1=O)O
INCHI=InChI=1S/C20H16N2O5/c1-2-20(26)14-7-16-17-11(5-10-6-12(23)3-4-15(10)21-17)8-22(16)18(24)13(14)9-27-19(20)25/h3-7,23,26H,2,8-9H2,1H3/t20-/m0/s1
FORMULA=C20H16N2O5
PUBMED=N/A
SUBMITUSER=BIOADREM
LIBRARYQUALITY=0
SPECTRUMID=CCMSLIB00000078822
SCANS=1241
ID=CCMSLIB00000078822
184.0631138572 	 21.37
196.0756899162 	 2
197.0709388893 	 6.36
211.0865889535 	 2.18
220.0756899162 	 5.72
221.0709388893 	 9.92
223.0865889535 	 2.87
235.0865889535 	 47.54
236.0944139856 	 51.12
237.1022390177 	 27.02
247.0865889535 	 2.13
249.1022390177 	 3.83
251.0815035756 	 5.22
252.0893286077 	 2.57
263.0815035756 	 6.39
263.1178890819 	 1.64
264.0893286077 	 21.52
265.0971536398 	 32.79
275.1178890819 	 8.38
277.0971536398 	 2.74
278.1049786719 	 5.66
279.0764181977 	 3.12
291.0764181977 	 1.74
291.112803704 	 4.68
293.1284537682 	 11.52
303.112803704 	 3.3
305.0920682619 	 2.23
308.0791578519 	 2.46
319.1077183261 	 4.55
321.1233683903 	 100
336.074072474 	 3.16
365.1131976345 	 15.34
END IONS

BEGIN IONS
PEPMASS=285.0757
CHARGE=1
MSLEVEL=2
RT=0
SOURCE_INSTRUMENT=qTOF
FILENAME=CCMSLIB00000078845.ms
IONMODE=Positive
ORGANISM=Natural
NAME=7-O-methyl_ galangin
PI=GNPS
DATACOLLECTOR=GNPS
SMILES=COc1cc(c2c(c1)oc(c1ccccc1)c(c2=O)O)O
INCHI=InChI=1S/C16H12O5/c1-20-10-7-11(17)13-12(8-10)21-16(15(19)14(13)18)9-5-3-2-4-6-9/h2-8,17,19H,1H3
FORMULA=C16H12O5
PUBMED=N/A
SUBMITUSER=BIOADREM
LIBRARYQUALITY=0
SPECTRUMID=CCMSLIB00000078845
SCANS=1242
ID=CCMSLIB00000078845
131.0491408147 	 2.37
285.0757494957 	 0
END IONS

BEGIN IONS
PEPMASS=171.028
CHARGE=1
MSLEVEL=2
RT=0
SOURCE_INSTRUMENT=qTOF
FILENAME=CCMSLIB00000078850.ms
IONMODE=Positive
ORGANISM=Natural
NAME=Gallic acid
PI=GNPS
DATACOLLECTOR=GNPS
SMILES=c1c(cc(c(c1O)O)O)C(=O)O
INCHI=InChI=1S/C7H6O5/c8-4-1-3(7(11)12)2-5(9)6(4)10/h1-2,8-10H,(H,11,12)
FORMULA=C7H6O5
PUBMED=N/A
SUBMITUSER=BIOADREM
LIBRARYQUALITY=0
SPECTRUMID=CCMSLIB00000078850
SCANS=1244
ID=CCMSLIB00000078850
125.0233199947 	 47.36
127.0389700589 	 14.31
135.0076699305 	 10.89
153.0182346168 	 100
171.0287993031 	 11.49
END IONS

BEGIN IONS
PEPMASS=251.1642
CHARGE=1
MSLEVEL=2
RT=0
SOURCE_INSTRUMENT=qTOF
FILENAME=CCMSLIB00000078851.ms
IONMODE=Positive
ORGANISM=Natural
NAME=Lychnopholic acid
PI=GNPS
DATACOLLECTOR=GNPS
SMILES=C=C1CCC=C(C[C@H]([C@H]2[C@H]1CC2(C)C)O)C(=O)O
INCHI=InChI=1S/C15H22O3/c1-9-5-4-6-10(14(17)18)7-12(16)13-11(9)8-15(13,2)3/h6,11-13,16H,1,4-5,7-8H2,2-3H3,(H,17,18)/b10-6+/t11-,12+,13+/m0/s1
FORMULA=C15H22O3
PUBMED=N/A
SUBMITUSER=BIOADREM
LIBRARYQUALITY=0
SPECTRUMID=CCMSLIB00000078851
SCANS=1245
ID=CCMSLIB00000078851
115.0542261926 	 1.91
119.085526321 	 17.92
120.0933513531 	 1.25
127.0753555652 	 1.35
129.0698762568 	 1.96
131.085526321 	 20.15
132.0933513531 	 1.45
133.1011763852 	 11.45
143.085526321 	 2.39
146.1090014173 	 2.75
158.1090014173 	 1.43
160.1246514815 	 2.45
162.1403015457 	 4.28
172.1246514815 	 2.08
188.1559516099 	 9.19
189.163776642 	 3.27
206.1665162962 	 3.99
251.1641705725 	 0
END IONS

BEGIN IONS
PEPMASS=361.09
CHARGE=1
MSLEVEL=2
RT=0
SOURCE_INSTRUMENT=qTOF
FILENAME=CCMSLIB00000078853.ms
IONMODE=Positive
ORGANISM=Natural
NAME=Rosmarinic acid
PI=GNPS
DATACOLLECTOR=GNPS
SMILES=c1cc(c(cc1/C=C/C(=O)OC(Cc1ccc(c(c1)O)O)C(=O)O)O)O
INCHI=InChI=1S/C18H16O8/c19-12-4-1-10(7-14(12)21)3-6-17(23)26-16(18(24)25)9-11-2-5-13(20)15(22)8-11/h1-8,16,19-22H,9H2,(H,24,25)/b6-3+
FORMULA=C18H16O8
PUBMED=N/A
SUBMITUSER=BIOADREM
LIBRARYQUALITY=0
SPECTRUMID=CCMSLIB00000078853
SCANS=1246
ID=CCMSLIB00000078853
117.0334907505 	 4.44
181.0495347452 	 0.73
186.0522743994 	 9.74
361.0917934904 	 0
END IONS

BEGIN IONS
PEPMASS=225.0757
CHARGE=1
MSLEVEL=2
RT=0
SOURCE_INSTRUMENT=qTOF
FILENAME=CCMSLIB00000078855.ms
IONMODE=Positive
ORGANISM=Natural
NAME=Sinapinic acid
PI=GNPS
DATACOLLECTOR=GNPS
SMILES=COc1cc(/C=C/C(=O)O)cc(c1O)OC
INCHI=InChI=1S/C11H12O5/c1-15-8-5-7(3-4-10(12)13)6-9(16-2)11(8)14/h3-6,14H,1-2H3,(H,12,13)/b4-3+
FORMULA=C11H12O5
PUBMED=N/A
SUBMITUSER=BIOADREM
LIBRARYQUALITY=0
SPECTRUMID=CCMSLIB00000078855
SCANS=1247
ID=CCMSLIB00000078855
117.0334907505 	 1.06
121.0284053726 	 2.7
170.0573597773 	 0.4
173.0233199947 	 1.94
188.0679244636 	 0.51
225.0757494957 	 0
END IONS

BEGIN IONS
PEPMASS=447.0922
CHARGE=1
MSLEVEL=2
RT=0
SOURCE_INSTRUMENT=qTOF
FILENAME=CCMSLIB00000078856.ms
IONMODE=Positive
ORGANISM=Natural
NAME=Baicalin
PI=GNPS
DATACOLLECTOR=GNPS
SMILES=c1ccc(cc1)c1cc(=O)c2c(cc(c(c2O)O)O[C@H]2[C@@H]([C@H]([C@@H]([C@@H](C(=O)O)O2)O)O)O)o1
INCHI=InChI=1S/C21H18O11/c22-9-6-10(8-4-2-1-3-5-8)30-11-7-12(14(23)15(24)13(9)11)31-21-18(27)16(25)17(26)19(32-21)20(28)29/h1-7,16-19,21,23-27H,(H,28,29)/t16-,17-,18+,19-,21+/m0/s1
FORMULA=C21H18O11
PUBMED=N/A
SUBMITUSER=BIOADREM
LIBRARYQUALITY=0
SPECTRUMID=CCMSLIB00000078856
SCANS=1248
ID=CCMSLIB00000078856
117.0334907505 	 0.84
123.0076699305 	 2.22
136.9869344884 	 11.2
141.0698762568 	 6.84
143.0491408147 	 4.32
151.0542261926 	 3.51
153.0698762568 	 0.88
157.0647908789 	 2.69
164.9818491105 	 1.9
167.0491408147 	 8.34
171.0440554368 	 10.88
184.0518804689 	 0.59
195.0440554368 	 17.09
225.0546201231 	 8.19
447.0921874209 	 0
END IONS

BEGIN IONS
PEPMASS=195.0877
CHARGE=1
MSLEVEL=2
RT=0
SOURCE_INSTRUMENT=qTOF
FILENAME=CCMSLIB00000078857.ms
IONMODE=Positive
ORGANISM=Natural
NAME=Caffeine
PI=GNPS
DATACOLLECTOR=GNPS
SMILES=Cn1cnc2c1c(=O)n(C)c(=O)n2C
INCHI=InChI=1S/C8H10N4O2/c1-10-4-9-6-5(10)7(13)12(3)8(14)11(6)2/h4H,1-3H3
FORMULA=C8H10N4O2
PUBMED=N/A
SUBMITUSER=BIOADREM
LIBRARYQUALITY=0
SPECTRUMID=CCMSLIB00000078857
SCANS=1249
ID=CCMSLIB00000078857
97.0396387609 	 9.96
109.0396387609 	 8.63
110.0712732403 	 30.97
122.0712732403 	 0.82
123.0427127661 	 32.74
123.0440554368 	 100
124.0505377982 	 4.22
136.0743472455 	 2.68
137.0583628303 	 5.42
138.0661878624 	 100
139.0740128945 	 3.89
165.0896629587 	 5.42
195.087651586 	 30.75
END IONS

BEGIN IONS
PEPMASS=439.16
CHARGE=1
MSLEVEL=2
RT=0
SOURCE_INSTRUMENT=qTOF
FILENAME=CCMSLIB00000078859.ms
IONMODE=Positive
ORGANISM=Natural
NAME=Glaucolide B
PI=GNPS
DATACOLLECTOR=GNPS
SMILES=CC(=O)OCC1=C2C(C[C@](C)(C(=O)CC[C@]3(C)[C@H]([C@H]2OC1=O)O3)OC(=O)C)OC(=O)C
INCHI=InChI=1S/C21H26O10/c1-10(22)27-9-13-16-14(28-11(2)23)8-21(5,30-12(3)24)15(25)6-7-20(4)18(31-20)17(16)29-19(13)26/h14,17-18H,6-9H2,1-5H3/t14?,17-,18-,20+,21+/m0/s1
FORMULA=C21H26O10
PUBMED=N/A
SUBMITUSER=BIOADREM
LIBRARYQUALITY=0
SPECTRUMID=CCMSLIB00000078859
SCANS=1251
ID=CCMSLIB00000078859
127.0753555652 	 3.63
133.0647908789 	 1.23
137.059705501 	 2.3
145.0647908789 	 1.38
155.0702701873 	 2.95
157.1011763852 	 1.26
161.059705501 	 4.46
165.0546201231 	 1.55
173.059705501 	 7.37
185.0960910073 	 4.92
189.0546201231 	 14.73
191.0702701873 	 1.43
203.1066556936 	 5.43
213.0910056294 	 11.79
231.1015703157 	 25.14
241.0859202515 	 10.15
249.112135002 	 14.4
291.1226996883 	 1.71
295.1176143104 	 12.27
301.1070496241 	 1.16
309.1332643746 	 47.29
319.1176143104 	 28.05
337.1281789967 	 56.5
355.138743683 	 3.9
379.138743683 	 49.4
397.1493083693 	 62.93
439.1598730556 	 10.58
END IONS

BEGIN IONS
PEPMASS=433.2221
CHARGE=1
MSLEVEL=2
RT=0
SOURCE_INSTRUMENT=qTOF
FILENAME=CCMSLIB00000078860.ms
IONMODE=Positive
ORGANISM=Natural
NAME=Grandisin
PI=GNPS
DATACOLLECTOR=GNPS
SMILES=C[C@H]1[C@H](C)[C@@H](c2cc(c(c(c2)OC)OC)OC)O[C@@H]1c1cc(c(c(c1)OC)OC)OC
INCHI=InChI=1S/C24H32O7/c1-13-14(2)22(16-11-19(27-5)24(30-8)20(12-16)28-6)31-21(13)15-9-17(25-3)23(29-7)18(10-15)26-4/h9-14,21-22H,1-8H3/t13-,14-,21-,22-/m0/s1
FORMULA=C24H32O7
PUBMED=N/A
SUBMITUSER=BIOADREM
LIBRARYQUALITY=0
SPECTRUMID=CCMSLIB00000078860
SCANS=1252
ID=CCMSLIB00000078860
352.1669102267 	 1.05
369.1696498809 	 0.76
433.2220793819 	 0
END IONS

BEGIN IONS
PEPMASS=421.2737
CHARGE=1
MSLEVEL=2
RT=0
SOURCE_INSTRUMENT=qTOF
FILENAME=CCMSLIB00000078862.ms
IONMODE=Positive
ORGANISM=Natural
NAME=Maytenin
PI=GNPS
DATACOLLECTOR=GNPS
SMILES=C[C@@H]1CC2[C@@](C)(CC[C@]3(C)C4=CC=C5C(=C(C(=O)C=C5[C@]4(C)CC[C@@]23C)O)C)CC1=O
INCHI=InChI=1S/C28H36O3/c1-16-13-23-25(3,15-21(16)30)9-11-27(5)22-8-7-18-17(2)24(31)20(29)14-19(18)26(22,4)10-12-28(23,27)6/h7-8,14,16,23,31H,9-13,15H2,1-6H3/t16-,23?,25+,26+,27-,28+/m1/s1
FORMULA=C28H36O3
PUBMED=N/A
SUBMITUSER=BIOADREM
LIBRARYQUALITY=0
SPECTRUMID=CCMSLIB00000078862
SCANS=1253
ID=CCMSLIB00000078862
163.1117410715 	 0.26
215.1066556936 	 14.07
219.1743413283 	 2.51
233.1899913925 	 3.15
241.1223057578 	 1.85
403.2631563356 	 1.24
421.2737210219 	 17.07
END IONS

BEGIN IONS
PEPMASS=423.0922
CHARGE=1
MSLEVEL=2
RT=0
SOURCE_INSTRUMENT=qTOF
FILENAME=CCMSLIB00000078863.ms
IONMODE=Positive
ORGANISM=Natural
NAME=Mangiferin
PI=GNPS
DATACOLLECTOR=GNPS
SMILES=c1c2c(cc(c1O)O)oc1cc(c(c(c1c2=O)O)[C@H]1[C@@H]([C@H]([C@@H]([C@@H](CO)O1)O)O)O)O
INCHI=InChI=1S/C19H18O11/c20-4-11-15(25)17(27)18(28)19(30-11)12-8(23)3-10-13(16(12)26)14(24)5-1-6(21)7(22)2-9(5)29-10/h1-3,11,15,17-23,25-28H,4H2/t11-,15-,17+,18-,19+/m1/s1
FORMULA=C19H18O11
PUBMED=N/A
SUBMITUSER=BIOADREM
LIBRARYQUALITY=0
SPECTRUMID=CCMSLIB00000078863
SCANS=1254
ID=CCMSLIB00000078863
261.0393639894 	 5.45
313.0706641178 	 7.67
423.0921874209 	 0
END IONS

BEGIN IONS
PEPMASS=305.0656
CHARGE=1
MSLEVEL=2
RT=0
SOURCE_INSTRUMENT=qTOF
FILENAME=CCMSLIB00000078866.ms
IONMODE=Positive
ORGANISM=Natural
NAME=Taxifolin
PI=GNPS
DATACOLLECTOR=GNPS
SMILES=c1cc(c(cc1[C@@H]1[C@H](C(=O)c2c(cc(cc2O1)O)O)O)O)O
INCHI=InChI=1S/C15H12O7/c16-7-4-10(19)12-11(5-7)22-15(14(21)13(12)20)6-1-2-8(17)9(18)3-6/h1-5,14-19,21H/t14-,15+/m0/s1
FORMULA=C15H12O7
PUBMED=N/A
SUBMITUSER=BIOADREM
LIBRARYQUALITY=0
SPECTRUMID=CCMSLIB00000078866
SCANS=1255
ID=CCMSLIB00000078866
107.0491408147 	 5.87323725399039
121.0284053726 	 2.33999690066636
123.0440554368 	 20.9205020920502
124.0518804689 	 3.20781032078103
125.0233199947 	 2.49496358282969
149.0233199947 	 23.4619556795289
150.0675305331 	 2.89787695645436
151.0389700589 	 3.20781032078103
152.046795091 	 6.53959398729273
153.0182346168 	 50.6586083991942
157.0647908789 	 1.47218348055168
159.0804409431 	 3.06834030683403
161.0233199947 	 6.6635673330234
167.033884681 	 7.54687742135441
173.059705501 	 2.37099023709902
178.0624451552 	 4.43204710987138
179.033884681 	 3.06834030683403
180.0417097131 	 6.58608399194173
185.059705501 	 8.67813420114675
190.0471890215 	 3.7037037037037
195.0651848094 	 100
202.0471890215 	 1.22423678909035
213.0546201231 	 11.1885944521928
231.0651848094 	 33.64326669766
241.0495347452 	 7.11297071129707
259.0600994315 	 44.7853711452038
287.0550140536 	 26.7627460096079
305.0655787399 	 18.3325584999225
END IONS

BEGIN IONS
PEPMASS=593.1865
CHARGE=1
MSLEVEL=2
RT=0
SOURCE_INSTRUMENT=qTOF
FILENAME=CCMSLIB00000078867.ms
IONMODE=Positive
ORGANISM=Natural
NAME=2-O-rhamnosyl-swertisin
PI=GNPS
DATACOLLECTOR=GNPS
SMILES=C[C@@H]1[C@H]([C@@H]([C@@H]([C@@H](O1)O[C@@H]1[C@H]([C@@H]([C@@H](CO)O[C@H]1c1c(cc2c(c(=O)cc(c3ccc(cc3)O)o2)c1O)OC)O)O)O)O)O
INCHI=InChI=1S/C28H32O14/c1-10-20(32)23(35)25(37)28(39-10)42-27-24(36)21(33)17(9-29)41-26(27)19-15(38-2)8-16-18(22(19)34)13(31)7-14(40-16)11-3-5-12(30)6-4-11/h3-8,10,17,20-21,23-30,32-37H,9H2,1-2H3/t10-,17-,20-,21-,23+,24+,25+,26+,27-,28+/m1/s1
FORMULA=C28H32O14
PUBMED=N/A
SUBMITUSER=BIOADREM
LIBRARYQUALITY=0
SPECTRUMID=CCMSLIB00000078867
SCANS=1256
ID=CCMSLIB00000078867
285.0698762568 	 2.45
297.0698762568 	 23.3
308.0620512247 	 0.52
309.0663666009 	 0.77
323.085526321 	 3.2
337.0976667293 	 1.93
351.0769312872 	 48.15
363.0804409431 	 2.2
365.0925813514 	 1.06
381.0910056294 	 33.62
447.1133167935 	 40.96
455.1184021714 	 0.72
473.1289668577 	 2
593.1864817366 	 0
END IONS

BEGIN IONS
PEPMASS=317.0653
CHARGE=1
MSLEVEL=2
RT=0
SOURCE_INSTRUMENT=qTOF
FILENAME=CCMSLIB00000078868.ms
IONMODE=Positive
ORGANISM=Natural
NAME=3-O-methylquercetin
PI=GNPS
DATACOLLECTOR=GNPS
SMILES=COc1c(=O)c2c(cc(cc2oc1c1ccc(c(c1)O)O)O)O
INCHI=InChI=1S/C16H12O7/c1-22-16-14(21)13-11(20)5-8(17)6-12(13)23-15(16)7-2-3-9(18)10(19)4-7/h2-6,17-20H,1H3
FORMULA=C16H12O7
PUBMED=N/A
SUBMITUSER=BIOADREM
LIBRARYQUALITY=0
SPECTRUMID=CCMSLIB00000078868
SCANS=1257
ID=CCMSLIB00000078868
109.0284053726 	 1.665
110.0362304047 	 2.425
136.0154949626 	 2.315
137.0233199947 	 15.86
138.0311450268 	 1.52
144.0569658468 	 0.355
150.0311450268 	 0.725
153.0182346168 	 9.765
165.0182346168 	 0.595
166.0260596489 	 0.595
171.0440554368 	 0.435
172.0518804689 	 0.545
176.046795091 	 0.38
186.0311450268 	 0.35
187.0389700589 	 1.885
189.0546201231 	 0.395
192.0417097131 	 0.55
193.0131492389 	 4.285
200.046795091 	 8.965
202.0624451552 	 1.84
203.033884681 	 1.205
204.0417097131 	 2.205
205.0495347452 	 0.53
217.0495347452 	 1.955
218.0573597773 	 1.235
227.033884681 	 3.285
228.0417097131 	 14.425
229.0495347452 	 8.59
231.0287993031 	 0.7
232.0366243352 	 0.31
245.0444493673 	 7.645
246.0522743994 	 1.525
255.0287993031 	 0.44
256.0366243352 	 2.28
257.0444493673 	 10.395
273.0393639894 	 4.08
274.0471890215 	 34.32
285.0393639894 	 10.785
301.0342786115 	 70.25
302.0421036436 	 100
303.0499286757 	 8.115
317.0655787399 	 10.135
END IONS

BEGIN IONS
PEPMASS=271.0601
CHARGE=1
MSLEVEL=2
RT=0
SOURCE_INSTRUMENT=qTOF
FILENAME=CCMSLIB00000078869.ms
IONMODE=Positive
ORGANISM=Natural
NAME=Apigenin
PI=GNPS
DATACOLLECTOR=GNPS
SMILES=c1cc(ccc1c1cc(=O)c2c(cc(cc2o1)O)O)O
INCHI=InChI=1S/C15H10O5/c16-9-3-1-8(2-4-9)13-7-12(19)15-11(18)5-10(17)6-14(15)20-13/h1-7,16-18H
FORMULA=C15H10O5
PUBMED=N/A
SUBMITUSER=BIOADREM
LIBRARYQUALITY=0
SPECTRUMID=CCMSLIB00000078869
SCANS=1258
ID=CCMSLIB00000078869
91.0542261926 	 2.03675523820672
97.0284053726 	 1.17054898747513
119.0491408147 	 17.4997073627531
121.0284053726 	 11.2606812595107
127.0542261926 	 1.20176362714113
135.0229260642 	 0.269226267119279
139.0542261926 	 1.82215459050295
141.0698762568 	 3.2580280151391
145.0284053726 	 11.2255647898865
147.0440554368 	 1.75192165125444
153.0182346168 	 39.0182995825042
155.0491408147 	 2.07187170783097
157.0647908789 	 2.43864372390651
163.0389700589 	 2.87174684927231
169.0647908789 	 2.54009130282102
215.0702701873 	 1.53732100355067
225.0546201231 	 2.89125599906356
243.0651848094 	 2.27086503570174
253.0495347452 	 2.337196144992
271.0600994315 	 100
END IONS

BEGIN IONS
PEPMASS=271.0601
CHARGE=1
MSLEVEL=2
RT=0
SOURCE_INSTRUMENT=qTOF
FILENAME=CCMSLIB00000078872.ms
IONMODE=Positive
ORGANISM=Natural
NAME=Baicalein
PI=GNPS
DATACOLLECTOR=GNPS
SMILES=c1ccc(cc1)c1cc(=O)c2c(cc(c(c2O)O)O)o1
INCHI=InChI=1S/C15H10O5/c16-9-6-11(8-4-2-1-3-5-8)20-12-7-10(17)14(18)15(19)13(9)12/h1-7,17-19H
FORMULA=C15H10O5
PUBMED=N/A
SUBMITUSER=BIOADREM
LIBRARYQUALITY=0
SPECTRUMID=CCMSLIB00000078872
SCANS=1259
ID=CCMSLIB00000078872
95.0127553084 	 8.05710306406685
103.0542261926 	 8.12674094707521
113.0233199947 	 1.95682451253482
115.0542261926 	 6.91504178272981
119.0491408147 	 0.68941504178273
123.0076699305 	 69.6378830083566
127.0542261926 	 2.67409470752089
131.0491408147 	 3.31476323119777
139.0542261926 	 3.27994428969359
141.0182346168 	 4.17130919220056
141.0698762568 	 6.91504178272981
151.0025845526 	 6.12813370473538
153.0334907505 	 2.74373259052925
155.0491408147 	 3.06406685236769
169.0131492389 	 11.5459610027855
179.0491408147 	 8.37743732590529
197.059705501 	 1.78272980501393
207.0440554368 	 2.42339832869081
225.0546201231 	 2.63927576601671
253.0495347452 	 19.1364902506964
271.0600994315 	 100
END IONS

BEGIN IONS
PEPMASS=271.0601
CHARGE=1
MSLEVEL=2
RT=0
SOURCE_INSTRUMENT=qTOF
FILENAME=CCMSLIB00000078874.ms
IONMODE=Positive
ORGANISM=Natural
NAME=Galangin
PI=GNPS
DATACOLLECTOR=GNPS
SMILES=c1ccc(cc1)c1c(c(=O)c2c(cc(cc2o1)O)O)O
INCHI=InChI=1S/C15H10O5/c16-9-6-10(17)12-11(7-9)20-15(14(19)13(12)18)8-4-2-1-3-5-8/h1-7,16-17,19H
FORMULA=C15H10O5
PUBMED=N/A
SUBMITUSER=BIOADREM
LIBRARYQUALITY=0
SPECTRUMID=CCMSLIB00000078874
SCANS=1260
ID=CCMSLIB00000078874
103.0542261926 	 2.33292231812577
105.0334907505 	 14.327990135635
107.0491408147 	 1.07521578298397
109.0284053726 	 1.50431565967941
111.0076699305 	 1.13933415536375
115.0542261926 	 7.15166461159063
117.0698762568 	 1.65228113440197
127.0542261926 	 1.71639950678175
129.0698762568 	 2.23921085080148
131.0491408147 	 2.6288532675709
137.0233199947 	 5.36621454993835
138.0311450268 	 1.19358816276202
141.0698762568 	 16.8532675709001
145.0647908789 	 2.88532675709001
150.0311450268 	 0.517879161528977
152.0620512247 	 3.47718865598027
153.0182346168 	 49.3218249075216
155.0491408147 	 3.90135635018496
159.0440554368 	 1.54377311960543
165.0182346168 	 10.1553637484587
166.0260596489 	 2.45622688039458
169.0647908789 	 6.19975339087546
173.059705501 	 1.50431565967941
179.0491408147 	 3.05302096177559
196.0518804689 	 1.36621454993835
197.059705501 	 9.64734895191122
200.046795091 	 2.53514180024661
213.0546201231 	 4.46855733662145
215.0702701873 	 5.99753390875462
224.046795091 	 1.08508014796547
226.0624451552 	 1.27250308261406
229.0495347452 	 2.30826140567201
243.0651848094 	 2.06658446362515
253.0495347452 	 1.08508014796547
271.0600994315 	 100
END IONS

BEGIN IONS
PEPMASS=303.0863
CHARGE=1
MSLEVEL=2
RT=0
SOURCE_INSTRUMENT=qTOF
FILENAME=CCMSLIB00000078875.ms
IONMODE=Positive
ORGANISM=Natural
NAME=Hesperetin
PI=GNPS
DATACOLLECTOR=GNPS
SMILES=COc1ccc(cc1O)C1CC(=O)c2c(cc(cc2O1)O)O
INCHI=InChI=1S/C16H14O6/c1-21-13-3-2-8(4-10(13)18)14-7-12(20)16-11(19)5-9(17)6-15(16)22-14/h2-6,14,17-19H,7H2,1H3
FORMULA=C16H14O6
PUBMED=N/A
SUBMITUSER=BIOADREM
LIBRARYQUALITY=0
SPECTRUMID=CCMSLIB00000078875
SCANS=1261
ID=CCMSLIB00000078875
106.0413157826 	 2.42
117.0334907505 	 10.43
123.0440554368 	 3.15
134.0362304047 	 9.46
145.0284053726 	 8.12
149.059705501 	 13.66
151.0389700589 	 2.02
153.0182346168 	 100
155.0491408147 	 0.3
177.0546201231 	 29.74
186.0522743994 	 1.89
204.0417097131 	 1.66
258.0522743994 	 3.31
303.086314182 	 2.79
END IONS

BEGIN IONS
PEPMASS=287.055
CHARGE=1
MSLEVEL=2
RT=0
SOURCE_INSTRUMENT=qTOF
FILENAME=CCMSLIB00000078877.ms
IONMODE=Positive
ORGANISM=Natural
NAME=Kaempferol
PI=GNPS
DATACOLLECTOR=GNPS
SMILES=c1cc(ccc1c1c(c(=O)c2c(cc(cc2o1)O)O)O)O
INCHI=InChI=1S/C15H10O6/c16-8-3-1-7(2-4-8)15-14(20)13(19)12-10(18)5-9(17)6-11(12)21-15/h1-6,16-18,20H
FORMULA=C15H10O6
PUBMED=N/A
SUBMITUSER=BIOADREM
LIBRARYQUALITY=0
SPECTRUMID=CCMSLIB00000078877
SCANS=1262
ID=CCMSLIB00000078877
105.0334907505 	 4.98807784016614
107.0491408147 	 4.21890623798169
109.0284053726 	 3.61126067225598
119.0491408147 	 0.426890239212368
121.0284053726 	 7.22252134451196
128.0620512247 	 9.61464502730559
129.0698762568 	 3.89585416506423
135.0440554368 	 3.44973463579725
137.0233199947 	 16.5910314591185
147.0440554368 	 7.0571494500423
149.059705501 	 2.39212368279363
153.0182346168 	 38.4585801092224
155.0550140536 	 1.20759941542958
157.0647908789 	 10.3453580493808
161.059705501 	 3.81509114683486
163.0389700589 	 2.27290208445504
171.0440554368 	 5.1534497346358
185.059705501 	 9.21082993615876
189.0546201231 	 4.50349973078994
195.0440554368 	 0.596107991692947
199.0389700589 	 3.165141142989
203.0702701873 	 3.97661718329359
214.0624451552 	 2.35366510268441
231.0651848094 	 5.71879086224137
241.0495347452 	 4.82655180370741
242.0573597773 	 2.2305976463349
245.0444493673 	 3.165141142989
272.0315389573 	 2.88054765018076
287.0550140536 	 100
END IONS

BEGIN IONS
PEPMASS=287.055
CHARGE=1
MSLEVEL=2
RT=0
SOURCE_INSTRUMENT=qTOF
FILENAME=CCMSLIB00000078878.ms
IONMODE=Positive
ORGANISM=Natural
NAME=Luteolin
PI=GNPS
DATACOLLECTOR=GNPS
SMILES=c1cc(c(cc1c1cc(=O)c2c(cc(cc2o1)O)O)O)O
INCHI=InChI=1S/C15H10O6/c16-8-4-11(19)15-12(20)6-13(21-14(15)5-8)7-1-2-9(17)10(18)3-7/h1-6,16-19H
FORMULA=C15H10O6
PUBMED=N/A
SUBMITUSER=BIOADREM
LIBRARYQUALITY=0
SPECTRUMID=CCMSLIB00000078878
SCANS=1263
ID=CCMSLIB00000078878
131.0491408147 	 0.95
172.0366243352 	 0.88
287.0550140536 	 0
END IONS

BEGIN IONS
PEPMASS=303.0499
CHARGE=1
MSLEVEL=2
RT=0
SOURCE_INSTRUMENT=qTOF
FILENAME=CCMSLIB00000078879.ms
IONMODE=Positive
ORGANISM=Natural
NAME=Morin
PI=GNPS
DATACOLLECTOR=GNPS
SMILES=c1cc(c(cc1O)O)c1c(c(=O)c2c(cc(cc2o1)O)O)O
INCHI=InChI=1S/C15H10O7/c16-6-1-2-8(9(18)3-6)15-14(21)13(20)12-10(19)4-7(17)5-11(12)22-15/h1-5,16-19,21H
FORMULA=C15H10O7
PUBMED=N/A
SUBMITUSER=BIOADREM
LIBRARYQUALITY=0
SPECTRUMID=CCMSLIB00000078879
SCANS=1264
ID=CCMSLIB00000078879
155.0491408147 	 1.1
183.0229260642 	 21.31
184.0307510963 	 1.36
303.0499286757 	 0
END IONS

BEGIN IONS
PEPMASS=447.13
CHARGE=1
MSLEVEL=2
RT=0
SOURCE_INSTRUMENT=qTOF
FILENAME=CCMSLIB00000078881.ms
IONMODE=Positive
ORGANISM=Natural
NAME=Swertisin
PI=GNPS
DATACOLLECTOR=GNPS
SMILES=COc1cc2c(c(=O)cc(c3ccc(cc3)O)o2)c(c1[C@H]1[C@@H]([C@H]([C@@H]([C@@H](CO)O1)O)O)O)O
INCHI=InChI=1S/C22H22O10/c1-30-13-7-14-16(11(25)6-12(31-14)9-2-4-10(24)5-3-9)19(27)17(13)22-21(29)20(28)18(26)15(8-23)32-22/h2-7,15,18,20-24,26-29H,8H2,1H3/t15-,18-,20+,21-,22+/m1/s1
FORMULA=C22H22O10
PUBMED=N/A
SUBMITUSER=BIOADREM
LIBRARYQUALITY=0
SPECTRUMID=CCMSLIB00000078881
SCANS=1265
ID=CCMSLIB00000078881
393.0816227346 	 14.43
447.1285729272 	 0
END IONS

BEGIN IONS
PEPMASS=595.1446
CHARGE=1
MSLEVEL=2
RT=0
SOURCE_INSTRUMENT=qTOF
FILENAME=CCMSLIB00000078882.ms
IONMODE=Positive
ORGANISM=Natural
NAME=Tiliroside
PI=GNPS
DATACOLLECTOR=GNPS
SMILES=c1cc(ccc1/C=C/C(=O)OC[C@H]1[C@H]([C@H]([C@@H]([C@H](O1)Oc1c(=O)c2c(cc(cc2oc1c1ccc(cc1)O)O)O)O)O)O)O
INCHI=InChI=1S/C30H26O13/c31-16-6-1-14(2-7-16)3-10-22(35)40-13-21-24(36)26(38)27(39)30(42-21)43-29-25(37)23-19(34)11-18(33)12-20(23)41-28(29)15-4-8-17(32)9-5-15/h1-12,21,24,26-27,30-34,36,38-39H,13H2/b10-3+/t21-,24+,26+,27-,30+/m0/s1
FORMULA=C30H26O13
PUBMED=N/A
SUBMITUSER=BIOADREM
LIBRARYQUALITY=0
SPECTRUMID=CCMSLIB00000078882
SCANS=1266
ID=CCMSLIB00000078882
287.0491408147 	 29.99
291.0804409431 	 9.25
309.0910056294 	 21.75
595.1446169219 	 0
END IONS

BEGIN IONS
PEPMASS=319.1098
CHARGE=1
MSLEVEL=2
RT=0
SOURCE_INSTRUMENT=qTOF
FILENAME=CCMSLIB00000078900.ms
IONMODE=Positive
ORGANISM=Natural
NAME=PAZUFLOXACIN
PI=GNPS
DATACOLLECTOR=GNPS
SMILES=C[C@H]1COc2c(c(cc3c2n1cc(c3=O)C(=O)O)F)C1(CC1)N
INCHI=InChI=1S/C16H15FN2O4/c1-7-6-23-14-11(16(18)2-3-16)10(17)4-8-12(14)19(7)5-9(13(8)20)15(21)22/h4-5,7H,2-3,6,18H2,1H3,(H,21,22)/t7-/m0/s1
FORMULA=C16H15FN2O4
PUBMED=N/A
SUBMITUSER=BIOADREM
LIBRARYQUALITY=0
SPECTRUMID=CCMSLIB00000078900
SCANS=1268
ID=CCMSLIB00000078900
168.0443897878 	 1.12
169.0522148199 	 1.83
170.060039852 	 1.66
172.0557033978 	 1.31
176.0494751657 	 0.91
188.0506180199 	 4.1
189.058443052 	 1.09
190.0662680841 	 1.36
197.047129442 	 4.98
198.0549544741 	 2.39
200.0506180199 	 1.24
201.058443052 	 3.91
202.0651252299 	 1.27
209.047129442 	 1.15
210.0913399804 	 1.29
212.0870035262 	 0.8
214.0298825778 	 1.19
214.0662680841 	 1.03
215.0377076099 	 1.28
215.0740931162 	 1.93
216.045532642 	 12.11
217.0533576741 	 9.66
218.0611827062 	 8.03
220.0756899162 	 0.9
223.0627795062 	 1.17
228.0819181483 	 1.69
229.0533576741 	 2.06
230.0975682125 	 2.27
232.0768327704 	 1.07
238.0862546025 	 2.52
240.0819181483 	 7.06
242.0247971999 	 1.3
243.032622232 	 2.69
244.0404472641 	 1.99
246.0560973283 	 1.31
253.0971536398 	 1.02
256.0768327704 	 2.33
258.0924828346 	 41.57
261.0431869183 	 0.83
281.0920682619 	 9.99
284.0717473925 	 42.71
299.1026329482 	 2.18
301.098296494 	 19.11
302.0823120788 	 100
304.085386084 	 1.68
319.1088611803 	 38.06
END IONS

BEGIN IONS
PEPMASS=544.1832
CHARGE=1
MSLEVEL=2
RT=0
SOURCE_INSTRUMENT=qTOF
FILENAME=CCMSLIB00000078907.ms
IONMODE=Positive
ORGANISM=Natural
NAME=DOXORUBICIN HYDROCHLORIDE
PI=GNPS
DATACOLLECTOR=GNPS
SMILES=C[C@H]1[C@H]([C@H](C[C@@H](O1)O[C@H]1C[C@@](Cc2c1c(c1c(C(=O)c3cccc(c3C1=O)OC)c2O)O)(C(=O)CO)O)N)O
INCHI=InChI=1S/C27H29NO11/c1-10-22(31)13(28)6-17(38-10)39-15-8-27(36,16(30)9-29)7-12-19(15)26(35)21-20(24(12)33)23(32)11-4-3-5-14(37-2)18(11)25(21)34/h3-5,10,13,15,17,22,29,31,33,35-36H,6-9,28H2,1-2H3/t10-,13-,15-,17-,22+,27-/m0/s1
FORMULA=C27H29NO11
PUBMED=N/A
SUBMITUSER=BIOADREM
LIBRARYQUALITY=0
SPECTRUMID=CCMSLIB00000078907
SCANS=1273
ID=CCMSLIB00000078907
112.0756899162 	 3.21
113.059705501 	 5.7
130.0862546025 	 33.77
148.0968192888 	 8.48
287.0702701873 	 1.17
290.0573597773 	 1.51
293.0808348736 	 1.61
302.0573597773 	 2.86
303.0651848094 	 2.03
305.0808348736 	 1.78
306.0522743994 	 11.43
315.0651848094 	 1.65
320.0679244636 	 2.87
321.0757494957 	 80.36
333.0757494957 	 12.94
336.0628390857 	 1.24
338.0784891499 	 0.79
343.0600994315 	 1.54
346.0471890215 	 31.36
348.0561362656 	 1.24
351.086314182 	 2.02
361.0706641178 	 48.65
363.0796113619 	 1.48
364.0577537078 	 1.03
377.0655787399 	 14.91
379.0812288041 	 52.8
395.0761434262 	 4.22
397.0917934904 	 100
413.0867081125 	 0.84
526.1707720929 	 1.92
544.1813367792 	 3.35
END IONS

BEGIN IONS
PEPMASS=326.0855
CHARGE=1
MSLEVEL=2
RT=0
SOURCE_INSTRUMENT=qTOF
FILENAME=CCMSLIB00000078908.ms
IONMODE=Positive
ORGANISM=Natural
NAME=Midazolam Hydrochloride
PI=GNPS
DATACOLLECTOR=GNPS
SMILES=Cc1ncc2CN=C(c3ccccc3F)c3cc(ccc3n12)Cl
INCHI=InChI=1S/C18H13ClFN3/c1-11-21-9-13-10-22-18(14-4-2-3-5-16(14)20)15-8-12(19)6-7-17(15)23(11)13/h2-9H,10H2,1H3
FORMULA=C18H13ClFN3
PUBMED=N/A
SUBMITUSER=BIOADREM
LIBRARYQUALITY=0
SPECTRUMID=CCMSLIB00000078908
SCANS=1274
ID=CCMSLIB00000078908
208.0557033978 	 3.32
209.0635284299 	 16.77
222.071353462 	 3.72
223.0791784941 	 3.97
229.0760242672 	 0.66
243.0916743314 	 0.86
244.0323811399 	 21.53
249.0822524993 	 17.18
250.0900775314 	 10.56
258.0480312041 	 6.29
263.0979025635 	 1.21
265.0527020093 	 2.86
270.1025733687 	 1.66
271.1103984008 	 1.02
274.0900775314 	 0.74
284.0511052093 	 2.41
285.0589302414 	 13.57
289.0527020093 	 1.46
290.1088016008 	 13
291.1166266329 	 100
299.0745803056 	 1.69
309.0589302414 	 5.86
311.0620042466 	 2.57
326.0854793429 	 148.49
END IONS

BEGIN IONS
PEPMASS=403.1387
CHARGE=1
MSLEVEL=2
RT=0
SOURCE_INSTRUMENT=qTOF
FILENAME=CCMSLIB00000078911.ms
IONMODE=Positive
ORGANISM=Natural
NAME=Nobiletin
PI=GNPS
DATACOLLECTOR=GNPS
SMILES=COc1ccc(cc1OC)c1cc(=O)c2c(c(c(c(c2o1)OC)OC)OC)OC
INCHI=InChI=1S/C21H22O8/c1-23-13-8-7-11(9-15(13)24-2)14-10-12(22)16-17(25-3)19(26-4)21(28-6)20(27-5)18(16)29-14/h7-10H,1-6H3
FORMULA=C21H22O8
PUBMED=N/A
SUBMITUSER=BIOADREM
LIBRARYQUALITY=0
SPECTRUMID=CCMSLIB00000078911
SCANS=1276
ID=CCMSLIB00000078911
165.0182346168 	 0.883597444619597
168.0053242068 	 0.908487513482121
183.0287993031 	 8.83182610138555
193.0131492389 	 1.30258027047208
211.0237139252 	 11.7647058823529
231.0651848094 	 0.71351530739235
244.0730098415 	 0.232307309383556
257.0808348736 	 0.423131170662906
258.0522743994 	 1.98290881938107
259.0600994315 	 1.7879366132913
272.0679244636 	 0.203268895710611
273.0757494957 	 0.418982825852485
274.0835745278 	 0.356757653696175
283.0600994315 	 0.468762963577532
284.0679244636 	 0.522691446113001
285.0757494957 	 0.672031859288144
287.0550140536 	 0.51854310130258
297.0393639894 	 0.493653032440056
299.0913995599 	 1.80038164772256
301.0706641178 	 4.70837135982743
302.0784891499 	 0.547581514975525
309.0757494957 	 0.25719737824608
312.0628390857 	 2.08661743964158
313.0706641178 	 2.81672612627562
315.0499286757 	 2.92043474653613
325.0342786115 	 0.672031859288144
325.0706641178 	 0.207417240521032
327.086314182 	 7.74081141624492
328.0577537078 	 0.298680826350286
328.0941392141 	 0.920932547913383
329.0655787399 	 3.31867584833651
330.073403772 	 7.06463121214635
341.1019642462 	 0.493653032440056
343.0448432978 	 2.51389695511491
343.0812288041 	 0.535136480544263
344.0890538362 	 0.51854310130258
345.0968788683 	 4.28938853397494
346.1047039004 	 0.315274205591969
355.0812288041 	 6.62490666224177
356.0890538362 	 0.414834481042064
357.060493362 	 1.83771675101634
358.0683183941 	 9.23421554799635
359.0761434262 	 1.14079482286568
369.0968788683 	 0.394092756989961
373.0917934904 	 82.9668962084128
374.0996185225 	 9.26740230647972
387.1074435546 	 1.44362399402638
388.1152685867 	 5.38455156392599
403.138743683 	 100
END IONS

BEGIN IONS
PEPMASS=325.171
CHARGE=1
MSLEVEL=2
RT=0
SOURCE_INSTRUMENT=qTOF
FILENAME=CCMSLIB00000078913.ms
IONMODE=Positive
ORGANISM=Natural
NAME=ESCITALOPRAM OXALATE
PI=GNPS
DATACOLLECTOR=GNPS
SMILES=CN(C)CCC[C@]1(c2ccc(cc2)F)c2ccc(cc2CO1)C#N
INCHI=InChI=1S/C20H21FN2O/c1-23(2)11-3-10-20(17-5-7-18(21)8-6-17)19-9-4-15(13-22)12-16(19)14-24-20/h4-9,12H,3,10-11,14H2,1-2H3/t20-/m0/s1
FORMULA=C20H21FN2O
PUBMED=N/A
SUBMITUSER=BIOADREM
LIBRARYQUALITY=0
SPECTRUMID=CCMSLIB00000078913
SCANS=1277
ID=CCMSLIB00000078913
109.0448043605 	 100
116.0494751657 	 20.2444208289054
123.0229260642 	 0.779312787814382
129.0698762568 	 2.78072972015586
130.0651252299 	 1.72983823355768
133.0448043605 	 1.34018183965049
139.0542261926 	 1.12764198842839
140.0494751657 	 8.48388239461566
142.0651252299 	 0.66713897744716
144.0443897878 	 0.755697248789704
146.0526293926 	 0.737985594521195
154.0651252299 	 1.11583421891605
156.0807752941 	 6.28763726532058
159.0604544247 	 1.706222694533
166.0651252299 	 25.1269335222576
168.0807752941 	 1.08041091037903
184.0756899162 	 0.749793364033534
190.0651252299 	 2.39697721100484
203.0740931162 	 0.921006021962451
207.0604544247 	 1.85972369819341
208.0557033978 	 1.45235565001771
214.0662680841 	 0.962333215255638
215.085526321 	 7.26177825008856
218.060039852 	 3.3356948872358
221.0635284299 	 22.6177825008856
222.071353462 	 12.3922541031999
227.072950262 	 21.2303695831857
233.0761044889 	 1.92466643051128
234.071353462 	 65.6275829495808
235.0791784941 	 5.68544102019129
236.0870035262 	 5.17180304640453
238.0662680841 	 11.2232849214783
240.0819181483 	 5.56736332506789
241.0886003262 	 2.89290353052308
242.0964253583 	 11.7074034714842
245.0761044889 	 0.684850631715669
246.071353462 	 14.2283622623686
247.0791784941 	 51.9718975085606
250.1026535904 	 8.29495808241823
261.0948285583 	 2.43830440429803
262.1026535904 	 83.8823946156571
280.1132182767 	 9.33994568426024
307.1605028203 	 6.55921596410438
325.1710675066 	 5.95111583421892
END IONS

BEGIN IONS
PEPMASS=506.2286
CHARGE=1
MSLEVEL=2
RT=0
SOURCE_INSTRUMENT=qTOF
FILENAME=CCMSLIB00000078914.ms
IONMODE=Positive
ORGANISM=Natural
NAME=BENIDIPINE HCl
PI=GNPS
DATACOLLECTOR=GNPS
SMILES=CC1=NC(=C([C@H](c2cccc(c2)N(=O)=O)/C/1=C(\O)/OC)C(=O)O[C@@H]1CCCN(Cc2ccccc2)C1)C
INCHI=InChI=1S/C28H31N3O6/c1-18-24(27(32)36-3)26(21-11-7-12-22(15-21)31(34)35)25(19(2)29-18)28(33)37-23-13-8-14-30(17-23)16-20-9-5-4-6-10-20/h4-7,9-12,15,23,26,32H,8,13-14,16-17H2,1-3H3/b27-24+/t23-,26-/m1/s1
FORMULA=C28H31N3O6
PUBMED=N/A
SUBMITUSER=BIOADREM
LIBRARYQUALITY=0
SPECTRUMID=CCMSLIB00000078914
SCANS=1278
ID=CCMSLIB00000078914
91.0542261926 	 13.515
100.0756899162 	 0.305
131.085526321 	 0.67
168.0780952194 	 0.515
174.1277254867 	 87.25
181.0886003262 	 0.135
192.138290173 	 21.74
197.0808348736 	 0.31
198.0913399804 	 0.315
200.034219032 	 0.305
208.0756899162 	 0.725
209.0808348736 	 1
209.0835149483 	 0.375
210.0913399804 	 4.285
211.0991650125 	 1.75
212.0679244636 	 0.355
217.0607681335 	 0.205
225.0757494957 	 0.45
226.0862546025 	 9.835
227.085526321 	 0.45
229.1097296988 	 0.75
236.0706045383 	 1.245
237.0698762568 	 0.16
237.0757494957 	 0.575
238.0736785435 	 0.745
239.0815035756 	 0.89
240.099224592 	 0.835
241.0647908789 	 0.12
241.0733441925 	 0.57
241.1097296988 	 0.44
242.0784891499 	 0.415
242.0811692246 	 0.275
243.0889942567 	 1.11
249.086982884 	 0.185
253.0706641178 	 0.42
254.0811692246 	 5.645
255.0764181977 	 1.43
255.0804409431 	 0.66
256.0968192888 	 0.725
257.0960910073 	 0.305
267.0889942567 	 2.1
268.0941392141 	 6.54
268.0968192888 	 2.75
269.1046443209 	 16.93
270.1039160394 	 1.195
271.1077183261 	 0.19
283.0713328198 	 7.06
285.0631734367 	 0.635
285.0698762568 	 0.165
285.099558943 	 0.515
287.1026329482 	 0.29
297.086982884 	 0.495
298.0948079161 	 7.755
300.0807752941 	 0.24
301.0944735651 	 9.29
302.0964253583 	 0.4
313.0818975061 	 0.27
314.0838492993 	 0.125
315.0975475703 	 100
316.0994993635 	 9.6
317.1019642462 	 1.27
317.1046443209 	 1.005
331.0924621924 	 1.12
332.0944139856 	 0.135
506.2285617433 	 39.815
END IONS

BEGIN IONS
PEPMASS=323.1853
CHARGE=1
MSLEVEL=2
RT=0
SOURCE_INSTRUMENT=qTOF
FILENAME=CCMSLIB00000078917.ms
IONMODE=Positive
ORGANISM=Natural
NAME=(7R)-7,15,17-trihydroxy-11-methyl-12-oxabicyclo[12.4.0]octadeca-1(14),15,17-trien-13-one
PI=GNPS
DATACOLLECTOR=GNPS
SMILES=CC1CCC[C@@H](CCCCCc2cc(cc(c2C(=O)O1)O)O)O
INCHI=InChI=1S/C18H26O5/c1-12-6-5-9-14(19)8-4-2-3-7-13-10-15(20)11-16(21)17(13)18(22)23-12/h10-12,14,19-21H,2-9H2,1H3/t12?,14-/m1/s1
FORMULA=C18H26O5
PUBMED=N/A
SUBMITUSER=BIOADREM
LIBRARYQUALITY=0
SPECTRUMID=CCMSLIB00000078917
SCANS=1281
ID=CCMSLIB00000078917
95.085526321 	 6.66561984768784
105.0698762568 	 18.6700164873989
107.0491408147 	 14.6502316086991
111.0440554368 	 6.32016958467457
117.0698762568 	 9.37426395540551
119.085526321 	 8.11808118081181
121.0284053726 	 6.45363900447515
121.0647908789 	 11.5254769568972
121.1011763852 	 8.3300620240245
123.0440554368 	 85.6716652272906
128.0620512247 	 9.16228311219282
129.0698762568 	 11.2428358326136
133.0647908789 	 21.245191175316
135.0440554368 	 17.7671351181597
135.1168264494 	 6.73628012875873
137.059705501 	 9.08377168878072
147.0440554368 	 1.59378189526576
147.0804409431 	 13.2605794143048
148.0518804689 	 15.0663421527832
149.0233199947 	 35.1574154039413
149.059705501 	 59.2290178220931
160.0518804689 	 16.5973149093193
161.059705501 	 54.9894009578394
163.0753555652 	 100
165.0546201231 	 20.2323938132998
167.033884681 	 51.2208526340583
173.059705501 	 18.002669388396
175.0389700589 	 26.5290099709508
175.0753555652 	 31.2632488027008
177.0546201231 	 47.4130485985711
177.0910056294 	 26.0657925728193
179.0702701873 	 1.74295359974876
187.0753555652 	 1.80576273847845
189.0546201231 	 47.8684148543613
189.0910056294 	 54.0394127345529
191.0702701873 	 11.5019235298736
191.1066556936 	 13.1899191332339
193.0495347452 	 11.9337363586402
199.0753555652 	 12.820915443197
203.0702701873 	 10.5126795948811
203.1066556936 	 2.84211352751825
205.0859202515 	 1.6251864646306
207.0651848094 	 16.0869906571406
207.1015703157 	 4.96192195964513
209.0808348736 	 1.46816361780639
217.0859202515 	 13.9907356520374
231.1015703157 	 2.02559472403235
235.0964849378 	 11.776713511816
259.1692559504 	 6.3437230116982
261.1849060146 	 11.47837010285
269.1536058862 	 9.20153882389888
277.1798206367 	 15.506006123891
287.1641705725 	 42.6081494857502
305.1747352588 	 78.5114234121065
323.1852999451 	 0.557431106225956
END IONS

BEGIN IONS
PEPMASS=299.1026
CHARGE=1
MSLEVEL=2
RT=0
SOURCE_INSTRUMENT=qTOF
FILENAME=CCMSLIB00000078918.ms
IONMODE=Positive
ORGANISM=Natural
NAME=AMLEXANOX
PI=GNPS
DATACOLLECTOR=GNPS
SMILES=CC(C)c1ccc2c(c1)c(=O)c1cc(c(N)nc1o2)C(=O)O
INCHI=InChI=1S/C16H14N2O4/c1-7(2)8-3-4-12-9(5-8)13(19)10-6-11(16(20)21)14(17)18-15(10)22-12/h3-7H,1-2H3,(H2,17,18)(H,20,21)
FORMULA=C16H14N2O4
PUBMED=N/A
SUBMITUSER=BIOADREM
LIBRARYQUALITY=0
SPECTRUMID=CCMSLIB00000078918
SCANS=1282
ID=CCMSLIB00000078918
182.0964253583 	 0.89
196.0393044099 	 2.29
213.0658535114 	 4.74
214.0498690962 	 1.76
223.0627795062 	 0.89
226.0862546025 	 16.96
237.0658535114 	 1.19
238.0862546025 	 7.08
239.0451180693 	 4.24
240.0529431014 	 0.91
241.0607681335 	 0.65
244.0968192888 	 8.74
253.0971536398 	 21.57
256.0968192888 	 6.64
257.0556827556 	 8.43
263.0815035756 	 2.18
265.0607681335 	 2.28
266.0685931656 	 4.83
281.0920682619 	 100
282.099893294 	 15.57
284.0791578519 	 0.79
299.1026329482 	 243.41
END IONS

BEGIN IONS
PEPMASS=282.087
CHARGE=1
MSLEVEL=2
RT=0
SOURCE_INSTRUMENT=qTOF
FILENAME=CCMSLIB00000078921.ms
IONMODE=Positive
ORGANISM=Natural
NAME=7-nitro-5-phenyl-1,3-dihydro-1,4-benzodiazepin-2-one
PI=GNPS
DATACOLLECTOR=GNPS
SMILES=c1ccc(cc1)C1=NCC(=Nc2ccc(cc12)N(=O)=O)O
INCHI=InChI=1S/C15H11N3O3/c19-14-9-16-15(10-4-2-1-3-5-10)12-8-11(18(20)21)6-7-13(12)17-14/h1-8H,9H2,(H,17,19)
FORMULA=C15H11N3O3
PUBMED=N/A
SUBMITUSER=BIOADREM
LIBRARYQUALITY=0
SPECTRUMID=CCMSLIB00000078921
SCANS=1284
ID=CCMSLIB00000078921
104.0494751657 	 0.94
105.0447241388 	 0.46
116.0494751657 	 0.67
129.0447241388 	 0.44
130.0525491709 	 1.24
151.0502034472 	 0.52
152.0620512247 	 0.43
156.0807752941 	 0.42
158.047463793 	 2.32
164.0620512247 	 0.58
165.0420440641 	 0.49
165.0698762568 	 0.62
168.0807752941 	 0.95
176.0454524203 	 2.32
177.0420440641 	 0.48
179.072950262 	 2.62
180.0807752941 	 33.6
181.0845775808 	 5.18
183.0916743314 	 0.47
184.0756899162 	 0.51
187.0376273882 	 1.12
190.0651252299 	 1.91
191.072950262 	 1.23
192.0807752941 	 1.21
193.0886003262 	 0.91
194.0924026129 	 1.05
195.0678648841 	 0.57
195.0916743314 	 1.33
196.0756899162 	 2.45
204.0403670424 	 0.38
206.060039852 	 0.46
206.0838492993 	 1.24
207.0916743314 	 32.53
208.0994993635 	 12
211.0865889535 	 3.03
217.0760242672 	 0.38
219.0678648841 	 0.57
223.0865889535 	 1.51
224.0944139856 	 0.78
225.0896629587 	 0.39
235.0865889535 	 9.95
236.0944139856 	 58.42
238.0974879908 	 0.9
239.0815035756 	 3.31
240.0893286077 	 5.92
251.0815035756 	 3.19
252.0893286077 	 1.9
253.0845775808 	 0.64
254.0924026129 	 2.1
265.0845775808 	 0.38
268.0842432298 	 100
282.087317235 	 0
END IONS

BEGIN IONS
PEPMASS=222.1605
CHARGE=1
MSLEVEL=2
RT=0
SOURCE_INSTRUMENT=qTOF
FILENAME=CCMSLIB00000078922.ms
IONMODE=Positive
ORGANISM=Natural
NAME=366-70-1
PI=GNPS
DATACOLLECTOR=GNPS
SMILES=CC(C)NC(=O)c1ccc(cc1)CNNC
INCHI=InChI=1S/C12H19N3O/c1-9(2)15-12(16)11-6-4-10(5-7-11)8-14-13-3/h4-7,9,13-14H,8H2,1-3H3,(H,15,16)
FORMULA=C12H19N3O
PUBMED=N/A
SUBMITUSER=BIOADREM
LIBRARYQUALITY=0
SPECTRUMID=CCMSLIB00000078922
SCANS=1285
ID=CCMSLIB00000078922
89.0385761284 	 2.95
91.0542261926 	 5.9
105.0573001978 	 10.62
106.0651252299 	 11.95
117.0573001978 	 3.39
118.0413157826 	 25.37
131.060374203 	 2.88
132.0443897878 	 3.17
135.0678648841 	 8.26
136.0756899162 	 5.9
148.0756899162 	 4.06
148.1120754225 	 6.12
149.0709388893 	 35.25
176.1069900446 	 46.17
177.1148150767 	 47.12
191.1178890819 	 100
222.1600882476 	 66.96
END IONS

BEGIN IONS
PEPMASS=308.1757
CHARGE=1
MSLEVEL=2
RT=0
SOURCE_INSTRUMENT=qTOF
FILENAME=CCMSLIB00000078928.ms
IONMODE=Positive
ORGANISM=Natural
NAME=ZOLPIDEM TARTRATE
PI=GNPS
DATACOLLECTOR=GNPS
SMILES=Cc1ccc(cc1)c1c(CC(=O)N(C)C)n2cc(C)ccc2n1
INCHI=InChI=1S/C19H21N3O/c1-13-5-8-15(9-6-13)19-16(11-18(23)21(3)4)22-12-14(2)7-10-17(22)20-19/h5-10,12H,11H2,1-4H3
FORMULA=C19H21N3O
PUBMED=N/A
SUBMITUSER=BIOADREM
LIBRARYQUALITY=0
SPECTRUMID=CCMSLIB00000078928
SCANS=1287
ID=CCMSLIB00000078928
118.0651252299 	 0.465
145.0760242672 	 1.27
205.0760242672 	 0.585
206.0838492993 	 0.18
219.0916743314 	 2.42
220.0994993635 	 5.835
221.1073243956 	 13.37
235.1229744598 	 100
236.1307994919 	 78.96
245.1073243956 	 0.355
248.0944139856 	 3.87
263.1178890819 	 53.1
308.1757383118 	 93.65
END IONS

BEGIN IONS
PEPMASS=433.295
CHARGE=1
MSLEVEL=2
RT=0
SOURCE_INSTRUMENT=qTOF
FILENAME=CCMSLIB00000078929.ms
IONMODE=Positive
ORGANISM=Natural
NAME=LATANOPROST
PI=GNPS
DATACOLLECTOR=GNPS
SMILES=CC(C)OC(=O)CCC/C=C\C[C@@H]1[C@@H](CC[C@H](CCc2ccccc2)O)[C@@H](C[C@@H]1O)O
INCHI=InChI=1S/C26H40O5/c1-19(2)31-26(30)13-9-4-3-8-12-22-23(25(29)18-24(22)28)17-16-21(27)15-14-20-10-6-5-7-11-20/h3,5-8,10-11,19,21-25,27-29H,4,9,12-18H2,1-2H3/b8-3-/t21-,22+,23+,24-,25+/m0/s1
FORMULA=C26H40O5
PUBMED=N/A
SUBMITUSER=BIOADREM
LIBRARYQUALITY=0
SPECTRUMID=CCMSLIB00000078929
SCANS=1288
ID=CCMSLIB00000078929
91.0542261926 	 4.27
105.0698762568 	 23.2
117.0698762568 	 10.56
129.0698762568 	 6.42
131.085526321 	 29.45
133.0647908789 	 3.5
133.1011763852 	 4.03
141.0698762568 	 8.59
143.085526321 	 15.67
145.1011763852 	 12.58
147.1168264494 	 10.66
149.0960910073 	 4.81
155.085526321 	 5.14
157.1011763852 	 6.38
159.1168264494 	 3.51
161.1324765136 	 4.76
167.085526321 	 3.96
169.1011763852 	 6.66
171.1168264494 	 22.57
181.1011763852 	 9.11
187.1117410715 	 4.51
187.1481265778 	 7.54
189.1273911357 	 17.45
197.1324765136 	 3.51
205.1586912641 	 5.09
207.137955822 	 22.2
209.1324765136 	 23.73
215.1430411999 	 6.72
221.1324765136 	 4.3
223.1481265778 	 4.91
227.1430411999 	 8.93
233.1536058862 	 5.5
235.1481265778 	 9.42
239.1430411999 	 4.17
249.1849060146 	 12.88
253.1586912641 	 3.5
291.1743413283 	 3.45
301.1950767704 	 17.89
319.2056414567 	 51.19
337.216206143 	 100
355.2267708293 	 39.3
379.2631563356 	 43.76
397.2737210219 	 35.21
415.2842857082 	 6.68
433.2948503945 	 0
END IONS

BEGIN IONS
PEPMASS=470.2317
CHARGE=1
MSLEVEL=2
RT=0
SOURCE_INSTRUMENT=qTOF
FILENAME=CCMSLIB00000078933.ms
IONMODE=Positive
ORGANISM=Natural
NAME=Nefazodone
PI=GNPS
DATACOLLECTOR=GNPS
SMILES=CCc1nn(CCCN2CCN(CC2)c2cccc(c2)Cl)c(=O)n1CCOc1ccccc1
INCHI=InChI=1S/C25H32ClN5O2/c1-2-24-27-31(25(32)30(24)18-19-33-23-10-4-3-5-11-23)13-7-12-28-14-16-29(17-15-28)22-9-6-8-21(26)20-22/h3-6,8-11,20H,2,7,12-19H2,1H3
FORMULA=C25H32ClN5O2
PUBMED=N/A
SUBMITUSER=BIOADREM
LIBRARYQUALITY=0
SPECTRUMID=CCMSLIB00000078933
SCANS=1290
ID=CCMSLIB00000078933
91.0542261926 	 0.356842989084803
93.0698762568 	 0.503778337531486
97.0396387609 	 0.188916876574307
103.0542261926 	 0.748670584942625
107.047798144 	 0.209907640638119
112.0518804689 	 0.174923033865099
121.0647908789 	 5.6395186118108
124.0505377982 	 0.293870696893367
124.0518804689 	 0.272879932829555
125.0583628303 	 0.216904561992723
126.0661878624 	 0.958578225580745
126.0675305331 	 8.50825636719843
133.0634482082 	 0.328855303666387
135.0790982724 	 0.552756787013714
135.0804409431 	 0.342849146375595
138.0661878624 	 0.167926112510495
138.0675305331 	 1.46235656311223
138.1025733687 	 0.384830674503219
138.1039160394 	 1.68625804645956
140.0818379266 	 13.2521690456199
140.0831805973 	 11.1390987965295
152.0818379266 	 0.321858382311783
152.0831805973 	 3.07164847467114
153.0896629587 	 6.01735236495942
153.0910056294 	 8.30534564791492
154.0974879908 	 7.71760425412818
154.0988306615 	 30.2896725440806
166.0399731119 	 0.265883011474951
166.0988306615 	 0.272879932829555
168.113138055 	 0.230898404701931
180.113138055 	 10.9991603694374
180.1144807257 	 35.7472712006717
181.1209630871 	 10.7962496501539
181.1223057578 	 8.0954380072768
194.0586971813 	 0.188916876574307
209.0821722776 	 0.930590540162329
211.1553372207 	 0.321858382311783
237.113472406 	 1.02854743912678
246.1237027413 	 30.7094878253568
246.1241899307 	 41.2748390708088
246.1255326014 	 30.8214385670305
274.1550028697 	 69.9692135460397
274.1554900591 	 69.9692135460397
274.1568327298 	 69.9692135460397
470.2317290074 	 100
END IONS

BEGIN IONS
PEPMASS=357.1267
CHARGE=1
MSLEVEL=2
RT=0
SOURCE_INSTRUMENT=qTOF
FILENAME=CCMSLIB00000078934.ms
IONMODE=Positive
ORGANISM=Natural
NAME=pioglitazone hydrochloride
PI=GNPS
DATACOLLECTOR=GNPS
SMILES=CCc1ccc(CCOc2ccc(cc2)CC2C(=NC(=O)S2)O)nc1
INCHI=InChI=1S/C19H20N2O3S/c1-2-13-3-6-15(20-12-13)9-10-24-16-7-4-14(5-8-16)11-17-18(22)21-19(23)25-17/h3-8,12,17H,2,9-11H2,1H3,(H,21,22,23)
FORMULA=C19H20N2O3S
PUBMED=N/A
SUBMITUSER=BIOADREM
LIBRARYQUALITY=0
SPECTRUMID=CCMSLIB00000078934
SCANS=1291
ID=CCMSLIB00000078934
91.0542261926 	 0.315
92.0494751657 	 0.145
93.0573001978 	 0.245
95.0491408147 	 0.29
104.0494751657 	 0.585
106.0651252299 	 3.17
107.0491408147 	 0.165
107.0702701873 	 0.505
118.0651252299 	 4.045
119.072950262 	 30.06
120.0780952194 	 4.79
120.0807752941 	 1.665
124.0756899162 	 0.175
134.0964253583 	 100
135.1015703157 	 13.95
135.1042503904 	 17.38
227.1304651409 	 0.115
240.138290173 	 0.785
273.1359444493 	 0.11
286.1260109272 	 0.59
314.1209255493 	 0.125
357.1267392087 	 72.69
END IONS

BEGIN IONS
PEPMASS=677.2429
CHARGE=1
MSLEVEL=2
RT=0
SOURCE_INSTRUMENT=qTOF
FILENAME=CCMSLIB00000078936.ms
IONMODE=Positive
ORGANISM=Natural
NAME=ICARIIN
PI=GNPS
DATACOLLECTOR=GNPS
SMILES=CC(=CCc1c(cc(c2c(=O)c(c(c3ccc(cc3)OC)oc12)O[C@H]1[C@@H]([C@@H]([C@H]([C@H](C)O1)O)O)O)O)O[C@H]1[C@@H]([C@H]([C@@H]([C@@H](CO)O1)O)O)O)C
INCHI=InChI=1S/C33H40O15/c1-13(2)5-10-17-19(45-33-28(42)26(40)23(37)20(12-34)46-33)11-18(35)21-24(38)31(48-32-27(41)25(39)22(36)14(3)44-32)29(47-30(17)21)15-6-8-16(43-4)9-7-15/h5-9,11,14,20,22-23,25-28,32-37,39-42H,10,12H2,1-4H3/t14-,20+,22-,23+,25+,26-,27+,28+,32-,33+/m0/s1
FORMULA=C33H40O15
PUBMED=N/A
SUBMITUSER=BIOADREM
LIBRARYQUALITY=0
SPECTRUMID=CCMSLIB00000078936
SCANS=1293
ID=CCMSLIB00000078936
129.0546201231 	 2.65
147.0651848094 	 0.97
243.0651848094 	 0.23
246.1039160394 	 0.21
264.0780952194 	 0.27
301.0706641178 	 0.69
302.072615911 	 0.27
313.0706641178 	 26.7
314.072615911 	 3.61
367.1117410715 	 0.24
369.1332643746 	 100
370.1352161678 	 24.32
372.1356100983 	 0.61
447.137955822 	 0.22
448.151654093 	 0.32
515.191173184 	 0.4
531.1860878061 	 84.49
532.1939128382 	 23.75
533.1864817366 	 4.89
534.1943067687 	 1.22
677.2439966155 	 2.71
END IONS

BEGIN IONS
PEPMASS=281.1192
CHARGE=1
MSLEVEL=2
RT=0
SOURCE_INSTRUMENT=qTOF
FILENAME=CCMSLIB00000078937.ms
IONMODE=Positive
ORGANISM=Natural
NAME=35212-22-7
PI=GNPS
DATACOLLECTOR=GNPS
SMILES=CC(C)Oc1ccc2c(c1)occ(c1ccccc1)c2=O
INCHI=InChI=1S/C18H16O3/c1-12(2)21-14-8-9-15-17(10-14)20-11-16(18(15)19)13-6-4-3-5-7-13/h3-12H,1-2H3
FORMULA=C18H16O3
PUBMED=N/A
SUBMITUSER=BIOADREM
LIBRARYQUALITY=0
SPECTRUMID=CCMSLIB00000078937
SCANS=1294
ID=CCMSLIB00000078937
103.0542261926 	 1.695
105.0334907505 	 0.36
115.0542261926 	 1.25
128.0620512247 	 0.4
129.0698762568 	 0.755
133.0284053726 	 0.49
139.0542261926 	 0.15
141.0698762568 	 1.515
153.0698762568 	 4.515
154.0777012889 	 1.32
155.085526321 	 5.285
164.0620512247 	 0.23
165.0698762568 	 16.5
168.0569658468 	 1.73
169.0647908789 	 0.555
181.0647908789 	 3.1
182.072615911 	 1.83
183.0804409431 	 17.32
197.059705501 	 0.225
211.0753555652 	 1.35
221.059705501 	 0.255
239.0702701873 	 100
281.1172203799 	 30.185
END IONS

BEGIN IONS
PEPMASS=847.4488
CHARGE=1
MSLEVEL=2
RT=0
SOURCE_INSTRUMENT=qTOF
FILENAME=CCMSLIB00000078938.ms
IONMODE=Positive
ORGANISM=Natural
NAME=RIFABUTIN
PI=GNPS
DATACOLLECTOR=GNPS
SMILES=CC(C)CN1CCC2(CC1)N=c1c3c4c(c(C)c5c3C(=O)[C@@](C)(OC=C[C@@H]([C@@H](C)[C@H]([C@H](C)[C@@H]([C@H](C)[C@H]([C@@H](C)C=CC=C(C)C(=Nc(c1=N2)c4O)O)O)O)OC(=O)C)OC)O5)O
INCHI=InChI=1S/C46H62N4O11/c1-22(2)21-50-18-16-46(17-19-50)48-34-31-32-39(54)28(8)42-33(31)43(56)45(10,61-42)59-20-15-30(58-11)25(5)41(60-29(9)51)27(7)38(53)26(6)37(52)23(3)13-12-14-24(4)44(57)47-36(40(32)55)35(34)49-46/h12-15,20,22-23,25-27,30,37-38,41,52-55H,16-19,21H2,1-11H3,(H,47,57)/t23-,25+,26+,27+,30-,37-,38+,41+,45-/m0/s1
FORMULA=C46H62N4O11
PUBMED=N/A
SUBMITUSER=BIOADREM
LIBRARYQUALITY=0
SPECTRUMID=CCMSLIB00000078938
SCANS=1295
ID=CCMSLIB00000078938
95.085526321 	 0.85
107.085526321 	 0.97
123.0804409431 	 2.5
135.0804409431 	 1.27
145.1011763852 	 1.23
147.1168264494 	 0.97
151.0753555652 	 9.95
153.0910056294 	 1.97
161.0960910073 	 1.22
163.1117410715 	 3.92
165.1273911357 	 0.93
175.1117410715 	 1.33
179.1066556936 	 1.7
191.1066556936 	 2.25
193.1223057578 	 0.93
321.086982884 	 1.1
322.0822318571 	 3.21
324.0952018466 	 2.19
338.1135319855 	 2.42
339.1186769429 	 1.23
406.1761322423 	 1.21
423.2026813438 	 4.03
424.2078263012 	 1.78
543.2601962227 	 1.03
545.2758462869 	 1.54
573.270760909 	 3
631.3126257237 	 1.27
632.3177706811 	 1.83
652.3017266864 	 1.24
656.2966413085 	 1.3
670.3122913727 	 2.3
671.3201164048 	 0.85
715.309945649 	 1.49
716.3177706811 	 1.81
730.3334207453 	 3.65
731.3412457774 	 1.37
737.3908760447 	 3.55
738.3960210021 	 1.16
755.401440731 	 21.33
756.4065856884 	 9.22
787.4276554815 	 1.63
797.4120054173 	 4.07
798.4198304494 	 2.23
815.4225701036 	 100
816.4303951357 	 65.17
847.4487848541 	 69.1
END IONS

BEGIN IONS
PEPMASS=399.0758
CHARGE=1
MSLEVEL=2
RT=0
SOURCE_INSTRUMENT=qTOF
FILENAME=CCMSLIB00000078940.ms
IONMODE=Positive
ORGANISM=Natural
NAME=SULFASALAZINE
PI=GNPS
DATACOLLECTOR=GNPS
SMILES=c1ccnc(c1)NS(=O)(=O)c1ccc(cc1)N=Nc1ccc(c(c1)C(=O)O)O
INCHI=InChI=1S/C18H14N4O5S/c23-16-9-6-13(11-15(16)18(24)25)21-20-12-4-7-14(8-5-12)28(26,27)22-17-3-1-2-10-19-17/h1-11,23H,(H,19,22)(H,24,25)
FORMULA=C18H14N4O5S
PUBMED=N/A
SUBMITUSER=BIOADREM
LIBRARYQUALITY=0
SPECTRUMID=CCMSLIB00000078940
SCANS=1297
ID=CCMSLIB00000078940
91.0178406863 	 0.8
119.0127553084 	 10.14
134.0236543457 	 2.23
137.0233199947 	 3.22
139.0542261926 	 3.55
147.0189033188 	 8.84
148.0215458557 	 0.97
157.0760242672 	 0.88
165.0294680051 	 6.49
166.032110542 	 0.86
167.060374203 	 0.91
169.0760242672 	 1.55
171.0552888251 	 1.23
185.0709388893 	 1.03
186.0549544741 	 0.75
195.0552888251 	 0.73
199.0502034472 	 0.6
213.0658535114 	 7.09
223.0502034472 	 10.41
239.0451180693 	 6.77
241.0607681335 	 3.34
255.0400326914 	 4.36
257.0556827556 	 4.41
273.0505973777 	 5.33
289.1083870281 	 0.73
305.0226680677 	 1.88
315.087651586 	 2.79
317.1033016502 	 4.93
333.0982162723 	 3.02
335.1138663365 	 5.02
381.0652015844 	 100
399.0757662707 	 162.78
END IONS

BEGIN IONS
PEPMASS=180.1755
CHARGE=1
MSLEVEL=2
RT=0
SOURCE_INSTRUMENT=qTOF
FILENAME=CCMSLIB00000078941.ms
IONMODE=Positive
ORGANISM=Natural
NAME=(3R,5S)-3,5-dimethyladamantan-1-amine
PI=GNPS
DATACOLLECTOR=GNPS
SMILES=C[C@@]12C[C@H]3C[C@@](C)(C1)C[C@](C3)(C2)N
INCHI=InChI=1S/C12H21N/c1-10-3-9-4-11(2,6-10)8-12(13,5-9)7-10/h9H,3-8,13H2,1-2H3/t9-,10+,11-,12-
FORMULA=C12H21N
PUBMED=N/A
SUBMITUSER=BIOADREM
LIBRARYQUALITY=0
SPECTRUMID=CCMSLIB00000078941
SCANS=1298
ID=CCMSLIB00000078941
91.0542261926 	 11.3797491365206
92.0620512247 	 0.133309095316003
93.0698762568 	 2.13294552505605
95.085526321 	 1.78755377810095
103.0542261926 	 1.15130582318366
105.0698762568 	 20.2084469490396
107.085526321 	 77.5919529782464
119.085526321 	 1.19978185784403
121.1011763852 	 10.2466218263346
135.1168264494 	 3.69629764285281
163.1481265778 	 100
180.1746756793 	 30.1763315760771
END IONS

BEGIN IONS
PEPMASS=294.1125
CHARGE=1
MSLEVEL=2
RT=0
SOURCE_INSTRUMENT=qTOF
FILENAME=CCMSLIB00000078946.ms
IONMODE=Positive
ORGANISM=Natural
NAME=OXAPROZIN
PI=GNPS
DATACOLLECTOR=GNPS
SMILES=c1ccc(cc1)c1c(c2ccccc2)oc(CCC(=O)O)n1
INCHI=InChI=1S/C18H15NO3/c20-16(21)12-11-15-19-17(13-7-3-1-4-8-13)18(22-15)14-9-5-2-6-10-14/h1-10H,11-12H2,(H,20,21)
FORMULA=C18H15NO3
PUBMED=N/A
SUBMITUSER=BIOADREM
LIBRARYQUALITY=0
SPECTRUMID=CCMSLIB00000078946
SCANS=1302
ID=CCMSLIB00000078946
102.0464011605 	 0.32
103.0542261926 	 57.08
115.0542261926 	 1.59
117.0698762568 	 4.33
152.0620512247 	 0.65
167.085526321 	 1.89
177.0698762568 	 0.54
194.0964253583 	 1.24
195.0804409431 	 0.67
206.0964253583 	 9.56
220.1120754225 	 0.48
222.0913399804 	 0.22
234.0913399804 	 16.8
248.1069900446 	 0.71
249.1148150767 	 0.25
276.1019046667 	 100
294.112469353 	 146.84
END IONS

BEGIN IONS
PEPMASS=296.186
CHARGE=1
MSLEVEL=2
RT=0
SOURCE_INSTRUMENT=qTOF
FILENAME=CCMSLIB00000078947.ms
IONMODE=Positive
ORGANISM=Natural
NAME=ESMOLOL HYDROCHLORIDE
PI=GNPS
DATACOLLECTOR=GNPS
SMILES=CC(C)NCC(COc1ccc(cc1)CCC(=O)OC)O
INCHI=InChI=1S/C16H25NO4/c1-12(2)17-10-14(18)11-21-15-7-4-13(5-8-15)6-9-16(19)20-3/h4-5,7-8,12,14,17-18H,6,9-11H2,1-3H3
FORMULA=C16H25NO4
PUBMED=N/A
SUBMITUSER=BIOADREM
LIBRARYQUALITY=0
SPECTRUMID=CCMSLIB00000078947
SCANS=1303
ID=CCMSLIB00000078947
91.0542261926 	 2.1
98.0964253583 	 1.89
103.0542261926 	 2.265
105.0698762568 	 4.785
107.0491408147 	 5.06
109.0647908789 	 0.265
115.0542261926 	 5.015
116.1069900446 	 5.03
117.0698762568 	 3.88
119.0491408147 	 18.67
121.0647908789 	 2.585
127.0542261926 	 0.37
131.085526321 	 0.99
132.0569658468 	 0.375
133.0647908789 	 29.235
135.0804409431 	 0.485
136.0518804689 	 0.225
137.059705501 	 1.47
141.0698762568 	 0.285
144.0569658468 	 1.34
145.0647908789 	 100
151.0753555652 	 3.685
159.0804409431 	 4.475
161.059705501 	 3.665
161.0960910073 	 0.365
162.0913399804 	 3.8
163.0753555652 	 10.895
175.0753555652 	 0.46
177.0910056294 	 0.75
180.1019046667 	 0.42
187.0753555652 	 0.61
193.0859202515 	 6.115
211.0964849378 	 0.275
219.1015703157 	 26.655
236.1281194172 	 0.48
254.1386841035 	 10.265
261.1485205083 	 0.275
278.1750696098 	 3.98
296.1856342961 	 0
END IONS

BEGIN IONS
PEPMASS=568.3204
CHARGE=1
MSLEVEL=2
RT=0
SOURCE_INSTRUMENT=qTOF
FILENAME=CCMSLIB00000078950.ms
IONMODE=Positive
ORGANISM=Natural
NAME=NELFINAVIR MESYLATE
PI=GNPS
DATACOLLECTOR=GNPS
SMILES=Cc1c(cccc1O)C(=N[C@@H](CSc1ccccc1)[C@@H](CN1C[C@H]2CCCC[C@H]2C[C@H]1C(=NC(C)(C)C)O)O)O
INCHI=InChI=1S/C32H45N3O4S/c1-21-25(15-10-16-28(21)36)30(38)33-26(20-40-24-13-6-5-7-14-24)29(37)19-35-18-23-12-9-8-11-22(23)17-27(35)31(39)34-32(2,3)4/h5-7,10,13-16,22-23,26-27,29,36-37H,8-9,11-12,17-20H2,1-4H3,(H,33,38)(H,34,39)/t22-,23+,26-,27-,29+/m0/s1
FORMULA=C32H45N3O4S
PUBMED=N/A
SUBMITUSER=BIOADREM
LIBRARYQUALITY=0
SPECTRUMID=CCMSLIB00000078950
SCANS=1306
ID=CCMSLIB00000078950
107.0491408147 	 1.4
109.0647908789 	 0.316666666666667
121.0647908789 	 0.126666666666667
123.0262968826 	 4.22666666666667
125.0233199947 	 0.13
128.0620512247 	 0.14
134.060039852 	 1.00666666666667
135.0440554368 	 47.0033333333333
137.047129442 	 0.446666666666667
138.1277254867 	 5.08
147.0804409431 	 0.136666666666667
149.0419469468 	 0.453333333333333
150.1277254867 	 0.56
151.0212115047 	 0.386666666666667
151.0542261926 	 0.286666666666667
152.0706045383 	 1.71666666666667
152.1433755509 	 2.11
153.0732470752 	 0.113333333333333
159.0804409431 	 0.176666666666667
161.0419469468 	 1.43
162.0423784151 	 0.103333333333333
162.0464011605 	 0.12
166.1226401088 	 0.24
174.0913399804 	 0.47
176.0706045383 	 0.433333333333333
179.0525116331 	 2.44
180.0529431014 	 0.126666666666667
180.0569658468 	 0.183333333333333
183.1491892103 	 0.236666666666667
189.151200583 	 0.126666666666667
190.1590256151 	 3.11333333333333
195.1491892103 	 0.4
196.0790607346 	 0.08
197.059705501 	 0.273333333333333
197.0630763194 	 0.736666666666667
202.0862546025 	 3.40333333333333
203.085526321 	 0.0733333333333333
220.0968192888 	 0.54
239.2117894671 	 1.7
265.2274395313 	 0.196666666666667
298.1590256151 	 0.136666666666667
298.1623964335 	 0.293333333333333
299.1702214656 	 0.0866666666666667
312.1052754851 	 3.68333333333333
313.1097296988 	 0.353333333333333
316.1729611198 	 0.206666666666667
330.1158401714 	 100
331.1202943851 	 16.6566666666667
331.1236652035 	 7.44333333333333
332.1189141766 	 2.1
333.1155058204 	 0.453333333333333
333.1995102213 	 0.0866666666666667
343.1804893387 	 0.0666666666666667
357.2120862803 	 0.1
399.2464604139 	 0.766666666666667
400.2482345529 	 0.163333333333333
400.254285446 	 0.173333333333333
449.2257249718 	 0.123333333333333
467.2362896581 	 44.6833333333333
468.2407438718 	 8.80333333333333
468.2441146902 	 4.03333333333333
469.2393636633 	 2.28666666666667
470.2359553071 	 0.3
550.3097889522 	 0.0933333333333333
568.3203536385 	 40.1366666666667
END IONS

BEGIN IONS
PEPMASS=509.2556
CHARGE=1
MSLEVEL=2
RT=0
SOURCE_INSTRUMENT=qTOF
FILENAME=CCMSLIB00000078951.ms
IONMODE=Positive
ORGANISM=Natural
NAME=ARGATROBAN
PI=GNPS
DATACOLLECTOR=GNPS
SMILES=C[C@@H]1CCN([C@H](C1)C(=O)O)C(=O)[C@H](CCCNC(=N)N)NS(=O)(=O)c1cccc2CC(C)CNc12
INCHI=InChI=1S/C23H36N6O5S/c1-14-8-10-29(18(12-14)22(31)32)21(30)17(6-4-9-26-23(24)25)28-35(33,34)19-7-3-5-16-11-15(2)13-27-20(16)19/h3,5,7,14-15,17-18,27-28H,4,6,8-13H2,1-2H3,(H,31,32)(H4,24,25,26)/t14-,15?,17+,18-/m1/s1
FORMULA=C23H36N6O5S
PUBMED=N/A
SUBMITUSER=BIOADREM
LIBRARYQUALITY=0
SPECTRUMID=CCMSLIB00000078951
SCANS=1307
ID=CCMSLIB00000078951
108.0443897878 	 0.96
112.0869233045 	 10.04
126.0913399804 	 1.46
129.113472406 	 3.77
130.0974879908 	 1.01
133.0919711446 	 1.06
142.0849119318 	 1.14
144.1019046667 	 1.35
146.0964253583 	 5.86
147.1042503904 	 3.56
148.1120754225 	 2.23
149.1158777092 	 0.8
150.0913399804 	 1.3
157.1083870281 	 3.23
158.0924026129 	 4.37
161.0835149483 	 5.75
162.0913399804 	 6.31
175.1189517144 	 2.47
177.138624524 	 1.02
179.1542745882 	 2.76
194.1611508801 	 1.24
195.0440554368 	 1.62
195.1491892103 	 1.37
209.0709388893 	 22.21
211.0661503246 	 1.54
212.0706045383 	 0.83
220.0393044099 	 1.48
222.1560655022 	 1.46
223.1441038324 	 1.63
228.0688899788 	 2.47
237.0658535114 	 25.79
239.1416985292 	 1.91
240.1495235613 	 0.89
255.0764181977 	 1.56
282.1964737539 	 2.13
283.1804893387 	 1.05
304.1087434208 	 2.41
305.1080151393 	 1.08
367.1434519054 	 1.73
382.1556936134 	 1.28
384.1700010069 	 100
385.1757978913 	 24.46
386.1730750121 	 4.64
387.1723467306 	 1.45
492.2149398268 	 1.13
509.2540649873 	 218.46
END IONS

BEGIN IONS
PEPMASS=390.1459
CHARGE=1
MSLEVEL=2
RT=0
SOURCE_INSTRUMENT=qTOF
FILENAME=CCMSLIB00000078956.ms
IONMODE=Positive
ORGANISM=Natural
NAME=TADALAFIL
PI=GNPS
DATACOLLECTOR=GNPS
SMILES=CN1CC(=O)N2[C@H](Cc3c4ccccc4[nH]c3[C@H]2c2ccc3c(c2)OCO3)C1=O
INCHI=InChI=1S/C22H19N3O4/c1-24-10-19(26)25-16(22(24)27)9-14-13-4-2-3-5-15(13)23-20(14)21(25)12-6-7-17-18(8-12)29-11-28-17/h2-8,16,21,23H,9-11H2,1H3/t16-,21-/m1/s1
FORMULA=C22H19N3O4
PUBMED=N/A
SUBMITUSER=BIOADREM
LIBRARYQUALITY=0
SPECTRUMID=CCMSLIB00000078956
SCANS=1310
ID=CCMSLIB00000078956
105.0334907505 	 3.05480682839173
115.0542261926 	 1.91674153938305
127.0542261926 	 1.93920335429769
130.0651252299 	 5.78766097634022
135.0440554368 	 49.1314764899671
142.0651252299 	 1.80443246480982
144.0807752941 	 0.299490865528601
154.0651252299 	 2.68044324648098
156.0807752941 	 1.93920335429769
168.0681992351 	 1.82689427972447
169.0760242672 	 82.9290206648697
170.060039852 	 1.04073075771189
183.0916743314 	 0.404312668463612
188.0706045383 	 0.254567235699311
192.0807752941 	 1.98412698412698
193.0845775808 	 3.81850853548967
197.0709388893 	 18.418688230009
204.0807752941 	 31.6486972147349
205.0886003262 	 29.6196466007787
206.0924026129 	 6.31925726265349
207.100227645 	 1.80443246480982
209.0682588146 	 2.09643605870021
215.072950262 	 2.09643605870021
216.0807752941 	 5.88499550763702
217.0845775808 	 4.48487571129081
218.0924026129 	 2.47828691224918
220.0756899162 	 1.69961066187481
225.0658535114 	 2.96495956873315
232.0756899162 	 17.4827792752321
233.0835149483 	 18.209044624139
234.087317235 	 5.06888289907158
235.0951422671 	 1.8942797244684
240.113138055 	 28.9532794249775
244.0756899162 	 5.72027553159629
250.0822318571 	 6.13956274333633
250.0862546025 	 2.25366876310273
262.0862546025 	 69.9386043725666
263.0900568892 	 18.6807427373465
265.1057069534 	 3.61635220125786
268.1080526771 	 100
274.0862546025 	 22.4168912848158
302.0811692246 	 13.4995507637017
390.1448321139 	 23.9817310572028
END IONS

BEGIN IONS
PEPMASS=501.1927
CHARGE=1
MSLEVEL=2
RT=0
SOURCE_INSTRUMENT=qTOF
FILENAME=CCMSLIB00000078957.ms
IONMODE=Positive
ORGANISM=Natural
NAME=FLUTICASONE PROPIONATE
PI=GNPS
DATACOLLECTOR=GNPS
SMILES=CCC(=O)O[C@@]1([C@H](C)C[C@H]2[C@@H]3C[C@@H](C4=CC(=O)C=C[C@]4(C)[C@]3([C@H](C[C@]12C)O)F)F)C(=O)SCF
INCHI=InChI=1S/C25H31F3O5S/c1-5-20(31)33-25(21(32)34-12-26)13(2)8-15-16-10-18(27)17-9-14(29)6-7-22(17,3)24(16,28)19(30)11-23(15,25)4/h6-7,9,13,15-16,18-19,30H,5,8,10-12H2,1-4H3/t13-,15+,16+,18+,19+,22+,23+,24+,25+/m1/s1
FORMULA=C25H31F3O5S
PUBMED=N/A
SUBMITUSER=BIOADREM
LIBRARYQUALITY=0
SPECTRUMID=CCMSLIB00000078957
SCANS=1311
ID=CCMSLIB00000078957
107.085526321 	 3.6
121.0647908789 	 8.56
135.0804409431 	 5.02
155.0866691752 	 3.81
159.0804409431 	 3.9
171.0804409431 	 9.64
179.0866691752 	 14.13
185.059705501 	 7.17
205.0659337331 	 28.04
209.0972338615 	 2.5
223.1117410715 	 3.16
235.1128839257 	 2.58
246.1039160394 	 2.27
247.1481265778 	 2.88
260.1195661036 	 5.73
261.1273911357 	 5.02
265.1598341183 	 28.04
275.1430411999 	 27.51
285.1660623504 	 3.75
293.1547487404 	 77.51
295.1504122862 	 20.85
303.137955822 	 3.16
313.1609769725 	 100
315.1566405183 	 6.09
321.1485205083 	 5.15
323.1453269083 	 3.65
331.1537831046 	 6.43
333.1672052046 	 17.12
339.1424694946 	 3.27
343.1515551404 	 2.26
359.1486977267 	 9
361.1443612725 	 12.49
369.1319048083 	 10.73
370.1375018762 	 2.86
379.1549259588 	 4.07
381.1494466504 	 5.73
387.1424694946 	 8.13
389.1392758946 	 9.28
390.1437301083 	 3.89
405.1530341809 	 3.62
407.1498405809 	 7.9
408.1542947946 	 2.25
463.1749124772 	 3.43
481.1854771635 	 7.04
501.1917053956 	 9.94
END IONS

BEGIN IONS
PEPMASS=279.1457
CHARGE=1
MSLEVEL=2
RT=0
SOURCE_INSTRUMENT=qTOF
FILENAME=CCMSLIB00000078958.ms
IONMODE=Positive
ORGANISM=Natural
NAME=LOMIFYLLINE
PI=GNPS
DATACOLLECTOR=GNPS
SMILES=CC(=O)CCCCn1cnc2c1c(=O)n(C)c(=O)n2C
INCHI=InChI=1S/C13H18N4O3/c1-9(18)6-4-5-7-17-8-14-11-10(17)12(19)16(3)13(20)15(11)2/h8H,4-7H2,1-3H3
FORMULA=C13H18N4O3
PUBMED=N/A
SUBMITUSER=BIOADREM
LIBRARYQUALITY=0
SPECTRUMID=CCMSLIB00000078958
SCANS=1312
ID=CCMSLIB00000078958
99.0790982724 	 21.25
124.0518804689 	 5.85
151.1229744598 	 0.59
181.0733441925 	 100
222.1237027413 	 0.35
279.1451664649 	 81.68
END IONS

BEGIN IONS
PEPMASS=306.0909
CHARGE=1
MSLEVEL=2
RT=0
SOURCE_INSTRUMENT=qTOF
FILENAME=CCMSLIB00000078960.ms
IONMODE=Positive
ORGANISM=Natural
NAME=FENOLDOPAM MESYLATE
PI=GNPS
DATACOLLECTOR=GNPS
SMILES=c1cc(ccc1C1CNCCc2c1cc(c(c2Cl)O)O)O
INCHI=InChI=1S/C16H16ClNO3/c17-15-11-5-6-18-8-13(9-1-3-10(19)4-2-9)12(11)7-14(20)16(15)21/h1-4,7,13,18-21H,5-6,8H2
FORMULA=C16H16ClNO3
PUBMED=N/A
SUBMITUSER=BIOADREM
LIBRARYQUALITY=0
SPECTRUMID=CCMSLIB00000078960
SCANS=1314
ID=CCMSLIB00000078960
103.0542261926 	 0.99976816969978
107.0491408147 	 19.3191916850199
119.0491408147 	 0.655886557706426
121.0647908789 	 0.909933928364437
125.0134240104 	 1.82373169506588
125.0152538705 	 1.20358564197674
131.047798144 	 1.2654070553688
131.0491408147 	 0.851010393725127
133.0647908789 	 0.473320196282987
137.0134240104 	 0.365132722846876
147.0440554368 	 0.528379892585294
148.0518804689 	 0.597928982651366
148.0756899162 	 0.284958077354044
149.0134240104 	 1.37552644797342
149.0152538705 	 0.807542212433832
153.0083386325 	 0.474286155867239
153.0101684926 	 1.15238978401144
157.0032532546 	 0.599860901819868
157.0050831147 	 1.42672230593872
159.0427127661 	 0.64043120435841
159.0440554368 	 0.898342413353425
160.0505377982 	 2.27386886132684
160.0518804689 	 2.39944360727947
162.0549544741 	 0.212511108535219
165.0083386325 	 0.57281403346084
165.0101684926 	 0.444341408755458
171.0189033188 	 2.26420926548433
171.0207331789 	 5.19493064410185
176.0706045383 	 1.57741200108187
177.0083386325 	 1.216143116572
177.0101684926 	 2.76650824929485
177.0784295704 	 3.9362853058228
181.0634482082 	 0.227966461883235
183.0189033188 	 0.32069858197133
183.0207331789 	 0.975619180093505
194.0367175941 	 0.322630501139832
195.0189033188 	 1.11664927939415
195.0207331789 	 3.69769328851281
198.0298023561 	 0.593099184730111
198.0316322162 	 0.968857463003748
207.0790982724 	 1.36103705420965
207.0804409431 	 0.99010857385727
208.0869233045 	 1.11181948147289
208.0882659752 	 0.663614234380434
212.0454524203 	 0.593099184730111
212.0472822804 	 6.78683203894749
221.059705501 	 0.334222016150844
225.0896629587 	 0.361268884509872
235.0740128945 	 0.3883157528689
235.0753555652 	 1.01618948263205
236.0831805973 	 0.997836250531278
237.0896629587 	 0.438545651249952
239.0689275166 	 1.76191028167381
253.0845775808 	 0.994938371778525
253.0859202515 	 1.81600401839187
254.0924026129 	 1.83532321007689
254.0937452836 	 3.67644217765929
271.0520333073 	 0.454966964182219
289.0625979936 	 8.77574282292029
306.087317235 	 0.275298481511534
306.0891470951 	 100
END IONS

BEGIN IONS
PEPMASS=544.1798
CHARGE=1
MSLEVEL=2
RT=0
SOURCE_INSTRUMENT=qTOF
FILENAME=CCMSLIB00000078961.ms
IONMODE=Positive
ORGANISM=Natural
NAME=EPIRUBICIN HYDROCHLORIDE
PI=GNPS
DATACOLLECTOR=GNPS
SMILES=C[C@H]1[C@@H]([C@H](C[C@@H](O1)O[C@H]1C[C@@](Cc2c1c(c1c(C(=O)c3cccc(c3C1=O)OC)c2O)O)(C(=O)CO)O)N)O
INCHI=InChI=1S/C27H29NO11/c1-10-22(31)13(28)6-17(38-10)39-15-8-27(36,16(30)9-29)7-12-19(15)26(35)21-20(24(12)33)23(32)11-4-3-5-14(37-2)18(11)25(21)34/h3-5,10,13,15,17,22,29,31,33,35-36H,6-9,28H2,1-2H3/t10-,13-,15-,17-,22-,27-/m0/s1
FORMULA=C27H29NO11
PUBMED=N/A
SUBMITUSER=BIOADREM
LIBRARYQUALITY=0
SPECTRUMID=CCMSLIB00000078961
SCANS=1315
ID=CCMSLIB00000078961
95.0491408147 	 2.46
104.0706045383 	 1.68
112.0756899162 	 9.99
113.059705501 	 27.05
130.0862546025 	 65.23
148.0968192888 	 21.34
287.0702701873 	 1.66
303.0651848094 	 1.79
305.0808348736 	 1.53
306.0522743994 	 11.55
315.0651848094 	 2.47
318.0522743994 	 1.5
320.0679244636 	 2.33
321.0757494957 	 81.24
324.086648533 	 1.18
331.0600994315 	 1.23
333.0757494957 	 15.14
346.0471890215 	 30.25
351.086314182 	 3.14
361.0706641178 	 49.02
363.073738123 	 2.53
364.0577537078 	 1.77
377.0655787399 	 4.34
379.0812288041 	 53.19
381.0843028093 	 3.05
395.0761434262 	 2.03
397.0917934904 	 100
399.0948674956 	 3.41
414.1183425919 	 1.87
508.1602074066 	 1.74
526.1707720929 	 11.47
544.1813367792 	 30.14
END IONS

BEGIN IONS
PEPMASS=614.3709
CHARGE=1
MSLEVEL=2
RT=0
SOURCE_INSTRUMENT=qTOF
FILENAME=CCMSLIB00000078964.ms
IONMODE=Positive
ORGANISM=Natural
NAME=Indinavir Sulfate
PI=GNPS
DATACOLLECTOR=GNPS
SMILES=CC(C)(C)N=C([C@@H]1CN(CCN1C[C@H](C[C@@H](Cc1ccccc1)C(=N[C@H]1c2ccccc2C[C@H]1O)O)O)Cc1cccnc1)O
INCHI=InChI=1S/C36H47N5O4/c1-36(2,3)39-35(45)31-24-40(22-26-12-9-15-37-21-26)16-17-41(31)23-29(42)19-28(18-25-10-5-4-6-11-25)34(44)38-33-30-14-8-7-13-27(30)20-32(33)43/h4-15,21,28-29,31-33,42-43H,16-20,22-24H2,1-3H3,(H,38,44)(H,39,45)/t28-,29+,31+,32-,33+/m1/s1
FORMULA=C36H47N5O4
PUBMED=N/A
SUBMITUSER=BIOADREM
LIBRARYQUALITY=0
SPECTRUMID=CCMSLIB00000078964
SCANS=1317
ID=CCMSLIB00000078964
94.0651252299 	 0.122471891000017
97.0760242672 	 3.91569851502832
98.0838492993 	 0.87091122488901
121.0760242672 	 0.546020514041743
123.0916743314 	 0.758645324805661
129.0698762568 	 0.207521815305584
132.0807752941 	 0.234737791083366
133.0647908789 	 1.67718450730579
145.0634482082 	 0.170099848611135
147.0916743314 	 0.233036792597255
153.1273911357 	 2.03099219241695
174.1025733687 	 0.787562299069554
175.0740128945 	 0.246644780486145
175.0753555652 	 0.908333191583459
176.1182234329 	 1.46626069502798
188.1069900446 	 2.17727806222252
192.100561996 	 0.503495551888959
192.1019046667 	 3.51426287230604
206.1175547309 	 2.13985609552808
207.1240370923 	 0.210923812277807
214.1338734971 	 0.709316368708432
215.1416985292 	 0.119069894027794
222.1403015457 	 2.12114511218085
230.1135319855 	 1.94083927265305
234.112469353 	 2.12114511218085
244.1417581087 	 3.24890710847267
250.1550028697 	 1.85068635288915
259.1553372207 	 0.173501845583357
269.1370070818 	 1.98506523329194
271.1441038324 	 0.520505536750072
272.1519288645 	 4.5875929170423
277.1996073386 	 3.38328598887547
280.1318621244 	 2.21129803194475
281.1370070818 	 1.94083927265305
282.1600882476 	 1.85068635288915
289.178477966 	 0.452465597305618
292.2230824349 	 2.07521815305584
294.1600882476 	 0.115667897055572
306.1475121886 	 3.90038952865332
306.1488548593 	 0.634472435319533
315.2179374775 	 1.1090510129446
316.2185518667 	 0.32829270781949
320.1604821781 	 1.94083927265305
320.1645049235 	 1.33018081613907
321.1709872849 	 0.132677881916685
324.1580768749 	 6.24946843797309
324.1594195456 	 0.590246474680638
325.1744552206 	 3.06860126894487
338.1750696098 	 1.31146983279185
339.1815519712 	 1.93573627719471
340.2145291213 	 2.25552399258365
346.191388376 	 0.190511830444471
349.191054025 	 1.98506523329194
362.2114551161 	 0.197315824388916
363.2179374775 	 0.452465597305618
364.2019530623 	 3.18937216145878
364.203295733 	 2.4732517988059
365.2097780944 	 0.580040483763969
366.2063697382 	 0.263654765347259
368.2094437434 	 1.89491231352804
372.2196144992 	 1.94083927265305
385.2148634723 	 0.132677881916685
403.2254281586 	 1.97145724540305
418.2448805095 	 2.16537107281974
421.2359928449 	 34.019969722227
422.2352645634 	 4.74918777322288
422.243817877 	 4.67434383983398
423.2430895955 	 1.21281192059739
448.2383385686 	 2.30145095170865
450.2751180054 	 2.03099219241695
464.3020014579 	 2.12114511218085
465.2860170427 	 13.9737025634047
465.3390013534 	 2.03099219241695
466.2852887612 	 5.7255609042508
466.2938420748 	 0.355508683597272
467.2805377343 	 2.12114511218085
467.2931137933 	 0.20241881984725
468.3135148844 	 1.85068635288915
481.2472262332 	 2.93252139005596
495.2754523564 	 1.47136369048632
496.2832773885 	 0.515402541291738
513.2860170427 	 1.8881083195836
514.2938420748 	 0.166697851638912
524.3747724705 	 1.85068635288915
540.29691608 	 2.43582983211145
541.3173171711 	 2.21129803194475
542.3615277095 	 2.03099219241695
558.3200568253 	 2.21129803194475
596.3595163368 	 19.0630900338499
597.3673413689 	 11.6994675874738
614.3700810231 	 100
END IONS

BEGIN IONS
PEPMASS=309.0902
CHARGE=1
MSLEVEL=2
RT=0
SOURCE_INSTRUMENT=qTOF
FILENAME=CCMSLIB00000078969.ms
IONMODE=Positive
ORGANISM=Natural
NAME=8-chloro-1-methyl-6-phenyl-4H-[1,2,4]triazolo[4,3-a][1,4]benzodiazepine
PI=GNPS
DATACOLLECTOR=GNPS
SMILES=Cc1nnc2CN=C(c3ccccc3)c3cc(ccc3n12)Cl
INCHI=InChI=1S/C17H13ClN4/c1-11-20-21-16-10-19-17(12-5-3-2-4-6-12)14-9-13(18)7-8-15(14)22(11)16/h2-9H,10H2,1H3
FORMULA=C17H13ClN4
PUBMED=N/A
SUBMITUSER=BIOADREM
LIBRARYQUALITY=0
SPECTRUMID=CCMSLIB00000078969
SCANS=1320
ID=CCMSLIB00000078969
104.0494751657 	 1.15
128.0494751657 	 1.62
131.060374203 	 2.75
138.0105028436 	 4.25
163.0057518167 	 1.12
165.0214018809 	 7.67
171.0790982724 	 1.44
190.0651252299 	 1.57
191.072950262 	 2.91
199.0309039347 	 1.53
204.0323009182 	 1.95
204.0807752941 	 3.97
205.0760242672 	 18.2
206.0479509824 	 3.16
216.0681992351 	 3.04
224.0261529078 	 7.27
226.041802972 	 2.51
227.0496280041 	 5.53
232.0869233045 	 1.19
238.041802972 	 1.87
241.0527020093 	 16.4
247.1103984008 	 0.99
251.0370519451 	 9.87
252.0448769772 	 2.58
255.0683520735 	 5.79
264.0574530362 	 1.68
273.113472406 	 2
274.1212974381 	 36.7
280.0636010466 	 2.04
281.0714260787 	 100
282.0792511108 	 16.2
309.0901501481 	 268.76
END IONS

BEGIN IONS
PEPMASS=830.3354
CHARGE=1
MSLEVEL=2
RT=0
SOURCE_INSTRUMENT=qTOF
FILENAME=CCMSLIB00000078971.ms
IONMODE=Positive
ORGANISM=Natural
NAME=DOCETAXEL
PI=GNPS
DATACOLLECTOR=GNPS
SMILES=CC1=C2[C@H](C(=O)[C@]3(C)[C@H](C[C@@H]4[C@@](CO4)([C@H]3[C@@H]([C@@](C[C@@H]1OC(=O)[C@@H]([C@H](c1ccccc1)N=C(O)OC(C)(C)C)O)(C2(C)C)O)OC(=O)c1ccccc1)OC(=O)C)O)O
INCHI=InChI=1S/C43H53NO14/c1-22-26(55-37(51)32(48)30(24-15-11-9-12-16-24)44-38(52)58-39(3,4)5)20-43(53)35(56-36(50)25-17-13-10-14-18-25)33-41(8,34(49)31(47)29(22)40(43,6)7)27(46)19-28-42(33,21-54-28)57-23(2)45/h9-18,26-28,30-33,35,46-48,53H,19-21H2,1-8H3,(H,44,52)/t26-,27-,28+,30-,31+,32+,33-,35-,41+,42-,43-/m0/s1
FORMULA=C43H53NO14
PUBMED=N/A
SUBMITUSER=BIOADREM
LIBRARYQUALITY=0
SPECTRUMID=CCMSLIB00000078971
SCANS=1321
ID=CCMSLIB00000078971
105.0334907505 	 7.69558599695586
119.0491408147 	 4.14611872146119
127.0753555652 	 1.37595129375951
127.1117410715 	 1.01065449010654
147.0440554368 	 2.62404870624049
149.059705501 	 2.49619482496195
165.0546201231 	 7.7503805175038
173.1324765136 	 1.19330289193303
177.1273911357 	 0.706240487062405
182.0811692246 	 46.2587519025875
183.1168264494 	 2.40487062404871
189.163776642 	 0.80365296803653
191.1066556936 	 0.669710806697108
191.1430411999 	 1.11415525114155
195.1168264494 	 2.71537290715373
198.1403015457 	 0.675799086757991
199.1117410715 	 2.3013698630137
203.1430411999 	 1.13850837138508
207.1226996883 	 2.13698630136986
207.137955822 	 0.669710806697108
209.1324765136 	 3.33028919330289
215.1430411999 	 0.858447488584475
223.1117410715 	 2.69710806697108
225.1273911357 	 2.55098934550989
226.0709984688 	 100
227.1430411999 	 2.19178082191781
237.151200583 	 1.04109589041096
239.1489144388 	 5.61339421613394
245.1324765136 	 2.66057838660578
251.1430411999 	 2.4779299847793
253.1586912641 	 5.28462709284627
259.1328704441 	 2.45966514459665
263.1430411999 	 5.46727549467276
265.1586912641 	 2.71537290715373
266.1301307899 	 3.12937595129376
267.137955822 	 2.82496194824962
277.1798206367 	 0.821917808219178
279.137955822 	 5.24809741248097
281.1536058862 	 14.7884322678843
282.1335987256 	 50.3196347031963
282.1547280982 	 6.17351598173516
283.138743683 	 10.1552511415525
284.1406954762 	 1.22374429223744
285.1485205083 	 2.78843226788432
291.137955822 	 2.5144596651446
297.1485205083 	 3.85388127853881
299.1641705725 	 4.61491628614916
305.1747352588 	 1.20547945205479
309.1485205083 	 18.2465753424658
310.1496427203 	 5.41248097412481
327.1523823745 	 0.986301369863014
327.1590851946 	 14.4840182648402
328.1602074066 	 4.42009132420091
345.1629470608 	 1.85083713850837
345.1696498809 	 7.54946727549467
346.1707720929 	 4.14611872146119
346.177474913 	 1.01674277016743
347.1489144388 	 0.706240487062405
361.2009500093 	 0.687975646879756
387.1802145672 	 4.1400304414003
405.1907792535 	 6.48401826484018
406.1927310467 	 2.4779299847793
449.1958646314 	 5.4855403348554
467.2064293177 	 2.28310502283105
468.2083811109 	 0.876712328767123
487.2411973818 	 1.22983257229833
491.2064293177 	 2.98934550989346
505.2432087545 	 1.63774733637747
509.216994004 	 38.2891933028919
510.218116216 	 10.6971080669711
511.2259412481 	 3.62252663622527
527.2275586903 	 81.3028919330289
528.2286809023 	 11.1537290715373
528.2295104835 	 20.8280060882801
529.2306326955 	 4.72450532724505
529.2365059344 	 3.27549467275495
530.2384577276 	 1.26636225266362
579.231026626 	 0.779299847792999
581.216994004 	 0.687975646879756
710.2721631592 	 0.815829528158295
752.2701517865 	 1.11415525114155
808.3538814159 	 88.4079147640792
END IONS

BEGIN IONS
PEPMASS=303.2319
CHARGE=1
MSLEVEL=2
RT=0
SOURCE_INSTRUMENT=qTOF
FILENAME=CCMSLIB00000078973.ms
IONMODE=Positive
ORGANISM=Natural
NAME=(8R,9S,10R,13S,14S,17S)-17-hydroxy-10,13,17-trimethyl-2,6,7,8,9,11,12,14,15,16-decahydro-1H-cyclopenta[a]phenanthren-3-one
PI=GNPS
DATACOLLECTOR=GNPS
SMILES=C[C@]12CCC(=O)C=C1CC[C@@H]1[C@@H]2CC[C@@]2(C)[C@H]1CC[C@]2(C)O
INCHI=InChI=1S/C20H30O2/c1-18-9-6-14(21)12-13(18)4-5-15-16(18)7-10-19(2)17(15)8-11-20(19,3)22/h12,15-17,22H,4-11H2,1-3H3/t15-,16+,17+,18+,19+,20+/m1/s1
FORMULA=C20H30O2
PUBMED=N/A
SUBMITUSER=BIOADREM
LIBRARYQUALITY=0
SPECTRUMID=CCMSLIB00000078973
SCANS=1323
ID=CCMSLIB00000078973
95.085526321 	 7.24
97.0647908789 	 52.91
105.0698762568 	 3.92
107.085526321 	 9.66
109.0647908789 	 88.88
119.085526321 	 9.48
121.0647908789 	 3.52
121.1011763852 	 10.9
123.0804409431 	 16.14
131.085526321 	 4.27
133.1011763852 	 12.38
135.1168264494 	 6.69
137.1324765136 	 3.9
143.085526321 	 5.18
145.1011763852 	 4.03
147.1168264494 	 7.97
149.0960910073 	 5.33
149.1324765136 	 8.68
157.1011763852 	 5.18
159.1168264494 	 13.73
161.0960910073 	 3.36
161.1324765136 	 11.37
163.1117410715 	 3.48
163.1481265778 	 9.76
171.1168264494 	 7.01
173.1324765136 	 3.68
175.1117410715 	 5.12
175.1481265778 	 9.01
177.1273911357 	 11.61
177.163776642 	 13.09
185.1324765136 	 7.65
187.1481265778 	 9.64
189.163776642 	 30.79
191.1430411999 	 2.99
201.163776642 	 8.19
203.1794267062 	 12.04
211.1481265778 	 6.95
215.1430411999 	 4.74
215.1794267062 	 3.36
225.163776642 	 5.61
227.1794267062 	 22.43
229.1586912641 	 6.65
241.1950767704 	 3.86
243.1743413283 	 5.29
245.1899913925 	 14.38
267.2107268346 	 36.34
285.2212915209 	 100
303.2318562072 	 904.9
END IONS

BEGIN IONS
PEPMASS=391.139
CHARGE=1
MSLEVEL=2
RT=0
SOURCE_INSTRUMENT=qTOF
FILENAME=CCMSLIB00000078975.ms
IONMODE=Positive
ORGANISM=Natural
NAME=PICEID
PI=GNPS
DATACOLLECTOR=GNPS
SMILES=C(=C\c1cc(cc(c1)O[C@H]1[C@@H]([C@H]([C@@H]([C@@H](CO)O1)O)O)O)O)/c1ccc(cc1)O
INCHI=InChI=1S/C20H22O8/c21-10-16-17(24)18(25)19(26)20(28-16)27-15-8-12(7-14(23)9-15)2-1-11-3-5-13(22)6-4-11/h1-9,16-26H,10H2/b2-1+/t16-,17-,18+,19-,20-/m1/s1
FORMULA=C20H22O8
PUBMED=N/A
SUBMITUSER=BIOADREM
LIBRARYQUALITY=0
SPECTRUMID=CCMSLIB00000078975
SCANS=1325
ID=CCMSLIB00000078975
91.0542261926 	 2.24
107.0491408147 	 3.57
108.0569658468 	 1.82
135.0440554368 	 14.93
136.0518804689 	 2.78
142.0777012889 	 1.95
165.0698762568 	 4.31
187.0753555652 	 1.53
210.0675305331 	 1.74
211.0753555652 	 3.77
228.0780952194 	 5.72
229.0859202515 	 100
391.138743683 	 0
END IONS

BEGIN IONS
PEPMASS=322.1761
CHARGE=1
MSLEVEL=2
RT=0
SOURCE_INSTRUMENT=qTOF
FILENAME=CCMSLIB00000078976.ms
IONMODE=Positive
ORGANISM=Natural
NAME=ethyl 4-[6-(diaminomethylideneamino)hexanoyloxy]benzoate
PI=GNPS
DATACOLLECTOR=GNPS
SMILES=CCOC(=O)c1ccc(cc1)OC(=O)CCCCCNC(=N)N
INCHI=InChI=1S/C16H23N3O4/c1-2-22-15(21)12-7-9-13(10-8-12)23-14(20)6-4-3-5-11-19-16(17)18/h7-10H,2-6,11H2,1H3,(H4,17,18,19)
FORMULA=C16H23N3O4
PUBMED=N/A
SUBMITUSER=BIOADREM
LIBRARYQUALITY=0
SPECTRUMID=CCMSLIB00000078976
SCANS=1326
ID=CCMSLIB00000078976
61.9998448984 	 0.113578192986947
94.0651252299 	 0.466310468390069
95.0491408147 	 1.2885525979012
96.0807752941 	 3.50852636293832
97.0647908789 	 0.421119145124136
103.0178406863 	 0.148371512669567
111.0916743314 	 0.914224468901971
112.0756899162 	 0.194362682364986
114.0913399804 	 5.96365497824418
121.0284053726 	 7.99846429485539
122.060039852 	 0.171966982339391
123.0804409431 	 0.48670655234195
139.0389700589 	 4.26958024059381
139.0865889535 	 2.16678397747632
156.113138055 	 1.33894292295879
167.0702701873 	 1.59489378039416
202.0822318571 	 0.140772971589455
259.1077183261 	 1.01900435116458
277.1182830124 	 1.16817571026363
278.1261080445 	 0.307141028922447
294.1448321139 	 4.46754223189148
305.1495831408 	 0.311140261069875
322.1761322423 	 100
END IONS

BEGIN IONS
PEPMASS=194.0827
CHARGE=1
MSLEVEL=2
RT=0
SOURCE_INSTRUMENT=qTOF
FILENAME=CCMSLIB00000078977.ms
IONMODE=Positive
ORGANISM=Natural
NAME=ACTARIT
PI=GNPS
DATACOLLECTOR=GNPS
SMILES=CC(=Nc1ccc(cc1)CC(=O)O)O
INCHI=InChI=1S/C10H11NO3/c1-7(12)11-9-4-2-8(3-5-9)6-10(13)14/h2-5H,6H2,1H3,(H,11,12)(H,13,14)
FORMULA=C10H11NO3
PUBMED=N/A
SUBMITUSER=BIOADREM
LIBRARYQUALITY=0
SPECTRUMID=CCMSLIB00000078977
SCANS=1327
ID=CCMSLIB00000078977
82.0651252299 	 0.63
106.0651252299 	 87.37
148.0756899162 	 100
152.0706045383 	 6.36
153.0784295704 	 0.77
176.0706045383 	 1.08
194.0811692246 	 119.79
END IONS

BEGIN IONS
PEPMASS=177.0662
CHARGE=1
MSLEVEL=2
RT=0
SOURCE_INSTRUMENT=qTOF
FILENAME=CCMSLIB00000078978.ms
IONMODE=Positive
ORGANISM=Natural
NAME=2-amino-5-phenyl-1,3-oxazol-4-one
PI=GNPS
DATACOLLECTOR=GNPS
SMILES=c1ccc(cc1)C1C(=NC(=N)O1)O
INCHI=InChI=1S/C9H8N2O2/c10-9-11-8(12)7(13-9)6-4-2-1-3-5-6/h1-5,7H,(H2,10,11,12)
FORMULA=C9H8N2O2
PUBMED=N/A
SUBMITUSER=BIOADREM
LIBRARYQUALITY=0
SPECTRUMID=CCMSLIB00000078978
SCANS=1328
ID=CCMSLIB00000078978
105.0334907505 	 1.5
106.0651252299 	 100
132.0443897878 	 1.13
160.0393044099 	 1.68
177.0658535114 	 11.65
END IONS

BEGIN IONS
PEPMASS=267.1386
CHARGE=1
MSLEVEL=2
RT=0
SOURCE_INSTRUMENT=qTOF
FILENAME=CCMSLIB00000078980.ms
IONMODE=Positive
ORGANISM=Natural
NAME=HONOKIOL
PI=GNPS
DATACOLLECTOR=GNPS
SMILES=C=CCc1ccc(c(c1)c1ccc(c(CC=C)c1)O)O
INCHI=InChI=1S/C18H18O2/c1-3-5-13-7-9-18(20)16(11-13)14-8-10-17(19)15(12-14)6-4-2/h3-4,7-12,19-20H,1-2,5-6H2
FORMULA=C18H18O2
PUBMED=N/A
SUBMITUSER=BIOADREM
LIBRARYQUALITY=0
SPECTRUMID=CCMSLIB00000078980
SCANS=1329
ID=CCMSLIB00000078980
165.0698762568 	 3.85
166.0777012889 	 3.32
170.072615911 	 4.75
179.085526321 	 4.21
194.072615911 	 4.39
197.059705501 	 25.63
198.0675305331 	 11.47
207.0804409431 	 6.45
211.0753555652 	 25.99
225.0910056294 	 31.27
226.0988306615 	 100
267.137955822 	 52.69
END IONS

BEGIN IONS
PEPMASS=405.1169
CHARGE=1
MSLEVEL=2
RT=0
SOURCE_INSTRUMENT=qTOF
FILENAME=CCMSLIB00000078981.ms
IONMODE=Positive
ORGANISM=Natural
NAME=tosufloxacin tosilate
PI=GNPS
DATACOLLECTOR=GNPS
SMILES=c1cc(c(cc1F)F)n1cc(c(=O)c2cc(c(nc12)N1CCC(C1)N)F)C(=O)O
INCHI=InChI=1S/C19H15F3N4O3/c20-9-1-2-15(13(21)5-9)26-8-12(19(28)29)16(27)11-6-14(22)18(24-17(11)26)25-4-3-10(23)7-25/h1-2,5-6,8,10H,3-4,7,23H2,(H,28,29)
FORMULA=C19H15F3N4O3
PUBMED=N/A
SUBMITUSER=BIOADREM
LIBRARYQUALITY=0
SPECTRUMID=CCMSLIB00000078981
SCANS=1330
ID=CCMSLIB00000078981
247.0477587709 	 1.87
248.0317743557 	 1.26
272.0629942624 	 0.6
275.042673393 	 14.14
284.0629942624 	 1.21
292.0692224945 	 1.93
293.0532380793 	 1.54
296.0993797687 	 0.98
302.0535724303 	 0.78
304.0692224945 	 12.83
313.0895433639 	 1.19
314.0899579366 	 2.41
316.0692224945 	 5.79
318.0473441982 	 1.25
318.0848725587 	 0.57
324.0942943908 	 11.81
330.0484870524 	 1.48
333.095771596 	 4.06
336.0579088845 	 0.77
339.0688079218 	 0.94
342.0848725587 	 4.3
344.1005226229 	 100
346.1035966281 	 1.64
348.0590517387 	 3.34
359.0750361539 	 1.15
359.1114216602 	 2.44
361.1270717244 	 34.69
367.1001080502 	 0.69
370.0797871808 	 0.97
377.0856008402 	 4.25
387.1063362823 	 64.38
389.0981768992 	 4.07
405.1169009686 	 207.37
END IONS

BEGIN IONS
PEPMASS=445.1603
CHARGE=1
MSLEVEL=2
RT=0
SOURCE_INSTRUMENT=qTOF
FILENAME=CCMSLIB00000078983.ms
IONMODE=Positive
ORGANISM=Natural
NAME=HALOMETASONE MONOHYDRATE
PI=GNPS
DATACOLLECTOR=GNPS
SMILES=C[C@@H]1C[C@H]2[C@@H]3C[C@@H](C4=CC(=O)C(=C[C@]4(C)[C@]3([C@H](C[C@]2(C)[C@]1(C(=O)CO)O)O)F)Cl)F
INCHI=InChI=1S/C22H27ClF2O5/c1-10-4-11-12-5-15(24)13-6-16(27)14(23)7-19(13,2)21(12,25)17(28)8-20(11,3)22(10,30)18(29)9-26/h6-7,10-12,15,17,26,28,30H,4-5,8-9H2,1-3H3/t10-,11+,12+,15+,17+,19+,20+,21+,22+/m1/s1
FORMULA=C22H27ClF2O5
PUBMED=N/A
SUBMITUSER=BIOADREM
LIBRARYQUALITY=0
SPECTRUMID=CCMSLIB00000078983
SCANS=1331
ID=CCMSLIB00000078983
133.0647908789 	 8.25
133.1011763852 	 8.25
137.0960910073 	 8.97
155.0258185568 	 100
181.041468621 	 8.37
191.1066556936 	 10.41
209.0972338615 	 9.81
221.0983767157 	 9.45
227.1077985478 	 12.2
236.1195661036 	 8.25
257.0750544578 	 8.01
269.0727687494 	 8.13
270.0805937815 	 13.4
271.0884188136 	 8.85
283.090704522 	 9.45
287.0833334357 	 53.83
307.0895616678 	 46.65
309.0921484836 	 10.65
311.119718942 	 19.26
312.1087003099 	 9.09
313.1153824878 	 11.12
329.1302836283 	 12.8
330.125045412 	 9.21
331.1259471741 	 19.74
343.1270900283 	 16.03
347.1208617962 	 8.25
349.1365118604 	 14.71
350.1312736441 	 9.45
367.1340132983 	 8.13
369.1263411046 	 15.79
371.1220046504 	 19.98
377.1314264825 	 11.6
385.1445779846 	 9.93
389.1325693367 	 23.44
391.1270900283 	 8.73
407.1419911688 	 9.45
409.1376547146 	 10.65
427.1482194009 	 24.76
445.1587840872 	 3.23
END IONS

BEGIN IONS
PEPMASS=826.4717
CHARGE=1
MSLEVEL=2
RT=0
SOURCE_INSTRUMENT=qTOF
FILENAME=CCMSLIB00000078984.ms
IONMODE=Positive
ORGANISM=Natural
NAME=TACROLIMUS
PI=GNPS
DATACOLLECTOR=GNPS
SMILES=C=CC[C@@H]1C=C(C)C[C@H](C)C[C@@H]([C@@H]2[C@H](C[C@@H](C)[C@@](C(=O)C(=O)N3CCCC[C@H]3C(=O)O[C@H](/C(=C/[C@@H]3CC[C@H]([C@@H](C3)OC)O)/C)[C@H](C)[C@H](CC1=O)O)(O)O2)OC)OC
INCHI=InChI=1S/C44H69NO12/c1-10-13-31-19-25(2)18-26(3)20-37(54-8)40-38(55-9)22-28(5)44(52,57-40)41(49)42(50)45-17-12-11-14-32(45)43(51)56-39(29(6)34(47)24-35(31)48)27(4)21-30-15-16-33(46)36(23-30)53-7/h10,19,21,26,28-34,36-40,46-47,52H,1,11-18,20,22-24H2,2-9H3/b25-19?,27-21+/t26-,28+,29+,30-,31+,32-,33+,34-,36+,37-,38-,39+,40+,44+/m0/s1
FORMULA=C44H69NO12
PUBMED=N/A
SUBMITUSER=BIOADREM
LIBRARYQUALITY=0
SPECTRUMID=CCMSLIB00000078984
SCANS=1332
ID=CCMSLIB00000078984
383.2733270914 	 3.65
393.2635502661 	 31.31
394.2655020593 	 10.46
409.2584648882 	 8.45
411.2741149524 	 6.02
421.2584648882 	 19.09
422.2604166814 	 10.21
437.2533795103 	 5.59
438.2553313035 	 5.05
439.2690295745 	 7.6
440.2709813677 	 4.01
455.2639441966 	 9.18
465.2482941324 	 24.5
466.2502459256 	 7.36
483.2588588187 	 56.47
484.2608106119 	 15.02
522.3366556297 	 4.92
550.3315702518 	 5.65
566.3323581128 	 13.37
567.334309906 	 6.87
586.4102145033 	 5.65
594.3272727349 	 100
595.3292245281 	 34.53
603.4282102912 	 25.96
604.4207791896 	 10.33
613.412560227 	 11.12
631.4231249133 	 20.24
632.4156938117 	 8.15
649.4336895996 	 7.11
650.426258498 	 3.4
657.3997093965 	 10.82
658.3949583696 	 9.18
675.4102740828 	 12.83
676.4055230559 	 4.01
693.4208387691 	 14.16
695.4239127743 	 4.86
786.478687999 	 22.67
804.4892526853 	 404.01
END IONS

BEGIN IONS
PEPMASS=382.1681
CHARGE=1
MSLEVEL=2
RT=0
SOURCE_INSTRUMENT=qTOF
FILENAME=CCMSLIB00000078987.ms
IONMODE=Positive
ORGANISM=Natural
NAME=azelastine hydrochloride
PI=GNPS
DATACOLLECTOR=GNPS
SMILES=CN1CCCC(CC1)n1c(=O)c2ccccc2c(Cc2ccc(cc2)Cl)n1
INCHI=InChI=1S/C22H24ClN3O/c1-25-13-4-5-18(12-14-25)26-22(27)20-7-3-2-6-19(20)21(24-26)15-16-8-10-17(23)11-9-16/h2-3,6-11,18H,4-5,12-15H2,1H3
FORMULA=C22H24ClN3O
PUBMED=N/A
SUBMITUSER=BIOADREM
LIBRARYQUALITY=0
SPECTRUMID=CCMSLIB00000078987
SCANS=1334
ID=CCMSLIB00000078987
89.0385761284 	 0.195017441700772
98.0964253583 	 1.07122256708875
98.9996038063 	 0.148323124673826
103.0542261926 	 1.5409124618892
110.0964253583 	 2.87307385942264
112.1120754225 	 27.4672453099679
125.0152538705 	 16.9417969071882
128.0135768488 	 0.310379872002637
130.0287397236 	 0.582305600571319
131.0491408147 	 0.755349246024116
131.0496280041 	 0.123602603894855
159.0552888251 	 12.3135660724586
171.0557760145 	 0.233471585134727
197.0714260787 	 0.249951932320708
219.0678648841 	 5.85876342461615
224.120053293 	 0.0714148378059164
227.0496280041 	 0.53835800807537
228.0574530362 	 0.354327464498585
254.0367175941 	 1.66726179031505
255.0445426262 	 1.1948251709836
256.0523676583 	 0.0933886340538907
271.0632666956 	 29.6206773422693
283.0632666956 	 30.4089872826654
297.0789167598 	 0.505397313703409
309.0789167598 	 1.09319636333672
311.094566824 	 1.18109154832862
323.094566824 	 0.477930068393441
339.1258669524 	 3.98549729447634
351.1258669524 	 3.53503447139286
382.1680661181 	 100
END IONS

BEGIN IONS
PEPMASS=286.1086
CHARGE=1
MSLEVEL=2
RT=0
SOURCE_INSTRUMENT=qTOF
FILENAME=CCMSLIB00000078988.ms
IONMODE=Positive
ORGANISM=Natural
NAME=LETROZOLE
PI=GNPS
DATACOLLECTOR=GNPS
SMILES=c1cc(ccc1C#N)C(c1ccc(cc1)C#N)n1cncn1
INCHI=InChI=1S/C17H11N5/c18-9-13-1-5-15(6-2-13)17(22-12-20-11-21-22)16-7-3-14(10-19)4-8-16/h1-8,11-12,17H
FORMULA=C17H11N5
PUBMED=N/A
SUBMITUSER=BIOADREM
LIBRARYQUALITY=0
SPECTRUMID=CCMSLIB00000078988
SCANS=1335
ID=CCMSLIB00000078988
163.0542261926 	 0.51
188.0494751657 	 0.33
190.0651252299 	 50.8
215.060374203 	 10.63
217.0760242672 	 100
286.1087213791 	 1.16
END IONS

BEGIN IONS
PEPMASS=204.1402
CHARGE=1
MSLEVEL=2
RT=0
SOURCE_INSTRUMENT=qTOF
FILENAME=CCMSLIB00000078989.ms
IONMODE=Positive
ORGANISM=Natural
NAME=N-Ethyl-o-crotonotoluidide
PI=GNPS
DATACOLLECTOR=GNPS
SMILES=C/C=C/C(=O)N(CC)c1ccccc1C
INCHI=InChI=1S/C13H17NO/c1-4-8-13(15)14(5-2)12-10-7-6-9-11(12)3/h4,6-10H,5H2,1-3H3/b8-4+
FORMULA=C13H17NO
PUBMED=N/A
SUBMITUSER=BIOADREM
LIBRARYQUALITY=0
SPECTRUMID=CCMSLIB00000078989
SCANS=1336
ID=CCMSLIB00000078989
91.0542261926 	 1.94891358434235
93.0573001978 	 1.63874606070659
96.0807752941 	 0.632774921214132
105.0698762568 	 0.248797478852214
106.0651252299 	 11.3775087079118
107.072950262 	 1.60308508873777
108.0807752941 	 4.06618012937469
115.0542261926 	 0.707414164869796
116.0494751657 	 1.2920882401725
117.0573001978 	 0.904793498092553
118.0651252299 	 0.841764803449992
119.072950262 	 0.151766462099851
120.0807752941 	 0.88654834964339
121.0886003262 	 4.0678387792337
128.0494751657 	 0.412174489965168
130.0651252299 	 0.431248963343838
131.072950262 	 0.546525128545364
132.0807752941 	 0.466080610383148
134.060039852 	 7.18610051418146
134.0964253583 	 4.93862995521645
136.1120754225 	 12.0907281472881
143.072950262 	 1.36341018411013
144.0807752941 	 0.131033338862166
146.060039852 	 0.821031680212307
146.0964253583 	 0.689998341350141
147.0678648841 	 0.167523635760491
156.0807752941 	 0.178304859844087
158.0964253583 	 3.21695140155913
162.0913399804 	 3.45994360590479
174.0913399804 	 0.239674904627633
176.1433755509 	 0.686681041632111
188.1069900446 	 0.217283131530934
204.138290173 	 100
END IONS

BEGIN IONS
PEPMASS=326.1544
CHARGE=1
MSLEVEL=2
RT=0
SOURCE_INSTRUMENT=qTOF
FILENAME=CCMSLIB00000078990.ms
IONMODE=Positive
ORGANISM=Natural
NAME=MECILLINAM
PI=GNPS
DATACOLLECTOR=GNPS
SMILES=CC1(C)[C@H](C(=O)O)N2C(=O)[C@H]([C@H]2S1)N=CN1CCCCCC1
INCHI=InChI=1S/C15H23N3O3S/c1-15(2)11(14(20)21)18-12(19)10(13(18)22-15)16-9-17-7-5-3-4-6-8-17/h9-11,13H,3-8H2,1-2H3,(H,20,21)/t10-,11+,13-/m1/s1
FORMULA=C15H23N3O3S
PUBMED=N/A
SUBMITUSER=BIOADREM
LIBRARYQUALITY=0
SPECTRUMID=CCMSLIB00000078990
SCANS=1337
ID=CCMSLIB00000078990
73.0396387609 	 6.07
98.0964253583 	 7.32
100.0089697967 	 14.02
101.0167948288 	 7.32
112.0215458557 	 6.23
112.1120754225 	 6.54
113.0709388893 	 6.07
114.0371959199 	 16.98
115.0416501336 	 6.54
126.0913399804 	 29.28
139.1229744598 	 16.67
149.110695214 	 6.23
153.0480949572 	 16.82
160.0426752283 	 86.29
161.047129442 	 32.71
162.0345158452 	 12.77
167.1178890819 	 100
169.1209630871 	 6.39
199.0535742656 	 33.8
238.1219881818 	 10.12
239.1264423955 	 11.21
240.0688899788 	 6.54
326.1532883102 	 1451.71
END IONS

BEGIN IONS
PEPMASS=358.9587
CHARGE=1
MSLEVEL=2
RT=0
SOURCE_INSTRUMENT=qTOF
FILENAME=CCMSLIB00000078991.ms
IONMODE=Positive
ORGANISM=Natural
NAME=TRICLABENDAZOLE
PI=GNPS
DATACOLLECTOR=GNPS
SMILES=CSc1[nH]c2cc(c(cc2n1)Oc1cccc(c1Cl)Cl)Cl
INCHI=InChI=1S/C14H9Cl3N2OS/c1-21-14-18-9-5-8(16)12(6-10(9)19-14)20-11-4-2-3-7(15)13(11)17/h2-6H,1H3,(H,18,19)
FORMULA=C14H9Cl3N2OS
PUBMED=N/A
SUBMITUSER=BIOADREM
LIBRARYQUALITY=0
SPECTRUMID=CCMSLIB00000078991
SCANS=1338
ID=CCMSLIB00000078991
139.0052646273 	 0.225885942267073
148.0074288384 	 0.225885942267073
163.0309039347 	 2.17085191269655
165.0209146915 	 8.25803801924431
170.9762815484 	 2.81917390283971
170.9773353173 	 3.44402722365642
182.9762815484 	 0.47230697019479
196.9929853815 	 1.01501994836893
197.9997566447 	 2.85144332316358
198.9711961705 	 6.77951185167801
198.9727371288 	 10.1766017366815
199.9771913425 	 0.903543769068294
213.9962122251 	 0.287491199249003
214.0054174657 	 2.93945083313776
231.9856475388 	 2.73409997653133
239.0273595151 	 0.428303215207698
242.0241415351 	 3.01279042478291
246.001297603 	 0.187749354611594
249.9820952078 	 0.20535085660643
250.9899202399 	 3.44402722365642
251.997745272 	 2.22072283501526
272.988387193 	 1.21157005397794
273.9962122251 	 50.27282328092
275.997745272 	 6.36000938746773
276.9929942451 	 4.18035672377376
280.970150313 	 0.762731753109599
291.0086443093 	 0.390166627552218
307.957239903 	 0.668857075803802
308.9650649351 	 10.698779629195
311.9618469551 	 0.815536259094109
315.951579082 	 0.196550105609012
343.9339176451 	 47.1720253461629
344.9417426772 	 6.11945552687163
358.9573927414 	 100
END IONS

BEGIN IONS
PEPMASS=406.2085
CHARGE=1
MSLEVEL=2
RT=0
SOURCE_INSTRUMENT=qTOF
FILENAME=CCMSLIB00000078992.ms
IONMODE=Positive
ORGANISM=Natural
NAME=Nifekalant hydrochloride
PI=GNPS
DATACOLLECTOR=GNPS
SMILES=Cn1c(cc(=O)n(C)c1=O)NCCN(CCCc1ccc(cc1)N(=O)=O)CCO
INCHI=InChI=1S/C19H27N5O5/c1-21-17(14-18(26)22(2)19(21)27)20-9-11-23(12-13-25)10-3-4-15-5-7-16(8-6-15)24(28)29/h5-8,14,20,25H,3-4,9-13H2,1-2H3
FORMULA=C19H27N5O5
PUBMED=N/A
SUBMITUSER=BIOADREM
LIBRARYQUALITY=0
SPECTRUMID=CCMSLIB00000078992
SCANS=1339
ID=CCMSLIB00000078992
96.0443897878 	 0.301146298814844
97.0760242672 	 0.476005440062172
100.0743472455 	 0.213716728191179
100.0756899162 	 0.845152516028755
102.0913399804 	 21.4008160093258
106.0413157826 	 11.1326986594132
112.0756899162 	 0.35943267923062
115.0542261926 	 0.893724499708568
115.0991650125 	 0.320575092286769
117.0698762568 	 4.20633378667185
118.0777012889 	 3.79832912376141
119.0491408147 	 0.408004662910433
125.0709388893 	 1.96230814066446
133.0647908789 	 0.514863027006023
136.0393044099 	 28.910044686225
147.0678648841 	 2.9434622109967
148.1120754225 	 0.932582086652419
164.0706045383 	 4.00233145521663
174.1277254867 	 0.272003108606956
181.0859202515 	 0.272003108606956
182.0924026129 	 12.755002914319
190.1226401088 	 0.262288711870993
193.1083870281 	 0.485719836798135
205.1447725344 	 1.86516417330484
205.1461152051 	 3.0988925587721
207.112803704 	 9.2189625024286
233.1271110975 	 0.408004662910433
233.1284537682 	 0.485719836798135
235.1077183261 	 0.670293374781426
237.1346017786 	 4.45890810180688
237.1359444493 	 2.91431902078881
250.1550028697 	 4.62405284631824
251.1376757838 	 97.143967359627
251.1390184545 	 97.143967359627
266.1499174918 	 0.35943267923062
388.1979303169 	 0.272003108606956
406.2084950032 	 100
END IONS

BEGIN IONS
PEPMASS=828.4727
CHARGE=1
MSLEVEL=2
RT=0
SOURCE_INSTRUMENT=qTOF
FILENAME=CCMSLIB00000078993.ms
IONMODE=Positive
ORGANISM=Natural
NAME=KITASAMYCIN
PI=GNPS
DATACOLLECTOR=GNPS
SMILES=CC(C)CC(=O)O[C@]1(C)C[C@@H](O[C@@H](C)[C@@H]1O)O[C@@H]1[C@@H](C)O[C@H]([C@@H]([C@H]1N(C)C)O)O[C@H]1[C@@H](CC=O)C[C@@H](C)[C@H](C=CC=CC[C@@H](C)OC(=O)C[C@H]([C@@H]1OC)OC(=O)C)O
INCHI=InChI=1S/C42H69NO15/c1-23(2)19-33(48)58-42(8)22-34(53-27(6)40(42)50)56-37-26(5)54-41(36(49)35(37)43(9)10)57-38-29(17-18-44)20-24(3)30(46)16-14-12-13-15-25(4)52-32(47)21-31(39(38)51-11)55-28(7)45/h12-14,16,18,23-27,29-31,34-41,46,49-50H,15,17,19-22H2,1-11H3/t24-,25-,26-,27+,29+,30+,31-,34+,35-,36-,37-,38+,39+,40+,41+,42-/m1/s1
FORMULA=C42H69NO15
PUBMED=N/A
SUBMITUSER=BIOADREM
LIBRARYQUALITY=0
SPECTRUMID=CCMSLIB00000078993
SCANS=1340
ID=CCMSLIB00000078993
109.0647908789 	 43.69
116.0706045383 	 5.68
130.0862546025 	 5.84
132.1019046667 	 12.93
174.112469353 	 100
175.1202943851 	 7.26
183.137955822 	 6.47
185.1172203799 	 6.62
229.1434351304 	 28.86
320.1770809825 	 6.31
382.164898854 	 6.31
480.2870253624 	 7.73
600.3167080486 	 9.31
614.3449341718 	 8.36
760.3174959096 	 5.99
828.4739965516 	 207.26
END IONS

BEGIN IONS
PEPMASS=193.1339
CHARGE=1
MSLEVEL=2
RT=0
SOURCE_INSTRUMENT=qTOF
FILENAME=CCMSLIB00000078994.ms
IONMODE=Positive
ORGANISM=Natural
NAME=TOCAINIDE
PI=GNPS
DATACOLLECTOR=GNPS
SMILES=Cc1cccc(C)c1N=C(C(C)N)O
INCHI=InChI=1S/C11H16N2O/c1-7-5-4-6-8(2)10(7)13-11(14)9(3)12/h4-6,9H,12H2,1-3H3,(H,13,14)
FORMULA=C11H16N2O
PUBMED=N/A
SUBMITUSER=BIOADREM
LIBRARYQUALITY=0
SPECTRUMID=CCMSLIB00000078994
SCANS=1341
ID=CCMSLIB00000078994
103.0542261926 	 2.89
105.0698762568 	 6.46
107.072950262 	 7.76
115.0542261926 	 1.64
122.0964253583 	 100
123.0804409431 	 2.41
132.0807752941 	 4.57
133.0886003262 	 1.94
148.1120754225 	 6.33
150.0913399804 	 9.44
158.0964253583 	 2.02
176.1069900446 	 3.4
193.1335391461 	 74.19
END IONS

BEGIN IONS
PEPMASS=256.1709
CHARGE=1
MSLEVEL=2
RT=0
SOURCE_INSTRUMENT=qTOF
FILENAME=CCMSLIB00000078996.ms
IONMODE=Positive
ORGANISM=Natural
NAME=Atomoxetine hydrochloride
PI=GNPS
DATACOLLECTOR=GNPS
SMILES=Cc1ccccc1O[C@H](CCNC)c1ccccc1
INCHI=InChI=1S/C17H21NO/c1-14-8-6-7-11-16(14)19-17(12-13-18-2)15-9-4-3-5-10-15/h3-11,17-18H,12-13H2,1-2H3/t17-/m1/s1
FORMULA=C17H21NO
PUBMED=N/A
SUBMITUSER=BIOADREM
LIBRARYQUALITY=0
SPECTRUMID=CCMSLIB00000078996
SCANS=1343
ID=CCMSLIB00000078996
117.0698762568 	 6.95
118.0777012889 	 4.11
121.0647908789 	 1.91
147.0804409431 	 6.41
148.1120754225 	 100
149.1199004546 	 18.8
225.1273911357 	 2.06
256.1695903014 	 217.03
END IONS

BEGIN IONS
PEPMASS=275.2006
CHARGE=1
MSLEVEL=2
RT=0
SOURCE_INSTRUMENT=qTOF
FILENAME=CCMSLIB00000079002.ms
IONMODE=Positive
ORGANISM=Natural
NAME=19-Nortestosterone
PI=GNPS
DATACOLLECTOR=GNPS
SMILES=C[C@]12CC[C@@H]3[C@H]4CCC(=O)C=C4CC[C@H]3[C@@H]1CC[C@@H]2O
INCHI=InChI=1S/C18H26O2/c1-18-9-8-14-13-5-3-12(19)10-11(13)2-4-15(14)16(18)6-7-17(18)20/h10,13-17,20H,2-9H2,1H3/t13-,14+,15+,16-,17-,18-/m0/s1
FORMULA=C18H26O2
PUBMED=N/A
SUBMITUSER=BIOADREM
LIBRARYQUALITY=0
SPECTRUMID=CCMSLIB00000079002
SCANS=1349
ID=CCMSLIB00000079002
95.085526321 	 2.97
105.0698762568 	 6.97
107.0491408147 	 6.63
107.085526321 	 6.71
109.0647908789 	 49.56
117.0698762568 	 3.24
119.085526321 	 7.72
121.1011763852 	 6.24
123.0804409431 	 2.31
129.0698762568 	 2.73
131.085526321 	 7.74
133.1011763852 	 8.81
135.0804409431 	 6.77
135.1168264494 	 11.1
141.0698762568 	 2.66
142.0777012889 	 2.85
143.085526321 	 15.66
145.1011763852 	 34.79
147.0804409431 	 3.98
147.1168264494 	 14.53
149.0960910073 	 9.48
149.1324765136 	 9.55
155.085526321 	 4.81
157.1011763852 	 11.25
159.1168264494 	 8.88
161.0960910073 	 12.9
161.1324765136 	 11.26
163.1117410715 	 12.95
171.1168264494 	 7.05
173.1324765136 	 2.76
175.1117410715 	 7.35
175.1481265778 	 3.48
177.1273911357 	 3.78
183.1168264494 	 13.75
185.1324765136 	 14
187.1481265778 	 19.8
189.1273911357 	 2.84
197.1324765136 	 10.08
199.1481265778 	 18.27
201.1273911357 	 8.05
203.1430411999 	 10.55
213.163776642 	 6.78
215.1430411999 	 2.89
217.1586912641 	 2.53
229.1950767704 	 3.12
231.1743413283 	 6.27
239.1794267062 	 69.2
257.1899913925 	 100
275.2005560788 	 520.3
END IONS

BEGIN IONS
PEPMASS=305.0659
CHARGE=1
MSLEVEL=2
RT=0
SOURCE_INSTRUMENT=qTOF
FILENAME=CCMSLIB00000079003.ms
IONMODE=Positive
ORGANISM=Natural
NAME=TAXIFOLIN-(+/-)
PI=GNPS
DATACOLLECTOR=GNPS
SMILES=c1cc(c(cc1[C@@H]1[C@@H](C(=O)c2c(cc(cc2O1)O)O)O)O)O
INCHI=InChI=1S/C15H12O7/c16-7-4-10(19)12-11(5-7)22-15(14(21)13(12)20)6-1-2-8(17)9(18)3-6/h1-5,14-19,21H/t14-,15-/m1/s1
FORMULA=C15H12O7
PUBMED=N/A
SUBMITUSER=BIOADREM
LIBRARYQUALITY=0
SPECTRUMID=CCMSLIB00000079003
SCANS=1350
ID=CCMSLIB00000079003
105.0334907505 	 2.88
111.0440554368 	 2.76
121.0284053726 	 8.19
123.0440554368 	 37.13
139.0389700589 	 11.36
149.0233199947 	 35.21
151.0389700589 	 3.38
153.0182346168 	 92.65
157.0647908789 	 3.09
161.059705501 	 3.59
167.033884681 	 13.12
179.033884681 	 7.89
185.059705501 	 8.19
186.0675305331 	 2.17
189.0546201231 	 2.05
195.0287993031 	 39.31
203.0702701873 	 3.05
213.0546201231 	 14.66
231.0651848094 	 43.15
241.0495347452 	 10.9
245.0444493673 	 2.13
259.0600994315 	 100
269.0444493673 	 2.46
287.0550140536 	 57.35
305.0655787399 	 49.83
END IONS

BEGIN IONS
PEPMASS=407.168
CHARGE=1
MSLEVEL=2
RT=0
SOURCE_INSTRUMENT=qTOF
FILENAME=CCMSLIB00000079008.ms
IONMODE=Positive
ORGANISM=Natural
NAME=ARTESUNATE
PI=GNPS
DATACOLLECTOR=GNPS
SMILES=C[C@@H]1CC[C@H]2[C@@H](C)[C@@H](OC(=O)CCC(=O)O)O[C@H]3[C@]42[C@H]1CC[C@](C)(O3)OO4
INCHI=InChI=1S/C19H28O8/c1-10-4-5-13-11(2)16(23-15(22)7-6-14(20)21)24-17-19(13)12(10)8-9-18(3,25-17)26-27-19/h10-13,16-17H,4-9H2,1-3H3,(H,20,21)/t10-,11-,12+,13+,16+,17-,18-,19-/m1/s1
FORMULA=C19H28O8
PUBMED=N/A
SUBMITUSER=BIOADREM
LIBRARYQUALITY=0
SPECTRUMID=CCMSLIB00000079008
SCANS=1354
ID=CCMSLIB00000079008
207.137955822 	 1.17
221.1536058862 	 12.87
225.1485205083 	 2.13
239.1641705725 	 100
267.1590851946 	 19.75
339.1802145672 	 6.56
385.1856938756 	 26.85
END IONS

BEGIN IONS
PEPMASS=448.1553
CHARGE=1
MSLEVEL=2
RT=0
SOURCE_INSTRUMENT=qTOF
FILENAME=CCMSLIB00000079010.ms
IONMODE=Positive
ORGANISM=Natural
NAME=ARIPIPRAZOLE
PI=GNPS
DATACOLLECTOR=GNPS
SMILES=C(CCOc1ccc2CCC(=Nc2c1)O)CN1CCN(CC1)c1cccc(c1Cl)Cl
INCHI=InChI=1S/C23H27Cl2N3O2/c24-19-4-3-5-21(23(19)25)28-13-11-27(12-14-28)10-1-2-15-30-18-8-6-17-7-9-22(29)26-20(17)16-18/h3-6,8,16H,1-2,7,9-15H2,(H,26,29)
FORMULA=C23H27Cl2N3O2
PUBMED=N/A
SUBMITUSER=BIOADREM
LIBRARYQUALITY=0
SPECTRUMID=CCMSLIB00000079010
SCANS=1355
ID=CCMSLIB00000079010
94.0651252299 	 0.4
98.0964253583 	 12.065
106.0651252299 	 0.42
117.0573001978 	 1.57
118.0651252299 	 4.105
120.0443897878 	 0.56
120.0807752941 	 1.305
122.060039852 	 1.755
134.060039852 	 1.545
146.060039852 	 11.05
148.0756899162 	 14.18
152.0261529078 	 3.33
153.0339779399 	 7.725
162.0549544741 	 0.86
162.0913399804 	 0.16
163.0991650125 	 0.365
164.0706045383 	 22.985
166.041802972 	 0.47
171.9715305215 	 2.47
174.0675305331 	 2
176.0706045383 	 72.5
188.0028306499 	 13.125
190.0862546025 	 0.85
200.0028306499 	 5.365
207.0683520735 	 0.17
208.0761771056 	 0.17
216.0341307783 	 1.46
218.1175547309 	 16.38
228.0215547193 	 4.78
243.0450298156 	 13.175
285.0919800082 	 100
289.0864074409 	 1.845
448.1553085465 	 83.51
END IONS

BEGIN IONS
PEPMASS=294.1601
CHARGE=1
MSLEVEL=2
RT=0
SOURCE_INSTRUMENT=qTOF
FILENAME=CCMSLIB00000079015.ms
IONMODE=Positive
ORGANISM=Natural
NAME=9-methyl-3-[(2-methylimidazol-1-yl)methyl]-2,3-dihydro-1H-carbazol-4-one
PI=GNPS
DATACOLLECTOR=GNPS
SMILES=Cc1nccn1CC1CCc2c(c3ccccc3n2C)C1=O
INCHI=InChI=1S/C18H19N3O/c1-12-19-9-10-21(12)11-13-7-8-16-17(18(13)22)14-5-3-4-6-15(14)20(16)2/h3-6,9-10,13H,7-8,11H2,1-2H3
FORMULA=C18H19N3O
PUBMED=N/A
SUBMITUSER=BIOADREM
LIBRARYQUALITY=0
SPECTRUMID=CCMSLIB00000079015
SCANS=1360
ID=CCMSLIB00000079015
102.0464011605 	 0.226666666666667
103.0542261926 	 0.236666666666667
115.0542261926 	 0.82
116.0620512247 	 0.193333333333333
117.0573001978 	 0.233333333333333
118.0651252299 	 0.446666666666667
127.0542261926 	 0.0866666666666667
128.0620512247 	 1.45333333333333
129.0698762568 	 1.28666666666667
130.0651252299 	 0.683333333333333
141.0698762568 	 0.176666666666667
142.0651252299 	 2.04
143.072950262 	 7.27333333333333
144.0807752941 	 2.04666666666667
152.0620512247 	 0.0933333333333333
153.0698762568 	 0.166666666666667
154.0651252299 	 3.11666666666667
155.072950262 	 3.17666666666667
156.0443897878 	 0.383333333333333
167.072950262 	 8.13
168.0807752941 	 11.3066666666667
169.0886003262 	 15.54
170.0964253583 	 100
171.0678648841 	 8.79333333333333
182.0964253583 	 10.8966666666667
184.1120754225 	 70.9866666666667
197.0835149483 	 0.266666666666667
212.1069900446 	 14.0666666666667
294.1600882476 	 89.1033333333333
END IONS

BEGIN IONS
PEPMASS=447.2139
CHARGE=1
MSLEVEL=2
RT=0
SOURCE_INSTRUMENT=qTOF
FILENAME=CCMSLIB00000079017.ms
IONMODE=Positive
ORGANISM=Natural
NAME=OLMESARTAN MEDOXOMIL
PI=GNPS
DATACOLLECTOR=GNPS
SMILES=CCCc1nc(c(C(=O)O)n1Cc1ccc(cc1)c1ccccc1c1n[nH]nn1)C(C)(C)O
INCHI=InChI=1S/C24H26N6O3/c1-4-7-19-25-21(24(2,3)33)20(23(31)32)30(19)14-15-10-12-16(13-11-15)17-8-5-6-9-18(17)22-26-28-29-27-22/h5-6,8-13,33H,4,7,14H2,1-3H3,(H,31,32)(H,26,27,28,29)
FORMULA=C24H26N6O3
PUBMED=N/A
SUBMITUSER=BIOADREM
LIBRARYQUALITY=0
SPECTRUMID=CCMSLIB00000079017
SCANS=1362
ID=CCMSLIB00000079017
178.0777012889 	 12.31
179.085526321 	 18.81
180.0807752941 	 13.8
181.0859202515 	 11.77
190.0651252299 	 11.64
192.0681992351 	 4.74
193.0733441925 	 6.22
207.0916743314 	 100
208.0968192888 	 20.03
235.0991650125 	 9.07
303.1743413283 	 5.82
325.1546685187 	 5.01
357.1961394029 	 10.01
370.178812317 	 6.09
401.1972020354 	 6.22
429.2033500458 	 63.6
447.2139147321 	 13.26
END IONS

BEGIN IONS
PEPMASS=705.2466
CHARGE=1
MSLEVEL=2
RT=0
SOURCE_INSTRUMENT=qTOF
FILENAME=CCMSLIB00000079020.ms
IONMODE=Positive
ORGANISM=Natural
NAME=2-butan-2-yl-4-[4-[4-[4-[[2-(2,4-dichlorophenyl)-2-(1,2,4-triazol-1-ylmethyl)-1,3-dioxolan-4-yl]methoxy]phenyl]piperazin-1-yl]phenyl]-1,2,4-triazol-3-one
PI=GNPS
DATACOLLECTOR=GNPS
SMILES=CCC(C)n1c(=O)n(cn1)c1ccc(cc1)N1CCN(CC1)c1ccc(cc1)OCC1COC(Cn2cncn2)(c2ccc(cc2Cl)Cl)O1
INCHI=InChI=1S/C35H38Cl2N8O4/c1-3-25(2)45-34(46)44(24-40-45)29-7-5-27(6-8-29)41-14-16-42(17-15-41)28-9-11-30(12-10-28)47-19-31-20-48-35(49-31,21-43-23-38-22-39-43)32-13-4-26(36)18-33(32)37/h4-13,18,22-25,31H,3,14-17,19-21H2,1-2H3
FORMULA=C35H38Cl2N8O4
PUBMED=N/A
SUBMITUSER=BIOADREM
LIBRARYQUALITY=0
SPECTRUMID=CCMSLIB00000079020
SCANS=1363
ID=CCMSLIB00000079020
119.072950262 	 1.83632734530938
120.0807752941 	 0.705256154357951
132.0807752941 	 0.911510312707917
144.0807752941 	 1.72322022621424
146.0964253583 	 5.18296739853626
148.0756899162 	 2.17232202262142
160.0756899162 	 0.688622754491018
162.0913399804 	 0.528942115768463
172.0756899162 	 2.03925482368596
172.1120754225 	 0.988023952095808
174.0913399804 	 13.5495675316035
188.1069900446 	 1.56353958749168
189.0770868997 	 0.758483033932136
192.1019046667 	 5.9148369926813
200.1069900446 	 5.56553559547572
203.0927369639 	 7.50831669993347
203.0940796346 	 3.36327345309381
215.0927369639 	 2.62807717897538
218.1175547309 	 3.78908848968729
229.1083870281 	 1.25083166999335
229.1097296988 	 0.518962075848303
244.1318621244 	 1.14437791084498
245.1396871565 	 1.79973386560213
259.1566798914 	 5.1497005988024
271.1553372207 	 4.34131736526946
279.0881387754 	 0.988023952095808
299.1740612901 	 2.63140385894877
322.1667234474 	 3.22687957418496
335.1507390322 	 12.1523619427811
336.1459880053 	 2.16566866267465
336.150866232 	 3.15701929474385
337.1551557081 	 1.84298070525615
338.1616380695 	 3.12042581503659
348.1823735116 	 15.0898203592814
349.1825007114 	 3.17365269461078
358.1667234474 	 0.462408516300732
364.1772881337 	 2.63805721889554
376.1772881337 	 18.8323353293413
377.1774153335 	 4.31470392548237
377.2214986721 	 1.16101131071191
378.2293237042 	 0.961410512308716
392.2085882621 	 66.5335994677312
393.2087154619 	 17.3053892215569
394.18785282 	 5.86493679308051
394.216540494 	 2.48835662009315
395.1879800198 	 0.954757152361943
395.2243655261 	 0.695276114437791
404.2449737684 	 13.1869594145043
405.2451009682 	 4.06852960745176
420.2398883905 	 6.21091151031271
421.2400155903 	 1.74650698602794
432.2398883905 	 25.8117099135063
433.2400155903 	 6.06121091151031
450.2504530768 	 26.7964071856287
451.2505802766 	 5.90485695276114
705.2465831698 	 100
END IONS

BEGIN IONS
PEPMASS=275.1521
CHARGE=1
MSLEVEL=2
RT=0
SOURCE_INSTRUMENT=qTOF
FILENAME=CCMSLIB00000079023.ms
IONMODE=Positive
ORGANISM=Natural
NAME=ORMETOPRIM
PI=GNPS
DATACOLLECTOR=GNPS
SMILES=Cc1cc(c(cc1Cc1c[nH]c(=N)[nH]c1=N)OC)OC
INCHI=InChI=1S/C14H18N4O2/c1-8-4-11(19-2)12(20-3)6-9(8)5-10-7-17-14(16)18-13(10)15/h4,6-7H,5H2,1-3H3,(H4,15,16,17,18)
FORMULA=C14H18N4O2
PUBMED=N/A
SUBMITUSER=BIOADREM
LIBRARYQUALITY=0
SPECTRUMID=CCMSLIB00000079023
SCANS=1366
ID=CCMSLIB00000079023
93.0447241388 	 0.29
123.0678648841 	 21.75
149.059705501 	 0.45
165.0910056294 	 1
170.060039852 	 0.3
185.0835149483 	 0.46
200.0818379266 	 0.68
201.113472406 	 0.6
213.1148150767 	 0.64
214.0988306615 	 0.53
215.0927369639 	 1.05
215.1291224702 	 0.64
217.1083870281 	 3.32
227.0927369639 	 1.04
228.0767525487 	 0.42
229.1083870281 	 1.21
231.125379763 	 13.07
241.1083870281 	 0.89
242.0924026129 	 1.26
243.1240370923 	 1.32
245.1033016502 	 6.43
259.1189517144 	 100
275.1502518428 	 215.74
END IONS

BEGIN IONS
PEPMASS=364.1113
CHARGE=1
MSLEVEL=2
RT=0
SOURCE_INSTRUMENT=qTOF
FILENAME=CCMSLIB00000079024.ms
IONMODE=Positive
ORGANISM=Natural
NAME=rufloxacin monohydrochloride
PI=GNPS
DATACOLLECTOR=GNPS
SMILES=CN1CCN(CC1)c1c(cc2c3c1SCCn3cc(c2=O)C(=O)O)F
INCHI=InChI=1S/C17H18FN3O3S/c1-19-2-4-20(5-3-19)14-12(18)8-10-13-16(14)25-7-6-21(13)9-11(15(10)22)17(23)24/h8-9H,2-7H2,1H3,(H,23,24)
FORMULA=C17H18FN3O3S
PUBMED=N/A
SUBMITUSER=BIOADREM
LIBRARYQUALITY=0
SPECTRUMID=CCMSLIB00000079024
SCANS=1367
ID=CCMSLIB00000079024
117.0732470752 	 12.54
154.0559199893 	 10.5
166.0498690962 	 12.54
184.0716502752 	 13.12
187.0376273882 	 8.75
202.0536920251 	 10.5
207.0427127661 	 10.5
215.0251315509 	 13.41
216.0363274014 	 7.58
234.0298023561 	 21.28
235.0335877472 	 15.45
236.030179391 	 10.79
249.0532774524 	 8.75
256.0550514708 	 13.41
262.0696389025 	 12.24
263.0648878756 	 92.71
264.0688899788 	 7.58
265.0845775808 	 11.95
266.059387925 	 13.12
272.0955568398 	 10.79
275.0610649467 	 8.45
285.0380044231 	 15.74
303.0923650751 	 12.24
320.1227371055 	 100
364.1125663497 	 178.43
END IONS

BEGIN IONS
PEPMASS=558.1323
CHARGE=1
MSLEVEL=2
RT=0
SOURCE_INSTRUMENT=qTOF
FILENAME=CCMSLIB00000079026.ms
IONMODE=Positive
ORGANISM=Natural
NAME=CEFPODOXIME PROXETIL
PI=GNPS
DATACOLLECTOR=GNPS
SMILES=CC(C)OC(=O)OC(C)OC(=O)C1=C(COC)CS[C@@H]2[C@@H](C(=O)N12)NC(=O)C(=NOC)c1csc(=N)[nH]1
INCHI=InChI=1S/C21H27N5O9S2/c1-9(2)33-21(30)35-10(3)34-19(29)15-11(6-31-4)7-36-18-14(17(28)26(15)18)24-16(27)13(25-32-5)12-8-37-20(22)23-12/h8-10,14,18H,6-7H2,1-5H3,(H2,22,23)(H,24,27)/t10?,14-,18-/m1/s1
FORMULA=C21H27N5O9S2
PUBMED=N/A
SUBMITUSER=BIOADREM
LIBRARYQUALITY=0
SPECTRUMID=CCMSLIB00000079026
SCANS=1369
ID=CCMSLIB00000079026
100.0215458557 	 5.63124432334242
112.0215458557 	 7.59309718437784
112.0393044099 	 4.20526793823797
114.0008104136 	 5.42234332425068
122.0058957915 	 6.3669391462307
124.0181750373 	 8.32879200726612
125.0055614405 	 86.7211625794732
126.0133864726 	 100
127.0178406863 	 14.8410535876476
128.0130896594 	 5.30426884650318
129.0004760626 	 6.46684831970936
137.0167948288 	 7.12988192552225
138.0133864726 	 5.79473206176203
139.032444893 	 1.48955495004541
140.0164604778 	 6.92098092643052
140.9971052442 	 21.0263396911898
141.0004760626 	 3.26067211625795
142.032110542 	 15.7856494096276
144.0239511589 	 4.59582198001817
150.0008104136 	 5.44959128065395
152.0164604778 	 12.8610354223433
155.0239886967 	 4.20526793823797
156.0205803405 	 49.6094459582198
165.0117094509 	 26.1943687556767
166.032110542 	 39.4822888283379
167.0273595151 	 5.36784741144414
168.0239511589 	 5.03178928247048
170.0270251641 	 13.605812897366
172.0426752283 	 2.97910990009083
179.0035500678 	 5.64940962761126
180.0080042815 	 5.91280653950954
181.019200132 	 9.46412352406903
182.0270251641 	 15.2134423251589
183.0314793778 	 13.8964577656676
188.0375898504 	 6.78474114441417
193.0106468184 	 11.4713896457766
194.0184718505 	 5.7039055404178
197.0505002604 	 40.2906448683015
201.0420440641 	 7.71117166212534
209.0141147541 	 22.5431425976385
210.0219397862 	 26.4486830154405
211.0263939999 	 21.3805631244323
225.0368615689 	 9.8819255222525
227.0069208862 	 2.53405994550409
232.0664846756 	 4.9591280653951
241.0403295046 	 48.6103542234332
247.0120062641 	 8.86466848319709
248.0198312962 	 9.16439600363306
274.0229053014 	 4.40508628519528
285.0124001946 	 4.0236148955495
306.0491200519 	 3.06085376930064
319.0205595777 	 6.06721162579473
324.0596847382 	 8.14713896457766
350.0389492961 	 4.18710263396912
352.0545993603 	 1.88919164396004
366.0680383559 	 2.03451407811081
368.0495139824 	 3.41507720254314
378.0338639182 	 2.78837420526794
382.0651640466 	 28.5921889191644
383.0682755896 	 4.91371480472298
384.060844488 	 1.72570390554042
396.0444286045 	 10.6539509536785
397.0475401475 	 1.69845594913715
410.0600786687 	 90.8265213442325
411.0631902117 	 28.8374205267938
412.0557591101 	 15.2497729336966
422.0600786687 	 1.78019981834696
428.070643355 	 44.377838328792
429.073754898 	 10.7538601271571
430.0663237964 	 4.20526793823797
438.0913787971 	 2.51589464123524
470.1162508769 	 1.91643960036331
498.111165499 	 1.7983651226158
526.1060801211 	 10.1634877384196
558.1322948716 	 42.1980018165304
END IONS

BEGIN IONS
PEPMASS=376.1399
CHARGE=1
MSLEVEL=2
RT=0
SOURCE_INSTRUMENT=qTOF
FILENAME=CCMSLIB00000079027.ms
IONMODE=Positive
ORGANISM=Natural
NAME=TIAGABINE HCl
PI=GNPS
DATACOLLECTOR=GNPS
SMILES=Cc1ccsc1C(=CCCN1CCC[C@H](C1)C(=O)O)c1c(C)ccs1
INCHI=InChI=1S/C20H25NO2S2/c1-14-7-11-24-18(14)17(19-15(2)8-12-25-19)6-4-10-21-9-3-5-16(13-21)20(22)23/h6-8,11-12,16H,3-5,9-10,13H2,1-2H3,(H,22,23)/t16-/m1/s1
FORMULA=C20H25NO2S2
PUBMED=N/A
SUBMITUSER=BIOADREM
LIBRARYQUALITY=0
SPECTRUMID=CCMSLIB00000079027
SCANS=1370
ID=CCMSLIB00000079027
97.0106468184 	 5.38034457100338
105.0698762568 	 1.61982714212123
111.0262968826 	 58.9033255108465
115.0542261926 	 22.5344857191918
117.0698762568 	 2.22654684906416
122.0964253583 	 2.31812718218763
123.0262968826 	 21.9449373247095
125.0419469468 	 23.9997710491672
134.0184718505 	 17.7551370843111
135.0262968826 	 8.07624062732528
137.0419469468 	 7.65268158662927
142.0862546025 	 12.3461736592067
147.0262968826 	 2.00904355789594
149.0419469468 	 87.7969206112987
150.0464011605 	 9.39270791597505
151.057597011 	 10.8007555377483
165.0698762568 	 2.66727720222082
167.0888971394 	 2.15786159922157
168.1019046667 	 19.1574609352642
172.0341219147 	 1.71713124606491
173.0419469468 	 1.35080991357106
179.085526321 	 3.29689199244462
180.0933513531 	 2.91339934749013
184.0341219147 	 5.32883063362143
185.0419469468 	 7.77860454467403
187.057597011 	 5.02547078014996
188.0654220431 	 2.15786159922157
197.0419469468 	 1.23061072634652
198.0497719789 	 14.710091007956
199.057597011 	 18.0470493961422
201.0732470752 	 1.03027874763894
204.0061926047 	 1.21916318470608
205.0140176368 	 1.39660008013279
213.0732470752 	 22.8492931143037
214.0810721073 	 21.0634766183962
217.0140176368 	 4.69349207257742
219.029667701 	 4.79651994734131
221.0453177652 	 0.589548394482285
231.029667701 	 3.68610840821934
232.0374927331 	 11.5849121401179
232.1154462409 	 1.190544330605
247.0609678294 	 100
263.097450453 	 1.83160666246923
278.1209255493 	 34.7146700246122
358.1293817456 	 0.578100852841852
376.1399464319 	 81.9643981454983
END IONS

BEGIN IONS
PEPMASS=305.2485
CHARGE=1
MSLEVEL=2
RT=0
SOURCE_INSTRUMENT=qTOF
FILENAME=CCMSLIB00000079028.ms
IONMODE=Positive
ORGANISM=Natural
NAME=(5S,8R,9S,10S,13S,14S,17S)-17-hydroxy-10,13,17-trimethyl-2,4,5,6,7,8,9,11,12,14,15,16-dodecahydro-1H-cyclopenta[a]phenanthren-3-one
PI=GNPS
DATACOLLECTOR=GNPS
SMILES=C[C@]12CCC(=O)C[C@@H]1CC[C@@H]1[C@@H]2CC[C@@]2(C)[C@H]1CC[C@]2(C)O
INCHI=InChI=1S/C20H32O2/c1-18-9-6-14(21)12-13(18)4-5-15-16(18)7-10-19(2)17(15)8-11-20(19,3)22/h13,15-17,22H,4-12H2,1-3H3/t13-,15+,16-,17-,18-,19-,20-/m0/s1
FORMULA=C20H32O2
PUBMED=N/A
SUBMITUSER=BIOADREM
LIBRARYQUALITY=0
SPECTRUMID=CCMSLIB00000079028
SCANS=1371
ID=CCMSLIB00000079028
95.085526321 	 4.65
105.0698762568 	 3.69
107.085526321 	 16.44
109.1011763852 	 2.63
119.085526321 	 5.51
121.1011763852 	 10.42
131.085526321 	 3.34
133.1011763852 	 8.09
135.1168264494 	 5.31
145.1011763852 	 13.66
147.1168264494 	 16.69
157.1011763852 	 6.42
159.1168264494 	 19.07
161.1324765136 	 12.7
173.1324765136 	 11.43
187.1481265778 	 4.35
189.163776642 	 6.93
227.1794267062 	 14.31
229.1950767704 	 48.31
233.1899913925 	 2.68
247.2056414567 	 9.1
269.2263768988 	 100
287.2369415851 	 58.17
305.2475062714 	 340.36
END IONS

BEGIN IONS
PEPMASS=306.1712
CHARGE=1
MSLEVEL=2
RT=0
SOURCE_INSTRUMENT=qTOF
FILENAME=CCMSLIB00000079032.ms
IONMODE=Positive
ORGANISM=Natural
NAME=CETRAXATE HCl
PI=GNPS
DATACOLLECTOR=GNPS
SMILES=C1C[C@@H](CC[C@H]1CN)C(=O)Oc1ccc(cc1)CCC(=O)O
INCHI=InChI=1S/C17H23NO4/c18-11-13-1-6-14(7-2-13)17(21)22-15-8-3-12(4-9-15)5-10-16(19)20/h3-4,8-9,13-14H,1-2,5-7,10-11,18H2,(H,19,20)/t13-,14-
FORMULA=C17H23NO4
PUBMED=N/A
SUBMITUSER=BIOADREM
LIBRARYQUALITY=0
SPECTRUMID=CCMSLIB00000079032
SCANS=1375
ID=CCMSLIB00000079032
93.0698762568 	 4.12
95.085526321 	 100
103.0542261926 	 1.64
107.0491408147 	 22.42
112.1120754225 	 14.28
120.0933513531 	 1.55
123.0804409431 	 77.99
140.1069900446 	 24.41
149.059705501 	 18.63
167.0702701873 	 2.1
201.1273911357 	 5.78
229.1223057578 	 11.68
246.1488548593 	 1.46
271.1328704441 	 15.71
288.1594195456 	 6.19
289.1434351304 	 46.13
306.1699842319 	 804.44
END IONS

BEGIN IONS
PEPMASS=427.2162
CHARGE=1
MSLEVEL=2
RT=0
SOURCE_INSTRUMENT=qTOF
FILENAME=CCMSLIB00000079033.ms
IONMODE=Positive
ORGANISM=Natural
NAME=PEROSPIRONE HCl
PI=GNPS
DATACOLLECTOR=GNPS
SMILES=C1CC[C@@H]2[C@H](C1)C(=O)N(CCCCN1CCN(CC1)c1c3ccccc3sn1)C2=O
INCHI=InChI=1S/C23H30N4O2S/c28-22-17-7-1-2-8-18(17)23(29)27(22)12-6-5-11-25-13-15-26(16-14-25)21-19-9-3-4-10-20(19)30-24-21/h3-4,9-10,17-18H,1-2,5-8,11-16H2/t17-,18+
FORMULA=C23H30N4O2S
PUBMED=N/A
SUBMITUSER=BIOADREM
LIBRARYQUALITY=0
SPECTRUMID=CCMSLIB00000079033
SCANS=1376
ID=CCMSLIB00000079033
91.0542261926 	 0.129948484707848
93.0698762568 	 0.215807304961248
95.0491408147 	 1.68468928389103
95.085526321 	 0.661344966816726
98.060039852 	 0.148512553951826
98.0964253583 	 0.705434631271175
108.0807752941 	 2.14879101499049
109.0106468184 	 0.35039680698009
109.0647908789 	 0.86322921984499
110.0964253583 	 1.68236877523553
123.0262968826 	 0.141551027985334
126.0913399804 	 0.218127813616745
134.0058957915 	 0.717037174548661
135.0137208236 	 0.26453798672669
136.0215458557 	 2.18359864482295
136.0756899162 	 0.605652759084791
138.0913399804 	 1.34125400287743
150.0371959199 	 0.807537012113055
151.032444893 	 0.867870237155985
154.0862546025 	 22.3093702139509
160.0215458557 	 0.336473755047106
161.0167948288 	 0.120666450085859
163.032444893 	 0.24829442613821
166.0862546025 	 37.647932426788
175.032444893 	 0.549960551352857
177.0480949572 	 46.4101731099457
180.138290173 	 0.317909685803128
191.0637450214 	 0.310948159836636
201.0480949572 	 0.150833062607324
202.0433439303 	 0.489627326309927
203.0637450214 	 3.65944214971922
208.1332047951 	 25.5163131758481
217.0668190266 	 2.22768830927739
220.0902941229 	 1.75198403490045
251.1754039608 	 12.6653362417042
274.1372443155 	 0.712396157237667
277.191054025 	 0.619575811017775
291.1941280302 	 0.341114772358101
382.1583736881 	 0.37592240219056
427.216222918 	 100
END IONS

BEGIN IONS
PEPMASS=295.1561
CHARGE=1
MSLEVEL=2
RT=0
SOURCE_INSTRUMENT=qTOF
FILENAME=CCMSLIB00000079036.ms
IONMODE=Positive
ORGANISM=Natural
NAME=alosetron??monohydrochloride
PI=GNPS
DATACOLLECTOR=GNPS
SMILES=Cc1c(CN2CCc3c(c4ccccc4n3C)C2=O)[nH]cn1
INCHI=InChI=1S/C17H18N4O/c1-11-13(19-10-18-11)9-21-8-7-15-16(17(21)22)12-5-3-4-6-14(12)20(15)2/h3-6,10H,7-9H2,1-2H3,(H,18,19)
FORMULA=C17H18N4O
PUBMED=N/A
SUBMITUSER=BIOADREM
LIBRARYQUALITY=0
SPECTRUMID=CCMSLIB00000079036
SCANS=1379
ID=CCMSLIB00000079036
95.060374203 	 12.89
115.0542261926 	 0.625
116.0620512247 	 0.175
118.0651252299 	 0.275
128.0494751657 	 0.1
130.0651252299 	 0.98
131.072950262 	 2.135
142.0651252299 	 0.59
143.072950262 	 8.19
144.0807752941 	 5.125
146.0964253583 	 13.225
156.0807752941 	 0.81
157.0886003262 	 1.565
158.0964253583 	 41.225
168.0807752941 	 0.18
170.0838492993 	 0.105
172.0756899162 	 5.535
173.1073243956 	 13.62
181.0760242672 	 0.365
183.0916743314 	 2.73
184.0756899162 	 1.57
185.1073243956 	 0.185
199.0865889535 	 7.575
201.1022390177 	 100
213.1022390177 	 2.005
295.1553372207 	 12.26
END IONS

BEGIN IONS
PEPMASS=173.1075
CHARGE=1
MSLEVEL=2
RT=0
SOURCE_INSTRUMENT=qTOF
FILENAME=CCMSLIB00000079038.ms
IONMODE=Positive
ORGANISM=Natural
NAME=16502-01-5
PI=GNPS
DATACOLLECTOR=GNPS
SMILES=c1ccc2c(c1)c1CCNCc1[nH]2
INCHI=InChI=1S/C11H12N2/c1-2-4-10-8(3-1)9-5-6-12-7-11(9)13-10/h1-4,12-13H,5-7H2
FORMULA=C11H12N2
PUBMED=N/A
SUBMITUSER=BIOADREM
LIBRARYQUALITY=0
SPECTRUMID=CCMSLIB00000079038
SCANS=1381
ID=CCMSLIB00000079038
102.0464011605 	 1.965
103.0542261926 	 0.32
115.0542261926 	 9.205
117.0698762568 	 6.36
127.0542261926 	 0.345
128.0494751657 	 8.075
130.0651252299 	 0.225
142.0651252299 	 2.2
143.072950262 	 12.96
144.0807752941 	 100
156.0807752941 	 0.26
173.1073243956 	 3.33
END IONS

BEGIN IONS
PEPMASS=235.119
CHARGE=1
MSLEVEL=2
RT=0
SOURCE_INSTRUMENT=qTOF
FILENAME=CCMSLIB00000079039.ms
IONMODE=Positive
ORGANISM=Natural
NAME=4-methoxy-2-(5-methoxy-3-methylpyrazol-1-yl)-6-methylpyrimidine
PI=GNPS
DATACOLLECTOR=GNPS
SMILES=Cc1cc(nc(n1)n1c(cc(C)n1)OC)OC
INCHI=InChI=1S/C11H14N4O2/c1-7-5-9(16-3)13-11(12-7)15-10(17-4)6-8(2)14-15/h5-6H,1-4H3
FORMULA=C11H14N4O2
PUBMED=N/A
SUBMITUSER=BIOADREM
LIBRARYQUALITY=0
SPECTRUMID=CCMSLIB00000079039
SCANS=1382
ID=CCMSLIB00000079039
93.0447241388 	 0.29
95.060374203 	 2.38
96.0443897878 	 1.185
108.0318137288 	 1.68
108.0556231761 	 3.245
109.0396387609 	 2.535
110.0712732403 	 1.78
121.0522148199 	 0.865
122.047463793 	 0.77
123.0552888251 	 21.065
124.0631138572 	 12.24
135.0916743314 	 0.155
136.0505377982 	 1.26
136.0756899162 	 0.9
137.0583628303 	 1.305
138.0661878624 	 11.555
141.0658535114 	 1.79
146.0712732403 	 0.93
148.0869233045 	 1.125
149.0709388893 	 5.29
150.0661878624 	 4.195
151.0740128945 	 0.24
152.0818379266 	 9.01
162.0661878624 	 1.37
163.0865889535 	 9.545
164.0818379266 	 11.665
165.0896629587 	 0.365
166.0974879908 	 0.285
174.0661878624 	 0.61
176.0818379266 	 5.855
177.0770868997 	 21.815
178.0974879908 	 2.225
179.0927369639 	 12.445
191.0927369639 	 11.135
192.100561996 	 28.34
204.0767525487 	 18.545
205.0720015218 	 14.675
219.087651586 	 2.18
220.0954766181 	 100
235.1189517144 	 8.45
END IONS

BEGIN IONS
PEPMASS=182.118
CHARGE=1
MSLEVEL=2
RT=0
SOURCE_INSTRUMENT=qTOF
FILENAME=CCMSLIB00000079040.ms
IONMODE=Positive
ORGANISM=Natural
NAME=Homoveratrylamine
PI=GNPS
DATACOLLECTOR=GNPS
SMILES=COc1ccc(CCN)cc1OC
INCHI=InChI=1S/C10H15NO2/c1-12-9-4-3-8(5-6-11)7-10(9)13-2/h3-4,7H,5-6,11H2,1-2H3
FORMULA=C10H15NO2
PUBMED=N/A
SUBMITUSER=BIOADREM
LIBRARYQUALITY=0
SPECTRUMID=CCMSLIB00000079040
SCANS=1383
ID=CCMSLIB00000079040
91.0542261926 	 1
102.0464011605 	 1
103.0542261926 	 1.78
105.0698762568 	 5.07
107.0491408147 	 2.32
118.0413157826 	 3.18
119.0491408147 	 2.08
120.0569658468 	 1.57
121.0647908789 	 3.32
123.0440554368 	 1.54
133.0647908789 	 3.29
134.072615911 	 6.88
135.0440554368 	 5.99
135.0804409431 	 2.62
149.059705501 	 1.05
150.0675305331 	 16.84
165.0910056294 	 100
182.1175547309 	 0
END IONS

BEGIN IONS
PEPMASS=403.2479
CHARGE=1
MSLEVEL=2
RT=0
SOURCE_INSTRUMENT=qTOF
FILENAME=CCMSLIB00000079041.ms
IONMODE=Positive
ORGANISM=Natural
NAME=(4R)-4-[(5S,8R,9S,10S,13R,14S,17R)-10,13-dimethyl-3,7,12-trioxo-1,2,4,5,6,8,9,11,14,15,16,17-dodecahydrocyclopenta[a]phenanthren-17-yl]pentanoic acid
PI=GNPS
DATACOLLECTOR=GNPS
SMILES=C[C@H](CCC(=O)O)[C@H]1CC[C@H]2[C@H]3[C@H](CC(=O)[C@]12C)[C@@]1(C)CCC(=O)C[C@H]1CC3=O
INCHI=InChI=1S/C24H34O5/c1-13(4-7-21(28)29)16-5-6-17-22-18(12-20(27)24(16,17)3)23(2)9-8-15(25)10-14(23)11-19(22)26/h13-14,16-18,22H,4-12H2,1-3H3,(H,28,29)/t13-,14+,16-,17+,18+,22+,23+,24-/m1/s1
FORMULA=C24H34O5
PUBMED=N/A
SUBMITUSER=BIOADREM
LIBRARYQUALITY=0
SPECTRUMID=CCMSLIB00000079041
SCANS=1384
ID=CCMSLIB00000079041
93.0698762568 	 2.68332650553052
105.0698762568 	 19.6845555100369
107.085526321 	 13.7989894851837
119.085526321 	 13.9423733442578
121.0647908789 	 12.2354226409941
131.085526321 	 18.6740406937048
143.085526321 	 20.3946470025946
145.1011763852 	 28.8474668851564
147.1168264494 	 21.1047384951523
155.085526321 	 20.1829851153899
157.1011763852 	 26.6420865765397
159.0804409431 	 18.0527106377168
159.1168264494 	 34.5623378396832
161.0960910073 	 15.4035231462515
167.085526321 	 12.4129455141336
169.1011763852 	 17.1650962720197
171.1168264494 	 15.7995357094087
173.0960910073 	 13.2459374573262
175.1117410715 	 9.5384405298375
181.1011763852 	 9.5384405298375
182.1090014173 	 11.7028540215759
183.1168264494 	 2.59456506896081
185.1324765136 	 30.8480131093814
193.1011763852 	 15.5742182165779
195.1168264494 	 42.762529018162
197.1324765136 	 74.9009968592107
207.1168264494 	 12.4880513450772
209.1324765136 	 29.680458828349
211.1117410715 	 3.0178888433702
211.1481265778 	 48.374982930493
213.1273911357 	 20.3058855660249
221.1324765136 	 20.326368974464
223.1117410715 	 2.43752560426055
223.1481265778 	 9.50430151577222
225.1273911357 	 22.8594838181073
227.1430411999 	 17.2606855114024
235.1481265778 	 18.0049160180254
239.1430411999 	 20.0396012563157
241.1223057578 	 18.6057626655742
243.137955822 	 11.5253311484364
247.1481265778 	 16.1750648641267
249.163776642 	 11.84623788065
251.1430411999 	 4.18544312440257
251.1794267062 	 11.1361463880923
257.1536058862 	 13.3824935135873
261.163776642 	 3.10665027993991
263.1794267062 	 19.827939369111
273.163776642 	 10.7128226136829
281.1899913925 	 2.26000273112113
291.1743413283 	 20.8999044107606
303.2107268346 	 16.2023760753789
307.2056414567 	 9.85934726205107
309.1849060146 	 15.2806226956166
321.2212915209 	 53.5094906459101
325.216206143 	 11.2795302471665
331.2056414567 	 20.2307797350812
339.2318562072 	 63.8058172879967
349.216206143 	 52.5194592380172
367.2267708293 	 100
385.2373355156 	 68.2780281305476
403.2479002019 	 2.55359825208248
END IONS

BEGIN IONS
PEPMASS=366.2176
CHARGE=1
MSLEVEL=2
RT=0
SOURCE_INSTRUMENT=qTOF
FILENAME=CCMSLIB00000079043.ms
IONMODE=Positive
ORGANISM=Natural
NAME=Nafadotride
PI=GNPS
DATACOLLECTOR=GNPS
SMILES=CCCCN1CCCC1CN=C(c1cc(C#N)c2ccccc2c1OC)O
INCHI=InChI=1S/C22H27N3O2/c1-3-4-11-25-12-7-8-17(25)15-24-22(26)20-13-16(14-23)18-9-5-6-10-19(18)21(20)27-2/h5-6,9-10,13,17H,3-4,7-8,11-12,15H2,1-2H3,(H,24,26)
FORMULA=C22H27N3O2
PUBMED=N/A
SUBMITUSER=BIOADREM
LIBRARYQUALITY=0
SPECTRUMID=CCMSLIB00000079043
SCANS=1385
ID=CCMSLIB00000079043
98.0964253583 	 2.77
126.1277254867 	 16.81
127.0542261926 	 0.38
139.0416501336 	 0.38
140.1433755509 	 45.67
152.0494751657 	 0.39
154.0651252299 	 3.84
158.1539402372 	 0.38
167.0365647557 	 0.55
182.060039852 	 5.6
195.0314793778 	 3.22
210.0549544741 	 100
293.1284537682 	 0.59
310.1550028697 	 0.32
351.1941280302 	 0.66
366.2176031265 	 183.27
END IONS

BEGIN IONS
PEPMASS=402.1846
CHARGE=1
MSLEVEL=2
RT=0
SOURCE_INSTRUMENT=qTOF
FILENAME=CCMSLIB00000079044.ms
IONMODE=Positive
ORGANISM=Natural
NAME=N-[4-[1-[2-(6-methylpyridin-2-yl)ethyl]piperidine-4-carbonyl]phenyl]methanesulfonamide
PI=GNPS
DATACOLLECTOR=GNPS
SMILES=Cc1cccc(CCN2CCC(CC2)C(=O)c2ccc(cc2)NS(=O)(=O)C)n1
INCHI=InChI=1S/C21H27N3O3S/c1-16-4-3-5-19(22-16)12-15-24-13-10-18(11-14-24)21(25)17-6-8-20(9-7-17)23-28(2,26)27/h3-9,18,23H,10-15H2,1-2H3
FORMULA=C21H27N3O3S
PUBMED=N/A
SUBMITUSER=BIOADREM
LIBRARYQUALITY=0
SPECTRUMID=CCMSLIB00000079044
SCANS=1386
ID=CCMSLIB00000079044
147.0678648841 	 0.35
172.0756899162 	 1.76
173.0835149483 	 0.86
216.125714114 	 27.23
252.0688899788 	 7.64
266.084540043 	 1.07
295.1110891445 	 100
402.1845884386 	 108.56
END IONS

BEGIN IONS
PEPMASS=438.1821
CHARGE=1
MSLEVEL=2
RT=0
SOURCE_INSTRUMENT=qTOF
FILENAME=CCMSLIB00000079049.ms
IONMODE=Positive
ORGANISM=Natural
NAME=2-[4-[3-[2-(trifluoromethyl)phenothiazin-10-yl]propyl]piperazin-1-yl]ethanol
PI=GNPS
DATACOLLECTOR=GNPS
SMILES=c1ccc2c(c1)N(CCCN1CCN(CC1)CCO)c1cc(ccc1S2)C(F)(F)F
INCHI=InChI=1S/C22H26F3N3OS/c23-22(24,25)17-6-7-21-19(16-17)28(18-4-1-2-5-20(18)30-21)9-3-8-26-10-12-27(13-11-26)14-15-29/h1-2,4-7,16,29H,3,8-15H2
FORMULA=C22H26F3N3OS
PUBMED=N/A
SUBMITUSER=BIOADREM
LIBRARYQUALITY=0
SPECTRUMID=CCMSLIB00000079049
SCANS=1387
ID=CCMSLIB00000079049
96.0807752941 	 0.318913260462059
97.0760242672 	 1.87452832485332
98.0838492993 	 6.79455656450082
100.0756899162 	 10.0129025975607
112.0994993635 	 0.934829710056723
113.1073243956 	 2.2007449424252
124.0994993635 	 0.450373688438786
125.1073243956 	 1.39250675560533
126.1151494277 	 0.618350901964603
128.0944139856 	 3.6468096501692
139.1229744598 	 0.172846118265696
141.1022390177 	 2.69980767826278
141.138624524 	 3.35224091340653
143.1178890819 	 48.6890473987876
153.138624524 	 0.150936046936242
169.1335391461 	 0.153370499306181
171.1491892103 	 41.6364388830733
210.0349679557 	 0.131460427976727
226.0662680841 	 0.557489592716119
239.0763210804 	 0.343257784161453
248.068159862 	 11.1449229495825
249.071019111 	 1.52883608832193
249.0730472587 	 0.265355308323393
258.0383387741 	 1.67246877814836
260.0340023199 	 2.12527691895708
261.0368615689 	 0.348126688901332
262.0496523841 	 0.214231808554666
266.0245804878 	 0.138763785086545
267.0324055199 	 1.12715144728193
274.0838099262 	 0.66947440173333
275.0886973229 	 0.523407259536967
276.0994599904 	 0.258051951213574
280.040230552 	 24.4151228181221
281.043089801 	 3.94868174404168
282.0383387741 	 0.51366945005721
308.0715306804 	 4.02171531513986
309.0743899294 	 0.452808140808725
310.0696389025 	 0.189887284855272
398.1696872981 	 1.79662584901526
399.171244725 	 0.31404435572218
438.1821437623 	 100
END IONS

BEGIN IONS
PEPMASS=248.07
CHARGE=1
MSLEVEL=2
RT=0
SOURCE_INSTRUMENT=qTOF
FILENAME=CCMSLIB00000079051.ms
IONMODE=Positive
ORGANISM=Natural
NAME=1-(2-ethylsulfonylethyl)-2-methyl-5-nitroimidazole
PI=GNPS
DATACOLLECTOR=GNPS
SMILES=CCS(=O)(=O)CCn1c(C)ncc1N(=O)=O
INCHI=InChI=1S/C8H13N3O4S/c1-3-16(14,15)5-4-10-7(2)9-6-8(10)11(12)13/h6H,3-5H2,1-2H3
FORMULA=C8H13N3O4S
PUBMED=N/A
SUBMITUSER=BIOADREM
LIBRARYQUALITY=0
SPECTRUMID=CCMSLIB00000079051
SCANS=1388
ID=CCMSLIB00000079051
66.0133864726 	 0.320188742837883
93.0004760626 	 0.337040781934614
95.0576941283 	 6.47960903269295
95.060374203 	 5.25783619817998
107.0576941283 	 15.6302662622177
107.060374203 	 0.606673407482305
108.0681992351 	 4.65958881024604
109.0760242672 	 16.9110212335693
110.034887734 	 3.96865520728008
110.0838492993 	 3.05864509605662
111.0427127661 	 23.2305358948433
112.0631138572 	 21.8065385911695
120.0556231761 	 29.5753286147624
121.031776191 	 46.9582069430401
121.0733441925 	 2.7468823727671
122.034887734 	 2.46882372767105
125.0682588146 	 12.8412537917088
128.0454524203 	 100
129.0480949572 	 0.800471857094708
145.0495347452 	 12.4199528142905
146.0560171066 	 2.1149309066397
154.0611024845 	 7.94573643410853
156.0767525487 	 0.926862150320189
162.0760838467 	 2.86484664644422
173.0379242014 	 0.47185709470846
178.0822318571 	 2.67104819683182
202.0770493619 	 16.7256488035052
220.0386524829 	 0.817323896191439
248.0699526113 	 0
END IONS

BEGIN IONS
PEPMASS=246.1721
CHARGE=1
MSLEVEL=2
RT=0
SOURCE_INSTRUMENT=qTOF
FILENAME=CCMSLIB00000079053.ms
IONMODE=Positive
ORGANISM=Natural
NAME=Pinacidil monohydrate
PI=GNPS
DATACOLLECTOR=GNPS
SMILES=CC(C(C)(C)C)NC(=NC#N)N=c1cc[nH]cc1
INCHI=InChI=1S/C13H19N5/c1-10(13(2,3)4)17-12(16-9-14)18-11-5-7-15-8-6-11/h5-8,10H,1-4H3,(H2,15,16,17,18)
FORMULA=C13H19N5
PUBMED=N/A
SUBMITUSER=BIOADREM
LIBRARYQUALITY=0
SPECTRUMID=CCMSLIB00000079053
SCANS=1390
ID=CCMSLIB00000079053
93.0447241388 	 1.08
95.060374203 	 18.4433333333333
120.0556231761 	 100
145.0508721492 	 46.8533333333333
147.0539461544 	 0.156666666666667
162.0774212507 	 6.76666666666667
246.1713216359 	 62.19
END IONS

BEGIN IONS
PEPMASS=377.2134
CHARGE=1
MSLEVEL=2
RT=0
SOURCE_INSTRUMENT=qTOF
FILENAME=CCMSLIB00000079054.ms
IONMODE=Positive
ORGANISM=Natural
NAME=(8S,9R,10S,11S,13S,14S,16R,17S)-9-fluoro-11-hydroxy-17-(2-hydroxyacetyl)-10,13,16-trimethyl-7,8,11,12,14,15,16,17-octahydro-6H-cyclopenta[a]phenanthren-3-one
PI=GNPS
DATACOLLECTOR=GNPS
SMILES=C[C@@H]1C[C@H]2[C@@H]3CCC4=CC(=O)C=C[C@]4(C)[C@]3([C@H](C[C@]2(C)[C@H]1C(=O)CO)O)F
INCHI=InChI=1S/C22H29FO4/c1-12-8-16-15-5-4-13-9-14(25)6-7-21(13,3)22(15,23)18(27)10-20(16,2)19(12)17(26)11-24/h6-7,9,12,15-16,18-19,24,27H,4-5,8,10-11H2,1-3H3/t12-,15+,16+,18+,19-,20+,21+,22+/m1/s1
FORMULA=C22H29FO4
PUBMED=N/A
SUBMITUSER=BIOADREM
LIBRARYQUALITY=0
SPECTRUMID=CCMSLIB00000079054
SCANS=1391
ID=CCMSLIB00000079054
91.0542261926 	 6.69512291518457
95.085526321 	 1.12244091376176
105.0698762568 	 1.7468974784602
107.085526321 	 13.7617579637973
109.1011763852 	 2.43459015097621
115.0542261926 	 6.08647537744052
119.085526321 	 14.3783100150186
121.0647908789 	 35.1987985139515
121.1011763852 	 2.37925855663584
128.0620512247 	 24.1640976997866
129.0698762568 	 10.5762390324875
131.085526321 	 18.8206465892024
132.0569658468 	 7.28005691249704
133.1011763852 	 1.45443047980397
135.0804409431 	 12.0622875662003
137.0960910073 	 1.37538534503201
142.0777012889 	 8.58430163623429
143.085526321 	 24.788554264485
145.1011763852 	 7.90451347719548
147.0804409431 	 87.5978183542803
155.085526321 	 1.62042526282507
155.0866691752 	 12.0227649988143
157.1011763852 	 13.9356572602956
158.072615911 	 9.16133112006956
159.0804409431 	 23.6344952968145
159.1168264494 	 9.63560192870129
161.0960910073 	 19.1210181013359
167.1066556936 	 2.54525333965694
171.0804409431 	 100
173.0960910073 	 30.4402814006798
179.085526321 	 8.83724606750454
181.1023192394 	 6.66350486127579
185.0960910073 	 19.3186309382657
187.1117410715 	 8.18907596237452
189.0910056294 	 5.9362896213738
192.0944942073 	 6.2998972413248
197.0960910073 	 7.47766974942692
199.1117410715 	 7.90451347719548
207.1179693036 	 5.75448581139831
209.0972338615 	 10.3232946012173
210.1050588936 	 14.4810686902221
211.1117410715 	 1.34376729112323
213.1273911357 	 1.4070033989408
222.1039160394 	 1.28843569678286
223.1117410715 	 21.5318947118805
224.1195661036 	 5.75448581139831
225.1273911357 	 3.00371512133428
225.1285339899 	 12.8527389139198
235.1117410715 	 2.02355545016204
237.1273911357 	 4.81384870761205
239.1430411999 	 13.2874871551656
261.1273911357 	 1.29634021026006
262.1352161678 	 1.28843569678286
263.1430411999 	 1.13034542723895
265.1586912641 	 1.94451031539009
277.1586912641 	 2.56896688008853
279.1743413283 	 6.04695281005454
288.150866232 	 1.54928464153031
291.1743413283 	 1.24100861591969
293.1899913925 	 2.12631412536558
303.1743413283 	 10.433957789898
303.1754841825 	 6.04695281005454
321.1849060146 	 10.6710931942139
339.1954707009 	 79.0451347719548
357.2060353872 	 27.4839933602087
377.2122636193 	 2.54525333965694
END IONS

BEGIN IONS
PEPMASS=392.1757
CHARGE=1
MSLEVEL=2
RT=0
SOURCE_INSTRUMENT=qTOF
FILENAME=CCMSLIB00000079055.ms
IONMODE=Positive
ORGANISM=Natural
NAME=2H-Indol-2-one, 1,3-dihydro-1-phenyl-3,3-bis(4-pyridinylmethyl)- [CAS]
PI=GNPS
DATACOLLECTOR=GNPS
SMILES=c1ccc(cc1)N1c2ccccc2C(Cc2ccncc2)(Cc2ccncc2)C1=O
INCHI=InChI=1S/C26H21N3O/c30-25-26(18-20-10-14-27-15-11-20,19-21-12-16-28-17-13-21)23-8-4-5-9-24(23)29(25)22-6-2-1-3-7-22/h1-17H,18-19H2
FORMULA=C26H21N3O
PUBMED=N/A
SUBMITUSER=BIOADREM
LIBRARYQUALITY=0
SPECTRUMID=CCMSLIB00000079055
SCANS=1392
ID=CCMSLIB00000079055
92.0494751657 	 1.03292871476035
93.0573001978 	 3.78630876015658
168.0807752941 	 0.207243659330899
179.072950262 	 0.463831047073917
195.0916743314 	 2.59219053258331
205.0760242672 	 0.710549689134511
256.0994993635 	 0.417776900555939
271.1229744598 	 51.3766900226981
272.1307994919 	 11.0102305996908
299.1178890819 	 23.5961709266752
300.125714114 	 65.7916378828251
392.1757383118 	 100
END IONS

BEGIN IONS
PEPMASS=288.1764
CHARGE=1
MSLEVEL=2
RT=0
SOURCE_INSTRUMENT=qTOF
FILENAME=CCMSLIB00000079057.ms
IONMODE=Positive
ORGANISM=Natural
NAME=4-(dibenzo[1,2-a:1',2'-e][7]annulen-11-ylidene)-1-methylpiperidine
PI=GNPS
DATACOLLECTOR=GNPS
SMILES=CN1CCC(=C2c3ccccc3C=Cc3ccccc23)CC1
INCHI=InChI=1S/C21H21N/c1-22-14-12-18(13-15-22)21-19-8-4-2-6-16(19)10-11-17-7-3-5-9-20(17)21/h2-11H,12-15H2,1H3
FORMULA=C21H21N
PUBMED=N/A
SUBMITUSER=BIOADREM
LIBRARYQUALITY=0
SPECTRUMID=CCMSLIB00000079057
SCANS=1393
ID=CCMSLIB00000079057
91.0542261926 	 0.174727525314008
103.0542261926 	 0.108846655113645
115.0542261926 	 1.73152113200521
117.0698762568 	 1.49520931498217
127.0542261926 	 0.0887959554874468
128.0620512247 	 1.16007619265858
129.0698762568 	 1.12283917906707
141.0698762568 	 1.89622330750612
152.0620512247 	 0.496970912163614
153.0698762568 	 2.04087478338083
165.0698762568 	 1.4995058934735
167.085526321 	 1.80026638786646
178.0777012889 	 3.04913853601249
179.085526321 	 2.24138177964281
180.0933513531 	 0.458301705741661
189.0698762568 	 1.04120418773184
190.0777012889 	 1.42789625195136
191.085526321 	 28.6438566088538
194.0964253583 	 0.286438566088538
202.0777012889 	 4.82505764576143
203.085526321 	 6.37612248113086
204.0933513531 	 5.74882202139696
205.1011763852 	 1.27035504060267
215.085526321 	 9.43098978846512
216.0933513531 	 6.71984876043711
217.1011763852 	 7.4846397318935
228.0933513531 	 2.19841599472953
229.1011763852 	 3.31266201681394
230.1090014173 	 3.05057072884293
231.1168264494 	 1.20160978474142
241.1011763852 	 0.681723787290721
242.1090014173 	 0.605817567277258
243.1168264494 	 1.14145768586282
245.1324765136 	 1.47515861535597
257.1324765136 	 0.442547584606792
272.1433755509 	 0.433954427624135
288.1746756793 	 100
END IONS

BEGIN IONS
PEPMASS=347.2228
CHARGE=1
MSLEVEL=2
RT=0
SOURCE_INSTRUMENT=qTOF
FILENAME=CCMSLIB00000079060.ms
IONMODE=Positive
ORGANISM=Natural
NAME=Reichsteins substance S
PI=GNPS
DATACOLLECTOR=GNPS
SMILES=CC12CCC(=O)C=C1CCC1C2CCC2(C)C1CCC2(C(=O)CO)O
INCHI=InChI=1S/C21H30O4/c1-19-8-5-14(23)11-13(19)3-4-15-16(19)6-9-20(2)17(15)7-10-21(20,25)18(24)12-22/h11,15-17,22,25H,3-10,12H2,1-2H3
FORMULA=C21H30O4
PUBMED=N/A
SUBMITUSER=BIOADREM
LIBRARYQUALITY=0
SPECTRUMID=CCMSLIB00000079060
SCANS=1394
ID=CCMSLIB00000079060
93.0698762568 	 1.11083270692391
95.085526321 	 1.44825858180907
97.0647908789 	 6.47122692725299
105.0698762568 	 6.10206297502715
107.085526321 	 1.29959074584482
109.0647908789 	 16.7042512319385
110.072615911 	 1.30794287146079
115.0542261926 	 0.988891672930761
119.085526321 	 6.04693894596175
121.0647908789 	 5.22007850998079
123.0804409431 	 5.5441409838804
128.0620512247 	 1.11083270692391
131.085526321 	 2.56243213897937
133.1011763852 	 4.70892842228347
135.0804409431 	 1.64703917146914
135.1168264494 	 2.13814415768813
137.0960910073 	 1.61028981875887
143.085526321 	 2.80130293159609
145.1011763852 	 6.74517664745678
147.0804409431 	 1.77733233107826
147.1168264494 	 3.32748684540216
149.0960910073 	 2.91656226509647
155.085526321 	 1.2762047941201
157.1011763852 	 4.52351123360895
159.1168264494 	 2.42378685375428
161.0960910073 	 2.72947465129876
161.1324765136 	 1.30794287146079
163.1117410715 	 3.79353545477324
169.1011763852 	 4.97452601687129
171.1168264494 	 3.5864027394972
173.0960910073 	 1.51841643698321
173.1324765136 	 1.12419610790946
175.1117410715 	 2.11642863108661
177.1273911357 	 1.17764971185167
183.1168264494 	 2.09805395473148
185.1324765136 	 1.66374342270108
187.1117410715 	 3.63317464294663
187.1481265778 	 2.27344859266683
189.1273911357 	 1.77733233107826
197.1324765136 	 1.32464712269273
201.1273911357 	 2.45552493109496
209.1324765136 	 1.22776246554748
211.1481265778 	 2.58414766558089
215.1430411999 	 1.93936356802806
225.1273911357 	 1.22776246554748
225.163776642 	 2.662657646371
227.1430411999 	 2.01954397394137
237.1273911357 	 1.92265931679612
241.1586912641 	 3.15042178234361
245.1536058862 	 1.8742169882235
253.1586912641 	 3.4243715025474
271.1692559504 	 2.01954397394137
271.2056414567 	 1.48834878476572
293.1899913925 	 5.10481917648041
311.2005560788 	 5.4606197277207
329.2111207651 	 17.8551741418191
347.2216854514 	 100
END IONS

BEGIN IONS
PEPMASS=275.1322
CHARGE=1
MSLEVEL=2
RT=0
SOURCE_INSTRUMENT=qTOF
FILENAME=CCMSLIB00000079061.ms
IONMODE=Positive
ORGANISM=Natural
NAME=DEXCHLORPHENIRAMINE MALEATE
PI=GNPS
DATACOLLECTOR=GNPS
SMILES=CN(C)CC[C@@H](c1ccc(cc1)Cl)c1ccccn1
INCHI=InChI=1S/C16H19ClN2/c1-19(2)12-10-15(16-5-3-4-11-18-16)13-6-8-14(17)9-7-13/h3-9,11,15H,10,12H2,1-2H3/t15-/m0/s1
FORMULA=C16H19ClN2
PUBMED=N/A
SUBMITUSER=BIOADREM
LIBRARYQUALITY=0
SPECTRUMID=CCMSLIB00000079061
SCANS=1395
ID=CCMSLIB00000079061
118.0651252299 	 0.93
167.072950262 	 18.07
180.0807752941 	 2.19
194.0964253583 	 1.62
195.1042503904 	 0.75
202.041802972 	 5.85
230.0731031004 	 100
275.1309523303 	 13.34
END IONS

BEGIN IONS
PEPMASS=409.1776
CHARGE=1
MSLEVEL=2
RT=0
SOURCE_INSTRUMENT=qTOF
FILENAME=CCMSLIB00000079063.ms
IONMODE=Positive
ORGANISM=Natural
NAME=Beclomethasone
PI=GNPS
DATACOLLECTOR=GNPS
SMILES=CC1CC2C3CCC4=CC(=O)C=CC4(C)[C@]3(C(CC2(C)C1(C(=O)CO)O)O)Cl
INCHI=InChI=1S/C22H29ClO5/c1-12-8-16-15-5-4-13-9-14(25)6-7-19(13,2)21(15,23)17(26)10-20(16,3)22(12,28)18(27)11-24/h6-7,9,12,15-17,24,26,28H,4-5,8,10-11H2,1-3H3/t12?,15?,16?,17?,19?,20?,21-,22?/m0/s1
FORMULA=C22H29ClO5
PUBMED=N/A
SUBMITUSER=BIOADREM
LIBRARYQUALITY=0
SPECTRUMID=CCMSLIB00000079063
SCANS=1396
ID=CCMSLIB00000079063
105.0698762568 	 13.7834394904459
107.085526321 	 10.5392781316348
115.0542261926 	 12.3312101910828
117.0698762568 	 10.8535031847134
119.085526321 	 24.4670912951168
121.0647908789 	 91.3460721868365
128.0620512247 	 19.651804670913
131.085526321 	 10.3609341825902
132.0569658468 	 11.3205944798301
135.0804409431 	 31.6602972399151
143.085526321 	 13.2653927813163
145.0647908789 	 15.8471337579618
145.1011763852 	 10.3354564755839
147.0804409431 	 100
155.085526321 	 16.135881104034
157.1011763852 	 10.0467091295117
158.072615911 	 15.9915074309979
159.0804409431 	 21.9108280254777
161.0960910073 	 51.4564755838641
171.0804409431 	 68.552016985138
173.0960910073 	 27.0233545647558
179.085526321 	 17.2229299363057
183.0782480578 	 16.7813163481953
185.0960910073 	 25.9363057324841
187.1117410715 	 13.7409766454352
195.0804409431 	 17.0955414012739
196.0882659752 	 13.4692144373673
197.0960910073 	 37.2229299363057
208.0860730899 	 14.6242038216561
209.093898122 	 43.1337579617834
210.1039160394 	 12.7983014861996
211.1117410715 	 35.0828025477707
221.0960910073 	 18.0212314225053
222.1039160394 	 27.0233545647558
223.1117410715 	 36.9256900212314
224.1173732183 	 4.53503184713376
224.1195661036 	 16.3736730360934
225.1273911357 	 12.8322717622081
233.0960910073 	 12.3312101910828
234.1039160394 	 13.5541401273885
235.1095481862 	 14.6836518046709
235.1117410715 	 3.07430997876858
236.1173732183 	 14.6581740976645
237.1273911357 	 44.2717622080679
239.1430411999 	 47.583864118896
247.1117410715 	 14.7770700636943
248.1195661036 	 23.796178343949
249.1273911357 	 24.0849256900212
251.1430411999 	 11.8726114649682
261.1251982504 	 11.6093418259023
261.1273911357 	 3.10828025477707
262.1330232825 	 15.0063694267516
263.1430411999 	 48.135881104034
264.150866232 	 19.7622080679406
267.137955822 	 2.9723991507431
275.1408483146 	 3.6348195329087
277.1564983788 	 20.9256900212314
277.1586912641 	 7.38853503184713
279.1743413283 	 52.3736730360934
289.1586912641 	 3.1932059447983
291.1743413283 	 5.77494692144374
297.1849060146 	 5.85138004246284
301.1586912641 	 4.6963906581741
307.1692559504 	 5.33333333333333
309.1849060146 	 4.64543524416136
319.1692559504 	 10.4373673036093
337.1798206367 	 16.5859872611465
355.190385323 	 13.4777070063694
373.1564983788 	 3.45647558386412
373.2009500093 	 10.3014861995754
391.1670630651 	 84.9256900212314
409.1776277514 	 5.06157112526539
END IONS

BEGIN IONS
PEPMASS=454.0494
CHARGE=1
MSLEVEL=2
RT=0
SOURCE_INSTRUMENT=qTOF
FILENAME=CCMSLIB00000079064.ms
IONMODE=Positive
ORGANISM=Natural
NAME=CEFIXIME TRIHYDRATE
PI=GNPS
DATACOLLECTOR=GNPS
SMILES=C=CC1=C(C(=O)O)N2C(=O)[C@H]([C@H]2SC1)NC(=O)C(=NOCC(=O)O)c1csc(=N)[nH]1
INCHI=InChI=1S/C16H15N5O7S2/c1-2-6-4-29-14-10(13(25)21(14)11(6)15(26)27)19-12(24)9(20-28-3-8(22)23)7-5-30-16(17)18-7/h2,5,10,14H,1,3-4H2,(H2,17,18)(H,19,24)(H,22,23)(H,26,27)/t10-,14-/m1/s1
FORMULA=C16H15N5O7S2
PUBMED=N/A
SUBMITUSER=BIOADREM
LIBRARYQUALITY=0
SPECTRUMID=CCMSLIB00000079064
SCANS=1397
ID=CCMSLIB00000079064
125.0055614405 	 4.93
126.0133864726 	 23.17
127.0212115047 	 3.09
136.0215458557 	 1.09
138.0371959199 	 1.24
142.0083010947 	 5.13
147.0552888251 	 1.44
152.0164604778 	 12.53
155.0161261268 	 2.05
164.0164604778 	 1.9
166.032110542 	 7.5
167.0365647557 	 1.41
170.0270251641 	 7.35
172.018865781 	 4.49
179.0273595151 	 2.15
181.0178574613 	 5.09
182.0270251641 	 10.09
195.0314793778 	 1.27
207.0222741372 	 4.65
209.0127720834 	 6.46
210.0219397862 	 32.19
211.0232396524 	 5.63
228.0061926047 	 1.26
241.0389868339 	 7.62
242.0396012231 	 1.54
245.0327417062 	 2.55
253.0277534456 	 1.6
257.033901456 	 5.75
263.0433063925 	 1.2
285.0288160781 	 100
286.0294304673 	 7.94
287.0246794404 	 4.24
292.0386524829 	 1.71
301.005972146 	 5.33
303.0182513918 	 2.52
329.0008867681 	 20.97
330.0001584866 	 4.53
335.0280502588 	 3.32
408.0430859338 	 1.27
454.0485652422 	 116.79
END IONS

BEGIN IONS
PEPMASS=546.2698
CHARGE=1
MSLEVEL=2
RT=0
SOURCE_INSTRUMENT=qTOF
FILENAME=CCMSLIB00000079065.ms
IONMODE=Positive
ORGANISM=Natural
NAME=HOMOHARRINGTONINE
PI=GNPS
DATACOLLECTOR=GNPS
SMILES=CC(C)(CCC[C@@](CC(=O)OC)(C(=O)O[C@@H]1C(=C[C@@]23CCCN3CCc3cc4c(cc3[C@H]12)OCO4)OC)O)O
INCHI=InChI=1S/C29H39NO9/c1-27(2,33)8-5-10-29(34,16-23(31)36-4)26(32)39-25-22(35-3)15-28-9-6-11-30(28)12-7-18-13-20-21(38-17-37-20)14-19(18)24(25)28/h13-15,24-25,33-34H,5-12,16-17H2,1-4H3/t24-,25-,28+,29-/m1/s1
FORMULA=C29H39NO9
PUBMED=N/A
SUBMITUSER=BIOADREM
LIBRARYQUALITY=0
SPECTRUMID=CCMSLIB00000079065
SCANS=1398
ID=CCMSLIB00000079065
149.059705501 	 0.9
150.0913399804 	 8.22
173.059705501 	 1.35
176.0706045383 	 3.58
185.059705501 	 0.78
200.0706045383 	 0.74
208.1120754225 	 0.93
214.0862546025 	 0.82
215.0702701873 	 2.07
219.0804409431 	 0.82
223.0753555652 	 2.96
223.1117410715 	 2
225.0910056294 	 1.26
226.0862546025 	 7.05
227.0940796346 	 12.48
228.099224592 	 2.67
229.0859202515 	 2.34
229.1097296988 	 4.03
236.1069900446 	 1.89
237.0910056294 	 2.11
238.0862546025 	 1.64
240.1019046667 	 7.07
241.1070496241 	 1.72
242.0811692246 	 1.86
249.0910056294 	 1.08
251.1066556936 	 8.68
253.0859202515 	 3.79
253.1097296988 	 3.45
254.1148746562 	 1.51
266.1175547309 	 18.79
267.1226996883 	 12.06
268.0968192888 	 1.44
268.1332047951 	 3.42
269.1172203799 	 1.76
270.112469353 	 4.21
271.1176143104 	 0.91
281.1172203799 	 3.16
282.112469353 	 1.73
283.1202943851 	 4.12
284.1281194172 	 16.31
285.1332643746 	 2.95
296.1281194172 	 1.86
298.1437694814 	 100
299.1489144388 	 27.64
316.1543341677 	 7.98
317.1594791251 	 2.04
544.2541077918 	 2.28
546.269757856 	 110.46
END IONS

BEGIN IONS
PEPMASS=363.18
CHARGE=1
MSLEVEL=2
RT=0
SOURCE_INSTRUMENT=qTOF
FILENAME=CCMSLIB00000079066.ms
IONMODE=Positive
ORGANISM=Natural
NAME=SECOISOLARICIRESINOL
PI=GNPS
DATACOLLECTOR=GNPS
SMILES=COc1cc(ccc1O)C[C@@H](CO)[C@@H](Cc1ccc(c(c1)OC)O)CO
INCHI=InChI=1S/C20H26O6/c1-25-19-9-13(3-5-17(19)23)7-15(11-21)16(12-22)8-14-4-6-18(24)20(10-14)26-2/h3-6,9-10,15-16,21-24H,7-8,11-12H2,1-2H3/t15-,16-/m0/s1
FORMULA=C20H26O6
PUBMED=N/A
SUBMITUSER=BIOADREM
LIBRARYQUALITY=0
SPECTRUMID=CCMSLIB00000079066
SCANS=1399
ID=CCMSLIB00000079066
123.0440554368 	 3.13
129.0698762568 	 3.21
133.0647908789 	 7.46
135.0804409431 	 7.14
137.059705501 	 100
151.0753555652 	 16.04
163.0753555652 	 18.28
177.0910056294 	 4.57
189.0910056294 	 5.45
207.1168264494 	 3.69
221.1172203799 	 6.9
295.1328704441 	 28.23
327.1590851946 	 18.93
363.1802145672 	 0
END IONS

BEGIN IONS
PEPMASS=298.1258
CHARGE=1
MSLEVEL=2
RT=0
SOURCE_INSTRUMENT=qTOF
FILENAME=CCMSLIB00000079067.ms
IONMODE=Positive
ORGANISM=Natural
NAME=duloxetine hydrochloride
PI=GNPS
DATACOLLECTOR=GNPS
SMILES=CNCC[C@@H](c1cccs1)Oc1cccc2ccccc12
INCHI=InChI=1S/C18H19NOS/c1-19-12-11-17(18-10-5-13-21-18)20-16-9-4-7-14-6-2-3-8-15(14)16/h2-10,13,17,19H,11-12H2,1H3/t17-/m0/s1
FORMULA=C18H19NOS
PUBMED=N/A
SUBMITUSER=BIOADREM
LIBRARYQUALITY=0
SPECTRUMID=CCMSLIB00000079067
SCANS=1400
ID=CCMSLIB00000079067
97.0106468184 	 3.39118249434084
100.0215458557 	 1.04559663684381
112.0341219147 	 1.94890589630268
123.0262968826 	 12.7454996227229
124.0341219147 	 27.8689231432575
129.0698762568 	 9.77039991376522
153.0606710162 	 4.41306456828716
154.0684960483 	 43.1173870863426
155.0763210804 	 27.804247062628
157.0647908789 	 7.43990514174841
165.0698762568 	 2.92335884445403
178.0810721073 	 2.62369300420395
183.0804409431 	 6.41802306780209
183.0838117615 	 10.1713916136682
184.0790607346 	 1.83033308181524
212.0528459841 	 2.2399482591355
221.0419469468 	 4.02500808451008
221.0960910073 	 2.87808558801337
239.0525116331 	 3.79217419424383
267.0838117615 	 21.8885415543818
268.0916367936 	 7.22862994502533
298.1260109272 	 100
END IONS

BEGIN IONS
PEPMASS=191.1188
CHARGE=1
MSLEVEL=2
RT=0
SOURCE_INSTRUMENT=qTOF
FILENAME=CCMSLIB00000079068.ms
IONMODE=Positive
ORGANISM=Natural
NAME=2-(5-methoxy-1H-indol-3-yl)ethanamine
PI=GNPS
DATACOLLECTOR=GNPS
SMILES=COc1ccc2c(c1)c(CCN)c[nH]2
INCHI=InChI=1S/C11H14N2O/c1-14-9-2-3-11-10(6-9)8(4-5-12)7-13-11/h2-3,6-7,13H,4-5,12H2,1H3
FORMULA=C11H14N2O
PUBMED=N/A
SUBMITUSER=BIOADREM
LIBRARYQUALITY=0
SPECTRUMID=CCMSLIB00000079068
SCANS=1401
ID=CCMSLIB00000079068
115.0542261926 	 0.84
130.0651252299 	 8.48
131.072950262 	 12.79
132.0443897878 	 0.47
141.0573001978 	 0.2
142.0651252299 	 1.32
143.072950262 	 7.42
148.0756899162 	 0.27
158.060039852 	 1.87
159.0678648841 	 16.14
174.0913399804 	 100
191.1178890819 	 0.25
END IONS

BEGIN IONS
PEPMASS=232.1571
CHARGE=1
MSLEVEL=2
RT=0
SOURCE_INSTRUMENT=qTOF
FILENAME=CCMSLIB00000079069.ms
IONMODE=Positive
ORGANISM=Natural
NAME=Guanidine
PI=GNPS
DATACOLLECTOR=GNPS
SMILES=CCC(C)(C)NC(=NC#N)Nc1cccnc1
INCHI=InChI=1S/C12H17N5/c1-4-12(2,3)17-11(15-9-13)16-10-6-5-7-14-8-10/h5-8H,4H2,1-3H3,(H2,15,16,17)
FORMULA=C12H17N5
PUBMED=N/A
SUBMITUSER=BIOADREM
LIBRARYQUALITY=0
SPECTRUMID=CCMSLIB00000079069
SCANS=1402
ID=CCMSLIB00000079069
93.0447241388 	 1.1
118.0399731119 	 1.92
120.0556231761 	 45.77
145.0508721492 	 68.71
205.1447725344 	 0.46
232.1556715717 	 26.32
END IONS

BEGIN IONS
PEPMASS=396.0431
CHARGE=1
MSLEVEL=2
RT=0
SOURCE_INSTRUMENT=qTOF
FILENAME=CCMSLIB00000079071.ms
IONMODE=Positive
ORGANISM=Natural
NAME=(6R,7R)-7-[[2-(2-amino-1,3-thiazol-4-yl)-2-hydroxyiminoacetyl]amino]-3-ethenyl-8-oxo-5-thia-1-azabicyclo[4.2.0]oct-2-ene-2-carboxylic acid
PI=GNPS
DATACOLLECTOR=GNPS
SMILES=C=CC1=C(C(=O)O)N2C(=O)[C@H]([C@H]2SC1)NC(=O)C(=NO)c1csc(=N)[nH]1
INCHI=InChI=1S/C14H13N5O5S2/c1-2-5-3-25-12-8(11(21)19(12)9(5)13(22)23)17-10(20)7(18-24)6-4-26-14(15)16-6/h2,4,8,12,24H,1,3H2,(H2,15,16)(H,17,20)(H,22,23)/t8-,12-/m1/s1
FORMULA=C14H13N5O5S2
PUBMED=N/A
SUBMITUSER=BIOADREM
LIBRARYQUALITY=0
SPECTRUMID=CCMSLIB00000079071
SCANS=1404
ID=CCMSLIB00000079071
99.0011447646 	 9.21
99.9851603494 	 2.89
102.0008104136 	 2.15
106.0287397236 	 2.15
106.0525491709 	 3.01
113.0167948288 	 2.29
117.0447241388 	 2.52
124.0154949626 	 5.77
124.0215458557 	 3.87
124.0505377982 	 17.18
125.0055614405 	 24.01
126.0120438019 	 100
126.0133864726 	 36.19
127.0164980156 	 10.05
133.0396387609 	 2.46
135.0552888251 	 3.93
136.0215458557 	 10.86
137.021977324 	 2.62
138.0120438019 	 3.31
139.019868834 	 2.11
142.0049302763 	 6.54
142.0083010947 	 39.41
152.0164604778 	 57.09
153.0195720208 	 4.73
153.0242855099 	 3.77
154.0273970529 	 1.95
156.0226084882 	 3.13
157.0032532546 	 1.85
157.006624073 	 2.11
166.0307678713 	 23.84
167.035222085 	 3.64
167.9875656526 	 2.5
170.0270251641 	 19.23
180.0226084882 	 13.16
180.0239511589 	 4.01
181.019200132 	 5.28
182.0256824934 	 13.73
182.0270251641 	 8.59
183.0335075255 	 22.32
183.9997645561 	 2.86
193.0178574613 	 3.46
199.0297648183 	 12.23
209.0127720834 	 6.61
209.0141147541 	 9.11
210.0205971155 	 7.33
210.0219397862 	 6.44
210.9848259984 	 2.05
211.0284221476 	 24.09
211.9946791782 	 3.91
211.9978335257 	 2.26
213.0025042103 	 15.59
213.0056585578 	 10.13
213.9990958541 	 2.16
215.0022073971 	 2.01
225.9977531834 	 8
225.9990958541 	 5.2
227.0147834561 	 6.88
227.0246794404 	 100
228.0291336541 	 7.16
243.0004928376 	 3.05
243.0018355083 	 9.59
245.0127720834 	 2.33
252.9861854441 	 1.95
270.9967501304 	 18.9
272.0012043441 	 2.81
362.0553651796 	 2.33
368.0481713117 	 2.36
396.0430859338 	 44.68
END IONS

BEGIN IONS
PEPMASS=347.2221
CHARGE=1
MSLEVEL=2
RT=0
SOURCE_INSTRUMENT=qTOF
FILENAME=CCMSLIB00000079072.ms
IONMODE=Positive
ORGANISM=Natural
NAME=50-22-6
PI=GNPS
DATACOLLECTOR=GNPS
SMILES=C[C@]12CCC(=O)C=C1CC[C@H]1[C@@H]3CC[C@H](C(=O)CO)[C@@]3(C)C[C@@H]([C@H]21)O
INCHI=InChI=1S/C21H30O4/c1-20-8-7-13(23)9-12(20)3-4-14-15-5-6-16(18(25)11-22)21(15,2)10-17(24)19(14)20/h9,14-17,19,22,24H,3-8,10-11H2,1-2H3/t14-,15-,16+,17-,19+,20-,21-/m0/s1
FORMULA=C21H30O4
PUBMED=N/A
SUBMITUSER=BIOADREM
LIBRARYQUALITY=0
SPECTRUMID=CCMSLIB00000079072
SCANS=1405
ID=CCMSLIB00000079072
91.0542261926 	 2.4191146846042
95.085526321 	 1.81302222922907
97.0647908789 	 4.27768143360135
105.0698762568 	 7.48156322805542
107.085526321 	 6.50585947763939
109.0647908789 	 5.81393311962443
115.0542261926 	 2.45590064287841
117.0698762568 	 3.34752220295339
119.085526321 	 9.67120360152049
121.0647908789 	 22.3973934520994
121.1011763852 	 2.28248112529998
123.0804409431 	 8.0280974652723
128.0620512247 	 1.46618319407221
129.0698762568 	 6.73183036418099
131.085526321 	 7.72329952528597
133.0647908789 	 1.48194860476115
133.1011763852 	 5.69832010790548
135.0804409431 	 6.18529612696411
141.0698762568 	 3.29146740939268
142.0777012889 	 3.80822253753044
143.085526321 	 9.09489025522448
145.1011763852 	 8.75330635696393
147.0804409431 	 5.9540701035262
147.1168264494 	 7.26785432760523
149.0960910073 	 2.89382871757143
155.085526321 	 1.95666263772838
156.0933513531 	 3.0146968661867
157.1011763852 	 6.72657522728467
159.1168264494 	 7.40974302380577
161.0960910073 	 2.85704275929721
163.1117410715 	 6.09070366283042
165.0910056294 	 1.53975511062063
168.0933513531 	 1.90411126876522
169.1011763852 	 2.06001366335593
171.0804409431 	 1.20868148615271
171.1168264494 	 6.53563858671852
173.1324765136 	 1.90411126876522
177.1273911357 	 2.11606845691664
183.1168264494 	 4.10776534062046
185.1324765136 	 2.31226023437911
187.1117410715 	 1.59580990418134
189.1273911357 	 1.91111811796031
195.137955822 	 1.63259586245555
201.1273911357 	 3.37379788743497
211.1481265778 	 2.29649482369016
227.1430411999 	 1.96717291152101
229.1586912641 	 1.41363182510904
241.1586912641 	 2.63457529735316
265.1950767704 	 1.76222257256468
267.1743413283 	 1.50296915234642
293.1899913925 	 3.47014206386743
294.1978164246 	 1.81827736612539
311.2005560788 	 10.4104261916023
329.2111207651 	 19.9887890412879
347.2216854514 	 100
END IONS

BEGIN IONS
PEPMASS=459.135
CHARGE=1
MSLEVEL=2
RT=0
SOURCE_INSTRUMENT=qTOF
FILENAME=CCMSLIB00000079073.ms
IONMODE=Positive
ORGANISM=Natural
NAME=RALTITREXED
PI=GNPS
DATACOLLECTOR=GNPS
SMILES=Cc1nc2ccc(cc2c(n1)O)CN(C)c1ccc(C(=O)N[C@@H](CCC(=O)O)C(=O)O)s1
INCHI=InChI=1S/C21H22N4O6S/c1-11-22-14-4-3-12(9-13(14)19(28)23-11)10-25(2)17-7-6-16(32-17)20(29)24-15(21(30)31)5-8-18(26)27/h3-4,6-7,9,15H,5,8,10H2,1-2H3,(H,24,29)(H,26,27)(H,30,31)(H,22,23,28)/t15-/m0/s1
FORMULA=C21H22N4O6S
PUBMED=N/A
SUBMITUSER=BIOADREM
LIBRARYQUALITY=0
SPECTRUMID=CCMSLIB00000079073
SCANS=1406
ID=CCMSLIB00000079073
132.0443897878 	 1.59
140.0164604778 	 6.79
173.0709388893 	 81.46
285.0903537024 	 0.21
286.1008588092 	 1.41
312.0801233671 	 100
313.0852683245 	 20.44
330.0906880534 	 0.56
459.1332811496 	 1.37
END IONS

BEGIN IONS
PEPMASS=229.087
CHARGE=1
MSLEVEL=2
RT=0
SOURCE_INSTRUMENT=qTOF
FILENAME=CCMSLIB00000079075.ms
IONMODE=Positive
ORGANISM=Natural
NAME=501-36-0
PI=GNPS
DATACOLLECTOR=GNPS
SMILES=C(=C\c1cc(cc(c1)O)O)/c1ccc(cc1)O
INCHI=InChI=1S/C14H12O3/c15-12-5-3-10(4-6-12)1-2-11-7-13(16)9-14(17)8-11/h1-9,15-17H/b2-1+
FORMULA=C14H12O3
PUBMED=N/A
SUBMITUSER=BIOADREM
LIBRARYQUALITY=0
SPECTRUMID=CCMSLIB00000079075
SCANS=1408
ID=CCMSLIB00000079075
91.0542261926 	 3.41719201084075
92.9971052442 	 0.84251458198315
107.0491408147 	 26.1395549794772
108.0569658468 	 1.84606924723581
111.0440554368 	 2.67680040849192
117.0698762568 	 2.48433786995031
119.0491408147 	 7.78491329366248
120.0569658468 	 8.31516722637915
128.0620512247 	 3.15599285139143
133.0647908789 	 1.74591017105599
135.0440554368 	 22.2196036842829
136.0518804689 	 3.28953828629785
139.0542261926 	 3.87085370883167
141.0698762568 	 3.44075885229482
144.0569658468 	 2.67680040849192
145.0647908789 	 5.19452463716884
152.0620512247 	 6.16469294369489
154.0777012889 	 0.962312692708027
155.085526321 	 5.71299514915847
160.0518804689 	 3.33274416229698
163.0542261926 	 2.19760796559241
165.0698762568 	 29.5292523419549
181.0647908789 	 9.6034878925352
182.072615911 	 2.86926294703352
183.0804409431 	 5.41251792061902
187.0753555652 	 1.54559201869636
201.0910056294 	 1.24315088670241
211.0753555652 	 5.63640291443273
229.0859202515 	 100
END IONS

BEGIN IONS
PEPMASS=489.2279
CHARGE=1
MSLEVEL=2
RT=0
SOURCE_INSTRUMENT=qTOF
FILENAME=CCMSLIB00000079076.ms
IONMODE=Positive
ORGANISM=Natural
NAME=VARDENAFIL CITRATE
PI=GNPS
DATACOLLECTOR=GNPS
SMILES=CCCc1nc(C)c2c(=O)nc(c3cc(ccc3OCC)S(=O)(=O)N3CCN(CC)CC3)[nH]n12
INCHI=InChI=1S/C23H32N6O4S/c1-5-8-20-24-16(4)21-23(30)25-22(26-29(20)21)18-15-17(9-10-19(18)33-7-3)34(31,32)28-13-11-27(6-2)12-14-28/h9-10,15H,5-8,11-14H2,1-4H3,(H,25,26,30)
FORMULA=C23H32N6O4S
PUBMED=N/A
SUBMITUSER=BIOADREM
LIBRARYQUALITY=0
SPECTRUMID=CCMSLIB00000079076
SCANS=1409
ID=CCMSLIB00000079076
98.0838492993 	 0.558008743601573
99.0916743314 	 4.56073288077506
111.0916743314 	 0.186735209472967
113.1073243956 	 5.74119232261986
114.1151494277 	 1.94351076839708
166.0974879908 	 0.370541239189496
173.0709388893 	 0.457684336943547
227.0888971394 	 0.11204112568378
240.100561996 	 0.103253586414464
241.0720015218 	 0.100324406658026
254.0798265539 	 1.06622143134369
255.0838117615 	 0.177947670203651
255.1240370923 	 1.22952320276515
256.0954766181 	 0.45109368249156
256.1239995545 	 0.139136038430838
267.0838117615 	 0.103253586414464
267.1240370923 	 0.322942068147367
269.135847332 	 0.166230951177896
269.1370070818 	 0.183806029716529
279.1201972678 	 0.170624720812554
282.1111266823 	 1.13725404043733
283.1189517144 	 14.6458987821935
284.122936922 	 3.04634694669625
285.1307619541 	 0.426927949500941
285.1346017786 	 0.725704284657689
293.1396871565 	 0.205042582950709
296.122936922 	 0.145726692882825
297.0982162723 	 0.154514232152142
297.1307619541 	 0.298044040217638
297.1346017786 	 0.433518603952928
298.1385869862 	 0.115702600379329
299.1138663365 	 3.69442796780831
300.1138287987 	 0.224082251367561
300.1178515441 	 0.244586509662632
301.1295164007 	 0.344178621381548
310.1385869862 	 0.0951983420842579
311.1502518428 	 6.40904530708788
312.1542370504 	 2.25253923270136
313.1620620825 	 1.32106007015386
315.1049411341 	 0.311225349121612
315.1087809586 	 0.394706972180115
316.1114234955 	 0.233602085575987
327.1451664649 	 0.466471876212864
328.1166059907 	 0.116434895318438
328.1491516725 	 0.142065218187277
329.1608165291 	 0.286327321191883
330.1648017367 	 0.172821605629883
331.0859370265 	 0.131080794100632
344.1479061191 	 1.51658281889614
345.1518913267 	 0.185270619594748
349.0965017128 	 0.240925034967083
375.112151777 	 0.141332923248167
377.1278018412 	 1.39136038430838
461.1965501084 	 1.92300651010201
489.2278502368 	 100
END IONS

BEGIN IONS
PEPMASS=412.1456
CHARGE=1
MSLEVEL=2
RT=0
SOURCE_INSTRUMENT=qTOF
FILENAME=CCMSLIB00000079078.ms
IONMODE=Positive
ORGANISM=Natural
NAME=L-694,247
PI=GNPS
DATACOLLECTOR=GNPS
SMILES=CS(=O)(=O)Nc1ccc(cc1)Cc1nc(c2ccc3c(c2)c(CCN)c[nH]3)on1
INCHI=InChI=1S/C20H21N5O3S/c1-29(26,27)25-16-5-2-13(3-6-16)10-19-23-20(28-24-19)14-4-7-18-17(11-14)15(8-9-21)12-22-18/h2-7,11-12,22,25H,8-10,21H2,1H3
FORMULA=C20H21N5O3S
PUBMED=N/A
SUBMITUSER=BIOADREM
LIBRARYQUALITY=0
SPECTRUMID=CCMSLIB00000079078
SCANS=1410
ID=CCMSLIB00000079078
106.0651252299 	 9.99
115.0542261926 	 0.75
116.046795091 	 0.33
118.0651252299 	 0.72
122.060039852 	 0.3
130.0651252299 	 0.85
132.0655191604 	 0.35
142.0651252299 	 2.69
143.072950262 	 1.33
144.0807752941 	 5.88
145.0845775808 	 0.28
146.0712732403 	 1.31
147.0764181977 	 0.52
157.0555856383 	 0.29
157.0760242672 	 0.36
158.060039852 	 7.17
160.0756899162 	 0.31
168.0681992351 	 0.77
169.0760242672 	 0.7
170.060039852 	 57.85
171.0638421387 	 7.21
172.0631138572 	 0.57
173.0709388893 	 2.65
175.0661503246 	 1.06
184.0426752283 	 59.43
185.0457867713 	 4.77
187.0865889535 	 3.6
188.0903912402 	 0.75
211.0740128945 	 1.7
212.0818379266 	 21.2
214.0849119318 	 0.31
245.1033016502 	 0.29
261.1015870907 	 0.38
273.126048465 	 0.49
303.1240370923 	 1.6
304.1318621244 	 1.51
312.0801233671 	 1.53
316.1318621244 	 10.06
318.1349361296 	 0.47
334.166236258 	 0.56
383.1172371549 	 7.53
395.1172371549 	 100
397.1203111601 	 5.24
412.1437862564 	 113.8
END IONS

BEGIN IONS
PEPMASS=555.021
CHARGE=1
MSLEVEL=2
RT=0
SOURCE_INSTRUMENT=qTOF
FILENAME=CCMSLIB00000079082.ms
IONMODE=Positive
ORGANISM=Natural
NAME=AM-251
PI=GNPS
DATACOLLECTOR=GNPS
SMILES=Cc1c(C(=NN2CCCCC2)O)nn(c2ccc(cc2Cl)Cl)c1c1ccc(cc1)I
INCHI=InChI=1S/C22H21Cl2IN4O/c1-14-20(22(30)27-28-11-3-2-4-12-28)26-29(19-10-7-16(23)13-18(19)24)21(14)15-5-8-17(25)9-6-15/h5-10,13H,2-4,11-12H2,1H3,(H,27,30)
FORMULA=C22H21Cl2IN4O
PUBMED=N/A
SUBMITUSER=BIOADREM
LIBRARYQUALITY=0
SPECTRUMID=CCMSLIB00000079082
SCANS=1412
ID=CCMSLIB00000079082
139.1481265778 	 0.79
140.1433755509 	 0.33
159.9710433321 	 0.36
170.9762815484 	 0.63
175.1122282609 	 5.33
177.1153022661 	 0.82
202.1100640498 	 1.69
203.107142883 	 0.31
219.1258669524 	 0.71
229.0760242672 	 0.3
233.0965781967 	 0.71
234.1044032288 	 1
235.0996522019 	 0.79
238.041802972 	 0.38
246.9950056178 	 2.07
251.107142883 	 0.38
253.1102168882 	 1
255.9589544625 	 0.31
256.9667794946 	 1.37
264.0448769772 	 0.67
265.0527020093 	 0.47
265.0527020093 	 0.69
266.0479509824 	 0.96
268.0523676583 	 1.15
293.0476166314 	 0.92
295.0381145776 	 2.26
299.0137296872 	 0.37
300.0215547193 	 1.09
302.0372047835 	 0.38
304.0290454004 	 2.79
305.0368704325 	 1.33
306.0230789026 	 0.34
328.0164693414 	 0.35
328.0164693414 	 100
331.0147923197 	 7.97
332.0135768488 	 5.54
343.0273683787 	 0.42
348.0215547193 	 30.47
349.0293797514 	 4.48
350.0241415351 	 3.54
428.116517737 	 183.78
END IONS

BEGIN IONS
PEPMASS=358.1027
CHARGE=1
MSLEVEL=2
RT=0
SOURCE_INSTRUMENT=qTOF
FILENAME=CCMSLIB00000079084.ms
IONMODE=Positive
ORGANISM=Natural
NAME=BALSALAZIDE
PI=GNPS
DATACOLLECTOR=GNPS
SMILES=c1cc(ccc1C(=O)NCCC(=O)O)N=Nc1ccc(c(c1)C(=O)O)O
INCHI=InChI=1S/C17H15N3O6/c21-14-6-5-12(9-13(14)17(25)26)20-19-11-3-1-10(2-4-11)16(24)18-8-7-15(22)23/h1-6,9,21H,7-8H2,(H,18,24)(H,22,23)(H,25,26)
FORMULA=C17H15N3O6
PUBMED=N/A
SUBMITUSER=BIOADREM
LIBRARYQUALITY=0
SPECTRUMID=CCMSLIB00000079084
SCANS=1414
ID=CCMSLIB00000079084
139.0542261926 	 4.73
165.0698762568 	 1.84
223.0502034472 	 7.75
241.0607681335 	 1.18
251.0451180693 	 85.4
268.0716671708 	 0.78
269.0556827556 	 100
287.0662474419 	 3.12
294.087317235 	 1.1
322.0822318571 	 1.79
340.0927965434 	 7.87
358.1033612297 	 12.61
END IONS

BEGIN IONS
PEPMASS=313.2157
CHARGE=1
MSLEVEL=2
RT=0
SOURCE_INSTRUMENT=qTOF
FILENAME=CCMSLIB00000079085.ms
IONMODE=Positive
ORGANISM=Natural
NAME=TIBOLONE
PI=GNPS
DATACOLLECTOR=GNPS
SMILES=C#C[C@@]1(CC[C@H]2[C@@H]3[C@H](C)CC4=C(CCC(=O)C4)[C@H]3CC[C@]12C)O
INCHI=InChI=1S/C21H28O2/c1-4-21(23)10-8-18-19-13(2)11-14-12-15(22)5-6-16(14)17(19)7-9-20(18,21)3/h1,13,17-19,23H,5-12H2,2-3H3/t13-,17-,18+,19-,20+,21+/m1/s1
FORMULA=C21H28O2
PUBMED=N/A
SUBMITUSER=BIOADREM
LIBRARYQUALITY=0
SPECTRUMID=CCMSLIB00000079085
SCANS=1415
ID=CCMSLIB00000079085
105.0698762568 	 6.73
107.085526321 	 4.82
117.0698762568 	 5.34
119.085526321 	 19.52
129.0698762568 	 6.21
131.085526321 	 27.49
133.1011763852 	 8.63
135.0804409431 	 11.48
137.0960910073 	 8.55
142.0777012889 	 7.68
143.085526321 	 7.6
145.1011763852 	 13.01
147.1168264494 	 7.82
155.085526321 	 10.38
157.1011763852 	 10.96
159.1168264494 	 10.09
163.1117410715 	 6.8
169.1011763852 	 7.6
171.1168264494 	 8.85
177.1273911357 	 7.53
181.1011763852 	 6.65
195.1168264494 	 6.07
197.1324765136 	 5.34
199.1481265778 	 7.16
207.1168264494 	 5.19
211.1481265778 	 4.9
221.1324765136 	 7.46
227.1794267062 	 7.46
235.1481265778 	 4.9
249.163776642 	 10.23
251.1794267062 	 7.31
253.1950767704 	 4.61
267.2107268346 	 6.07
277.1950767704 	 38.67
295.2056414567 	 100
313.216206143 	 38.67
END IONS

BEGIN IONS
PEPMASS=419.1794
CHARGE=1
MSLEVEL=2
RT=0
SOURCE_INSTRUMENT=qTOF
FILENAME=CCMSLIB00000079086.ms
IONMODE=Positive
ORGANISM=Natural
NAME=3-O-(2-methoxyethyl) 5-O-propan-2-yl 2,6-dimethyl-4-(3-nitrophenyl)-1,4-dihydropyridine-3,5-dicarboxylate
PI=GNPS
DATACOLLECTOR=GNPS
SMILES=CC(C)OC(=O)C1=C(C)N=C(C)/C(=C(/O)\OCCOC)/C1c1cccc(c1)N(=O)=O
INCHI=InChI=1S/C21H26N2O7/c1-12(2)30-21(25)18-14(4)22-13(3)17(20(24)29-10-9-28-5)19(18)15-7-6-8-16(11-15)23(26)27/h6-8,11-12,19,24H,9-10H2,1-5H3/b20-17+
FORMULA=C21H26N2O7
PUBMED=N/A
SUBMITUSER=BIOADREM
LIBRARYQUALITY=0
SPECTRUMID=CCMSLIB00000079086
SCANS=1416
ID=CCMSLIB00000079086
158.0964253583 	 0.663758771098047
168.0780952194 	 5.92957835514255
168.0807752941 	 1.28326695745622
176.0315389573 	 0.897654719008787
180.0807752941 	 0.948226815854352
181.0859202515 	 0.657437258992351
181.0886003262 	 0.23389594791074
182.0937452836 	 1.67520070800936
182.0964253583 	 0.360326190024654
183.1015703157 	 1.6056640748467
183.1042503904 	 0.701687843732221
187.0991650125 	 0.208609899487958
198.0913399804 	 0.404576774764524
208.0756899162 	 1.44762627220431
209.0808348736 	 1.40969719957014
209.0835149483 	 0.51204248056135
210.0886599057 	 3.69808458183197
210.0913399804 	 1.32751754219609
211.0964849378 	 1.4602692964157
212.0706045383 	 2.18724318857071
215.0940796346 	 1.21373032429357
217.0607681335 	 1.74473734117201
225.0757494957 	 0.859725646374613
226.0862546025 	 6.70712434414312
227.0913995599 	 2.02288387382262
227.0940796346 	 0.973512864277135
228.0628390857 	 0.619508186358177
228.0655191604 	 0.214931411593653
239.0815035756 	 0.379290726341741
240.0655191604 	 0.783867501106265
240.0893286077 	 0.821796573740439
241.0706641178 	 1.25165939692775
242.0811692246 	 2.28206587015614
243.086314182 	 1.27062393324483
243.0889942567 	 0.594222137935394
253.0706641178 	 2.17460016435931
253.0733441925 	 1.23901637271635
254.0811692246 	 21.2529236993489
255.086314182 	 15.1084139326127
255.0889942567 	 9.29262279537265
267.0764181977 	 1.82691699854605
271.0812288041 	 1.58669953852962
271.0839088788 	 0.480434920032872
283.0713328198 	 8.14842910424174
284.0791578519 	 12.1689108034642
285.0631734367 	 3.40729502496997
287.0788235009 	 13.9768632656932
299.0662474419 	 0.372969214236045
301.0818975061 	 100
317.0768121282 	 4.84227827296289
343.1288476987 	 63.2151210569568
359.1237623208 	 12.8516341108793
375.1186769429 	 1.3148745179847
419.1812771997 	 0.126430242113914
END IONS

BEGIN IONS
PEPMASS=310.173
CHARGE=1
MSLEVEL=2
RT=0
SOURCE_INSTRUMENT=qTOF
FILENAME=CCMSLIB00000079088.ms
IONMODE=Positive
ORGANISM=Natural
NAME=Fluperlapine
PI=GNPS
DATACOLLECTOR=GNPS
SMILES=CN1CCN(CC1)C1=Nc2cc(ccc2Cc2ccccc12)F
INCHI=InChI=1S/C19H20FN3/c1-22-8-10-23(11-9-22)19-17-5-3-2-4-14(17)12-15-6-7-16(20)13-18(15)21-19/h2-7,13H,8-12H2,1H3
FORMULA=C19H20FN3
PUBMED=N/A
SUBMITUSER=BIOADREM
LIBRARYQUALITY=0
SPECTRUMID=CCMSLIB00000079088
SCANS=1417
ID=CCMSLIB00000079088
96.0807752941 	 40.6
97.0886003262 	 7.12
115.0542261926 	 2.36
128.0620512247 	 2.5
138.1277254867 	 2.25
141.0698762568 	 4.12
165.0698762568 	 3.28
178.0777012889 	 5.14
179.0853265045 	 2.01
191.085526321 	 2.89
205.1009765687 	 10.81
206.1090014173 	 5.15
210.071353462 	 34.13
216.0931515366 	 4.75
253.1135526277 	 100
279.1292026919 	 13.59
310.1714018576 	 106.25
END IONS

BEGIN IONS
PEPMASS=551.154
CHARGE=1
MSLEVEL=2
RT=0
SOURCE_INSTRUMENT=qTOF
FILENAME=CCMSLIB00000079091.ms
IONMODE=Positive
ORGANISM=Natural
NAME=TREMULACIN
PI=GNPS
DATACOLLECTOR=GNPS
SMILES=c1ccc(cc1)C(=O)O[C@@H]1[C@H]([C@@H]([C@@H](CO)O[C@H]1Oc1ccccc1COC(=O)C1(C=CCCC1=O)O)O)O
INCHI=InChI=1S/C27H28O11/c28-14-19-21(30)22(31)23(38-24(32)16-8-2-1-3-9-16)25(37-19)36-18-11-5-4-10-17(18)15-35-26(33)27(34)13-7-6-12-20(27)29/h1-5,7-11,13,19,21-23,25,28,30-31,34H,6,12,14-15H2/t19-,21-,22+,23-,25-,27?/m1/s1
FORMULA=C27H28O11
PUBMED=N/A
SUBMITUSER=BIOADREM
LIBRARYQUALITY=0
SPECTRUMID=CCMSLIB00000079091
SCANS=1418
ID=CCMSLIB00000079091
105.0546201231 	 18.17
107.0491408147 	 5.27
108.0569658468 	 5.73
111.0440554368 	 6.18
113.059705501 	 14.81
147.0651848094 	 13.89
157.0495347452 	 100
158.0573597773 	 14.58
209.0808348736 	 7.4
265.0342786115 	 6.56
267.086314182 	 90.69
350.0632330162 	 4.05
373.1281789967 	 6.26
379.1176143104 	 4.12
389.0867081125 	 5.95
423.1438290609 	 7.02
485.1806084977 	 25.27
529.1704377419 	 1434.12
END IONS

BEGIN IONS
PEPMASS=338.175
CHARGE=1
MSLEVEL=2
RT=0
SOURCE_INSTRUMENT=qTOF
FILENAME=CCMSLIB00000079092.ms
IONMODE=Positive
ORGANISM=Natural
NAME=OLOPATADINE HYDROCHLORIDE
PI=GNPS
DATACOLLECTOR=GNPS
SMILES=CN(C)CC/C=C\1/c2ccccc2COc2ccc(cc12)CC(=O)O
INCHI=InChI=1S/C21H23NO3/c1-22(2)11-5-8-18-17-7-4-3-6-16(17)14-25-20-10-9-15(12-19(18)20)13-21(23)24/h3-4,6-10,12H,5,11,13-14H2,1-2H3,(H,23,24)/b18-8-
FORMULA=C21H23NO3
PUBMED=N/A
SUBMITUSER=BIOADREM
LIBRARYQUALITY=0
SPECTRUMID=CCMSLIB00000079092
SCANS=1419
ID=CCMSLIB00000079092
91.0542261926 	 3.195
109.0647908789 	 3.66
115.0542261926 	 14.445
117.0698762568 	 15.2
119.0491408147 	 4.17
121.0647908789 	 1.305
123.0440554368 	 10.32
128.0620512247 	 5.76
131.0491408147 	 1.94
137.059705501 	 16.155
141.0698762568 	 29.86
161.059705501 	 0.885
165.0546201231 	 83.515
169.0647908789 	 1.47
178.0777012889 	 10.73
179.085526321 	 19.55
189.0546201231 	 1.065
190.0777012889 	 2.83
191.085526321 	 10.34
193.1011763852 	 5.78
202.0777012889 	 3.855
203.085526321 	 10.675
204.0933513531 	 15.77
205.0647908789 	 2.24
205.1011763852 	 9.34
206.072615911 	 3.545
207.0804409431 	 12.3
208.0882659752 	 1.015
215.085526321 	 8.56
216.0933513531 	 0.955
217.1011763852 	 4.94
218.072615911 	 4.73
219.0804409431 	 19.485
219.1168264494 	 12.575
221.0960910073 	 16.505
228.0933513531 	 5.06
229.1011763852 	 33.71
231.0804409431 	 14.81
232.0882659752 	 42.83
233.0960910073 	 17.205
234.1039160394 	 6.23
245.0960910073 	 2.595
247.1117410715 	 100
252.0780952194 	 9.635
293.1172203799 	 19.715
338.1750696098 	 17.98
END IONS

BEGIN IONS
PEPMASS=417.178
CHARGE=1
MSLEVEL=2
RT=0
SOURCE_INSTRUMENT=qTOF
FILENAME=CCMSLIB00000079093.ms
IONMODE=Positive
ORGANISM=Natural
NAME=Brucine
PI=GNPS
DATACOLLECTOR=GNPS
SMILES=COc1cc2c(cc1OC)N1C(=O)C[C@H]3[C@@H]4[C@H]5C[C@H]6[C@]2(CCN6CC5=CCO3)[C@@H]14
INCHI=InChI=1S/C23H26N2O4/c1-27-16-8-14-15(9-17(16)28-2)25-20(26)10-18-21-13-7-19-23(14,22(21)25)4-5-24(19)11-12(13)3-6-29-18/h3,8-9,13,18-19,21-22H,4-7,10-11H2,1-2H3/t13-,18-,19-,21-,22-,23+/m0/s1
FORMULA=C23H26N2O4
PUBMED=N/A
SUBMITUSER=BIOADREM
LIBRARYQUALITY=0
SPECTRUMID=CCMSLIB00000079093
SCANS=1420
ID=CCMSLIB00000079093
149.1199004546 	 3.22
161.1199004546 	 6.6
170.0964253583 	 3.63
204.1019046667 	 12.94
206.1175547309 	 4.29
217.1011763852 	 3.22
220.0994993635 	 3.87
231.0916743314 	 5.52
232.0994993635 	 8.66
237.0910056294 	 3.05
248.0831805973 	 3.3
249.1022390177 	 21.27
261.086982884 	 10.14
262.0948079161 	 12.78
263.085526321 	 3.13
265.0971536398 	 4.95
279.1015703157 	 50.12
280.0994993635 	 11.05
281.0920682619 	 31.08
282.0886599057 	 5.36
295.0964849378 	 100
296.0944139856 	 8.99
309.112135002 	 5.28
321.1485205083 	 95.38
322.1464495561 	 16.74
323.1277850662 	 3.54
337.1434351304 	 14.1
354.1362788003 	 39.74
395.1965333334 	 0
END IONS

BEGIN IONS
PEPMASS=322.2278
CHARGE=1
MSLEVEL=2
RT=0
SOURCE_INSTRUMENT=qTOF
FILENAME=CCMSLIB00000079096.ms
IONMODE=Positive
ORGANISM=Natural
NAME=Rimcazole
PI=GNPS
DATACOLLECTOR=GNPS
SMILES=C[C@H]1CN(CCCn2c3ccccc3c3ccccc23)C[C@@H](C)N1
INCHI=InChI=1S/C21H27N3/c1-16-14-23(15-17(2)22-16)12-7-13-24-20-10-5-3-8-18(20)19-9-4-6-11-21(19)24/h3-6,8-11,16-17,22H,7,12-15H2,1-2H3/t16-,17+
FORMULA=C21H27N3
PUBMED=N/A
SUBMITUSER=BIOADREM
LIBRARYQUALITY=0
SPECTRUMID=CCMSLIB00000079096
SCANS=1422
ID=CCMSLIB00000079096
98.0964253583 	 0.46
112.0994993635 	 2.41
127.1229744598 	 10.3
129.138624524 	 0.35
153.0698762568 	 0.63
155.1542745882 	 7.36
167.072950262 	 0.4
180.0807752941 	 100
193.0886003262 	 0.53
206.0964253583 	 0.36
208.1120754225 	 6.78
265.1699246524 	 1.08
322.2277738823 	 203.57
END IONS

BEGIN IONS
PEPMASS=268.1332
CHARGE=1
MSLEVEL=2
RT=0
SOURCE_INSTRUMENT=qTOF
FILENAME=CCMSLIB00000079098.ms
IONMODE=Positive
ORGANISM=Natural
NAME=Benzo[a]phenanthridine-10,11-diol, 5,6,6a,7,8,12b-hexahydro-, trans- [CAS]
PI=GNPS
DATACOLLECTOR=GNPS
SMILES=c1ccc2c(c1)CN[C@@H]1CCc3cc(c(cc3[C@@H]21)O)O
INCHI=InChI=1S/C17H17NO2/c19-15-7-10-5-6-14-17(13(10)8-16(15)20)12-4-2-1-3-11(12)9-18-14/h1-4,7-8,14,17-20H,5-6,9H2/t14-,17-/m1/s1
FORMULA=C17H17NO2
PUBMED=N/A
SUBMITUSER=BIOADREM
LIBRARYQUALITY=0
SPECTRUMID=CCMSLIB00000079098
SCANS=1423
ID=CCMSLIB00000079098
91.0542261926 	 2.1
118.0651252299 	 22.57
123.0440554368 	 13.28
141.0698762568 	 2.05
149.059705501 	 0.5
167.085526321 	 0.72
177.0698762568 	 0.58
178.0777012889 	 1.83
179.085526321 	 1.28
181.0647908789 	 0.46
189.0698762568 	 2.81
190.0777012889 	 19.16
195.0804409431 	 0.83
203.085526321 	 12.8
204.0933513531 	 10.37
205.1011763852 	 63.48
207.0804409431 	 0.57
210.0675305331 	 2.5
215.085526321 	 13.87
218.072615911 	 6.49
223.0753555652 	 3.45
223.1117410715 	 1.34
231.0804409431 	 2.03
233.0960910073 	 44.87
235.0753555652 	 0.75
236.0831805973 	 4.73
238.1226401088 	 1.04
249.0910056294 	 1.28
251.1066556936 	 100
253.1097296988 	 1.54
266.1175547309 	 2.6
268.1332047951 	 165.82
END IONS

BEGIN IONS
PEPMASS=299.1512
CHARGE=1
MSLEVEL=2
RT=0
SOURCE_INSTRUMENT=qTOF
FILENAME=CCMSLIB00000079099.ms
IONMODE=Positive
ORGANISM=Natural
NAME=N-benzyl-3-[2-(pyridine-4-carbonyl)hydrazinyl]propanamide
PI=GNPS
DATACOLLECTOR=GNPS
SMILES=c1ccc(cc1)CN=C(CCNNC(=O)c1ccncc1)O
INCHI=InChI=1S/C16H18N4O2/c21-15(18-12-13-4-2-1-3-5-13)8-11-19-20-16(22)14-6-9-17-10-7-14/h1-7,9-10,19H,8,11-12H2,(H,18,21)(H,20,22)
FORMULA=C16H18N4O2
PUBMED=N/A
SUBMITUSER=BIOADREM
LIBRARYQUALITY=0
SPECTRUMID=CCMSLIB00000079099
SCANS=1424
ID=CCMSLIB00000079099
91.0542261926 	 3.47583800061918
105.0447241388 	 9.69012974585573
106.0287397236 	 14.1059919506909
107.0365647557 	 1.71681067237061
107.060374203 	 0.475640989558414
108.0807752941 	 2.03484281331795
120.0556231761 	 0.588218738566322
121.0396387609 	 37.4208437702288
123.0552888251 	 17.4101488840731
132.0556231761 	 5.51349525766232
138.0661878624 	 31.4035630857561
150.0661878624 	 44.6595930314373
162.0913399804 	 8.3729700824632
164.0818379266 	 1.95322394528721
174.0661878624 	 0.557259857589148
192.0767525487 	 28.1444372519771
228.113138055 	 3.70380794236019
281.1396871565 	 2.62587599560947
299.1502518428 	 100
END IONS

BEGIN IONS
PEPMASS=271.1821
CHARGE=1
MSLEVEL=2
RT=0
SOURCE_INSTRUMENT=qTOF
FILENAME=CCMSLIB00000079106.ms
IONMODE=Positive
ORGANISM=Natural
NAME=562-10-7
PI=GNPS
DATACOLLECTOR=GNPS
SMILES=CC(c1ccccc1)(c1ccccn1)OCCN(C)C
INCHI=InChI=1S/C17H22N2O/c1-17(20-14-13-19(2)3,15-9-5-4-6-10-15)16-11-7-8-12-18-16/h4-12H,13-14H2,1-3H3
FORMULA=C17H22N2O
PUBMED=N/A
SUBMITUSER=BIOADREM
LIBRARYQUALITY=0
SPECTRUMID=CCMSLIB00000079106
SCANS=1428
ID=CCMSLIB00000079106
166.0651252299 	 0.71
167.072950262 	 70.84
181.0886003262 	 0.64
182.0964253583 	 100
226.1226401088 	 0.48
271.1804893387 	 8.58
END IONS

BEGIN IONS
PEPMASS=467.1831
CHARGE=1
MSLEVEL=2
RT=0
SOURCE_INSTRUMENT=qTOF
FILENAME=CCMSLIB00000079107.ms
IONMODE=Positive
ORGANISM=Natural
NAME=LOTEPREDNOL ETABONATE
PI=GNPS
DATACOLLECTOR=GNPS
SMILES=CCOC(=O)O[C@@]1(CC[C@H]2[C@@H]3CCC4=CC(=O)C=C[C@]4(C)[C@H]3[C@H](C[C@]12C)O)C(=O)OCCl
INCHI=InChI=1S/C24H31ClO7/c1-4-30-21(29)32-24(20(28)31-13-25)10-8-17-16-6-5-14-11-15(26)7-9-22(14,2)19(16)18(27)12-23(17,24)3/h7,9,11,16-19,27H,4-6,8,10,12-13H2,1-3H3/t16-,17-,18-,19+,22-,23-,24-/m0/s1
FORMULA=C24H31ClO7
PUBMED=N/A
SUBMITUSER=BIOADREM
LIBRARYQUALITY=0
SPECTRUMID=CCMSLIB00000079107
SCANS=1429
ID=CCMSLIB00000079107
117.0698762568 	 4.39
121.0647908789 	 7.66
129.0698762568 	 9.7
131.085526321 	 4.6
135.0804409431 	 8.27
142.0777012889 	 7.87
144.0780952194 	 5.41
147.0804409431 	 28.09
172.0882659752 	 12.77
173.0960910073 	 16.55
209.0960910073 	 9.81
217.1070496241 	 4.7
223.1117410715 	 22.68
225.1273911357 	 5.41
234.1403015457 	 4.9
248.1195661036 	 5.11
249.1273911357 	 4.9
251.0833334357 	 10.11
265.1586912641 	 100
283.1692559504 	 7.35
293.1536058862 	 6.54
359.1408483146 	 90.19
360.1486733467 	 17.88
361.1412422451 	 26.05
449.1725423735 	 26.86
450.1803674056 	 13.89
467.1831070598 	 12.36
END IONS

BEGIN IONS
PEPMASS=263.0829
CHARGE=1
MSLEVEL=2
RT=0
SOURCE_INSTRUMENT=qTOF
FILENAME=CCMSLIB00000079110.ms
IONMODE=Positive
ORGANISM=Natural
NAME=3-(3-oxo-1H-indol-2-ylidene)-1H-indol-2-one
PI=GNPS
DATACOLLECTOR=GNPS
SMILES=c1ccc2c(c1)c(C1=Nc3ccccc3C1=O)c([nH]2)O
INCHI=InChI=1S/C16H10N2O2/c19-15-10-6-2-4-8-12(10)17-14(15)13-9-5-1-3-7-11(9)18-16(13)20/h1-8,18,20H
FORMULA=C16H10N2O2
PUBMED=N/A
SUBMITUSER=BIOADREM
LIBRARYQUALITY=0
SPECTRUMID=CCMSLIB00000079110
SCANS=1430
ID=CCMSLIB00000079110
106.0287397236 	 0.53041847380143
132.0443897878 	 2.13779158363615
139.0542261926 	 0.61540264916188
152.0620512247 	 0.717969757355527
156.0443897878 	 0.369241589497128
160.0393044099 	 0.717969757355527
165.0698762568 	 8.34603211815731
177.0573001978 	 0.632985581995077
180.0807752941 	 3.79498300316493
190.0651252299 	 17.9052866018052
192.0807752941 	 1.60297737662642
193.0886003262 	 4.56716680342281
194.072615911 	 0.659359981244872
206.0838492993 	 7.42439338881726
208.0756899162 	 2.13339585042785
209.0709388893 	 0.786836244285547
215.060374203 	 0.889403352479193
216.0681992351 	 2.31801664517642
217.0760242672 	 13.3161411323409
218.0838492993 	 1.09014183565819
219.0916743314 	 27.2520806470519
220.0756899162 	 2.35025202203728
221.0835149483 	 2.2403586918298
234.0787639214 	 6.40604852889462
235.0865889535 	 17.4364083929199
236.0706045383 	 1.77880670495839
245.0709388893 	 6.1496307584105
263.0815035756 	 100
END IONS

BEGIN IONS
PEPMASS=453.2537
CHARGE=1
MSLEVEL=2
RT=0
SOURCE_INSTRUMENT=qTOF
FILENAME=CCMSLIB00000079112.ms
IONMODE=Positive
ORGANISM=Natural
NAME=DIPHENOXYLATE
PI=GNPS
DATACOLLECTOR=GNPS
SMILES=CCOC(=O)C1(CCN(CC1)CCC(C#N)(c1ccccc1)c1ccccc1)c1ccccc1
INCHI=InChI=1S/C30H32N2O2/c1-2-34-28(33)29(25-12-6-3-7-13-25)18-21-32(22-19-29)23-20-30(24-31,26-14-8-4-9-15-26)27-16-10-5-11-17-27/h3-17H,2,18-23H2,1H3
FORMULA=C30H32N2O2
PUBMED=N/A
SUBMITUSER=BIOADREM
LIBRARYQUALITY=0
SPECTRUMID=CCMSLIB00000079112
SCANS=1432
ID=CCMSLIB00000079112
103.0542261926 	 0.674711230181387
106.0651252299 	 0.241007510211252
110.0964253583 	 0.223439764592209
115.0542261926 	 0.346962975976108
117.0698762568 	 1.14135447318723
120.0807752941 	 0.379902499011814
126.0549544741 	 1.84296631384778
127.0627795062 	 0.345315999824323
128.0620512247 	 0.437546664324301
129.0698762568 	 0.441389608678466
131.085526321 	 0.262418200184461
132.0807752941 	 0.479819052220124
141.0784295704 	 0.169638543633888
143.085526321 	 1.83528042513944
144.0569658468 	 0.713140673723044
144.0807752941 	 0.804273354121832
145.0886003262 	 0.314023452940401
146.0964253583 	 0.28163292195529
155.0940796346 	 0.710944705520664
158.0964253583 	 4.44958057007335
159.0678648841 	 0.516052527559401
159.1042503904 	 2.34694101629408
160.1120754225 	 2.78119372831481
161.1199004546 	 0.894857042470025
162.0675305331 	 0.785607624401599
165.0698762568 	 6.9798849312662
172.1120754225 	 4.5560850278888
174.1277254867 	 0.585225525934384
186.0913399804 	 0.404058149237999
186.1277254867 	 1.18197988493127
187.0991650125 	 10.9798410119021
187.1355505188 	 3.32853880275814
190.0988306615 	 0.501229742193333
190.1226401088 	 0.45785937019632
192.0807752941 	 8.14210110237604
204.1019046667 	 5.02931617550178
205.1097296988 	 0.961285080592033
218.1175547309 	 2.77680179191005
220.1120754225 	 0.674162238130792
232.1332047951 	 2.69445298432079
233.1410298272 	 4.66149150160306
249.138624524 	 6.71252580262638
260.1645049235 	 0.727963459089112
275.1542745882 	 0.919561684746805
351.1855747166 	 0.402960165136809
379.216874845 	 4.07846194387105
407.2117894671 	 1.212174447714
425.2223541534 	 6.64170582809961
453.2536542818 	 100
END IONS

BEGIN IONS
PEPMASS=469.2297
CHARGE=1
MSLEVEL=2
RT=0
SOURCE_INSTRUMENT=qTOF
FILENAME=CCMSLIB00000079113.ms
IONMODE=Positive
ORGANISM=Natural
NAME=LOMERIZINE DiHCl
PI=GNPS
DATACOLLECTOR=GNPS
SMILES=COc1ccc(CN2CCN(CC2)C(c2ccc(cc2)F)c2ccc(cc2)F)c(c1OC)OC
INCHI=InChI=1S/C27H30F2N2O3/c1-32-24-13-8-21(26(33-2)27(24)34-3)18-30-14-16-31(17-15-30)25(19-4-9-22(28)10-5-19)20-6-11-23(29)12-7-20/h4-13,25H,14-18H2,1-3H3
FORMULA=C27H30F2N2O3
PUBMED=N/A
SUBMITUSER=BIOADREM
LIBRARYQUALITY=0
SPECTRUMID=CCMSLIB00000079113
SCANS=1433
ID=CCMSLIB00000079113
121.0284053726 	 0.32
121.0647908789 	 0.44
123.0804409431 	 0.93
135.0440554368 	 1.74
136.0518804689 	 7.33
149.059705501 	 0.28
151.0389700589 	 1.94
151.0753555652 	 0.67
153.0910056294 	 1.05
165.0546201231 	 1.7
166.0624451552 	 55.6
181.0859202515 	 100
183.0604544247 	 7.07
188.0432075605 	 0.2
203.0666826568 	 71.26
265.1546685187 	 3.38
449.2234970076 	 1.17
469.2297252397 	 50.12
END IONS

BEGIN IONS
PEPMASS=247.1814
CHARGE=1
MSLEVEL=2
RT=0
SOURCE_INSTRUMENT=qTOF
FILENAME=CCMSLIB00000079115.ms
IONMODE=Positive
ORGANISM=Natural
NAME=Milnacipran
PI=GNPS
DATACOLLECTOR=GNPS
SMILES=CCN(CC)C(=O)[C@@]1(C[C@@H]1CN)c1ccccc1
INCHI=InChI=1S/C15H22N2O/c1-3-17(4-2)14(18)15(10-13(15)11-16)12-8-6-5-7-9-12/h5-9,13H,3-4,10-11,16H2,1-2H3/t13-,15+/m1/s1
FORMULA=C15H22N2O
PUBMED=N/A
SUBMITUSER=BIOADREM
LIBRARYQUALITY=0
SPECTRUMID=CCMSLIB00000079115
SCANS=1435
ID=CCMSLIB00000079115
91.0542261926 	 0.46
100.0756899162 	 14.13
103.0542261926 	 1.36
115.0542261926 	 0.44
116.0620512247 	 0.5
117.0698762568 	 1.32
127.0542261926 	 1.4
128.0620512247 	 10.71
129.0698762568 	 27.68
131.085526321 	 10.11
141.0698762568 	 0.4
142.0777012889 	 0.32
144.0807752941 	 0.62
145.0886003262 	 0.27
146.0964253583 	 0.95
152.1069900446 	 0.35
157.0647908789 	 3.08
158.0964253583 	 0.9
159.0804409431 	 0.97
167.072950262 	 0.55
168.0807752941 	 0.36
171.1042503904 	 0.22
172.0756899162 	 0.42
173.1199004546 	 0.22
174.0913399804 	 2.66
182.0964253583 	 0.29
186.0913399804 	 0.75
186.1277254867 	 0.59
200.1069900446 	 3.15
201.1148150767 	 1.6
202.1590256151 	 13.41
214.1226401088 	 0.23
230.1539402372 	 100
247.1804893387 	 12.9
END IONS

BEGIN IONS
PEPMASS=297.1866
CHARGE=1
MSLEVEL=2
RT=0
SOURCE_INSTRUMENT=qTOF
FILENAME=CCMSLIB00000079118.ms
IONMODE=Positive
ORGANISM=Natural
NAME=EXEMESTANE
PI=GNPS
DATACOLLECTOR=GNPS
SMILES=C=C1C[C@H]2[C@@H]3CCC(=O)[C@@]3(C)CC[C@@H]2[C@@]2(C)C=CC(=O)C=C12
INCHI=InChI=1S/C20H24O2/c1-12-10-14-15-4-5-18(22)20(15,3)9-7-16(14)19(2)8-6-13(21)11-17(12)19/h6,8,11,14-16H,1,4-5,7,9-10H2,2-3H3/t14-,15-,16-,19+,20-/m0/s1
FORMULA=C20H24O2
PUBMED=N/A
SUBMITUSER=BIOADREM
LIBRARYQUALITY=0
SPECTRUMID=CCMSLIB00000079118
SCANS=1437
ID=CCMSLIB00000079118
91.0542261926 	 2.1
93.0698762568 	 5.87
97.0647908789 	 2.05
105.0698762568 	 8.45
107.085526321 	 8.52
117.0698762568 	 2.18
119.085526321 	 3.76
121.0647908789 	 23.65
121.1011763852 	 44.41
129.0698762568 	 3.7
131.085526321 	 8.39
133.0647908789 	 3.61
133.1011763852 	 4.51
135.0804409431 	 15.73
142.0777012889 	 1.89
143.085526321 	 3.89
145.0647908789 	 5.44
145.1011763852 	 14.08
147.0804409431 	 12.15
147.1168264494 	 4.89
149.0960910073 	 83.84
159.0804409431 	 5.69
161.0960910073 	 4.45
161.1324765136 	 2.15
163.1117410715 	 8.82
171.0804409431 	 3.32
171.1168264494 	 11.02
173.0960910073 	 7.3
175.1117410715 	 3.18
185.0960910073 	 13.18
187.1117410715 	 4.05
189.1273911357 	 9.22
197.0960910073 	 2.26
199.1117410715 	 3.66
201.1273911357 	 5.09
211.1117410715 	 2.16
223.1117410715 	 5.39
227.1430411999 	 2.35
239.1430411999 	 9.61
253.1586912641 	 8.24
269.1899913925 	 1.96
279.1743413283 	 100
297.1849060146 	 228.14
END IONS

BEGIN IONS
PEPMASS=316.0336
CHARGE=1
MSLEVEL=2
RT=0
SOURCE_INSTRUMENT=qTOF
FILENAME=CCMSLIB00000079120.ms
IONMODE=Positive
ORGANISM=Natural
NAME=EFAVIRENZ
PI=GNPS
DATACOLLECTOR=GNPS
SMILES=C1CC1C#C[C@]1(c2cc(ccc2N=C(O)O1)Cl)C(F)(F)F
INCHI=InChI=1S/C14H9ClF3NO2/c15-9-3-4-11-10(7-9)13(14(16,17)18,21-12(20)19-11)6-5-8-1-2-8/h3-4,7-8H,1-2H2,(H,19,20)/t13-/m0/s1
FORMULA=C14H9ClF3NO2
PUBMED=N/A
SUBMITUSER=BIOADREM
LIBRARYQUALITY=0
SPECTRUMID=CCMSLIB00000079120
SCANS=1439
ID=CCMSLIB00000079120
151.0189835405 	 6.93
164.0256657184 	 4.84
166.0651252299 	 8.21
167.072950262 	 25.8
168.0807752941 	 93.18
170.0526293926 	 2.97
182.0173867405 	 4.51
188.0268085726 	 16.12
189.0384565336 	 7.22
197.0635284299 	 3.74
201.0339779399 	 17
202.0424586368 	 14.95
203.0502836689 	 26.13
205.0459472147 	 6.05
208.0368597336 	 3.19
209.0446847657 	 5.61
216.0619316299 	 10.11
217.069756662 	 7.11
222.0525097978 	 26.9
223.056511901 	 8.24
224.0073092436 	 55.84
225.0101684926 	 5.24
226.0054174657 	 9.49
229.028892562 	 8.02
232.015982152 	 37.45
235.0603348299 	 9.82
236.068159862 	 8.68
237.0759848941 	 41.81
238.0191363789 	 3.11
244.0135374757 	 100
245.0163967247 	 7.4
246.0116456978 	 25.47
250.0229593078 	 16.05
252.038609372 	 21.99
254.0378604483 	 6.08
270.0291875399 	 9.78
272.0448376041 	 52.77
278.0178739299 	 12.75
280.0135374757 	 4.76
298.024102162 	 11.29
316.0346668483 	 22.17
END IONS

BEGIN IONS
PEPMASS=302.199
CHARGE=1
MSLEVEL=2
RT=0
SOURCE_INSTRUMENT=qTOF
FILENAME=CCMSLIB00000079121.ms
IONMODE=Positive
ORGANISM=Natural
NAME=TEGASEROD MALEATE
PI=GNPS
DATACOLLECTOR=GNPS
SMILES=CCCCCNC(=N)NN=Cc1c[nH]c2ccc(cc12)OC
INCHI=InChI=1S/C16H23N5O/c1-3-4-5-8-18-16(17)21-20-11-12-10-19-15-7-6-13(22-2)9-14(12)15/h6-7,9-11,19H,3-5,8H2,1-2H3,(H3,17,18,21)
FORMULA=C16H23N5O
PUBMED=N/A
SUBMITUSER=BIOADREM
LIBRARYQUALITY=0
SPECTRUMID=CCMSLIB00000079121
SCANS=1440
ID=CCMSLIB00000079121
91.0542261926 	 0.152881389521963
103.0416501336 	 0.420423821185397
104.0494751657 	 0.219413105332446
114.0338251015 	 0.193932873745453
115.0416501336 	 0.114661042141472
116.0494751657 	 0.536500431748369
117.0573001978 	 0.669563863369336
118.0651252299 	 1.99736704273601
119.0491408147 	 1.74256472686607
129.0447241388 	 0.758744673923814
130.0525491709 	 4.19999150658947
131.0365647557 	 0.24630890534094
132.0443897878 	 0.260464589555936
132.0681992351 	 0.438826210664893
133.0522148199 	 0.755913537080815
141.0447241388 	 0.440241779086392
142.0525491709 	 5.86611553869456
145.0760242672 	 0.845094347635293
146.060039852 	 5.41879591750067
147.0678648841 	 0.419008252763897
148.0756899162 	 1.45520433730164
157.0396387609 	 0.348229831688915
158.047463793 	 20.0755913537081
163.0865889535 	 0.603032147558852
173.0709388893 	 27.7479721982362
174.0787639214 	 2.63154169556786
188.0818379266 	 0.158543663207961
190.0974879908 	 2.8396302535283
191.1053130229 	 0.295853800093428
200.0692618676 	 3.13689962204323
215.0927369639 	 3.60262163271662
242.1525975665 	 0.508189063318376
270.1475121886 	 1.17350622142321
285.1709872849 	 6.06004841244002
302.1975363864 	 100
END IONS

BEGIN IONS
PEPMASS=372.155
CHARGE=1
MSLEVEL=2
RT=0
SOURCE_INSTRUMENT=qTOF
FILENAME=CCMSLIB00000079122.ms
IONMODE=Positive
ORGANISM=Natural
NAME=ISRADIPINE
PI=GNPS
DATACOLLECTOR=GNPS
SMILES=CC(C)OC(=O)C1=C(C)N=C(C)/C(=C(/O)\OC)/C1c1cccc2c1non2
INCHI=InChI=1S/C19H21N3O5/c1-9(2)26-19(24)15-11(4)20-10(3)14(18(23)25-5)16(15)12-7-6-8-13-17(12)22-27-21-13/h6-9,16,23H,1-5H3/b18-14+
FORMULA=C19H21N3O5
PUBMED=N/A
SUBMITUSER=BIOADREM
LIBRARYQUALITY=0
SPECTRUMID=CCMSLIB00000079122
SCANS=1441
ID=CCMSLIB00000079122
115.0542261926 	 5.22828863346105
140.0494751657 	 17.0817369093231
154.0624451552 	 8.95593869731801
154.0651252299 	 0.909961685823755
155.060374203 	 4.6455938697318
167.060374203 	 11.8853767560664
168.0681992351 	 8.10983397190294
169.0733441925 	 4.89303959131545
179.0576941283 	 8.18965517241379
181.0760242672 	 20.8892081736909
182.0811692246 	 0.822158365261814
183.0889942567 	 12.3483397190294
183.0916743314 	 1.21328224776501
184.0869233045 	 6.90453384418902
191.060374203 	 5.03671775223499
192.0655191604 	 4.9249680715198
194.0811692246 	 1.03767560664112
195.0889942567 	 9.22733077905492
196.0968192888 	 5.91475095785441
199.0865889535 	 0.822158365261814
200.0818379266 	 6.46551724137931
206.0712732403 	 4.51787994891443
207.0790982724 	 23.9064495530013
208.0869233045 	 100
209.0920682619 	 44.7158365261814
210.1025733687 	 13.3061941251596
211.0839088788 	 5.35600255427842
212.0818379266 	 8.58077905491699
221.0709388893 	 6.56130268199234
222.0787639214 	 13.6095146871009
224.0818379266 	 21.2005108556833
225.086982884 	 1.00574712643678
226.0974879908 	 0.933908045977011
227.0815035756 	 10.5124521072797
228.0767525487 	 20.3863346104725
235.0740128945 	 3.71966794380588
236.0818379266 	 47.8927203065134
237.086982884 	 2.13920817369093
238.0974879908 	 6.03448275862069
239.0788235009 	 10.544380587484
241.0944735651 	 11.4862707535121
241.0971536398 	 2.53831417624521
242.0924026129 	 16.3633461047254
243.0764181977 	 4.94093231162197
250.0736785435 	 28.2407407407407
252.0767525487 	 9.00383141762452
253.0845775808 	 16.6746487867178
254.0924026129 	 35.0095785440613
255.0975475703 	 1.34099616858238
265.0607681335 	 2.1551724137931
268.1053726024 	 18.5025542784163
268.1080526771 	 5.86685823754789
269.0920682619 	 7.35153256704981
280.0716671708 	 44.0054278416347
283.0713328198 	 0.782247765006386
298.0822318571 	 14.7749042145594
312.0978819213 	 91.044061302682
340.1291820497 	 69.1491060025543
372.1553968002 	 0
END IONS

BEGIN IONS
PEPMASS=328.1907
CHARGE=1
MSLEVEL=2
RT=0
SOURCE_INSTRUMENT=qTOF
FILENAME=CCMSLIB00000079124.ms
IONMODE=Positive
ORGANISM=Natural
NAME=BENACTYZINE HYDROCHLORIDE
PI=GNPS
DATACOLLECTOR=GNPS
SMILES=CCN(CC)CCOC(=O)C(c1ccccc1)(c1ccccc1)O
INCHI=InChI=1S/C20H25NO3/c1-3-21(4-2)15-16-24-19(22)20(23,17-11-7-5-8-12-17)18-13-9-6-10-14-18/h5-14,23H,3-4,15-16H2,1-2H3
FORMULA=C20H25NO3
PUBMED=N/A
SUBMITUSER=BIOADREM
LIBRARYQUALITY=0
SPECTRUMID=CCMSLIB00000079124
SCANS=1442
ID=CCMSLIB00000079124
98.0964253583 	 0.66
100.1120754225 	 33.69
105.0334907505 	 18.4
116.1069900446 	 3.54
118.1226401088 	 34.01
165.0698762568 	 2.96
167.085526321 	 26.87
183.0804409431 	 26.74
239.1066556936 	 13.64
310.1801549877 	 100
328.190719674 	 289.02
END IONS

BEGIN IONS
PEPMASS=414.1346
CHARGE=1
MSLEVEL=2
RT=0
SOURCE_INSTRUMENT=qTOF
FILENAME=CCMSLIB00000079125.ms
IONMODE=Positive
ORGANISM=Natural
NAME=GR 89696
PI=GNPS
DATACOLLECTOR=GNPS
SMILES=COC(=O)N1CCN(C(CN2CCCC2)C1)C(=O)Cc1ccc(c(c1)Cl)Cl
INCHI=InChI=1S/C19H25Cl2N3O3/c1-27-19(26)23-8-9-24(15(13-23)12-22-6-2-3-7-22)18(25)11-14-4-5-16(20)17(21)10-14/h4-5,10,15H,2-3,6-9,11-13H2,1H3
FORMULA=C19H25Cl2N3O3
PUBMED=N/A
SUBMITUSER=BIOADREM
LIBRARYQUALITY=0
SPECTRUMID=CCMSLIB00000079125
SCANS=1443
ID=CCMSLIB00000079125
97.0760242672 	 0.73
102.0549544741 	 6.34
125.0709388893 	 1.65
128.0706045383 	 0.54
140.0706045383 	 0.57
157.0971536398 	 17.05
158.9762815484 	 9.95
206.0367175941 	 0.35
256.0290454004 	 2.53
288.0188746446 	 0.31
311.0348590598 	 0.33
343.0610738103 	 100
414.1345731044 	 74.39
END IONS

BEGIN IONS
PEPMASS=380.1769
CHARGE=1
MSLEVEL=2
RT=0
SOURCE_INSTRUMENT=qTOF
FILENAME=CCMSLIB00000079127.ms
IONMODE=Positive
ORGANISM=Natural
NAME=3-[1-[4-(4-fluorophenyl)-4-oxobutyl]-3,6-dihydro-2H-pyridin-4-yl]-1H-benzimidazol-2-one
PI=GNPS
DATACOLLECTOR=GNPS
SMILES=c1ccc2c(c1)nc(n2C1=CCN(CCCC(=O)c2ccc(cc2)F)CC1)O
INCHI=InChI=1S/C22H22FN3O2/c23-17-9-7-16(8-10-17)21(27)6-3-13-25-14-11-18(12-15-25)26-20-5-2-1-4-19(20)24-22(26)28/h1-2,4-5,7-11H,3,6,12-15H2,(H,24,28)
FORMULA=C22H22FN3O2
PUBMED=N/A
SUBMITUSER=BIOADREM
LIBRARYQUALITY=0
SPECTRUMID=CCMSLIB00000079127
SCANS=1445
ID=CCMSLIB00000079127
91.0542261926 	 1.74
95.0291542963 	 0.555
113.0397189826 	 0.135
120.0807752941 	 0.22
123.0240689184 	 34.565
124.0267283509 	 0.88
147.0604544247 	 0.175
151.0740128945 	 1.42
165.071019111 	 100
166.0736785435 	 6.135
172.1120754225 	 0.68
174.0661878624 	 0.185
186.1237027413 	 0.165
187.0865889535 	 1.56
188.0818379266 	 0.215
189.0896629587 	 0.845
192.0767525487 	 0.26
194.0975682125 	 46.515
195.100227645 	 8.25
196.1006422177 	 0.575
201.0896629587 	 0.24
203.1053130229 	 0.18
205.0845775808 	 0.34
212.1182234329 	 0.275
215.1053130229 	 0.16
217.1209630871 	 0.29
219.100227645 	 0.175
224.1182234329 	 0.155
226.0974879908 	 0.15
228.113138055 	 0.19
231.1366131513 	 0.215
233.1158777092 	 0.26
240.113138055 	 0.21
241.1209630871 	 0.405
242.1213776598 	 0.205
243.1366131513 	 3.4
245.1158777092 	 0.185
246.1288683409 	 0.19
255.1366131513 	 0.265
259.1315277734 	 0.265
273.1471778376 	 0.735
274.1475924103 	 0.235
380.176881166 	 31.54
END IONS

BEGIN IONS
PEPMASS=296.103
CHARGE=1
MSLEVEL=2
RT=0
SOURCE_INSTRUMENT=qTOF
FILENAME=CCMSLIB00000079134.ms
IONMODE=Positive
ORGANISM=Natural
NAME=1-methyl-7-nitro-5-phenyl-3H-1,4-benzodiazepin-2-one
PI=GNPS
DATACOLLECTOR=GNPS
SMILES=CN1c2ccc(cc2C(=NCC1=O)c1ccccc1)N(=O)=O
INCHI=InChI=1S/C16H13N3O3/c1-18-14-8-7-12(19(21)22)9-13(14)16(17-10-15(18)20)11-5-3-2-4-6-11/h2-9H,10H2,1H3
FORMULA=C16H13N3O3
PUBMED=N/A
SUBMITUSER=BIOADREM
LIBRARYQUALITY=0
SPECTRUMID=CCMSLIB00000079134
SCANS=1451
ID=CCMSLIB00000079134
105.0334907505 	 0.65
119.072950262 	 0.92
143.060374203 	 1.35
144.0681992351 	 1.14
147.0678648841 	 1.16
151.0627795062 	 0.9
152.0620512247 	 1.3
165.0658535114 	 4.85
166.0736785435 	 0.99
172.0631138572 	 1.01
179.072950262 	 5.9
180.0807752941 	 2.9
181.0886003262 	 1.59
182.0685931656 	 0.65
190.0651252299 	 2.62
191.072950262 	 1.03
192.0807752941 	 4.8
193.0886003262 	 9.59
194.0964253583 	 6.76
196.0756899162 	 1.74
201.0532774524 	 0.85
204.0807752941 	 2.69
207.0916743314 	 5.97
209.0835149483 	 1.13
209.1073243956 	 2.59
210.0913399804 	 2.53
211.0951422671 	 0.82
220.0994993635 	 0.86
221.1073243956 	 36.92
222.1151494277 	 15.29
223.0865889535 	 0.98
225.0784295704 	 2.72
225.1022390177 	 2.83
226.0862546025 	 0.71
237.1022390177 	 0.95
238.1100640498 	 1.02
239.0815035756 	 2.93
249.1022390177 	 6
250.1100640498 	 44.9
252.0767525487 	 1.98
253.0971536398 	 2.53
254.1049786719 	 9.63
265.0971536398 	 1.37
266.1049786719 	 1.55
268.1080526771 	 7.45
282.099893294 	 100
296.1029672992 	 208.34
END IONS

BEGIN IONS
PEPMASS=422.2551
CHARGE=1
MSLEVEL=2
RT=0
SOURCE_INSTRUMENT=qTOF
FILENAME=CCMSLIB00000079135.ms
IONMODE=Positive
ORGANISM=Natural
NAME=6H-Pyrido[2,3-b][1,4]benzodiazepin-6-one, 11-[[2-[(diethylamino)methyl]-1-piperidinyl]acetyl]-5,11-dihydro- [CAS]
PI=GNPS
DATACOLLECTOR=GNPS
SMILES=CCN(CC)CC1CCCCN1CC(=O)N1c2ccccc2C(=Nc2cccnc12)O
INCHI=InChI=1S/C24H31N5O2/c1-3-27(4-2)16-18-10-7-8-15-28(18)17-22(30)29-21-13-6-5-11-19(21)24(31)26-20-12-9-14-25-23(20)29/h5-6,9,11-14,18H,3-4,7-8,10,15-17H2,1-2H3,(H,26,31)
FORMULA=C24H31N5O2
PUBMED=N/A
SUBMITUSER=BIOADREM
LIBRARYQUALITY=0
SPECTRUMID=CCMSLIB00000079135
SCANS=1452
ID=CCMSLIB00000079135
96.0807752941 	 0.67
97.0886003262 	 0.4
98.0964253583 	 2.91
100.1120754225 	 1.04
110.0964253583 	 25.44
112.1120754225 	 2.8
126.0913399804 	 4.95
138.0913399804 	 61.23
139.0991650125 	 24.54
152.1433755509 	 0.62
154.1590256151 	 0.35
183.1855747166 	 9.66
196.0869233045 	 2.9
206.0712732403 	 0.38
211.1804893387 	 0.66
224.0818379266 	 28.27
252.0767525487 	 54.9
319.1553372207 	 7.01
321.1709872849 	 3.59
331.1553372207 	 1.86
349.165901907 	 100
422.2550512653 	 285.21
END IONS

BEGIN IONS
PEPMASS=285.0807
CHARGE=1
MSLEVEL=2
RT=0
SOURCE_INSTRUMENT=qTOF
FILENAME=CCMSLIB00000079136.ms
IONMODE=Positive
ORGANISM=Natural
NAME=7-chloro-1-methyl-5-phenyl-3H-1,4-benzodiazepin-2-one
PI=GNPS
DATACOLLECTOR=GNPS
SMILES=CN1c2ccc(cc2C(=NCC1=O)c1ccccc1)Cl
INCHI=InChI=1S/C16H13ClN2O/c1-19-14-8-7-12(17)9-13(14)16(18-10-15(19)20)11-5-3-2-4-6-11/h2-9H,10H2,1H3
FORMULA=C16H13ClN2O
PUBMED=N/A
SUBMITUSER=BIOADREM
LIBRARYQUALITY=0
SPECTRUMID=CCMSLIB00000079136
SCANS=1453
ID=CCMSLIB00000079136
143.060374203 	 5.1
147.0678648841 	 5.73
152.0261529078 	 3.5
154.041802972 	 82.96
167.0132424978 	 5.51
172.0631138572 	 17.07
179.0370519451 	 9.04
180.0210675299 	 7.24
182.0367175941 	 8.47
193.0886003262 	 100
201.0465539989 	 2.55
204.0807752941 	 4.25
206.0838492993 	 5.01
207.0319665672 	 2.87
221.1073243956 	 12.35
222.1151494277 	 87.69
228.0574530362 	 52.79
241.0527020093 	 26.9
242.0605270414 	 9.32
255.0683520735 	 9.48
257.0840021377 	 45.29
269.0476166314 	 3.31
285.0789167598 	 1033.2
END IONS

BEGIN IONS
PEPMASS=279.1463
CHARGE=1
MSLEVEL=2
RT=0
SOURCE_INSTRUMENT=qTOF
FILENAME=CCMSLIB00000079137.ms
IONMODE=Positive
ORGANISM=Natural
NAME=3,7-dimethyl-1-(5-oxohexyl)purine-2,6-dione
PI=GNPS
DATACOLLECTOR=GNPS
SMILES=CC(=O)CCCCn1c(=O)c2c(ncn2C)n(C)c1=O
INCHI=InChI=1S/C13H18N4O3/c1-9(18)6-4-5-7-17-12(19)10-11(14-8-15(10)2)16(3)13(17)20/h8H,4-7H2,1-3H3
FORMULA=C13H18N4O3
PUBMED=N/A
SUBMITUSER=BIOADREM
LIBRARYQUALITY=0
SPECTRUMID=CCMSLIB00000079137
SCANS=1454
ID=CCMSLIB00000079137
76.0181750373 	 0.71
94.0273970529 	 0.15
95.060374203 	 0.68
108.0556231761 	 2.07
110.0712732403 	 14.08
111.0552888251 	 0.925
123.0427127661 	 2.87
135.0665222134 	 2.58
137.0821722776 	 3.315
138.0661878624 	 54.355
163.0614368355 	 10.355
181.0720015218 	 100
279.1451664649 	 75.34
END IONS

BEGIN IONS
PEPMASS=389.1645
CHARGE=1
MSLEVEL=2
RT=0
SOURCE_INSTRUMENT=qTOF
FILENAME=CCMSLIB00000079138.ms
IONMODE=Positive
ORGANISM=Natural
NAME=LEVOCETIRIZINE
PI=GNPS
DATACOLLECTOR=GNPS
SMILES=c1ccc(cc1)[C@H](c1ccc(cc1)Cl)N1CCN(CC1)CCOCC(=O)O
INCHI=InChI=1S/C21H25ClN2O3/c22-19-8-6-18(7-9-19)21(17-4-2-1-3-5-17)24-12-10-23(11-13-24)14-15-27-16-20(25)26/h1-9,21H,10-16H2,(H,25,26)/t21-/m1/s1
FORMULA=C21H25ClN2O3
PUBMED=N/A
SUBMITUSER=BIOADREM
LIBRARYQUALITY=0
SPECTRUMID=CCMSLIB00000079138
SCANS=1455
ID=CCMSLIB00000079138
141.0698762568 	 0.34
165.0658535114 	 50.69
165.0698762568 	 17.77
166.0736785435 	 100
166.0777012889 	 38.15
167.0815035756 	 4.55
183.0804409431 	 0.87
201.0425312535 	 52.95
202.0503562856 	 21.26
203.0451180693 	 46.74
389.1626463892 	 29.44
END IONS

BEGIN IONS
PEPMASS=230.9991
CHARGE=1
MSLEVEL=2
RT=0
SOURCE_INSTRUMENT=qTOF
FILENAME=CCMSLIB00000079140.ms
IONMODE=Positive
ORGANISM=Natural
NAME=7-chloro-3-methyl-4H-1$l^{6},2,4-benzothiadiazine 1,1-dioxide
PI=GNPS
DATACOLLECTOR=GNPS
SMILES=CC1=Nc2ccc(cc2S(=O)(=O)N1)Cl
INCHI=InChI=1S/C8H7ClN2O2S/c1-5-10-7-3-2-6(9)4-8(7)14(12,13)11-5/h2-4H,1H3,(H,10,11)
FORMULA=C8H7ClN2O2S
PUBMED=N/A
SUBMITUSER=BIOADREM
LIBRARYQUALITY=0
SPECTRUMID=CCMSLIB00000079140
SCANS=1457
ID=CCMSLIB00000079140
90.0338251015 	 4.25716768027802
98.9996038063 	 18.9789987716828
99.9948527794 	 0.874801521914976
114.0105028436 	 32.469516762036
126.0105028436 	 59.9179124599299
142.0054174657 	 29.2249618023308
189.9724027778 	 10.8031996165254
230.9989518793 	 100
END IONS

BEGIN IONS
PEPMASS=326.2115
CHARGE=1
MSLEVEL=2
RT=0
SOURCE_INSTRUMENT=qTOF
FILENAME=CCMSLIB00000079147.ms
IONMODE=Positive
ORGANISM=Natural
NAME=Ifenprodil
PI=GNPS
DATACOLLECTOR=GNPS
SMILES=CC(C(c1ccc(cc1)O)O)N1CCC(CC1)Cc1ccccc1
INCHI=InChI=1S/C21H27NO2/c1-16(21(24)19-7-9-20(23)10-8-19)22-13-11-18(12-14-22)15-17-5-3-2-4-6-17/h2-10,16,18,21,23-24H,11-15H2,1H3
FORMULA=C21H27NO2
PUBMED=N/A
SUBMITUSER=BIOADREM
LIBRARYQUALITY=0
SPECTRUMID=CCMSLIB00000079147
SCANS=1463
ID=CCMSLIB00000079147
91.0542261926 	 3.77333333333333
103.0542261926 	 2.75666666666667
105.0698762568 	 19.6766666666667
107.0491408147 	 13.6966666666667
109.0647908789 	 4.19666666666667
115.0542261926 	 3.06333333333333
116.0620512247 	 0.24
117.0698762568 	 9.17333333333333
119.0491408147 	 0.286666666666667
120.0569658468 	 4.89666666666667
121.0647908789 	 2.16666666666667
129.0698762568 	 1.87666666666667
130.0777012889 	 0.23
131.0491408147 	 0.526666666666667
131.085526321 	 4.96333333333333
132.0569658468 	 0.23
132.0807752941 	 0.303333333333333
133.0647908789 	 17.1833333333333
135.0804409431 	 6.45333333333333
145.0647908789 	 0.35
145.1011763852 	 0.266666666666667
146.060039852 	 0.723333333333333
147.0678648841 	 0.226666666666667
148.0756899162 	 0.873333333333333
150.0913399804 	 1.65666666666667
159.0804409431 	 0.576666666666667
161.0835149483 	 0.273333333333333
162.0913399804 	 1.00666666666667
163.0991650125 	 0.196666666666667
174.1277254867 	 11.6266666666667
176.1433755509 	 64.1933333333333
186.1277254867 	 0.963333333333333
187.0991650125 	 1.01666666666667
200.1069900446 	 0.25
202.1226401088 	 2.75666666666667
202.1590256151 	 0.15
216.138290173 	 0.453333333333333
232.1695903014 	 0.42
278.1539402372 	 0.41
292.1695903014 	 3.55333333333333
293.1774153335 	 17.9366666666667
308.2008904298 	 100
326.2114551161 	 58.5766666666667
END IONS

BEGIN IONS
PEPMASS=310.1317
CHARGE=1
MSLEVEL=2
RT=0
SOURCE_INSTRUMENT=qTOF
FILENAME=CCMSLIB00000079148.ms
IONMODE=Positive
ORGANISM=Natural
NAME=Zacopride
PI=GNPS
DATACOLLECTOR=GNPS
SMILES=COc1cc(c(cc1C(=NC1CN2CCC1CC2)O)Cl)N
INCHI=InChI=1S/C15H20ClN3O2/c1-21-14-7-12(17)11(16)6-10(14)15(20)18-13-8-19-4-2-9(13)3-5-19/h6-7,9,13H,2-5,8,17H2,1H3,(H,18,20)
FORMULA=C15H20ClN3O2
PUBMED=N/A
SUBMITUSER=BIOADREM
LIBRARYQUALITY=0
SPECTRUMID=CCMSLIB00000079148
SCANS=1464
ID=CCMSLIB00000079148
93.0698762568 	 0.3
110.0964253583 	 8.62
126.0105028436 	 0.28
128.1069900446 	 3.03
140.9975924336 	 0.92
148.0631138572 	 0.47
154.0054174657 	 0.42
156.0210675299 	 0.58
168.9925070557 	 0.55
170.0003320878 	 1.23
183.0319665672 	 3.8
184.015982152 	 100
201.0425312535 	 2.83
310.1316806118 	 178.46
END IONS

BEGIN IONS
PEPMASS=328.1223
CHARGE=1
MSLEVEL=2
RT=0
SOURCE_INSTRUMENT=qTOF
FILENAME=CCMSLIB00000079149.ms
IONMODE=Positive
ORGANISM=Natural
NAME=Loxapine
PI=GNPS
DATACOLLECTOR=GNPS
SMILES=CN1CCN(CC1)C1=Nc2ccccc2Oc2ccc(cc12)Cl
INCHI=InChI=1S/C18H18ClN3O/c1-21-8-10-22(11-9-21)18-14-12-13(19)6-7-16(14)23-17-5-3-2-4-15(17)20-18/h2-7,12H,8-11H2,1H3
FORMULA=C18H18ClN3O
PUBMED=N/A
SUBMITUSER=BIOADREM
LIBRARYQUALITY=0
SPECTRUMID=CCMSLIB00000079149
SCANS=1465
ID=CCMSLIB00000079149
49.9792027152 	 1.095
104.0494751657 	 0.435
123.0571186852 	 1.875
124.0649437173 	 1.12
137.0385761284 	 1.235
163.0884188136 	 4.065
164.0261529078 	 0.98
164.0494751657 	 1.445
181.0886003262 	 0.225
192.0443897878 	 0.44
193.0522148199 	 17.87
200.0261529078 	 1.69
209.0835149483 	 0.395
216.0574530362 	 0.22
227.0496280041 	 1.005
228.0210675299 	 6.99
235.0865889535 	 2.915
244.0523676583 	 2.205
253.0527020093 	 0.205
261.1022390177 	 0.22
261.1040688778 	 1.005
271.0632666956 	 100
297.0789167598 	 19.38
298.0867417919 	 1.965
328.1211159255 	 96.91
END IONS

BEGIN IONS
PEPMASS=311.113
CHARGE=1
MSLEVEL=2
RT=0
SOURCE_INSTRUMENT=qTOF
FILENAME=CCMSLIB00000079151.ms
IONMODE=Positive
ORGANISM=Natural
NAME=Picrotin - Picrotoxinin
PI=GNPS
DATACOLLECTOR=GNPS
SMILES=CC(C)([C@H]1[C@@H]2C(=O)O[C@H]1[C@@H]1[C@]3(C)[C@]2(C[C@@H]2[C@@]3(C(=O)O1)O2)O)O
INCHI=InChI=1S/C15H18O7/c1-12(2,18)6-7-10(16)20-8(6)9-13(3)14(7,19)4-5-15(13,22-5)11(17)21-9/h5-9,18-19H,4H2,1-3H3/t5-,6+,7-,8-,9-,13-,14-,15+/m1/s1
FORMULA=C15H18O7
PUBMED=N/A
SUBMITUSER=BIOADREM
LIBRARYQUALITY=0
SPECTRUMID=CCMSLIB00000079151
SCANS=1466
ID=CCMSLIB00000079151
105.0698762568 	 14.86
107.085526321 	 14.5
119.085526321 	 27.52
129.0698762568 	 19.08
133.1011763852 	 17.25
135.0440554368 	 37.25
135.0804409431 	 22.75
137.0583628303 	 18.9
145.0647908789 	 60.18
145.1011763852 	 43.85
146.0712732403 	 23.49
147.0804409431 	 20.55
147.1168264494 	 22.57
149.0947483366 	 15.23
153.0532774524 	 13.94
157.1011763852 	 48.07
161.0583628303 	 54.68
161.0947483366 	 18.17
163.0753555652 	 36.88
173.059705501 	 27.89
173.0960910073 	 19.63
175.1117410715 	 81.83
179.0689275166 	 18.9
185.0947483366 	 37.25
187.0740128945 	 30.28
189.0532774524 	 55.41
189.0896629587 	 17.98
191.0702701873 	 43.49
191.1066556936 	 44.4
193.1209630871 	 25.87
201.0896629587 	 16.7
203.1053130229 	 75.6
205.1209630871 	 25.32
207.0638421387 	 24.04
221.1158777092 	 25.14
229.0845775808 	 38.17
232.1080526771 	 18.17
247.0978223418 	 71.19
249.1107923313 	 47.71
257.0794922029 	 39.82
265.1083870281 	 68.07
275.0927369639 	 25.32
293.1033016502 	 100
311.1138663365 	 29.72
END IONS

BEGIN IONS
PEPMASS=341.168
CHARGE=1
MSLEVEL=2
RT=0
SOURCE_INSTRUMENT=qTOF
FILENAME=CCMSLIB00000079153.ms
IONMODE=Positive
ORGANISM=Natural
NAME=Cinanserin
PI=GNPS
DATACOLLECTOR=GNPS
SMILES=CN(C)CCCSc1ccccc1N=C(/C=C/c1ccccc1)O
INCHI=InChI=1S/C20H24N2OS/c1-22(2)15-8-16-24-19-12-7-6-11-18(19)21-20(23)14-13-17-9-4-3-5-10-17/h3-7,9-14H,8,15-16H2,1-2H3,(H,21,23)/b14-13+
FORMULA=C20H24N2OS
PUBMED=N/A
SUBMITUSER=BIOADREM
LIBRARYQUALITY=0
SPECTRUMID=CCMSLIB00000079153
SCANS=1468
ID=CCMSLIB00000079153
102.0464011605 	 0.71
103.0542261926 	 31.51
119.072950262 	 0.23
124.0215458557 	 0.38
131.0491408147 	 100
138.0371959199 	 1.36
148.0215458557 	 0.49
166.0684960483 	 3.46
222.0913399804 	 0.22
226.0684960483 	 0.2
254.0634106704 	 0.29
296.110360863 	 2.09
341.1682100929 	 0
END IONS

BEGIN IONS
PEPMASS=319.1614
CHARGE=1
MSLEVEL=2
RT=0
SOURCE_INSTRUMENT=qTOF
FILENAME=CCMSLIB00000079154.ms
IONMODE=Positive
ORGANISM=Natural
NAME=Fluvoxamine
PI=GNPS
DATACOLLECTOR=GNPS
SMILES=COCCCCC(=NOCCN)c1ccc(cc1)C(F)(F)F
INCHI=InChI=1S/C15H21F3N2O2/c1-21-10-3-2-4-14(20-22-11-9-19)12-5-7-13(8-6-12)15(16,17)18/h5-8H,2-4,9-11,19H2,1H3
FORMULA=C15H21F3N2O2
PUBMED=N/A
SUBMITUSER=BIOADREM
LIBRARYQUALITY=0
SPECTRUMID=CCMSLIB00000079154
SCANS=1469
ID=CCMSLIB00000079154
101.0197324642 	 0.928720687253308
115.0542261926 	 1.63300054175373
130.0588576247 	 6.14503521399272
130.0651252299 	 37.8066713102701
131.072950262 	 34.424580140856
132.0807752941 	 3.59879266310657
133.0448043605 	 4.05541366767278
141.0698762568 	 1.1376828418853
145.0259606963 	 23.937775713954
151.0353825284 	 1.02159275597864
153.0510325926 	 1.98901013853417
157.0886003262 	 0.959678043495085
158.0964253583 	 1.89613806980884
159.0416107605 	 5.26275056110208
160.0557033978 	 2.52302453370482
165.0510325926 	 2.80164073988081
171.0416107605 	 5.06926708459098
172.0368597336 	 20.0603668446715
174.0525097978 	 3.82323349585945
177.0521754468 	 1.17637953718752
180.0619316299 	 27.4204782911539
181.0659337331 	 2.60815726336971
183.0416107605 	 5.46397337667363
185.0446847657 	 9.97600804891262
186.0525097978 	 2.54624255088615
187.0627795062 	 7.19758532621314
188.068159862 	 2.08962154631994
191.0666826568 	 11.028558161133
198.0525097978 	 18.326754895132
199.0603348299 	 2.54624255088615
200.068159862 	 99.8529525578516
200.1645049235 	 10.1772308644842
201.0721619652 	 6.08312050150917
209.0572608247 	 1.52464979490751
211.0603348299 	 6.29982199520161
212.068159862 	 4.88352294714031
214.0838099262 	 1.42403838712174
226.0838099262 	 23.2876712328767
227.0878120294 	 2.86355545236437
228.0994599904 	 10.0611407785775
228.1019046667 	 12.282331088925
235.0928974073 	 6.67131027010293
242.0987110667 	 7.89412584165312
244.0943746125 	 7.43750483708691
258.1100246767 	 77.3933906044424
259.1178497088 	 50.5456234037613
260.1256747409 	 23.86812166241
261.120923714 	 6.3153006733225
270.1100246767 	 6.67131027010293
319.1627885287 	 100
END IONS

BEGIN IONS
PEPMASS=201.1608
CHARGE=1
MSLEVEL=2
RT=0
SOURCE_INSTRUMENT=qTOF
FILENAME=CCMSLIB00000079155.ms
IONMODE=Positive
ORGANISM=Natural
NAME=N,N'-DIACETYL-1,6-DIAMINOHEXANE
PI=GNPS
DATACOLLECTOR=GNPS
SMILES=CC(=NCCCCCCN=C(C)O)O
INCHI=InChI=1S/C10H20N2O2/c1-9(13)11-7-5-3-4-6-8-12-10(2)14/h3-8H2,1-2H3,(H,11,13)(H,12,14)
FORMULA=C10H20N2O2
PUBMED=N/A
SUBMITUSER=BIOADREM
LIBRARYQUALITY=0
SPECTRUMID=CCMSLIB00000079155
SCANS=1470
ID=CCMSLIB00000079155
99.1168264494 	 2.11577522004062
100.1120754225 	 100
117.138624524 	 5.24712254570074
141.138624524 	 1.86188219363575
142.1226401088 	 50.2031144211239
143.1304651409 	 5.51794177386594
159.1491892103 	 94.0758293838863
183.1491892103 	 7.15132024373731
201.1597538966 	 69.3297224102911
END IONS

BEGIN IONS
PEPMASS=332.0663
CHARGE=1
MSLEVEL=2
RT=0
SOURCE_INSTRUMENT=qTOF
FILENAME=CCMSLIB00000079157.ms
IONMODE=Positive
ORGANISM=Natural
NAME=SKF 83566
PI=GNPS
DATACOLLECTOR=GNPS
SMILES=CN1CCc2cc(c(cc2C(C1)c1ccccc1)O)Br
INCHI=InChI=1S/C17H18BrNO/c1-19-8-7-13-9-16(18)17(20)10-14(13)15(11-19)12-5-3-2-4-6-12/h2-6,9-10,15,20H,7-8,11H2,1H3
FORMULA=C17H18BrNO
PUBMED=N/A
SUBMITUSER=BIOADREM
LIBRARYQUALITY=0
SPECTRUMID=CCMSLIB00000079157
SCANS=1472
ID=CCMSLIB00000079157
91.0542261926 	 14.92
105.0698762568 	 8.19
120.0569658468 	 10.16
128.0620512247 	 2.83
129.0698762568 	 5.48
131.0491408147 	 10.69
132.0569658468 	 5.76
133.0886003262 	 2.38
134.0964253583 	 7.02
144.0569658468 	 47.78
146.072615911 	 5.67
147.0678648841 	 2.84
160.0756899162 	 6.03
161.0835149483 	 2.3
162.0913399804 	 9.97
175.0991650125 	 5.05
193.1011763852 	 4.73
194.072615911 	 2.23
195.0804409431 	 6.32
196.0882659752 	 4.42
198.9753034468 	 23.42
203.085526321 	 2.74
204.0933513531 	 2.83
207.0804409431 	 40
209.0960910073 	 7.81
221.0960910073 	 23.44
222.1039160394 	 100
222.9753034468 	 9.71
224.1195661036 	 6.78
225.9862024841 	 4.08
240.0018525483 	 11.27
253.1461152051 	 9.65
254.0175026125 	 4.18
301.0222536394 	 10.43
332.0644528051 	 860.72
END IONS

BEGIN IONS
PEPMASS=466.1903
CHARGE=1
MSLEVEL=2
RT=0
SOURCE_INSTRUMENT=qTOF
FILENAME=CCMSLIB00000079161.ms
IONMODE=Positive
ORGANISM=Natural
NAME=Cisapride
PI=GNPS
DATACOLLECTOR=GNPS
SMILES=COc1cc(c(cc1C(=N[C@@H]1CCN(CCCOc2ccc(cc2)F)C[C@@H]1OC)O)Cl)N
INCHI=InChI=1S/C23H29ClFN3O4/c1-30-21-13-19(26)18(24)12-17(21)23(29)27-20-8-10-28(14-22(20)31-2)9-3-11-32-16-6-4-15(25)5-7-16/h4-7,12-13,20,22H,3,8-11,14,26H2,1-2H3,(H,27,29)/t20-,22+/m1/s1
FORMULA=C23H29ClFN3O4
PUBMED=N/A
SUBMITUSER=BIOADREM
LIBRARYQUALITY=0
SPECTRUMID=CCMSLIB00000079161
SCANS=1475
ID=CCMSLIB00000079161
96.0807752941 	 1.15
122.0964253583 	 0.96
126.0105028436 	 0.23
128.0261529078 	 0.28
140.9975924336 	 1.52
154.1226401088 	 0.37
156.0210675299 	 0.4
168.9925070557 	 1.39
184.015982152 	 100
234.1293555303 	 13.95
235.1328704441 	 2.08
252.1399202166 	 0.21
266.1555702808 	 0.74
267.1590851946 	 0.4
283.1821193823 	 0.72
284.1856342961 	 0.29
297.1000461324 	 0.53
434.1641235944 	 3.55
437.1637892434 	 0.26
466.1903383449 	 110.18
END IONS

BEGIN IONS
PEPMASS=280.1696
CHARGE=1
MSLEVEL=2
RT=0
SOURCE_INSTRUMENT=qTOF
FILENAME=CCMSLIB00000079162.ms
IONMODE=Positive
ORGANISM=Natural
NAME=Doxepin
PI=GNPS
DATACOLLECTOR=GNPS
SMILES=CN(C)CC/C=C\1/c2ccccc2COc2ccccc12
INCHI=InChI=1S/C19H21NO/c1-20(2)13-7-11-17-16-9-4-3-8-15(16)14-21-19-12-6-5-10-18(17)19/h3-6,8-12H,7,13-14H2,1-2H3/b17-11-
FORMULA=C19H21NO
PUBMED=N/A
SUBMITUSER=BIOADREM
LIBRARYQUALITY=0
SPECTRUMID=CCMSLIB00000079162
SCANS=1476
ID=CCMSLIB00000079162
91.0542261926 	 3.4
107.0491408147 	 70.18
115.0542261926 	 13.66
117.0698762568 	 25
128.0620512247 	 6.1
129.0698762568 	 11.5
131.0491408147 	 6.6
141.0698762568 	 29.86
142.0777012889 	 16.98
152.0620512247 	 2.26
157.0647908789 	 3.45
165.0698762568 	 16.66
166.0777012889 	 13.56
167.085526321 	 20.88
173.1199004546 	 4.91
177.0698762568 	 2.49
178.0777012889 	 15.77
179.085526321 	 21.5
181.1011763852 	 5.48
191.085526321 	 13.98
192.0933513531 	 25.25
194.072615911 	 38.9
195.0804409431 	 17.25
202.0777012889 	 38.71
205.0647908789 	 2.96
205.1011763852 	 3.01
206.072615911 	 2.14
207.0804409431 	 22.76
207.1168264494 	 15.94
209.0960910073 	 7.54
215.085526321 	 11.09
216.0933513531 	 9.13
217.1011763852 	 21.18
219.0804409431 	 12.24
220.0882659752 	 44.74
233.0960910073 	 3.06
234.1039160394 	 2.96
235.1117410715 	 100
280.1695903014 	 867.21
END IONS

BEGIN IONS
PEPMASS=338.211
CHARGE=1
MSLEVEL=2
RT=0
SOURCE_INSTRUMENT=qTOF
FILENAME=CCMSLIB00000079165.ms
IONMODE=Positive
ORGANISM=Natural
NAME=LOBELINE HYDROCHLORIDE
PI=GNPS
DATACOLLECTOR=GNPS
SMILES=CN1[C@@H](CCC[C@@H]1CC(=O)c1ccccc1)C[C@@H](c1ccccc1)O
INCHI=InChI=1S/C22H27NO2/c1-23-19(15-21(24)17-9-4-2-5-10-17)13-8-14-20(23)16-22(25)18-11-6-3-7-12-18/h2-7,9-12,19-21,24H,8,13-16H2,1H3/t19-,20+,21-/m0/s1
FORMULA=C22H27NO2
PUBMED=N/A
SUBMITUSER=BIOADREM
LIBRARYQUALITY=0
SPECTRUMID=CCMSLIB00000079165
SCANS=1478
ID=CCMSLIB00000079165
91.0542261926 	 1.39602053915276
94.0651252299 	 5.53193196405648
96.0807752941 	 57.9950256739409
98.0964253583 	 15.6169768934531
103.0542261926 	 0.513478818998716
105.0334907505 	 26.7610718870347
107.0491408147 	 2.24646983311938
108.0807752941 	 2.3948973042362
109.0886003262 	 2.47913992297818
114.0913399804 	 3.5783055198973
115.0542261926 	 1.2997432605905
117.0698762568 	 1.43613607188703
121.0647908789 	 2.66367137355584
127.0542261926 	 0.461328626444159
128.0620512247 	 5.56001283697048
131.085526321 	 1.47224005134788
141.0698762568 	 1.38799743260591
143.085526321 	 11.1400834403081
148.1120754225 	 0.537548138639281
157.1011763852 	 0.513478818998716
159.0804409431 	 0.497432605905006
160.1120754225 	 0.68196405648267
162.0913399804 	 0.272785622593068
169.1011763852 	 0.320924261874198
170.0964253583 	 0.340982028241335
174.1277254867 	 0.766206675224647
185.0960910073 	 0.200577663671374
188.1069900446 	 1.03498074454429
198.1277254867 	 0.200577663671374
200.1433755509 	 25.7501604621309
206.1175547309 	 0.609756097560976
216.138290173 	 29.4046854942234
218.1539402372 	 100
236.1645049235 	 1.15532734274711
320.2008904298 	 13.7877086007702
338.2114551161 	 36.0718870346598
END IONS

BEGIN IONS
PEPMASS=396.2903
CHARGE=1
MSLEVEL=2
RT=0
SOURCE_INSTRUMENT=qTOF
FILENAME=CCMSLIB00000079167.ms
IONMODE=Positive
ORGANISM=Natural
NAME=AM 404
PI=GNPS
DATACOLLECTOR=GNPS
SMILES=CCCCC/C=C\C/C=C\C/C=C\C/C=C\CCCC(=O)Nc1ccc(cc1)O
INCHI=InChI=1S/C26H37NO2/c1-2-3-4-5-6-7-8-9-10-11-12-13-14-15-16-17-18-19-26(29)27-24-20-22-25(28)23-21-24/h6-7,9-10,12-13,15-16,20-23,28H,2-5,8,11,14,17-19H2,1H3,(H,27,29)/b7-6-,10-9-,13-12-,16-15-
FORMULA=C26H37NO2
PUBMED=N/A
SUBMITUSER=BIOADREM
LIBRARYQUALITY=0
SPECTRUMID=CCMSLIB00000079167
SCANS=1480
ID=CCMSLIB00000079167
91.0542261926 	 9.49
93.0698762568 	 8.4
95.085526321 	 6.28
105.0698762568 	 12.84
107.085526321 	 14.68
108.0443897878 	 34.63
110.060039852 	 53.69
119.085526321 	 20.53
121.1011763852 	 18.09
131.085526321 	 10.85
133.1011763852 	 30.77
135.1168264494 	 8.18
136.0393044099 	 18.7
145.1011763852 	 18.67
147.0804409431 	 7.21
147.1168264494 	 28.39
149.0960910073 	 20.86
149.1324765136 	 10.01
159.1168264494 	 6.37
161.0960910073 	 10.23
161.1324765136 	 14.26
163.1117410715 	 9.88
163.1481265778 	 9.01
171.1168264494 	 16.03
173.1324765136 	 8.69
175.1117410715 	 13.61
175.1481265778 	 19.41
177.163776642 	 13.13
178.0862546025 	 18.83
185.1324765136 	 13.39
187.1481265778 	 6.73
189.1273911357 	 11.04
189.163776642 	 18.86
191.1794267062 	 7.31
199.1481265778 	 7.63
203.1430411999 	 12.62
203.1794267062 	 60.7
206.1175547309 	 14
232.1332047951 	 9.56
234.1488548593 	 7.98
245.2263768988 	 59.41
260.1645049235 	 11.17
269.2263768988 	 50.69
287.2369415851 	 100
396.2897054371 	 132.41
END IONS

BEGIN IONS
PEPMASS=304.1543
CHARGE=1
MSLEVEL=2
RT=0
SOURCE_INSTRUMENT=qTOF
FILENAME=CCMSLIB00000079169.ms
IONMODE=Positive
ORGANISM=Natural
NAME=Benzeneacetic acid, Alpha-(hydroxymethyl)-, 9-methyl-3-oxa-9-azatricyclo[3.3.1.02,4]non-7-yl ester, [7(S)-(1Alpha,2 ,4 ,5Alpha,7 )]- [CAS]
PI=GNPS
DATACOLLECTOR=GNPS
SMILES=CN1[C@@H]2CC(C[C@H]1[C@H]1[C@@H]2O1)OC(=O)[C@H](CO)c1ccccc1
INCHI=InChI=1S/C17H21NO4/c1-18-13-7-11(8-14(18)16-15(13)22-16)21-17(20)12(9-19)10-5-3-2-4-6-10/h2-6,11-16,19H,7-9H2,1H3/t11?,12-,13-,14+,15-,16+/m1/s1
FORMULA=C17H21NO4
PUBMED=N/A
SUBMITUSER=BIOADREM
LIBRARYQUALITY=0
SPECTRUMID=CCMSLIB00000079169
SCANS=1482
ID=CCMSLIB00000079169
91.0542261926 	 1.02071753410814
93.0698762568 	 0.267812026275897
96.0443897878 	 1.43506821627084
96.0807752941 	 1.1066195048004
97.0522148199 	 5.27033855482567
103.0542261926 	 48.2162708438605
106.0413157826 	 0.323395654370894
107.0491408147 	 0.78322385042951
108.0807752941 	 1.82415361293583
109.0647908789 	 0.22233451237999
110.060039852 	 2.68317331985851
110.0964253583 	 8.46892369883779
111.1042503904 	 0.626579080343608
120.0807752941 	 2.34967155128853
121.0647908789 	 25.3259221829207
123.0678648841 	 1.20768064679131
136.0756899162 	 0.474987367357251
138.0913399804 	 95.7099545224861
156.1019046667 	 66.533602829712
286.1437694814 	 0.672056594239515
304.1543341677 	 100
END IONS

BEGIN IONS
PEPMASS=207.0808
CHARGE=1
MSLEVEL=2
RT=0
SOURCE_INSTRUMENT=qTOF
FILENAME=CCMSLIB00000079170.ms
IONMODE=Positive
ORGANISM=Natural
NAME=diphenylcyclopropenone
PI=GNPS
DATACOLLECTOR=GNPS
SMILES=c1ccc(cc1)C1=C(c2ccccc2)C1=O
INCHI=InChI=1S/C15H10O/c16-15-13(11-7-3-1-4-8-11)14(15)12-9-5-2-6-10-12/h1-10H
FORMULA=C15H10O
PUBMED=N/A
SUBMITUSER=BIOADREM
LIBRARYQUALITY=0
SPECTRUMID=CCMSLIB00000079170
SCANS=1483
ID=CCMSLIB00000079170
151.0542261926 	 2.24
152.0620512247 	 1.98
176.0620512247 	 4.54
177.0698762568 	 7.46
178.0777012889 	 100
179.085526321 	 19.06
207.0804409431 	 137.33
END IONS

BEGIN IONS
PEPMASS=292.0667
CHARGE=1
MSLEVEL=2
RT=0
SOURCE_INSTRUMENT=qTOF
FILENAME=CCMSLIB00000079171.ms
IONMODE=Positive
ORGANISM=Natural
NAME=Indatraline
PI=GNPS
DATACOLLECTOR=GNPS
SMILES=CN[C@@H]1C[C@@H](c2ccc(c(c2)Cl)Cl)c2ccccc12
INCHI=InChI=1S/C16H15Cl2N/c1-19-16-9-13(11-4-2-3-5-12(11)16)10-6-7-14(17)15(18)8-10/h2-8,13,16,19H,9H2,1H3/t13-,16+/m0/s1
FORMULA=C16H15Cl2N
PUBMED=N/A
SUBMITUSER=BIOADREM
LIBRARYQUALITY=0
SPECTRUMID=CCMSLIB00000079171
SCANS=1484
ID=CCMSLIB00000079171
165.0698762568 	 0.49
182.9762815484 	 10.32
189.0698762568 	 1.24
190.0777012889 	 1.7
191.085526321 	 54.97
199.0309039347 	 0.2
225.0465539989 	 7.37
226.054379031 	 82.5
245.9997566447 	 2
261.023231741 	 100
292.0654309067 	 0.57
END IONS

BEGIN IONS
PEPMASS=288.1599
CHARGE=1
MSLEVEL=2
RT=0
SOURCE_INSTRUMENT=qTOF
FILENAME=CCMSLIB00000079173.ms
IONMODE=Positive
ORGANISM=Natural
NAME=Galanthamine
PI=GNPS
DATACOLLECTOR=GNPS
SMILES=CN1CC[C@@]23C=C[C@@H](C[C@@H]2Oc2c(ccc(C1)c32)OC)O
INCHI=InChI=1S/C17H21NO3/c1-18-8-7-17-6-5-12(19)9-14(17)21-16-13(20-2)4-3-11(10-18)15(16)17/h3-6,12,14,19H,7-10H2,1-2H3/t12-,14-,17-/m0/s1
FORMULA=C17H21NO3
PUBMED=N/A
SUBMITUSER=BIOADREM
LIBRARYQUALITY=0
SPECTRUMID=CCMSLIB00000079173
SCANS=1485
ID=CCMSLIB00000079173
128.0620512247 	 1.18495112076627
135.0804409431 	 1.31332082551595
141.0698762568 	 2.86692340607617
142.0777012889 	 1.2474902076956
145.0647908789 	 1.26394786215069
152.0620512247 	 1.35940225799019
153.0698762568 	 2.40281755044271
159.0804409431 	 3.93008788387479
161.0960910073 	 1.32977847997103
165.0698762568 	 2.29090550014812
169.0647908789 	 6.85625884598927
170.072615911 	 7.42240215924426
175.1117410715 	 2.88667259142227
181.0647908789 	 3.63385010368322
182.072615911 	 16.8460551002271
183.0440554368 	 10.8225535696653
183.0804409431 	 1.40548369046443
185.0960910073 	 3.06441525953721
187.0753555652 	 1.58322635857938
189.0910056294 	 1.66551463085481
197.059705501 	 5.48698199532603
198.0675305331 	 45.176261479214
200.0831805973 	 2.15924426450742
203.1066556936 	 1.59968401303446
212.0831805973 	 1.32977847997103
213.0910056294 	 65.8306178203483
216.0780952194 	 2.10987130114216
229.0859202515 	 1.10595437938185
231.1015703157 	 22.5239458872322
255.125379763 	 1.45814818472071
270.1488548593 	 10.9377571508509
288.1594195456 	 100
END IONS

BEGIN IONS
PEPMASS=358.2013
CHARGE=1
MSLEVEL=2
RT=0
SOURCE_INSTRUMENT=qTOF
FILENAME=CCMSLIB00000079174.ms
IONMODE=Positive
ORGANISM=Natural
NAME=Nalbuphine
PI=GNPS
DATACOLLECTOR=GNPS
SMILES=C1CC(C1)CN1CC[C@]23c4c5ccc(c4OC2C(CC[C@]3([C@H]1C5)O)O)O
INCHI=InChI=1S/C21H27NO4/c23-14-5-4-13-10-16-21(25)7-6-15(24)19-20(21,17(13)18(14)26-19)8-9-22(16)11-12-2-1-3-12/h4-5,12,15-16,19,23-25H,1-3,6-11H2/t15?,16-,19?,20+,21-/m1/s1
FORMULA=C21H27NO4
PUBMED=N/A
SUBMITUSER=BIOADREM
LIBRARYQUALITY=0
SPECTRUMID=CCMSLIB00000079174
SCANS=1486
ID=CCMSLIB00000079174
148.0756899162 	 0.82
155.085526321 	 0.45
157.0647908789 	 0.61
165.0698762568 	 0.49
173.059705501 	 0.71
183.0804409431 	 0.77
185.059705501 	 5.72
199.0753555652 	 1.38
200.1069900446 	 0.64
211.0753555652 	 3.42
226.0862546025 	 1.17
228.1019046667 	 6.67
229.0859202515 	 2.33
254.1175547309 	 9.65
268.1332047951 	 0.91
271.1202943851 	 1.07
272.1281194172 	 12.15
281.1410298272 	 1.31
286.1437694814 	 0.47
294.1488548593 	 0.68
296.1645049235 	 10.83
312.1594195456 	 3.8
322.1801549877 	 2.55
340.190719674 	 100
358.2012843603 	 80.2
END IONS

BEGIN IONS
PEPMASS=455.2904
CHARGE=1
MSLEVEL=2
RT=0
SOURCE_INSTRUMENT=qTOF
FILENAME=CCMSLIB00000079176.ms
IONMODE=Positive
ORGANISM=Natural
NAME=Benzeneacetonitrile, Alpha-[3-[[2-(3,4-dimethoxyphenyl)ethyl]methylamino]propyl]-3,4-dimethoxy-Alpha-(1-methylethyl)-, (R)- [CAS]
PI=GNPS
DATACOLLECTOR=GNPS
SMILES=CC(C)C(CCCN(C)CCc1ccc(c(c1)OC)OC)(C#N)c1ccc(c(c1)OC)OC
INCHI=InChI=1S/C27H38N2O4/c1-20(2)27(19-28,22-10-12-24(31-5)26(18-22)33-7)14-8-15-29(3)16-13-21-9-11-23(30-4)25(17-21)32-6/h9-12,17-18,20H,8,13-16H2,1-7H3
FORMULA=C27H38N2O4
PUBMED=N/A
SUBMITUSER=BIOADREM
LIBRARYQUALITY=0
SPECTRUMID=CCMSLIB00000079176
SCANS=1488
ID=CCMSLIB00000079176
103.0542261926 	 1.06169028576774
104.0620512247 	 0.420934474533464
105.0698762568 	 3.22248725503952
107.0491408147 	 0.869931247369159
118.0413157826 	 0.804452551330621
119.0491408147 	 0.654786960385389
120.0569658468 	 0.551891866610542
121.0647908789 	 1.61825920209532
122.072615911 	 0.453673822552734
122.0964253583 	 0.893316495954352
131.0491408147 	 0.855900098218044
132.0569658468 	 0.257237734437117
133.0647908789 	 3.60600533183668
134.072615911 	 4.48996772835695
135.0440554368 	 3.39553809456994
135.0804409431 	 2.80155278050606
136.0518804689 	 0.505121369440157
137.059705501 	 0.865254197652121
137.0960910073 	 0.177727889247463
138.0675305331 	 0.266591833871194
139.0753555652 	 0.869931247369159
146.072615911 	 0.219821336700809
149.059705501 	 1.01024273888031
150.0675305331 	 26.9444834198587
151.0753555652 	 3.67148402787522
164.0831805973 	 0.15434264066227
165.0910056294 	 93.5409943407698
177.0910056294 	 3.51714138721295
179.1066556936 	 0.233852485851925
191.1066556936 	 0.477059071137926
203.0940796346 	 0.238529535568963
208.1332047951 	 0.144988541228193
217.1097296988 	 0.388195126514195
218.1175547309 	 1.80066414105982
233.1536058862 	 0.673495159253543
243.137955822 	 0.229175436134886
245.1410298272 	 0.481736120854965
260.1645049235 	 6.71156634395024
303.2067040892 	 18.4322529348487
455.2904337186 	 100
END IONS

BEGIN IONS
PEPMASS=258.1852
CHARGE=1
MSLEVEL=2
RT=0
SOURCE_INSTRUMENT=qTOF
FILENAME=CCMSLIB00000079179.ms
IONMODE=Positive
ORGANISM=Natural
NAME=(+)-3-HYDROXY-N-METHYLMORPHINAN D-TARTRATE
PI=GNPS
DATACOLLECTOR=GNPS
SMILES=CN1CC[C@@]23CCCC[C@@H]2[C@@H]1Cc1ccc(cc31)O
INCHI=InChI=1S/C17H23NO/c1-18-9-8-17-7-3-2-4-14(17)16(18)10-12-5-6-13(19)11-15(12)17/h5-6,11,14,16,19H,2-4,7-10H2,1H3/t14-,16+,17+/m1/s1
FORMULA=C17H23NO
PUBMED=N/A
SUBMITUSER=BIOADREM
LIBRARYQUALITY=0
SPECTRUMID=CCMSLIB00000079179
SCANS=1491
ID=CCMSLIB00000079179
105.0698762568 	 3.18949837889132
107.0491408147 	 0.774969027598387
115.0542261926 	 0.152885046260906
117.0698762568 	 1.26261960618921
119.0491408147 	 0.0843503703508448
121.0647908789 	 0.258323009199462
127.0542261926 	 0.179244536995545
129.0698762568 	 3.09460421224662
131.0491408147 	 0.43229564804808
131.085526321 	 0.139705300893587
133.0647908789 	 21.5488836755674
144.0569658468 	 3.15786699000975
145.0647908789 	 11.6508949047104
147.0804409431 	 0.693254606321006
157.0647908789 	 38.2212615652266
159.0804409431 	 10.6044231225453
167.085526321 	 0.113345810158948
171.0804409431 	 2.29327569391359
171.1168264494 	 0.651079421145583
173.0960910073 	 0.163428842554762
181.1011763852 	 0.218783773097504
185.0960910073 	 3.80367451300841
197.0960910073 	 0.131797453673195
199.1117410715 	 52.718981469278
201.1273911357 	 29.8916624930806
227.1430411999 	 0.975301157181643
258.1852403656 	 100
END IONS

BEGIN IONS
PEPMASS=256.0986
CHARGE=1
MSLEVEL=2
RT=0
SOURCE_INSTRUMENT=qTOF
FILENAME=CCMSLIB00000079181.ms
IONMODE=Positive
ORGANISM=Natural
NAME=5-benzoyl-2,3-dihydro-1H-pyrrolizine-1-carboxylic acid
PI=GNPS
DATACOLLECTOR=GNPS
SMILES=c1ccc(cc1)C(=O)c1ccc2C(CCn12)C(=O)O
INCHI=InChI=1S/C15H13NO3/c17-14(10-4-2-1-3-5-10)13-7-6-12-11(15(18)19)8-9-16(12)13/h1-7,11H,8-9H2,(H,18,19)
FORMULA=C15H13NO3
PUBMED=N/A
SUBMITUSER=BIOADREM
LIBRARYQUALITY=0
SPECTRUMID=CCMSLIB00000079181
SCANS=1493
ID=CCMSLIB00000079181
105.0334907505 	 100
106.0651252299 	 6.3
108.0443897878 	 1.38
132.0443897878 	 3.79
133.0522148199 	 1.16
134.0236543457 	 1.37
134.060039852 	 4.035
160.0393044099 	 0.2
178.0498690962 	 19.47
179.0576941283 	 2.04
210.0913399804 	 8.88
256.0968192888 	 98.5
END IONS

BEGIN IONS
PEPMASS=387.1559
CHARGE=1
MSLEVEL=2
RT=0
SOURCE_INSTRUMENT=qTOF
FILENAME=CCMSLIB00000079183.ms
IONMODE=Positive
ORGANISM=Natural
NAME=Mesoridazine
PI=GNPS
DATACOLLECTOR=GNPS
SMILES=CN1CCCCC1CCN1c2ccccc2Sc2ccc(cc12)S(=O)C
INCHI=InChI=1S/C21H26N2OS2/c1-22-13-6-5-7-16(22)12-14-23-18-8-3-4-9-20(18)25-21-11-10-17(26(2)24)15-19(21)23/h3-4,8-11,15-16H,5-7,12-14H2,1-2H3
FORMULA=C21H26N2OS2
PUBMED=N/A
SUBMITUSER=BIOADREM
LIBRARYQUALITY=0
SPECTRUMID=CCMSLIB00000079183
SCANS=1495
ID=CCMSLIB00000079183
96.0807752941 	 0.22274014632995
98.0964253583 	 26.7597946660373
110.0964253583 	 0.34074817087562
126.1277254867 	 26.3025135709228
211.045020952 	 1.99876091574227
225.0606710162 	 0.126858626386594
227.0399355741 	 0.650519235308001
229.0014415778 	 0.194713240500354
243.017091642 	 0.193238140193533
244.0249166741 	 0.935213594524428
245.0327417062 	 0.604791125796554
246.004181232 	 0.778852962001416
258.0405667383 	 0.644618834080717
259.0120062641 	 10.8936157658721
274.0354813604 	 5.15695067264574
284.0562168025 	 0.131283927307057
321.1419953424 	 0.212414444182204
323.1576454066 	 0.11948312485249
330.0855055582 	 0.131283927307057
354.1218910645 	 0.0826056171819684
369.1453661608 	 0.175536936511683
370.1531911929 	 0.792128864762804
372.1324557508 	 13.7036818503658
387.1559308471 	 100
END IONS

BEGIN IONS
PEPMASS=415.2016
CHARGE=1
MSLEVEL=2
RT=0
SOURCE_INSTRUMENT=qTOF
FILENAME=CCMSLIB00000079184.ms
IONMODE=Positive
ORGANISM=Natural
NAME=Naltrindole
PI=GNPS
DATACOLLECTOR=GNPS
SMILES=c1ccc2c(c1)c1C[C@]3(C4Cc5ccc(c6c5[C@@]3(CCN4CC3CC3)[C@H](c1[nH]2)O6)O)O
INCHI=InChI=1S/C26H26N2O3/c29-19-8-7-15-11-20-26(30)12-17-16-3-1-2-4-18(16)27-22(17)24-25(26,21(15)23(19)31-24)9-10-28(20)13-14-5-6-14/h1-4,7-8,14,20,24,27,29-30H,5-6,9-13H2/t20?,24-,25-,26+/m0/s1
FORMULA=C26H26N2O3
PUBMED=N/A
SUBMITUSER=BIOADREM
LIBRARYQUALITY=0
SPECTRUMID=CCMSLIB00000079184
SCANS=1496
ID=CCMSLIB00000079184
254.0964253583 	 13.2
268.1120754225 	 3.59
272.1069900446 	 3.2
280.1120754225 	 12.06
282.0913399804 	 50.96
284.1069900446 	 2.27
288.1019046667 	 1.88
296.1069900446 	 5.69
298.1226401088 	 3.59
299.0940796346 	 7.28
300.1019046667 	 100
307.0991650125 	 6.25
308.1069900446 	 30.83
310.1226401088 	 3.47
312.1019046667 	 3.66
314.1175547309 	 6.88
316.1332047951 	 2.46
325.1097296988 	 3.22
326.1175547309 	 18.47
328.1332047951 	 8.49
338.1175547309 	 1.8
341.1284537682 	 5.68
343.1441038324 	 18.08
354.1488548593 	 3.02
356.1519288645 	 5.27
369.1597538966 	 3.57
397.191054025 	 91.95
415.2016187113 	 569.66
END IONS

BEGIN IONS
PEPMASS=319.1776
CHARGE=1
MSLEVEL=2
RT=0
SOURCE_INSTRUMENT=qTOF
FILENAME=CCMSLIB00000079186.ms
IONMODE=Positive
ORGANISM=Natural
NAME=LY 171883
PI=GNPS
DATACOLLECTOR=GNPS
SMILES=CCCc1c(ccc(C(=O)C)c1O)OCCCCc1n[nH]nn1
INCHI=InChI=1S/C16H22N4O3/c1-3-6-13-14(9-8-12(11(2)21)16(13)22)23-10-5-4-7-15-17-19-20-18-15/h8-9,22H,3-7,10H2,1-2H3,(H,17,18,19,20)
FORMULA=C16H22N4O3
PUBMED=N/A
SUBMITUSER=BIOADREM
LIBRARYQUALITY=0
SPECTRUMID=CCMSLIB00000079186
SCANS=1498
ID=CCMSLIB00000079186
103.0542261926 	 2.36
105.0698762568 	 1.81
107.0491408147 	 5.675
111.0440554368 	 9.365
115.0542261926 	 1.915
116.0494751657 	 2.385
117.0698762568 	 1.815
121.0647908789 	 1.955
123.0440554368 	 7.73
125.0835149483 	 100
131.0491408147 	 8.17
133.0647908789 	 2.945
135.0440554368 	 5.535
137.059705501 	 12.8
144.0443897878 	 1.975
147.0440554368 	 26.72
149.0233199947 	 1.77
149.059705501 	 10.575
151.0753555652 	 3.54
153.0546201231 	 3.09
153.0896629587 	 4.65
153.0910056294 	 2.795
156.0443897878 	 4.815
158.060039852 	 1.865
159.0440554368 	 1.95
160.0518804689 	 1.79
161.059705501 	 11.58
162.0549544741 	 2.475
163.0740128945 	 0.735
163.0753555652 	 2.02
165.0546201231 	 13.655
165.0910056294 	 9.195
172.0393044099 	 17.545
175.0753555652 	 4.39
177.0532774524 	 0.665
177.0546201231 	 7.3
177.0910056294 	 13.65
179.0702701873 	 10.55
186.0549544741 	 10.95
189.0896629587 	 2.535
189.0910056294 	 11.265
190.0498690962 	 9.235
190.0862546025 	 3.125
191.0689275166 	 1.115
191.1066556936 	 3.96
193.0859202515 	 3.29
195.1015703157 	 48.33
202.0849119318 	 1.31
202.0862546025 	 4.52
204.0655191604 	 9.375
207.100227645 	 6.235
207.1015703157 	 2.965
207.137955822 	 12.78
214.0849119318 	 1.59
214.0862546025 	 2.91
220.0968192888 	 7.545
231.100227645 	 1.13
232.0954766181 	 1.965
232.1318621244 	 2.225
233.1172203799 	 1.08
246.112469353 	 1.675
249.1485205083 	 3.34
257.1158777092 	 1.175
274.1424268107 	 4.225
277.165901907 	 30.005
319.1764665933 	 8.205
END IONS

BEGIN IONS
PEPMASS=327.136
CHARGE=1
MSLEVEL=2
RT=0
SOURCE_INSTRUMENT=qTOF
FILENAME=CCMSLIB00000079190.ms
IONMODE=Positive
ORGANISM=Natural
NAME=Oxiranecarboxylic acid, 2-[6-(4-chlorophenoxy)hexyl]-, ethyl ester- [CAS]
PI=GNPS
DATACOLLECTOR=GNPS
SMILES=CCOC(=O)C1(CCCCCCOc2ccc(cc2)Cl)CO1
INCHI=InChI=1S/C17H23ClO4/c1-2-20-16(19)17(13-22-17)11-5-3-4-6-12-21-15-9-7-14(18)8-10-15/h7-10H,2-6,11-13H2,1H3
FORMULA=C17H23ClO4
PUBMED=N/A
SUBMITUSER=BIOADREM
LIBRARYQUALITY=0
SPECTRUMID=CCMSLIB00000079190
SCANS=1502
ID=CCMSLIB00000079190
91.0542261926 	 8.69
95.0491408147 	 8.52
97.0647908789 	 16.01
107.0491408147 	 21.47
107.085526321 	 42.42
117.0698762568 	 7.67
123.0804409431 	 7.5
125.0960910073 	 17.21
132.0569658468 	 14.48
135.0804409431 	 72.57
139.0309039347 	 10.39
141.0101684926 	 8.69
153.0101684926 	 10.9
153.0910056294 	 100
165.0101684926 	 7.5
167.0258185568 	 46.51
168.0336435889 	 11.93
179.0258185568 	 11.41
199.1328704441 	 75.81
235.0884188136 	 44.12
239.0469479294 	 7.33
245.0727687494 	 27.26
253.0989834999 	 33.05
263.0833334357 	 21.98
281.093898122 	 34.41
327.1357629367 	 0
END IONS

BEGIN IONS
PEPMASS=306.2072
CHARGE=1
MSLEVEL=2
RT=0
SOURCE_INSTRUMENT=qTOF
FILENAME=CCMSLIB00000079192.ms
IONMODE=Positive
ORGANISM=Natural
NAME=zucapsaicin
PI=GNPS
DATACOLLECTOR=GNPS
SMILES=CC(C)/C=C\CCCCC(=NCc1ccc(c(c1)OC)O)O
INCHI=InChI=1S/C18H27NO3/c1-14(2)8-6-4-5-7-9-18(21)19-13-15-10-11-16(20)17(12-15)22-3/h6,8,10-12,14,20H,4-5,7,9,13H2,1-3H3,(H,19,21)/b8-6-
FORMULA=C18H27NO3
PUBMED=N/A
SUBMITUSER=BIOADREM
LIBRARYQUALITY=0
SPECTRUMID=CCMSLIB00000079192
SCANS=1503
ID=CCMSLIB00000079192
94.0413157826 	 0.59
100.0756899162 	 0.23
107.085526321 	 0.23
109.0647908789 	 0.25
109.1011763852 	 0.9
122.0362304047 	 2.98
123.1168264494 	 0.25
126.0913399804 	 0.81
133.1011763852 	 1.45
135.1168264494 	 1.21
137.059705501 	 100
151.1117410715 	 1.61
153.1273911357 	 3.44
170.1539402372 	 4.97
182.1539402372 	 14.5
306.2063697382 	 5.11
END IONS

BEGIN IONS
PEPMASS=269.0752
CHARGE=1
MSLEVEL=2
RT=0
SOURCE_INSTRUMENT=qTOF
FILENAME=CCMSLIB00000079193.ms
IONMODE=Positive
ORGANISM=Natural
NAME=3(2H)-Pyridazinone, 6-[4-(difluoromethoxy)-3-methoxyphenyl]- [CAS]
PI=GNPS
DATACOLLECTOR=GNPS
SMILES=COc1cc(ccc1OC(F)F)c1ccc(nn1)O
INCHI=InChI=1S/C12H10F2N2O3/c1-18-10-6-7(2-4-9(10)19-12(13)14)8-3-5-11(17)16-15-8/h2-6,12H,1H3,(H,16,17)
FORMULA=C12H10F2N2O3
PUBMED=N/A
SUBMITUSER=BIOADREM
LIBRARYQUALITY=0
SPECTRUMID=CCMSLIB00000079193
SCANS=1504
ID=CCMSLIB00000079193
95.0491408147 	 0.196070942031753
102.0464011605 	 0.306201698432706
104.0494751657 	 1.36740384248119
106.0287397236 	 0.875953299466534
108.0443897878 	 0.731446468813261
110.0151010321 	 1.51573023694027
116.0494751657 	 0.713621837719466
118.0651252299 	 0.34567052442611
119.060374203 	 0.421425206574742
122.060039852 	 0.469806348115045
123.0678648841 	 0.784920362094649
128.0494751657 	 0.301745540659257
130.0525491709 	 0.626408464153394
131.060374203 	 2.89713914670945
132.0681992351 	 1.2566364921126
134.047463793 	 0.330392269202857
142.0525491709 	 0.394051665966413
143.060374203 	 0.649325846988274
145.0396387609 	 1.48453713252613
145.0760242672 	 0.553836751842939
146.060039852 	 0.196070942031753
147.0552888251 	 4.19961040449181
148.0631138572 	 0.748634505939422
150.058777403 	 0.390868696128235
155.0365647557 	 0.375590440904982
158.047463793 	 1.83593700266096
159.0552888251 	 3.84821053435698
160.0631138572 	 8.59338196911246
161.0646712841 	 0.200527099805202
171.0552888251 	 3.02891409801001
172.0631138572 	 0.846033382987663
173.0709388893 	 0.985447461899851
175.0502034472 	 2.65777981487847
176.0580284793 	 2.20961766166304
178.0536920251 	 0.280737939727283
186.0423784151 	 4.23462307271176
187.0502034472 	 6.71670295252282
188.0580284793 	 10.9341379881084
189.0658535114 	 2.68833632532498
200.0517608741 	 0.19798072393466
201.0658535114 	 3.65213959232522
203.0451180693 	 12.7318793527113
204.0529431014 	 9.15040169079358
205.0533576741 	 0.506728798237908
206.0486066472 	 3.1129445017379
207.0564316793 	 1.78182651541194
214.0372930372 	 0.196070942031753
217.0607681335 	 5.06919776428199
218.0623255604 	 0.637867155570834
219.0764181977 	 5.58356569013152
220.0768327704 	 0.606037457189056
226.0548348793 	 0.262276714665852
234.0435212693 	 1.8365735966286
249.0669963656 	 0.59394217180398
251.0626599114 	 0.202436881708109
254.0497495014 	 0.421425206574742
269.0732245977 	 100
END IONS

BEGIN IONS
PEPMASS=231.11
CHARGE=1
MSLEVEL=2
RT=0
SOURCE_INSTRUMENT=qTOF
FILENAME=CCMSLIB00000079198.ms
IONMODE=Positive
ORGANISM=Natural
NAME=TFMPP
PI=GNPS
DATACOLLECTOR=GNPS
SMILES=c1cc(cc(c1)N1CCNCC1)C(F)(F)F
INCHI=InChI=1S/C11H13F3N2/c12-11(13,14)9-2-1-3-10(8-9)16-6-4-15-5-7-16/h1-3,8,15H,4-7H2
FORMULA=C11H13F3N2
PUBMED=N/A
SUBMITUSER=BIOADREM
LIBRARYQUALITY=0
SPECTRUMID=CCMSLIB00000079198
SCANS=1507
ID=CCMSLIB00000079198
104.0494751657 	 0.25
118.0651252299 	 2.95
119.072950262 	 4.51
121.0448043605 	 0.59
127.0353825284 	 1.41
128.0494751657 	 0.35
140.0306315015 	 0.52
141.0510325926 	 2.59
145.0259606963 	 1.53
148.0557033978 	 4.68
151.0353825284 	 0.64
154.0462815657 	 0.31
160.0368597336 	 1.39
162.0525097978 	 0.66
166.0462815657 	 3.29
168.0619316299 	 5.85
171.0416107605 	 0.34
172.0368597336 	 2.41
174.0525097978 	 4.01
185.0446847657 	 0.26
186.0525097978 	 4.42
188.068159862 	 100
198.0525097978 	 0.24
200.068159862 	 1.78
211.1041307956 	 0.75
214.0838099262 	 1.61
215.0916349583 	 0.35
231.1103590277 	 0
END IONS

BEGIN IONS
PEPMASS=459.0933
CHARGE=1
MSLEVEL=2
RT=0
SOURCE_INSTRUMENT=qTOF
FILENAME=CCMSLIB00000079199.ms
IONMODE=Positive
ORGANISM=Natural
NAME=Epigallocatechin gallate
PI=GNPS
DATACOLLECTOR=GNPS
SMILES=c1c(cc(c(c1O)O)O)[C@@H]1[C@@H](Cc2c(cc(cc2O1)O)O)OC(=O)c1cc(c(c(c1)O)O)O
INCHI=InChI=1S/C22H18O11/c23-10-5-12(24)11-7-18(33-22(31)9-3-15(27)20(30)16(28)4-9)21(32-17(11)6-10)8-1-13(25)19(29)14(26)2-8/h1-6,18,21,23-30H,7H2/t18-,21-/m1/s1
FORMULA=C22H18O11
PUBMED=N/A
SUBMITUSER=BIOADREM
LIBRARYQUALITY=0
SPECTRUMID=CCMSLIB00000079199
SCANS=1508
ID=CCMSLIB00000079199
111.0440554368 	 1.19
121.0284053726 	 0.55
123.0440554368 	 1.59
135.0440554368 	 0.74
139.0389700589 	 100
151.0389700589 	 8.3
153.0182346168 	 9.58
163.0389700589 	 3.06
181.0495347452 	 2.4
289.0706641178 	 9.48
307.0812288041 	 4.87
459.0921874209 	 0.5
END IONS

BEGIN IONS
PEPMASS=374.1452
CHARGE=1
MSLEVEL=2
RT=0
SOURCE_INSTRUMENT=qTOF
FILENAME=CCMSLIB00000079203.ms
IONMODE=Positive
ORGANISM=Natural
NAME=10H-Phenothiazine, 2-chloro-10-[3-(4-methyl-1-piperazinyl)propyl- [CAS]
PI=GNPS
DATACOLLECTOR=GNPS
SMILES=CN1CCN(CCCN2c3ccccc3Sc3ccc(cc23)Cl)CC1
INCHI=InChI=1S/C20H24ClN3S/c1-22-11-13-23(14-12-22)9-4-10-24-17-5-2-3-6-19(17)25-20-8-7-16(21)15-18(20)24/h2-3,5-8,15H,4,9-14H2,1H3
FORMULA=C20H24ClN3S
PUBMED=N/A
SUBMITUSER=BIOADREM
LIBRARYQUALITY=0
SPECTRUMID=CCMSLIB00000079203
SCANS=1512
ID=CCMSLIB00000079203
98.0838492993 	 4.42048265882463
113.1073243956 	 35.8843299257807
141.138624524 	 46.6788031554871
210.0371959199 	 0.660505064650142
211.045020952 	 4.58152452971106
214.041802972 	 12.6406198945059
233.0060486299 	 2.82406759090697
238.0684960483 	 1.10628763478504
239.0763210804 	 9.84689352565
246.013873662 	 20.7043831396163
274.0451737904 	 2.73304392475377
296.1467463693 	 1.26266162535593
374.145222186 	 100
END IONS

BEGIN IONS
PEPMASS=347.0924
CHARGE=1
MSLEVEL=2
RT=0
SOURCE_INSTRUMENT=qTOF
FILENAME=CCMSLIB00000079206.ms
IONMODE=Positive
ORGANISM=Natural
NAME=Raclopride
PI=GNPS
DATACOLLECTOR=GNPS
SMILES=CCN1CCC[C@H]1CN=C(c1c(c(cc(c1OC)Cl)Cl)O)O
INCHI=InChI=1S/C15H20Cl2N2O3/c1-3-19-6-4-5-9(19)8-18-15(21)12-13(20)10(16)7-11(17)14(12)22-2/h7,9,20H,3-6,8H2,1-2H3,(H,18,21)/t9-/m0/s1
FORMULA=C15H20Cl2N2O3
PUBMED=N/A
SUBMITUSER=BIOADREM
LIBRARYQUALITY=0
SPECTRUMID=CCMSLIB00000079206
SCANS=1514
ID=CCMSLIB00000079206
98.0964253583 	 2.49171116904153
112.1120754225 	 25.3094075067703
129.138624524 	 6.94869783098378
139.9659579542 	 0.044291463136848
175.9426356963 	 0.649186302548657
183.9921727047 	 0.193616967426793
190.9661107926 	 0.191086026676116
203.9375503184 	 4.29753739464959
218.9610254147 	 14.2276834299309
331.0736498693 	 0.177165852547392
347.0923739387 	 100
END IONS

BEGIN IONS
PEPMASS=212.0957
CHARGE=1
MSLEVEL=2
RT=0
SOURCE_INSTRUMENT=qTOF
FILENAME=CCMSLIB00000079207.ms
IONMODE=Positive
ORGANISM=Natural
NAME=SR 57227A
PI=GNPS
DATACOLLECTOR=GNPS
SMILES=c1cc(Cl)nc(c1)N1CCC(CC1)N
INCHI=InChI=1S/C10H14ClN3/c11-9-2-1-3-10(13-9)14-6-4-8(12)5-7-14/h1-3,8H,4-7,12H2
FORMULA=C10H14ClN3
PUBMED=N/A
SUBMITUSER=BIOADREM
LIBRARYQUALITY=0
SPECTRUMID=CCMSLIB00000079207
SCANS=1515
ID=CCMSLIB00000079207
104.0494751657 	 0.65
105.0447241388 	 3.14
111.9948527794 	 3.39
114.0105028436 	 0.8
131.060374203 	 4.4
132.0681992351 	 3.87
139.0057518167 	 1.27
141.0214018809 	 88.78
153.0214018809 	 2.16
165.0214018809 	 0.68
167.0370519451 	 12.29
179.0370519451 	 0.95
180.0448769772 	 1.06
195.0683520735 	 100
212.094901175 	 26.31
END IONS

BEGIN IONS
PEPMASS=286.049
CHARGE=1
MSLEVEL=2
RT=0
SOURCE_INSTRUMENT=qTOF
FILENAME=CCMSLIB00000079209.ms
IONMODE=Positive
ORGANISM=Natural
NAME=CGS 15943
PI=GNPS
DATACOLLECTOR=GNPS
SMILES=c1cc(c2nc3c4cc(ccc4[nH]c(=N)n3n2)Cl)oc1
INCHI=InChI=1S/C13H8ClN5O/c14-7-3-4-9-8(6-7)12-17-11(10-2-1-5-20-10)18-19(12)13(15)16-9/h1-6H,(H2,15,16)
FORMULA=C13H8ClN5O
PUBMED=N/A
SUBMITUSER=BIOADREM
LIBRARYQUALITY=0
SPECTRUMID=CCMSLIB00000079209
SCANS=1516
ID=CCMSLIB00000079209
123.9948527794 	 0.58
143.047798144 	 1.28
151.0057518167 	 9.47
169.0508721492 	 0.4
178.016650854 	 90.64
205.0275498913 	 100
222.0774212507 	 1.3
223.0852462828 	 2.98
231.0431999555 	 4.04
241.0275498913 	 0.73
251.0801609049 	 1.38
258.0540989928 	 5.93
269.0224645134 	 3.18
286.0490136149 	 0
END IONS

BEGIN IONS
PEPMASS=415.2016
CHARGE=1
MSLEVEL=2
RT=0
SOURCE_INSTRUMENT=qTOF
FILENAME=CCMSLIB00000079211.ms
IONMODE=Positive
ORGANISM=Natural
NAME=SDM25N
PI=GNPS
DATACOLLECTOR=GNPS
SMILES=C=C(C)CN1CC[C@]23c4c5ccc(c4O[C@H]2c2c(C[C@]3(C1C5)O)c1ccccc1[nH]2)O
INCHI=InChI=1S/C26H26N2O3/c1-14(2)13-28-10-9-25-21-15-7-8-19(29)23(21)31-24(25)22-17(12-26(25,30)20(28)11-15)16-5-3-4-6-18(16)27-22/h3-8,20,24,27,29-30H,1,9-13H2,2H3/t20?,24-,25-,26+/m0/s1
FORMULA=C26H26N2O3
PUBMED=N/A
SUBMITUSER=BIOADREM
LIBRARYQUALITY=0
SPECTRUMID=CCMSLIB00000079211
SCANS=1518
ID=CCMSLIB00000079211
254.0964253583 	 10.42
268.1120754225 	 1.93
270.0913399804 	 1.92
272.1069900446 	 1.5
279.1042503904 	 1.14
280.1120754225 	 12.99
282.0913399804 	 40.33
288.1019046667 	 3.13
291.1042503904 	 5.56
296.1069900446 	 3.02
298.1226401088 	 2.21
299.0940796346 	 6.95
300.1019046667 	 61.52
307.0991650125 	 3.15
308.1069900446 	 23.53
314.1175547309 	 6.69
323.1178890819 	 1.48
325.1097296988 	 2.68
326.1175547309 	 11.1
341.1284537682 	 8.45
342.1362788003 	 13.12
397.191054025 	 100
415.2016187113 	 109.44
END IONS

BEGIN IONS
PEPMASS=410.9504
CHARGE=1
MSLEVEL=2
RT=0
SOURCE_INSTRUMENT=qTOF
FILENAME=CCMSLIB00000079212.ms
IONMODE=Positive
ORGANISM=Natural
NAME=Thiophene, 5-bromo-2-(4-fluorophenyl)-3-[4-(methylsulfonyl)phenyl]- [CAS]
PI=GNPS
DATACOLLECTOR=GNPS
SMILES=CS(=O)(=O)c1ccc(cc1)c1cc(Br)sc1c1ccc(cc1)F
INCHI=InChI=1S/C17H12BrFO2S2/c1-23(20,21)14-8-4-11(5-9-14)15-10-16(18)22-17(15)12-2-6-13(19)7-3-12/h2-10H,1H3
FORMULA=C17H12BrFO2S2
PUBMED=N/A
SUBMITUSER=BIOADREM
LIBRARYQUALITY=0
SPECTRUMID=CCMSLIB00000079212
SCANS=1519
ID=CCMSLIB00000079212
220.0682794568 	 51.36
232.0341219147 	 3.09
233.0419469468 	 2.62
252.0403501468 	 55.44
253.0481751789 	 45.17
255.0474262552 	 1.87
318.9422887589 	 11.86
331.9665127789 	 100
333.9657638552 	 91.24
410.9518878094 	 82.29
END IONS

BEGIN IONS
PEPMASS=754.4165
CHARGE=1
MSLEVEL=2
RT=0
SOURCE_INSTRUMENT=qTOF
FILENAME=CCMSLIB00000079214.ms
IONMODE=Positive
ORGANISM=Natural
NAME=VINDESINE SULFATE
PI=GNPS
DATACOLLECTOR=GNPS
SMILES=CC[C@@]1(C[C@@H]2C[C@](c3cc4c(cc3OC)N(C)[C@@H]3[C@@]54CCN4CC=C[C@](CC)([C@@H]54)[C@H]([C@@]3(C(=N)O)O)O)(c3c(CCN(C2)C1)c1ccccc1[nH]3)C(=O)OC)O
INCHI=InChI=1S/C43H55N5O7/c1-6-39(52)21-25-22-42(38(51)55-5,33-27(13-17-47(23-25)24-39)26-11-8-9-12-30(26)45-33)29-19-28-31(20-32(29)54-4)46(3)35-41(28)15-18-48-16-10-14-40(7-2,34(41)48)36(49)43(35,53)37(44)50/h8-12,14,19-20,25,34-36,45,49,52-53H,6-7,13,15-18,21-24H2,1-5H3,(H2,44,50)/t25-,34+,35-,36-,39+,40-,41-,42+,43+/m1/s1
FORMULA=C43H55N5O7
PUBMED=N/A
SUBMITUSER=BIOADREM
LIBRARYQUALITY=0
SPECTRUMID=CCMSLIB00000079214
SCANS=1520
ID=CCMSLIB00000079214
124.1120754225 	 22.82
136.1120754225 	 5.31
140.1069900446 	 5.77
144.0780952194 	 8.39
212.1307994919 	 9.44
214.1226401088 	 8.2
281.1648392745 	 9.7
283.177809264 	 11.54
295.177809264 	 11.93
321.1597538966 	 7.48
323.1727238861 	 25.38
337.191054025 	 21.18
338.1961989824 	 7.67
353.1886487218 	 42.56
355.2016187113 	 87.28
356.2067636687 	 16.85
412.2230824349 	 34.62
470.2285617433 	 6.82
480.2645533191 	 6.56
484.2468918822 	 5.9
494.2676273243 	 16.98
510.2625419464 	 5.51
522.2791407508 	 7.08
524.2880879949 	 12.13
539.3056898523 	 5.44
540.2897054371 	 9.44
542.2986526812 	 17.7
543.3006044744 	 8.39
544.3017266864 	 6.36
571.3319046028 	 6.23
609.3282757879 	 5.64
611.3380526132 	 7.41
633.3673413689 	 5.38
649.37483205 	 11.34
650.3826570821 	 14.23
651.3904821142 	 25.44
652.3830510126 	 11.74
653.4061321784 	 5.31
673.37483205 	 9.31
691.3853967363 	 14.03
692.3806457094 	 5.25
694.3962957736 	 10.89
709.3959614226 	 45.77
710.4037864547 	 18.89
719.3803113584 	 9.05
720.3755603315 	 5.64
734.3912103957 	 5.77
736.4068604599 	 31.61
737.414685492 	 18.16
752.401775082 	 100
753.4096001141 	 63.61
754.4174251462 	 390.03
END IONS

BEGIN IONS
PEPMASS=473.1294
CHARGE=1
MSLEVEL=2
RT=0
SOURCE_INSTRUMENT=qTOF
FILENAME=CCMSLIB00000079215.ms
IONMODE=Positive
ORGANISM=Natural
NAME=CLOFAZIMINE
PI=GNPS
DATACOLLECTOR=GNPS
SMILES=CC(C)N=c1cc2c(cc1Nc1ccc(cc1)Cl)nc1ccccc1n2c1ccc(cc1)Cl
INCHI=InChI=1S/C27H22Cl2N4/c1-17(2)30-24-16-27-25(15-23(24)31-20-11-7-18(28)8-12-20)32-22-5-3-4-6-26(22)33(27)21-13-9-19(29)10-14-21/h3-17,31H,1-2H3
FORMULA=C27H22Cl2N4
PUBMED=N/A
SUBMITUSER=BIOADREM
LIBRARYQUALITY=0
SPECTRUMID=CCMSLIB00000079215
SCANS=1521
ID=CCMSLIB00000079215
284.1056473739 	 0.724334865580164
285.113472406 	 1.13386265496587
294.0792511108 	 7.07619445605237
304.0636010466 	 1.30658866137345
305.0714260787 	 0.426243209360635
319.0745000839 	 2.03370943028277
321.0901501481 	 1.79412174397548
330.0792511108 	 0.351023819473464
347.1058002123 	 0.674188605655384
378.0792511108 	 0.222872266332358
382.0979751802 	 0.108650229837025
394.0979751802 	 0.757765705530018
395.1058002123 	 12.1158935784928
404.0715789171 	 5.49380136509263
414.0559288529 	 1.36787853461485
416.0590028581 	 1.02521242512885
417.0668278902 	 0.111436133166179
423.1371003407 	 0.133723359799415
429.0668278902 	 21.1561498815991
430.0746529223 	 2.57974648279705
431.0824779544 	 55.7180665830896
440.0715789171 	 0.579467892464132
443.0824779544 	 1.91391558712913
457.0981280186 	 0.381668756094164
458.1059530507 	 0.537679342526814
473.129428147 	 100
END IONS

BEGIN IONS
PEPMASS=309.0934
CHARGE=1
MSLEVEL=2
RT=0
SOURCE_INSTRUMENT=qTOF
FILENAME=CCMSLIB00000079216.ms
IONMODE=Positive
ORGANISM=Natural
NAME=3-(1H-imidazol-5-yl)propyl N'-[(4-chlorophenyl)methyl]carbamimidothioate
PI=GNPS
DATACOLLECTOR=GNPS
SMILES=C(Cc1cnc[nH]1)CSC(=N)NCc1ccc(cc1)Cl
INCHI=InChI=1S/C14H17ClN4S/c15-12-5-3-11(4-6-12)8-18-14(16)20-7-1-2-13-9-17-10-19-13/h3-6,9-10H,1-2,7-8H2,(H2,16,18)(H,17,19)
FORMULA=C14H17ClN4S
PUBMED=N/A
SUBMITUSER=BIOADREM
LIBRARYQUALITY=0
SPECTRUMID=CCMSLIB00000079216
SCANS=1522
ID=CCMSLIB00000079216
81.0447241388 	 1.45
109.0760242672 	 100
141.0480949572 	 8.09
168.0589939945 	 9.2
309.0935209665 	 34.25
END IONS

BEGIN IONS
PEPMASS=303.243
CHARGE=1
MSLEVEL=2
RT=0
SOURCE_INSTRUMENT=qTOF
FILENAME=CCMSLIB00000079219.ms
IONMODE=Positive
ORGANISM=Natural
NAME=5-Nonyloxytryptamine
PI=GNPS
DATACOLLECTOR=GNPS
SMILES=CCCCCCCCCOc1ccc2c(c1)c(CCN)c[nH]2
INCHI=InChI=1S/C19H30N2O/c1-2-3-4-5-6-7-8-13-22-17-9-10-19-18(14-17)16(11-12-20)15-21-19/h9-10,14-15,21H,2-8,11-13,20H2,1H3
FORMULA=C19H30N2O
PUBMED=N/A
SUBMITUSER=BIOADREM
LIBRARYQUALITY=0
SPECTRUMID=CCMSLIB00000079219
SCANS=1524
ID=CCMSLIB00000079219
105.0698762568 	 0.52
115.0542261926 	 1.53
117.0573001978 	 0.75
130.0651252299 	 0.45
131.072950262 	 0.45
132.0807752941 	 5.77
133.0647908789 	 1.1
142.0651252299 	 2.14
143.072950262 	 0.87
148.0756899162 	 0.5
159.0678648841 	 2.44
160.0756899162 	 68.07
174.0913399804 	 0.22
260.2008904298 	 0.22
286.216540494 	 100
303.2430895955 	 1.35
END IONS

BEGIN IONS
PEPMASS=416.2807
CHARGE=1
MSLEVEL=2
RT=0
SOURCE_INSTRUMENT=qTOF
FILENAME=CCMSLIB00000079220.ms
IONMODE=Positive
ORGANISM=Natural
NAME=Salmeterol
PI=GNPS
DATACOLLECTOR=GNPS
SMILES=C(CCCOCCCCc1ccccc1)CCNCC(c1ccc(c(c1)CO)O)O
INCHI=InChI=1S/C25H37NO4/c27-20-23-18-22(13-14-24(23)28)25(29)19-26-15-7-1-2-8-16-30-17-9-6-12-21-10-4-3-5-11-21/h3-5,10-11,13-14,18,25-29H,1-2,6-9,12,15-17,19-20H2
FORMULA=C25H37NO4
PUBMED=N/A
SUBMITUSER=BIOADREM
LIBRARYQUALITY=0
SPECTRUMID=CCMSLIB00000079220
SCANS=1525
ID=CCMSLIB00000079220
91.0542261926 	 37.7318306859526
103.0542261926 	 3.57618244742213
105.0698762568 	 19.6201970006212
107.0491408147 	 2.56455763599255
107.085526321 	 3.27446978436418
115.0542261926 	 4.17960777353803
117.0698762568 	 5.04925015529328
118.0651252299 	 2.20072765995208
119.0491408147 	 2.60892714526577
120.0807752941 	 3.80690389564291
121.0647908789 	 18.7594285207206
129.0698762568 	 3.03487443428876
130.0651252299 	 4.88951992190966
131.085526321 	 16.0972579643269
133.0647908789 	 60.1561806726418
135.0804409431 	 38.3618777176324
145.0647908789 	 4.68542017925282
145.1011763852 	 9.9298961753483
146.060039852 	 5.81240571479279
147.0678648841 	 19.6823143136037
148.0756899162 	 48.2207826781436
149.0835149483 	 0.709912148371639
159.0804409431 	 4.93388943118289
160.0756899162 	 15.1566243677345
162.0913399804 	 16.8249179164078
164.1069900446 	 0.887390185464549
171.0804409431 	 2.71541396752152
174.0913399804 	 2.4580708137368
185.0960910073 	 1.7747803709291
188.1069900446 	 2.91063980832372
202.1226401088 	 1.98775401544059
202.1590256151 	 1.92563670245807
218.1539402372 	 0.283964859348656
230.1539402372 	 78.7470050581241
232.1695903014 	 88.7390185464549
248.1645049235 	 38.3175082083592
380.2584053087 	 80.9566066199308
398.268969995 	 100
416.2795346813 	 58.0441920312361
END IONS

BEGIN IONS
PEPMASS=825.4078
CHARGE=1
MSLEVEL=2
RT=0
SOURCE_INSTRUMENT=qTOF
FILENAME=CCMSLIB00000079222.ms
IONMODE=Positive
ORGANISM=Natural
NAME=VINCRISTINE SULFATE
PI=GNPS
DATACOLLECTOR=GNPS
SMILES=CC[C@@]1(C[C@H]2C[C@](c3cc4c(cc3OC)N(C=O)[C@@H]3[C@@]54CCN4CC=C[C@](CC)([C@@H]54)[C@H]([C@@]3(C(=O)OC)O)OC(=O)C)(c3c(CCN(C2)C1)c1ccccc1[nH]3)C(=O)OC)O
INCHI=InChI=1S/C46H56N4O10/c1-7-42(55)22-28-23-45(40(53)58-5,36-30(14-18-48(24-28)25-42)29-12-9-10-13-33(29)47-36)32-20-31-34(21-35(32)57-4)50(26-51)38-44(31)16-19-49-17-11-15-43(8-2,37(44)49)39(60-27(3)52)46(38,56)41(54)59-6/h9-13,15,20-21,26,28,37-39,47,55-56H,7-8,14,16-19,22-25H2,1-6H3/t28-,37-,38+,39+,42-,43+,44+,45-,46-/m0/s1
FORMULA=C46H56N4O10
PUBMED=N/A
SUBMITUSER=BIOADREM
LIBRARYQUALITY=0
SPECTRUMID=CCMSLIB00000079222
SCANS=1526
ID=CCMSLIB00000079222
108.0807752941 	 0.896252900109119
122.0964253583 	 2.59765024948884
124.1120754225 	 1.28505291705953
138.1277254867 	 2.0149799243588
140.1069900446 	 0.915322110749738
144.0780952194 	 1.57320987785111
144.0807752941 	 1.69186274405941
156.0780952194 	 1.10919241892937
164.1069900446 	 1.019143368682
167.072950262 	 0.823154259320077
224.1281194172 	 2.77033254584556
224.1307994919 	 3.71637727373852
225.1359444493 	 3.66976364772812
225.138624524 	 3.12523174387931
228.1019046667 	 1.12826162956999
265.1699246524 	 0.85069867468986
336.1832289929 	 1.019143368682
337.1870312796 	 1.52977445361415
353.1859686471 	 1.65478372336932
354.1838976949 	 0.979945546809615
355.1989386366 	 0.924856716070048
356.2372759361 	 1.15262784316634
395.1965333334 	 0.868708484739334
409.2009500093 	 0.997955356859089
415.2128520996 	 1.18335046030956
442.2250938076 	 1.06363819351011
453.1979898964 	 1.04139078109606
455.217662706 	 0.997955356859089
465.283336968 	 1.08588560592417
492.2744493034 	 0.786075238629983
501.270760909 	 1.19712266799445
517.2809316648 	 0.711917197249796
526.2673525528 	 0.86023328001017
529.3020610374 	 1.90586166347081
538.2673525528 	 0.942866526119522
552.2717692287 	 0.674838176559703
556.2653411801 	 1.29458752237984
566.2748432339 	 1.3517951543017
567.295244325 	 0.73946161261958
576.322068198 	 0.674838176559703
599.2963069575 	 2.68028349559819
604.31028 	 1.28505291705953
606.3326328843 	 1.08588560592417
610.2646724781 	 0.721451802570106
627.2912215796 	 0.813619653999767
646.3401235654 	 1.28505291705953
659.3717580448 	 1.30730032947358
663.3316298313 	 1.13673683429915
664.31028 	 1.39628997912981
664.3466655063 	 0.74899621793989
677.3697466721 	 0.952401131439831
678.3425288686 	 2.14952379943428
687.3540966079 	 1.19288506562987
696.3530935549 	 1.19712266799445
697.348342528 	 1.2193700804085
705.3646612942 	 3.22587480003814
705.3660039649 	 6.44963079889399
706.3724863263 	 2.48217558505398
706.373828997 	 1.7660207854396
707.3578445818 	 1.0074899621794
707.3650552247 	 1.04139078109606
723.3752259805 	 3.01399468180903
723.3765686512 	 4.25561217463159
724.3843936833 	 1.46091341518969
725.375619911 	 1.61770470267922
725.3922187154 	 0.915322110749738
733.3595759163 	 2.48217558505398
734.3674009484 	 1.39628997912981
734.3799770074 	 0.85069867468986
747.3752259805 	 2.13257338997595
748.3718176243 	 2.26076086150456
749.3796426564 	 1.30730032947358
765.3857906668 	 21.1880118229106
766.3823823106 	 3.9229603890119
766.3936156989 	 4.89019312872777
767.3902073427 	 3.74180288792601
775.3701406026 	 1.30730032947358
783.3851219648 	 1.34967635311941
783.3963553531 	 3.14747915629337
807.3963553531 	 16.2935810918183
808.4041803852 	 7.98152405369042
823.3912699752 	 5.73983240282648
824.3990950073 	 2.32750309874673
825.4069200394 	 100
END IONS

BEGIN IONS
PEPMASS=243.1493
CHARGE=1
MSLEVEL=2
RT=0
SOURCE_INSTRUMENT=qTOF
FILENAME=CCMSLIB00000079225.ms
IONMODE=Positive
ORGANISM=Natural
NAME=(5R,9R,Z)-5-amino-11-ethylidene-7-methyl-5,6,9,10-tetrahydro-5,9-methanocycloocta[b]pyridin-2-ol
PI=GNPS
DATACOLLECTOR=GNPS
SMILES=C/C=C\1/[C@H]2C=C(C)C[C@@]1(c1ccc(nc1C2)O)N
INCHI=InChI=1S/C15H18N2O/c1-3-11-10-6-9(2)8-15(11,16)12-4-5-14(18)17-13(12)7-10/h3-6,10H,7-8,16H2,1-2H3,(H,17,18)/b11-3-/t10-,15+/m0/s1
FORMULA=C15H18N2O
PUBMED=N/A
SUBMITUSER=BIOADREM
LIBRARYQUALITY=0
SPECTRUMID=CCMSLIB00000079225
SCANS=1528
ID=CCMSLIB00000079225
129.0698762568 	 2.35
142.0777012889 	 0.85
146.060039852 	 1.65
153.0698762568 	 0.92
154.0651252299 	 1.44
168.0807752941 	 3.82
169.0886003262 	 1.95
170.0964253583 	 2.38
178.0651252299 	 2.37
180.0807752941 	 3.29
181.1011763852 	 3.47
182.060039852 	 4.59
182.0964253583 	 2.42
183.0678648841 	 4.78
183.1042503904 	 1.72
184.0756899162 	 6.17
187.0865889535 	 1.36
192.0807752941 	 1.37
193.0886003262 	 3.52
195.0916743314 	 0.79
196.0756899162 	 10.76
197.0835149483 	 15.07
198.0913399804 	 7.29
198.1277254867 	 2.86
208.1120754225 	 3.98
210.0913399804 	 11.16
211.0991650125 	 9.45
213.1022390177 	 1.64
226.1226401088 	 100
243.1491892103 	 34.23
END IONS

BEGIN IONS
PEPMASS=264.176
CHARGE=1
MSLEVEL=2
RT=0
SOURCE_INSTRUMENT=qTOF
FILENAME=CCMSLIB00000079226.ms
IONMODE=Positive
ORGANISM=Natural
NAME=Metylperon
PI=GNPS
DATACOLLECTOR=GNPS
SMILES=CC1CCN(CCCC(=O)c2ccc(cc2)F)CC1
INCHI=InChI=1S/C16H22FNO/c1-13-8-11-18(12-9-13)10-2-3-16(19)14-4-6-15(17)7-5-14/h4-7,13H,2-3,8-12H2,1H3
FORMULA=C16H22FNO
PUBMED=N/A
SUBMITUSER=BIOADREM
LIBRARYQUALITY=0
SPECTRUMID=CCMSLIB00000079226
SCANS=1529
ID=CCMSLIB00000079226
95.0291542963 	 1.01
123.0240689184 	 49.72
165.071019111 	 100
246.1652538472 	 0.39
264.1758185335 	 0
END IONS

BEGIN IONS
PEPMASS=345.196
CHARGE=1
MSLEVEL=2
RT=0
SOURCE_INSTRUMENT=qTOF
FILENAME=CCMSLIB00000079228.ms
IONMODE=Positive
ORGANISM=Natural
NAME=SB 205607
PI=GNPS
DATACOLLECTOR=GNPS
SMILES=CN1CC[C@@]2(Cc3c(cc4ccccc4n3)C[C@H]2C1)c1cccc(c1)O
INCHI=InChI=1S/C23H24N2O/c1-25-10-9-23(18-6-4-7-20(26)13-18)14-22-17(12-19(23)15-25)11-16-5-2-3-8-21(16)24-22/h2-8,11,13,19,26H,9-10,12,14-15H2,1H3/t19-,23+/m0/s1
FORMULA=C23H24N2O
PUBMED=N/A
SUBMITUSER=BIOADREM
LIBRARYQUALITY=0
SPECTRUMID=CCMSLIB00000079228
SCANS=1530
ID=CCMSLIB00000079228
107.0491408147 	 12.15
156.0807752941 	 34.38
157.0886003262 	 13.19
158.0964253583 	 14.93
162.0913399804 	 13.89
168.0807752941 	 13.89
170.0964253583 	 50.35
173.0835149483 	 15.63
188.1069900446 	 28.13
198.0913399804 	 20.49
207.1042503904 	 15.28
208.1120754225 	 18.06
210.1039160394 	 15.28
211.1229744598 	 14.93
226.1226401088 	 11.81
272.1069900446 	 11.11
300.138290173 	 12.85
302.1539402372 	 100
314.1413641782 	 13.54
315.1491892103 	 25.69
345.1961394029 	 906.94
END IONS

BEGIN IONS
PEPMASS=288.1161
CHARGE=1
MSLEVEL=2
RT=0
SOURCE_INSTRUMENT=qTOF
FILENAME=CCMSLIB00000079229.ms
IONMODE=Positive
ORGANISM=Natural
NAME=R(+)-SCH-23390 hydrochloride
PI=GNPS
DATACOLLECTOR=GNPS
SMILES=CN1CCc2cc(c(cc2[C@H](C1)c1ccccc1)O)Cl
INCHI=InChI=1S/C17H18ClNO/c1-19-8-7-13-9-16(18)17(20)10-14(13)15(11-19)12-5-3-2-4-6-12/h2-6,9-10,15,20H,7-8,11H2,1H3/t15-/m1/s1
FORMULA=C17H18ClNO
PUBMED=N/A
SUBMITUSER=BIOADREM
LIBRARYQUALITY=0
SPECTRUMID=CCMSLIB00000079229
SCANS=1531
ID=CCMSLIB00000079229
91.0542261926 	 2.29649443724396
103.0542261926 	 0.364313793980396
105.0698762568 	 2.6773540216995
115.0542261926 	 1.09079655724997
116.0620512247 	 0.332754230666703
120.0569658468 	 0.455315641593666
127.0309039347 	 0.161781062423591
128.0620512247 	 0.526401259931304
129.0698762568 	 2.79041692327962
131.0491408147 	 0.756510308946677
132.0569658468 	 1.06934831033775
141.0101684926 	 3.29291870808017
143.0491408147 	 1.04544883520699
144.0569658468 	 5.11908373089191
145.0647908789 	 0.602389334706021
147.0678648841 	 0.184148519917761
153.0101684926 	 0.597486878268943
155.0258185568 	 3.33612160543192
160.0756899162 	 1.19895700239301
161.0835149483 	 0.727095570324206
165.0698762568 	 0.720354692723223
167.0258185568 	 0.223061767887072
178.0777012889 	 0.9593494440308
179.0258185568 	 3.70656346995867
179.085526321 	 0.316821247246198
181.0647908789 	 0.266264665238826
183.0445426262 	 0.239607558362212
184.0523676583 	 0.450719588683905
193.1011763852 	 1.03595032586015
194.072615911 	 0.266264665238826
195.0445426262 	 0.31774045782815
195.0804409431 	 0.413338358351181
196.0523676583 	 3.21846265094204
203.085526321 	 0.331222213030116
207.0804409431 	 4.39689061700478
210.0680177225 	 0.460218098030745
221.0960910073 	 2.23398811767121
222.1039160394 	 5.16351224235293
231.0571186852 	 0.379327566818949
242.0492936531 	 0.173424396461652
257.0727687494 	 1.70942527890381
288.1149679151 	 100
END IONS

BEGIN IONS
PEPMASS=478.221
CHARGE=1
MSLEVEL=2
RT=0
SOURCE_INSTRUMENT=qTOF
FILENAME=CCMSLIB00000079230.ms
IONMODE=Positive
ORGANISM=Natural
NAME=LACIDIPINE
PI=GNPS
DATACOLLECTOR=GNPS
SMILES=CCO/C(=C/1\C(=NC(=C(C1c1ccccc1/C=C/C(=O)OC(C)(C)C)C(=O)OCC)C)C)/O
INCHI=InChI=1S/C26H33NO6/c1-8-31-24(29)21-16(3)27-17(4)22(25(30)32-9-2)23(21)19-13-11-10-12-18(19)14-15-20(28)33-26(5,6)7/h10-15,23,29H,8-9H2,1-7H3/b15-14+,24-21+
FORMULA=C26H33NO6
PUBMED=N/A
SUBMITUSER=BIOADREM
LIBRARYQUALITY=0
SPECTRUMID=CCMSLIB00000079230
SCANS=1532
ID=CCMSLIB00000079230
166.0988306615 	 1.89674747879516
178.0471890215 	 2.51118680291191
194.0937452836 	 2.93194416616577
195.1042503904 	 1.98357042676818
208.1120754225 	 2.34421959527149
220.1120754225 	 2.26407533560409
222.0886599057 	 3.07219662058372
227.1066556936 	 1.67635076470981
234.0913399804 	 3.2658785814466
235.0964849378 	 3.1857343217792
236.1069900446 	 7.79402925265478
238.1226401088 	 2.03699993321312
240.1019046667 	 15.1940158952782
246.0972132193 	 4.0205703599813
258.1488548593 	 0.22707540239097
262.0862546025 	 8.43518332999399
264.099224592 	 0.133573766112336
264.1019046667 	 11.3136979897148
266.0811692246 	 2.23736058238162
268.1332047951 	 17.2510518934081
280.0968192888 	 9.21658986175115
280.1305247204 	 0.20703933747412
281.1019642462 	 1.98357042676818
281.1383497525 	 0.18700327255727
282.112469353 	 10.979763574434
283.1176143104 	 5.27616376143725
288.1594195456 	 0.387363921725773
290.0811692246 	 4.44132772323516
292.1332047951 	 2.95865891938823
308.0917339109 	 5.14258999532492
308.1281194172 	 5.41641621585521
310.1437694814 	 17.1976223869632
311.1489144388 	 3.12562612702865
313.1434351304 	 1.84331797235023
354.1335987256 	 66.7868830561678
382.164898854 	 9.49709477058706
383.1727238861 	 6.45161290322581
397.164564503 	 0.340613103586456
398.1598134761 	 2.87851465972083
400.1754635403 	 100
401.1832885724 	 36.0649168503306
410.1961989824 	 20.390035397048
456.2380637971 	 59.8410472183263
END IONS

BEGIN IONS
PEPMASS=280.1845
CHARGE=1
MSLEVEL=2
RT=0
SOURCE_INSTRUMENT=qTOF
FILENAME=CCMSLIB00000079232.ms
IONMODE=Positive
ORGANISM=Natural
NAME=Sibutramine hydrochloride
PI=GNPS
DATACOLLECTOR=GNPS
SMILES=CC(C)CC(C1(CCC1)c1ccc(cc1)Cl)N(C)C
INCHI=InChI=1S/C17H26ClN/c1-13(2)12-16(19(3)4)17(10-5-11-17)14-6-8-15(18)9-7-14/h6-9,13,16H,5,10-12H2,1-4H3
FORMULA=C17H26ClN
PUBMED=N/A
SUBMITUSER=BIOADREM
LIBRARYQUALITY=0
SPECTRUMID=CCMSLIB00000079232
SCANS=1534
ID=CCMSLIB00000079232
89.0385761284 	 0.335
95.085526321 	 0.195
97.1011763852 	 3.23
98.9996038063 	 0.525
103.0542261926 	 4.265
115.0542261926 	 1.595
116.0620512247 	 1.635
117.0698762568 	 0.105
123.1168264494 	 1.785
125.0152538705 	 100
128.0620512247 	 0.69
129.0698762568 	 1.115
130.0777012889 	 1.385
137.0152538705 	 0.12
139.0309039347 	 78.38
143.085526321 	 0.49
144.0933513531 	 0.885
151.0309039347 	 8.495
153.0465539989 	 36.595
165.0465539989 	 7.52
179.0622040631 	 17.71
193.0778541273 	 1.485
235.1248043199 	 2.395
280.1826535498 	 92.49
END IONS

BEGIN IONS
PEPMASS=289.2162
CHARGE=1
MSLEVEL=2
RT=0
SOURCE_INSTRUMENT=qTOF
FILENAME=CCMSLIB00000079233.ms
IONMODE=Positive
ORGANISM=Natural
NAME=DEHYDROEPIANDROSTERONE
PI=GNPS
DATACOLLECTOR=GNPS
SMILES=C[C@]12CC[C@@H](CC1=CC[C@H]1[C@@H]3CCC(=O)[C@@]3(C)CC[C@H]21)O
INCHI=InChI=1S/C19H28O2/c1-18-9-7-13(20)11-12(18)3-4-14-15-5-6-17(21)19(15,2)10-8-16(14)18/h3,13-16,20H,4-11H2,1-2H3/t13-,14-,15-,16-,18-,19-/m0/s1
FORMULA=C19H28O2
PUBMED=N/A
SUBMITUSER=BIOADREM
LIBRARYQUALITY=0
SPECTRUMID=CCMSLIB00000079233
SCANS=1535
ID=CCMSLIB00000079233
91.0542261926 	 4.47765806225665
97.0647908789 	 6.63459755670464
105.0698762568 	 5.73123751055808
107.085526321 	 3.29618260851651
109.0647908789 	 10.3005706516141
117.0698762568 	 2.28260645639768
119.085526321 	 2.86458869821388
121.0647908789 	 0.531509445623288
121.1011763852 	 0.626274695618137
123.0804409431 	 2.09410601347315
129.0698762568 	 2.79557487484807
131.085526321 	 2.80896561669516
133.1011763852 	 5.258441317649
135.1168264494 	 0.238973239117447
142.0777012889 	 6.05776560021425
143.085526321 	 4.23147442368307
145.1011763852 	 8.26105766259451
147.1168264494 	 0.835376279845903
149.0960910073 	 0.263694608681321
152.0620512247 	 2.60398426072804
155.085526321 	 5.32539502688449
157.1011763852 	 9.06965245874621
159.1168264494 	 3.8143013122927
161.1324765136 	 0.76739251354525
167.085526321 	 2.3701613069364
168.0933513531 	 2.69256916833193
169.1011763852 	 4.41894480954245
171.1168264494 	 6.29158855400589
172.1246514815 	 1.5213942852434
175.1117410715 	 0.257514266290353
175.1481265778 	 1.12688242928658
177.1273911357 	 0.684987948332338
182.1090014173 	 3.04381862755197
183.1168264494 	 4.62392616550957
187.1481265778 	 0.902329989081395
197.1324765136 	 7.69658639088606
201.163776642 	 0.381121114109722
203.1430411999 	 0.337858717372942
209.1324765136 	 1.66766238849632
211.1481265778 	 2.9521435487526
213.163776642 	 10.3005706516141
223.1481265778 	 2.22389320368348
227.1794267062 	 0.313137347809069
229.1586912641 	 0.215281926618735
253.1950767704 	 4.24383510846501
271.2056414567 	 3.96983992913207
289.216206143 	 100
END IONS

BEGIN IONS
PEPMASS=321.0204
CHARGE=1
MSLEVEL=2
RT=0
SOURCE_INSTRUMENT=qTOF
FILENAME=CCMSLIB00000079238.ms
IONMODE=Positive
ORGANISM=Natural
NAME=7-chloro-5-(2-chlorophenyl)-3-hydroxy-1,3-dihydro-1,4-benzodiazepin-2-one
PI=GNPS
DATACOLLECTOR=GNPS
SMILES=c1ccc(c(c1)C1=NC(C(=Nc2ccc(cc12)Cl)O)O)Cl
INCHI=InChI=1S/C15H10Cl2N2O2/c16-8-5-6-12-10(7-8)13(19-15(21)14(20)18-12)9-3-1-2-4-11(9)17/h1-7,15,21H,(H,18,20)
FORMULA=C15H10Cl2N2O2
PUBMED=N/A
SUBMITUSER=BIOADREM
LIBRARYQUALITY=0
SPECTRUMID=CCMSLIB00000079238
SCANS=1538
ID=CCMSLIB00000079238
93.0573001978 	 0.75
128.0261529078 	 4.43
138.0105028436 	 9.73
156.0210675299 	 1.07
163.0057518167 	 8.86
194.0838492993 	 4.98
229.0527020093 	 74.97
239.0370519451 	 3.02
240.0448769772 	 0.85
250.0184807141 	 1.48
265.0293797514 	 5.07
275.0137296872 	 100
278.0133953362 	 5.51
303.0086443093 	 48.62
321.0192089956 	 145.94
END IONS

BEGIN IONS
PEPMASS=315.1889
CHARGE=1
MSLEVEL=2
RT=0
SOURCE_INSTRUMENT=qTOF
FILENAME=CCMSLIB00000079239.ms
IONMODE=Positive
ORGANISM=Natural
NAME=(6aR,9R,10aR)-9-(methylsulfanylmethyl)-7-propyl-6,6a,8,9,10,10a-hexahydro-4H-indolo[4,3-fg]quinoline
PI=GNPS
DATACOLLECTOR=GNPS
SMILES=CCCN1C[C@@H](C[C@@H]2c3cccc4c3c(C[C@@H]12)c[nH]4)CSC
INCHI=InChI=1S/C19H26N2S/c1-3-7-21-11-13(12-22-2)8-16-15-5-4-6-17-19(15)14(10-20-17)9-18(16)21/h4-6,10,13,16,18,20H,3,7-9,11-12H2,1-2H3/t13-,16-,18-/m1/s1
FORMULA=C19H26N2S
PUBMED=N/A
SUBMITUSER=BIOADREM
LIBRARYQUALITY=0
SPECTRUMID=CCMSLIB00000079239
SCANS=1539
ID=CCMSLIB00000079239
127.0542261926 	 0.228779892102456
128.0620512247 	 0.364811179298511
129.0698762568 	 0.635327943608848
130.0651252299 	 1.39277488367779
131.072950262 	 0.219505031611816
141.0698762568 	 0.510117326985207
143.085526321 	 0.284429055046297
144.0807752941 	 1.17636147222952
153.0698762568 	 1.81787265616546
154.0651252299 	 14.3219304076301
155.072950262 	 5.13054366140576
156.0807752941 	 2.16258830440092
157.0886003262 	 0.242692182838416
165.0698762568 	 2.38518495617628
166.0777012889 	 0.375631849870925
167.072950262 	 11.2148521432657
168.0807752941 	 4.98678332380084
170.0964253583 	 3.88152911533289
179.085526321 	 3.40078217990138
180.0807752941 	 9.83444374024208
181.0886003262 	 1.68029555888764
182.0964253583 	 4.57868946221267
192.0807752941 	 4.24943191479495
193.0886003262 	 12.3340186424696
194.0964253583 	 2.9293101049605
195.1042503904 	 0.930577669227559
196.1120754225 	 4.02838107310136
198.1277254867 	 2.30944026216939
206.0964253583 	 0.930577669227559
207.1042503904 	 0.754355319905397
208.1120754225 	 30.9162016354671
210.1277254867 	 1.58909276406301
223.1229744598 	 0.513208947148753
224.1307994919 	 0.403456431342845
225.138624524 	 1.56126818259109
239.1542745882 	 0.545670958865994
244.1154462409 	 0.466834644695553
267.1855747166 	 2.30480283192407
315.188945535 	 100
END IONS

BEGIN IONS
PEPMASS=306.1357
CHARGE=1
MSLEVEL=2
RT=0
SOURCE_INSTRUMENT=qTOF
FILENAME=CCMSLIB00000079240.ms
IONMODE=Positive
ORGANISM=Natural
NAME=N-[3-(3-cyanopyrazolo[1,5-a]pyrimidin-7-yl)phenyl]-N-ethylacetamide
PI=GNPS
DATACOLLECTOR=GNPS
SMILES=CCN(C(=O)C)c1cccc(c1)c1ccnc2c(C#N)cnn12
INCHI=InChI=1S/C17H15N5O/c1-3-21(12(2)23)15-6-4-5-13(9-15)16-7-8-19-17-14(10-18)11-20-22(16)17/h4-9,11H,3H2,1-2H3
FORMULA=C17H15N5O
PUBMED=N/A
SUBMITUSER=BIOADREM
LIBRARYQUALITY=0
SPECTRUMID=CCMSLIB00000079240
SCANS=1540
ID=CCMSLIB00000079240
155.060374203 	 3.11
182.0712732403 	 2.37
209.0821722776 	 15.22
219.0665222134 	 19.05
221.0821722776 	 2.09
222.0899973097 	 8.81
234.0774212507 	 3.4
236.0930713149 	 100
238.1087213791 	 1.04
249.100896347 	 2.31
260.0930713149 	 12.11
262.0723358728 	 1.99
264.1243714433 	 44.23
278.1036360012 	 2.66
288.1243714433 	 3.09
306.1349361296 	 336.47
END IONS

BEGIN IONS
PEPMASS=430.2741
CHARGE=1
MSLEVEL=2
RT=0
SOURCE_INSTRUMENT=qTOF
FILENAME=CCMSLIB00000079244.ms
IONMODE=Positive
ORGANISM=Natural
NAME=(8S,11R,13S,14S,17S)-11-(4-(dimethylamino)phenyl)-17-hydroxy-13-methyl-17-(prop-1-yn-1-yl)-6,7,8,11,12,13,14,15,16,17-decahydro-1H-cyclopenta[a]phenanthren-3(2H)-one
PI=GNPS
DATACOLLECTOR=GNPS
SMILES=CC#C[C@@]1(CC[C@H]2[C@@H]3CCC4=CC(=O)CCC4=C3[C@H](C[C@]12C)c1ccc(cc1)N(C)C)O
INCHI=InChI=1S/C29H35NO2/c1-5-15-29(32)16-14-26-24-12-8-20-17-22(31)11-13-23(20)27(24)25(18-28(26,29)2)19-6-9-21(10-7-19)30(3)4/h6-7,9-10,17,24-26,32H,8,11-14,16,18H2,1-4H3/t24-,25+,26-,28-,29-/m0/s1
FORMULA=C29H35NO2
PUBMED=N/A
SUBMITUSER=BIOADREM
LIBRARYQUALITY=0
SPECTRUMID=CCMSLIB00000079244
SCANS=1543
ID=CCMSLIB00000079244
105.0698762568 	 0.499908467463704
117.0698762568 	 0.530888710517793
120.0807752941 	 0.502020756762846
121.0886003262 	 0.695647275850901
122.0964253583 	 2.43054088687987
128.0620512247 	 0.485122442369707
129.0698762568 	 0.662554743497669
131.085526321 	 0.706208722346613
133.0647908789 	 1.81164012223114
134.0964253583 	 14.0502443214623
135.0804409431 	 2.35590666497684
143.085526321 	 1.20611718981032
145.0647908789 	 0.471744610141805
146.0964253583 	 1.19837212904679
147.0804409431 	 0.544266542745695
148.1120754225 	 3.21983298832608
155.085526321 	 0.687902215087378
158.0964253583 	 2.046808330869
159.0804409431 	 2.32211003619056
159.1042503904 	 0.587920521594638
160.1120754225 	 3.44303155760213
161.0960910073 	 1.95950037317111
162.1277254867 	 1.10824778561672
169.1011763852 	 0.541450157013505
171.1042503904 	 0.59566558235816
172.1120754225 	 5.30184614084745
173.0960910073 	 2.50799149451509
174.1277254867 	 1.38425358737133
181.1011763852 	 0.529480517651698
184.1120754225 	 1.37580443017476
186.1277254867 	 1.74193457535944
188.1433755509 	 0.991367777730838
198.1277254867 	 1.47156154506921
209.1199004546 	 0.47596918874009
211.1117410715 	 1.83839578668694
222.1277254867 	 0.875895962711053
223.1355505188 	 0.656217875600242
224.1433755509 	 1.82501795445904
225.1273911357 	 1.5307056454452
225.151200583 	 0.852660780420486
236.1433755509 	 3.95983833945897
238.1590256151 	 1.40748876966189
240.1746756793 	 0.734372579668511
242.1539402372 	 1.07445115683044
249.151200583 	 1.54056299550786
250.1590256151 	 1.349752862152
262.1590256151 	 1.15823863236309
264.1746756793 	 1.55816540633405
266.1539402372 	 0.677340768591666
266.1903257435 	 0.766056919155648
269.1536058862 	 2.39181558306226
274.1590256151 	 0.936448255953135
280.1695903014 	 2.87130525396758
282.1852403656 	 1.07797163899568
288.1746756793 	 5.50251362426598
291.1743413283 	 1.587033360089
306.1852403656 	 1.01389886358836
309.1849060146 	 3.01282863701012
314.1903257435 	 1.26596538661935
332.2008904298 	 2.41716305465197
346.216540494 	 0.874487769844958
360.2321905582 	 0.783659329981834
372.2321905582 	 9.84749271260192
412.2634906866 	 2.10102375621365
415.2505802766 	 5.1483531184431
430.2740553729 	 100
END IONS

BEGIN IONS
PEPMASS=352.1629
CHARGE=1
MSLEVEL=2
RT=0
SOURCE_INSTRUMENT=qTOF
FILENAME=CCMSLIB00000079245.ms
IONMODE=Positive
ORGANISM=Natural
NAME=Adenosine, N-(2-hydroxycyclopentyl)-, (1S-trans)- [CAS]
PI=GNPS
DATACOLLECTOR=GNPS
SMILES=C1C[C@@H]([C@H](C1)O)Nc1c2c(ncn1)n(cn2)[C@H]1[C@H](C([C@@H](CO)O1)O)O
INCHI=InChI=1S/C15H21N5O5/c21-4-9-11(23)12(24)15(25-9)20-6-18-10-13(16-5-17-14(10)20)19-7-2-1-3-8(7)22/h5-9,11-12,15,21-24H,1-4H2,(H,16,17,19)/t7-,8-,9+,11?,12-,15+/m0/s1
FORMULA=C15H21N5O5
PUBMED=N/A
SUBMITUSER=BIOADREM
LIBRARYQUALITY=0
SPECTRUMID=CCMSLIB00000079245
SCANS=1544
ID=CCMSLIB00000079245
109.0522148199 	 0.26
136.0631138572 	 12.6
185.0821722776 	 0.33
202.1087213791 	 49.82
220.1192860654 	 100
352.1615448106 	 140.23
END IONS

BEGIN IONS
PEPMASS=321.168
CHARGE=1
MSLEVEL=2
RT=0
SOURCE_INSTRUMENT=qTOF
FILENAME=CCMSLIB00000079246.ms
IONMODE=Positive
ORGANISM=Natural
NAME=ARTEMETHER
PI=GNPS
DATACOLLECTOR=GNPS
SMILES=C[C@@H]1CC[C@H]2[C@@H](C)[C@@H](OC)O[C@H]3[C@]42[C@H]1CC[C@](C)(O3)OO4
INCHI=InChI=1S/C16H26O5/c1-9-5-6-12-10(2)13(17-4)18-14-16(12)11(9)7-8-15(3,19-14)20-21-16/h9-14H,5-8H2,1-4H3/t9-,10-,11+,12+,13+,14-,15-,16-/m1/s1
FORMULA=C16H26O5
PUBMED=N/A
SUBMITUSER=BIOADREM
LIBRARYQUALITY=0
SPECTRUMID=CCMSLIB00000079246
SCANS=1545
ID=CCMSLIB00000079246
83.085526321 	 5.38
85.1011763852 	 7.11
97.1011763852 	 2.56
99.1168264494 	 3.03
112.1246514815 	 1.66
113.1324765136 	 4.26
139.1117410715 	 2.99
142.1352161678 	 18.9
153.163776642 	 2.6
173.1536058862 	 5.74
211.1328704441 	 2.92
221.1536058862 	 3.64
239.1641705725 	 7.83
253.1798206367 	 46.75
299.1852999451 	 2.67
END IONS

BEGIN IONS
PEPMASS=370.1278
CHARGE=1
MSLEVEL=2
RT=0
SOURCE_INSTRUMENT=qTOF
FILENAME=CCMSLIB00000079247.ms
IONMODE=Positive
ORGANISM=Natural
NAME=CCPA
PI=GNPS
DATACOLLECTOR=GNPS
SMILES=C1CCC(C1)Nc1c2c(nc(Cl)n1)n(cn2)[C@H]1[C@H](C([C@@H](CO)O1)O)O
INCHI=InChI=1S/C15H20ClN5O4/c16-15-19-12(18-7-3-1-2-4-7)9-13(20-15)21(6-17-9)14-11(24)10(23)8(5-22)25-14/h6-8,10-11,14,22-24H,1-5H2,(H,18,19,20)/t8-,10?,11+,14-/m1/s1
FORMULA=C15H20ClN5O4
PUBMED=N/A
SUBMITUSER=BIOADREM
LIBRARYQUALITY=0
SPECTRUMID=CCMSLIB00000079247
SCANS=1546
ID=CCMSLIB00000079247
115.0416501336 	 0.21
133.0481920745 	 0.42
134.047463793 	 4.84
152.0580284793 	 0.33
170.0236543457 	 34.71
216.0767525487 	 0.21
238.0853991212 	 100
239.0900568892 	 10.07
240.0853058623 	 23.71
241.0850647702 	 2.27
370.1276578664 	 26.23
END IONS

BEGIN IONS
PEPMASS=409.1543
CHARGE=1
MSLEVEL=2
RT=0
SOURCE_INSTRUMENT=qTOF
FILENAME=CCMSLIB00000079248.ms
IONMODE=Positive
ORGANISM=Natural
NAME=Amlodipine
PI=GNPS
DATACOLLECTOR=GNPS
SMILES=CCO/C(=C/1\C(=NC(=C(C1c1ccccc1Cl)C(=O)OC)C)COCCN)/O
INCHI=InChI=1S/C20H25ClN2O5/c1-4-28-20(25)18-15(11-27-10-9-22)23-12(2)16(19(24)26-3)17(18)13-7-5-6-8-14(13)21/h5-8,17,25H,4,9-11,22H2,1-3H3/b20-18+
FORMULA=C20H25ClN2O5
PUBMED=N/A
SUBMITUSER=BIOADREM
LIBRARYQUALITY=0
SPECTRUMID=CCMSLIB00000079248
SCANS=1547
ID=CCMSLIB00000079248
124.0393044099 	 4.40089509730793
137.0152538705 	 12.9178816030379
139.0138179409 	 0.949345629619584
142.0651252299 	 18.3698379331389
143.0702701873 	 10.5377364887774
143.072950262 	 1.94615854072015
148.0393044099 	 5.34345968671594
149.0152538705 	 23.7404217807012
151.0138179409 	 0.92222146877331
163.0309039347 	 8.66616939038449
165.0101684926 	 36.848172509663
167.008732563 	 2.04787414389367
170.060039852 	 47.2299450735743
176.034219032 	 21.9298840442124
177.0101684926 	 5.68251169729436
178.041802972 	 24.5473655658778
179.0451180693 	 0.793381704753509
181.0886003262 	 6.23177595443141
184.0756899162 	 9.20187156709839
192.0574530362 	 1.02393707194684
196.0756899162 	 10.0969688750254
197.0808348736 	 7.87956872584254
197.0835149483 	 0.712009222214688
202.0862546025 	 6.4487692412016
204.0574530362 	 10.1105309554486
205.0050831147 	 0.739133383060962
206.0367175941 	 88.5807282837187
207.0400326914 	 1.85122397775819
208.0604337825 	 60.7038719739608
212.0706045383 	 0.800162744965078
213.0784295704 	 1.2680545195633
218.0605270414 	 4.12287244863362
220.0523676583 	 68.6987183834
221.0556827556 	 2.94975249203228
224.0706045383 	 10.8632264189327
225.0784295704 	 8.3406794602292
226.0835745278 	 4.75350918830949
232.0523676583 	 24.8931986166678
233.0601926904 	 6.52336068352885
234.0549544741 	 4.44836237878891
238.0629323446 	 100
239.0662474419 	 7.02515765918492
240.1019046667 	 6.59795212585611
241.0625979936 	 2.22418118939445
243.0445426262 	 4.24493117244185
244.0523676583 	 12.5856106326711
248.0472822804 	 19.1428765172577
260.0472822804 	 20.851698650573
261.0524272378 	 5.19427680206144
270.0316322162 	 5.96053434596867
286.0629323446 	 0.739133383060962
288.0421969025 	 11.2158405099342
294.0891470951 	 44.422594425985
303.0894814461 	 8.51020546551841
306.0527615888 	 7.62188919780294
320.068411653 	 1.6545738116227
334.0840617172 	 39.0113243371533
360.0997117814 	 1.20702515765919
377.1262608829 	 15.4878958432223
378.134085915 	 1.98006374177799
392.1259265319 	 2.46829863701092
409.1524756334 	 0.956126669831152
END IONS

BEGIN IONS
PEPMASS=589.192
CHARGE=1
MSLEVEL=2
RT=0
SOURCE_INSTRUMENT=qTOF
FILENAME=CCMSLIB00000079249.ms
IONMODE=Positive
ORGANISM=Natural
NAME=(5S,5aR,8aR,9R)-5-[[(2R,4aR,6R,7R,8R,8aS)-7,8-dihydroxy-2-methyl-4,4a,6,7,8,8a-hexahydropyrano[3,2-d][1,3]dioxin-6-yl]oxy]-9-(4-hydroxy-3,5-dimethoxyphenyl)-5a,6,8a,9-tetrahydro-5H-[2]benzofuro[6,5-f][1,3]benzodioxol-8-one
PI=GNPS
DATACOLLECTOR=GNPS
SMILES=C[C@@H]1OC[C@@H]2[C@H]([C@@H]([C@H]([C@@H](O2)O[C@@H]2c3cc4c(cc3[C@@H](c3cc(c(c(c3)OC)O)OC)[C@@H]3[C@@H]2COC3=O)OCO4)O)O)O1
INCHI=InChI=1S/C29H32O13/c1-11-36-9-20-27(40-11)24(31)25(32)29(41-20)42-26-14-7-17-16(38-10-39-17)6-13(14)21(22-15(26)8-37-28(22)33)12-4-18(34-2)23(30)19(5-12)35-3/h4-7,11,15,20-22,24-27,29-32H,8-10H2,1-3H3/t11-,15+,20-,21-,22+,24-,25-,26-,27-,29+/m1/s1
FORMULA=C29H32O13
PUBMED=N/A
SUBMITUSER=BIOADREM
LIBRARYQUALITY=0
SPECTRUMID=CCMSLIB00000079249
SCANS=1548
ID=CCMSLIB00000079249
115.0542261926 	 2.56531504906017
128.0620512247 	 0.715214564369311
129.0698762568 	 0.928005674429602
143.0491408147 	 3.22733183591441
155.0491408147 	 0.537888639319068
171.0440554368 	 0.313275800922095
173.059705501 	 8.82492020333373
185.059705501 	 93.0606454663672
199.0389700589 	 6.05863577254995
201.0546201231 	 1.18808369783662
217.0495347452 	 2.32296961815817
229.0495347452 	 100
239.0702701873 	 0.673838515190921
247.0600994315 	 6.89797848445443
284.0679244636 	 0.177325925050242
299.0913995599 	 1.15261851282658
589.1915671145 	 0
END IONS

BEGIN IONS
PEPMASS=335.1478
CHARGE=1
MSLEVEL=2
RT=0
SOURCE_INSTRUMENT=qTOF
FILENAME=CCMSLIB00000079252.ms
IONMODE=Positive
ORGANISM=Natural
NAME=CGS 12066B
PI=GNPS
DATACOLLECTOR=GNPS
SMILES=CN1CCN(CC1)c1c2cccn2c2ccc(cc2n1)C(F)(F)F
INCHI=InChI=1S/C17H17F3N4/c1-22-7-9-23(10-8-22)16-15-3-2-6-24(15)14-5-4-12(17(18,19)20)11-13(14)21-16/h2-6,11H,7-10H2,1H3
FORMULA=C17H17F3N4
PUBMED=N/A
SUBMITUSER=BIOADREM
LIBRARYQUALITY=0
SPECTRUMID=CCMSLIB00000079252
SCANS=1549
ID=CCMSLIB00000079252
166.0525491709 	 0.22
168.0681992351 	 0.52
182.0838492993 	 0.625
192.0681992351 	 0.32
208.0368597336 	 1.275
215.0415305388 	 0.355
217.057180603 	 0.37
231.0728306672 	 0.35
235.0477587709 	 5.02
237.0634088351 	 6.085
251.0790588993 	 8.4
252.0743078724 	 0.295
258.0837297045 	 0.4
261.0634088351 	 1.04
262.0586578082 	 1.445
263.0664828403 	 1.585
278.0899579366 	 100
304.1056080008 	 5.975
335.1478071665 	 41.265
END IONS

BEGIN IONS
PEPMASS=391.2472
CHARGE=1
MSLEVEL=2
RT=0
SOURCE_INSTRUMENT=qTOF
FILENAME=CCMSLIB00000079254.ms
IONMODE=Positive
ORGANISM=Natural
NAME=[(1S,7S,8S,8aR)-8-[2-[(2R,4R)-4-hydroxy-6-oxooxan-2-yl]ethyl]-7-methyl-1,2,3,7,8,8a-hexahydronaphthalen-1-yl] (2S)-2-methylbutanoate
PI=GNPS
DATACOLLECTOR=GNPS
SMILES=CC[C@H](C)C(=O)O[C@H]1CCC=C2C=C[C@H](C)[C@H](CC[C@@H]3C[C@H](CC(=O)O3)O)[C@@H]12
INCHI=InChI=1S/C23H34O5/c1-4-14(2)23(26)28-20-7-5-6-16-9-8-15(3)19(22(16)20)11-10-18-12-17(24)13-21(25)27-18/h6,8-9,14-15,17-20,22,24H,4-5,7,10-13H2,1-3H3/t14-,15-,17+,18+,19-,20-,22-/m0/s1
FORMULA=C23H34O5
PUBMED=N/A
SUBMITUSER=BIOADREM
LIBRARYQUALITY=0
SPECTRUMID=CCMSLIB00000079254
SCANS=1551
ID=CCMSLIB00000079254
105.0698762568 	 6.42348656255174
115.0542261926 	 1.31891175983665
117.0698762568 	 5.75575299376414
119.085526321 	 3.40488935489211
127.0542261926 	 1.2306164118978
128.0620512247 	 5.08250096573037
129.0698762568 	 10.5512940786932
130.0777012889 	 1.78246233651565
131.085526321 	 10.2643341978919
133.1011763852 	 1.09817338998951
141.0698762568 	 3.11241101484466
142.0777012889 	 7.29540312344793
143.085526321 	 25.6001324430219
144.0933513531 	 15.6337950444236
145.1011763852 	 19.7616025605651
155.085526321 	 12.1295734231003
157.1011763852 	 26.8583411511506
159.1168264494 	 100
168.0933513531 	 1.96457149163953
169.1011763852 	 16.7761161083825
170.1090014173 	 2.41156669057999
171.1168264494 	 3.66977539870868
179.085526321 	 2.41156669057999
182.1090014173 	 3.3828155179074
183.1168264494 	 18.4978753931902
185.1324765136 	 95.9770432095359
194.1090014173 	 1.44031786325258
196.1246514815 	 2.32327134264114
197.1324765136 	 5.34186855030076
201.163776642 	 1.78798079576182
209.1324765136 	 16.820263782352
211.1481265778 	 52.7343965564814
220.1246514815 	 2.69300811213509
225.163776642 	 15.1647260084984
229.1586912641 	 36.2838695436234
235.1481265778 	 11.4232106395894
253.1586912641 	 11.1583245957729
271.1692559504 	 25.8705369460847
289.1798206367 	 6.52833728822913
391.2479002019 	 3.60907234700072
END IONS

BEGIN IONS
PEPMASS=302.065
CHARGE=1
MSLEVEL=2
RT=0
SOURCE_INSTRUMENT=qTOF
FILENAME=CCMSLIB00000079255.ms
IONMODE=Positive
ORGANISM=Natural
NAME=(2R,3R,4S,5R)-2-(6-amino-2-chloro-9H-purin-9-yl)-5-(hydroxymethyl)tetrahydrofuran-3,4-diol
PI=GNPS
DATACOLLECTOR=GNPS
SMILES=C([C@@H]1[C@H]([C@H]([C@H](n2cnc3c(N)nc(Cl)nc23)O1)O)O)O
INCHI=InChI=1S/C10H12ClN5O4/c11-10-14-7(12)4-8(15-10)16(2-13-4)9-6(19)5(18)3(1-17)20-9/h2-3,5-6,9,17-19H,1H2,(H2,12,14,15)/t3-,5-,6-,9-/m1/s1
FORMULA=C10H12ClN5O4
PUBMED=N/A
SUBMITUSER=BIOADREM
LIBRARYQUALITY=0
SPECTRUMID=CCMSLIB00000079255
SCANS=1552
ID=CCMSLIB00000079255
62.0110782867 	 1.31800614408879
107.033884681 	 5.3215736795164
108.0403670424 	 1.34773560598553
133.0495347452 	 1.34773560598553
134.047463793 	 100
135.0445426262 	 6.63957982360519
139.9978335257 	 1.67475968684967
152.0580284793 	 8.01704489148746
153.0551073125 	 1.67475968684967
153.061830766 	 2.1504310771975
170.0227988644 	 99.0982063224656
170.0241415351 	 99.0982063224656
174.0899973097 	 2.0216034089783
188.1056473739 	 1.85313645823011
302.0650576096 	 18.848478842533
END IONS

BEGIN IONS
PEPMASS=412.149
CHARGE=1
MSLEVEL=2
RT=0
SOURCE_INSTRUMENT=qTOF
FILENAME=CCMSLIB00000079256.ms
IONMODE=Positive
ORGANISM=Natural
NAME=Altanserin
PI=GNPS
DATACOLLECTOR=GNPS
SMILES=c1ccc2c(c1)c(=O)n(CCN1CCC(CC1)C(=O)c1ccc(cc1)F)c(n2)S
INCHI=InChI=1S/C22H22FN3O2S/c23-17-7-5-15(6-8-17)20(27)16-9-11-25(12-10-16)13-14-26-21(28)18-3-1-2-4-19(18)24-22(26)29/h1-8,16H,9-14H2,(H,24,29)
FORMULA=C22H22FN3O2S
PUBMED=N/A
SUBMITUSER=BIOADREM
LIBRARYQUALITY=0
SPECTRUMID=CCMSLIB00000079256
SCANS=1553
ID=CCMSLIB00000079256
122.0964253583 	 0.59
134.0058957915 	 1.2
145.0407816151 	 0.36
146.060039852 	 0.26
147.0564316793 	 0.32
161.0167948288 	 0.29
161.0761044889 	 0.42
162.0019532678 	 31.27
163.0052646273 	 2.83
163.9964739594 	 0.96
171.0564316793 	 0.26
190.1026535904 	 1.68
205.0441524335 	 100
206.047463793 	 27.72
207.0386731251 	 6.55
208.1132182767 	 28.83
234.1288683409 	 0.24
412.148951856 	 55.7
END IONS

BEGIN IONS
PEPMASS=361.14
CHARGE=1
MSLEVEL=2
RT=0
SOURCE_INSTRUMENT=qTOF
FILENAME=CCMSLIB00000079257.ms
IONMODE=Positive
ORGANISM=Natural
NAME=(Z)-methyl 5-(ethoxy(hydroxy)methylene)-2,6-dimethyl-4-(3-nitrophenyl)-4,5-dihydropyridine-3-carboxylate
PI=GNPS
DATACOLLECTOR=GNPS
SMILES=CCO/C(=C/1\C(=NC(=C(C1c1cccc(c1)N(=O)=O)C(=O)OC)C)C)/O
INCHI=InChI=1S/C18H20N2O6/c1-5-26-18(22)15-11(3)19-10(2)14(17(21)25-4)16(15)12-7-6-8-13(9-12)20(23)24/h6-9,16,22H,5H2,1-4H3/b18-15+
FORMULA=C18H20N2O6
PUBMED=N/A
SUBMITUSER=BIOADREM
LIBRARYQUALITY=0
SPECTRUMID=CCMSLIB00000079257
SCANS=1554
ID=CCMSLIB00000079257
140.0620512247 	 4.28102097548648
168.0807752941 	 18.8375031589588
176.034219032 	 5.03411675511751
180.0807752941 	 9.63356077836745
181.0859202515 	 7.99090219863533
181.0886003262 	 0.429618397776093
182.0937452836 	 10.4473085670963
183.1042503904 	 0.641900429618398
184.1093953478 	 3.68966388678292
196.0730098415 	 6.12079858478645
197.0808348736 	 4.58428102097549
198.0913399804 	 6.55041698256255
200.0315389573 	 0.368966388678292
208.0756899162 	 18.4432650998231
209.0808348736 	 13.5456153651756
209.0835149483 	 1.54662623199394
210.0886599057 	 35.8857720495325
210.0913399804 	 3.46727318675764
211.0964849378 	 0.985595147839272
212.0706045383 	 7.11650240080869
225.0757494957 	 5.69623452110184
226.0862546025 	 54.7839272175891
236.0706045383 	 13.3030073287844
237.0757494957 	 5.45868081880212
239.0815035756 	 4.3972706595906
240.0655191604 	 5.10487743239828
240.099224592 	 7.77862016679302
240.1019046667 	 0.737932777356583
241.0706641178 	 1.05130149102856
241.1070496241 	 4.32650998230983
242.0784891499 	 7.89486985089714
243.086314182 	 8.46095526914329
243.0889942567 	 1.23831185241344
253.0706641178 	 7.18726307808946
253.0733441925 	 1.03108415466262
254.0811692246 	 47.9555218599949
255.086314182 	 22.2946676775335
257.0682588146 	 3.73515289360627
257.0920682619 	 4.04346727318676
267.086314182 	 5.16552944149608
268.0941392141 	 23.1437958049027
268.0968192888 	 3.02754612079858
269.1019642462 	 28.4609552691433
269.1046443209 	 3.97776092999747
281.0920682619 	 5.88829921657822
283.0713328198 	 19.5804902704069
283.1176143104 	 4.25574930502906
283.1202943851 	 0.697498104624716
284.0791578519 	 12.827899924185
285.0631734367 	 13.2423553196866
298.0948079161 	 14.0055597675006
299.0788235009 	 1.21304018195603
302.0897225382 	 13.0300732878443
315.0975475703 	 100
317.1019642462 	 0.929997472832954
329.1131976345 	 50.8213292898661
361.139412385 	 0
END IONS

BEGIN IONS
PEPMASS=611.1607
CHARGE=1
MSLEVEL=2
RT=0
SOURCE_INSTRUMENT=qTOF
FILENAME=CCMSLIB00000079258.ms
IONMODE=Positive
ORGANISM=Natural
NAME=RUTIN
PI=GNPS
DATACOLLECTOR=GNPS
SMILES=C[C@H]1[C@@H]([C@H]([C@H]([C@H](OC[C@@H]2[C@H]([C@@H]([C@H]([C@@H](O2)Oc2c(=O)c3c(cc(cc3oc2c2ccc(c(c2)O)O)O)O)O)O)O)O1)O)O)O
INCHI=InChI=1S/C27H30O16/c1-8-17(32)20(35)22(37)26(40-8)39-7-15-18(33)21(36)23(38)27(42-15)43-25-19(34)16-13(31)5-10(28)6-14(16)41-24(25)9-2-3-11(29)12(30)4-9/h2-6,8,15,17-18,20-23,26-33,35-38H,7H2,1H3/t8-,15+,17-,18+,20+,21-,22+,23+,26+,27-/m0/s1
FORMULA=C27H30O16
PUBMED=N/A
SUBMITUSER=BIOADREM
LIBRARYQUALITY=0
SPECTRUMID=CCMSLIB00000079258
SCANS=1555
ID=CCMSLIB00000079258
127.0389700589 	 0.55
129.0546201231 	 1.63
147.0651848094 	 1.84
148.0730098415 	 0.47
149.0233199947 	 0.33
153.0182346168 	 0.32
181.0495347452 	 0.41
251.1277850662 	 0.32
275.0491408147 	 0.3
284.0620512247 	 0.29
302.0362304047 	 0.3
303.0499286757 	 100
304.0518804689 	 17.68
369.0546201231 	 0.3
449.1078374851 	 0.74
465.1027521072 	 11.94
611.1606609166 	 0.78
END IONS

BEGIN IONS
PEPMASS=257.1182
CHARGE=1
MSLEVEL=2
RT=0
SOURCE_INSTRUMENT=qTOF
FILENAME=CCMSLIB00000079261.ms
IONMODE=Positive
ORGANISM=Natural
NAME=(E)-4-(3,5-dimethoxystyryl)phenol
PI=GNPS
DATACOLLECTOR=GNPS
SMILES=COc1cc(/C=C/c2ccc(cc2)O)cc(c1)OC
INCHI=InChI=1S/C16H16O3/c1-18-15-9-13(10-16(11-15)19-2)4-3-12-5-7-14(17)8-6-12/h3-11,17H,1-2H3/b4-3+
FORMULA=C16H16O3
PUBMED=N/A
SUBMITUSER=BIOADREM
LIBRARYQUALITY=0
SPECTRUMID=CCMSLIB00000079261
SCANS=1557
ID=CCMSLIB00000079261
105.0698762568 	 3.90499412986544
107.0491408147 	 0.849513832445287
109.0647908789 	 0.610493994400795
115.0542261926 	 0.552695746410187
121.0284053726 	 0.843493181612932
121.0647908789 	 1.94286402360095
129.0698762568 	 0.541256509828713
131.0491408147 	 1.21556940305247
133.0647908789 	 6.53240615310515
135.0440554368 	 1.37511665010988
135.0804409431 	 0.885637737439417
137.059705501 	 2.52807128450586
143.085526321 	 0.61651464523315
145.0647908789 	 1.71889581263735
148.0518804689 	 2.02655107017069
149.059705501 	 1.0211023811674
151.0542261926 	 0.552695746410187
151.0753555652 	 1.22941689996689
152.0620512247 	 1.87302447394563
153.0698762568 	 2.12890213432072
154.0777012889 	 1.94226195851772
155.085526321 	 1.4654264125952
157.0647908789 	 0.785092868539089
159.0804409431 	 0.885637737439417
163.0753555652 	 1.65628104398085
164.0620512247 	 0.668894307474638
165.0698762568 	 6.08748005659412
166.0777012889 	 0.965712393509738
167.085526321 	 0.674914958306993
171.0804409431 	 2.55335801800175
179.085526321 	 1.68397603780969
181.0647908789 	 10.6246425238568
182.072615911 	 6.45172943195159
183.0804409431 	 3.91402510611397
184.0518804689 	 0.849513832445287
194.072615911 	 2.26015232246606
196.0882659752 	 0.476835545922514
197.0960910073 	 1.7706734097956
198.0675305331 	 0.471416960173395
199.0753555652 	 5.27228393389325
209.059705501 	 1.87121827869593
210.0675305331 	 2.38538185977904
211.0753555652 	 5.66302417291309
212.0831805973 	 0.801950690869683
213.0910056294 	 2.02053041933833
214.0988306615 	 0.646015834311689
224.0831805973 	 1.59366627532436
225.0910056294 	 1.18667027905717
226.0988306615 	 4.16508624582317
227.0702701873 	 4.25961046389115
229.1223057578 	 1.58343116890936
241.0859202515 	 1.1770372377254
242.0937452836 	 7.16156416508625
257.1172203799 	 100
END IONS

BEGIN IONS
PEPMASS=276.1715
CHARGE=1
MSLEVEL=2
RT=0
SOURCE_INSTRUMENT=qTOF
FILENAME=CCMSLIB00000079263.ms
IONMODE=Positive
ORGANISM=Natural
NAME=Physostigmine
PI=GNPS
DATACOLLECTOR=GNPS
SMILES=C[C@]12CCN(C)C2N(C)c2ccc(cc12)OC(=NC)O
INCHI=InChI=1S/C15H21N3O2/c1-15-7-8-17(3)13(15)18(4)12-6-5-10(9-11(12)15)20-14(19)16-2/h5-6,9,13H,7-8H2,1-4H3,(H,16,19)/t13?,15-/m0/s1
FORMULA=C15H21N3O2
PUBMED=N/A
SUBMITUSER=BIOADREM
LIBRARYQUALITY=0
SPECTRUMID=CCMSLIB00000079263
SCANS=1559
ID=CCMSLIB00000079263
134.0964253583 	 1.38
144.0807752941 	 0.34
146.060039852 	 2.24
147.0678648841 	 16.82
160.0756899162 	 2.73
161.0835149483 	 9
162.0913399804 	 100
173.0835149483 	 2.33
176.1069900446 	 23.49
188.1069900446 	 9.15
219.112803704 	 79.51
245.1284537682 	 3.74
276.1706529339 	 4.71
END IONS

BEGIN IONS
PEPMASS=269.165
CHARGE=1
MSLEVEL=2
RT=0
SOURCE_INSTRUMENT=qTOF
FILENAME=CCMSLIB00000079267.ms
IONMODE=Positive
ORGANISM=Natural
NAME=Acetamide, 2-amino-N-(1-methyl-1,2-diphenylethyl)-, (+/-)- [CAS]
PI=GNPS
DATACOLLECTOR=GNPS
SMILES=CC(Cc1ccccc1)(c1ccccc1)N=C(CN)O
INCHI=InChI=1S/C17H20N2O/c1-17(19-16(20)13-18,15-10-6-3-7-11-15)12-14-8-4-2-5-9-14/h2-11H,12-13,18H2,1H3,(H,19,20)
FORMULA=C17H20N2O
PUBMED=N/A
SUBMITUSER=BIOADREM
LIBRARYQUALITY=0
SPECTRUMID=CCMSLIB00000079267
SCANS=1561
ID=CCMSLIB00000079267
91.0542261926 	 6.64
115.0542261926 	 5.25
117.0698762568 	 16.49
151.0542261926 	 0.3
152.0620512247 	 0.39
165.0698762568 	 1.06
167.085526321 	 5.16
180.0933513531 	 0.51
195.1168264494 	 100
269.1648392745 	 0
END IONS

BEGIN IONS
PEPMASS=671.3915
CHARGE=1
MSLEVEL=2
RT=0
SOURCE_INSTRUMENT=qTOF
FILENAME=CCMSLIB00000079268.ms
IONMODE=Positive
ORGANISM=Natural
NAME=SAQUINAVIR MESYLATE
PI=GNPS
DATACOLLECTOR=GNPS
SMILES=CC(C)(C)N=C([C@@H]1C[C@@H]2CCCC[C@@H]2CN1C[C@H]([C@H](Cc1ccccc1)N=C([C@H](CC(=N)O)NC(=O)c1ccc2ccccc2n1)O)O)O
INCHI=InChI=1S/C38H50N6O5/c1-38(2,3)43-37(49)32-20-26-14-7-8-15-27(26)22-44(32)23-33(45)30(19-24-11-5-4-6-12-24)41-36(48)31(21-34(39)46)42-35(47)29-18-17-25-13-9-10-16-28(25)40-29/h4-6,9-13,16-18,26-27,30-33,45H,7-8,14-15,19-23H2,1-3H3,(H2,39,46)(H,41,48)(H,42,47)(H,43,49)/t26-,27+,30-,31-,32-,33+/m0/s1
FORMULA=C38H50N6O5
PUBMED=N/A
SUBMITUSER=BIOADREM
LIBRARYQUALITY=0
SPECTRUMID=CCMSLIB00000079268
SCANS=1562
ID=CCMSLIB00000079268
128.0494751657 	 6.46333333333333
129.0698762568 	 2.78333333333333
138.1277254867 	 3.95333333333333
146.060039852 	 2.50333333333333
146.0964253583 	 1.70333333333333
150.1277254867 	 2.52666666666667
152.1433755509 	 4.82333333333333
156.0443897878 	 4.49
164.1069900446 	 1.81
166.1226401088 	 0.606666666666667
172.0756899162 	 1.23333333333333
173.0709388893 	 6.14333333333333
174.0549544741 	 3.71333333333333
195.1491892103 	 0.18
199.0865889535 	 3.22333333333333
200.0706045383 	 1.27666666666667
225.0658535114 	 14.86
226.0736785435 	 0.323333333333333
242.0924026129 	 22.9166666666667
243.0916743314 	 2.26666666666667
244.0968192888 	 9.28666666666667
251.2117894671 	 0.363333333333333
252.0767525487 	 1.22333333333333
261.1233683903 	 1.70666666666667
266.1903257435 	 6.42
270.087317235 	 12.87
271.0865889535 	 2.11
284.2008904298 	 0.643333333333333
294.1852403656 	 0.98
301.2274395313 	 1.70666666666667
311.2117894671 	 2.37666666666667
344.1393528055 	 0.866666666666667
367.2743897239 	 3.32666666666667
372.1342674276 	 2.27
373.1335391461 	 0.333333333333333
374.1499174918 	 0.753333333333333
381.2172687755 	 0.89
386.1499174918 	 0.906666666666667
388.165567556 	 3.2
389.1648392745 	 0.606666666666667
398.1499174918 	 1.74
398.243817877 	 0.72
415.1764665933 	 1.04333333333333
416.1604821781 	 29.83
417.1597538966 	 9.47333333333333
418.1635561833 	 1.23333333333333
433.1870312796 	 32.4966666666667
434.1863029981 	 8.83666666666667
435.1914479555 	 0.423333333333333
435.1941280302 	 0.396666666666667
552.29691608 	 0.803333333333333
553.2809316648 	 2.95666666666667
554.2887566969 	 0.643333333333333
570.3074807663 	 100
571.3153057984 	 30.6766666666667
572.3118974422 	 2.28333333333333
671.3915447467 	 59.8566666666667
END IONS

BEGIN IONS
PEPMASS=779.4014
CHARGE=1
MSLEVEL=2
RT=0
SOURCE_INSTRUMENT=qTOF
FILENAME=CCMSLIB00000079271.ms
IONMODE=Positive
ORGANISM=Natural
NAME=vinorelbine??tartrate
PI=GNPS
DATACOLLECTOR=GNPS
SMILES=CCC1=C[C@@H]2C[C@](c3cc4c(cc3OC)N(C)[C@@H]3[C@@]54CCN4CC=C[C@](CC)([C@@H]54)[C@H]([C@@]3(C(=O)OC)O)OC(=O)C)(c3c(CN(C1)C2)c1ccccc1[nH]3)C(=O)OC
INCHI=InChI=1S/C45H54N4O8/c1-8-27-19-28-22-44(40(51)55-6,36-30(25-48(23-27)24-28)29-13-10-11-14-33(29)46-36)32-20-31-34(21-35(32)54-5)47(4)38-43(31)16-18-49-17-12-15-42(9-2,37(43)49)39(57-26(3)50)45(38,53)41(52)56-7/h10-15,19-21,28,37-39,46,53H,8-9,16-18,22-25H2,1-7H3/t28-,37+,38-,39-,42-,43-,44+,45+/m1/s1
FORMULA=C45H54N4O8
PUBMED=N/A
SUBMITUSER=BIOADREM
LIBRARYQUALITY=0
SPECTRUMID=CCMSLIB00000079271
SCANS=1563
ID=CCMSLIB00000079271
122.0964253583 	 29.76
136.1120754225 	 10.04
182.060039852 	 5.61
188.1069900446 	 7.75
214.0862546025 	 44.9
240.1019046667 	 15.81
263.1515945135 	 12.04
291.1465091356 	 34.49
292.1543341677 	 8.94
294.1403015457 	 5.91
323.1727238861 	 100
347.1754039608 	 7.68
357.1597538966 	 9.16
367.1804893387 	 7.61
379.2016187113 	 36.34
381.2087154619 	 9.08
389.1832885724 	 9.23
397.2121833976 	 5.69
427.2016187113 	 6.87
428.1968676844 	 6.5
457.2333127702 	 29.47
458.2411378023 	 8.79
459.2390668501 	 7.02
467.217662706 	 18.83
468.2196144992 	 7.46
469.2333127702 	 70.31
470.2352645634 	 15.51
478.2713752982 	 5.98
495.2125773281 	 7.75
510.2724379307 	 8.35
527.2387920786 	 18.24
528.2407438718 	 6.2
566.2622671749 	 12.56
567.2642189681 	 10.56
576.3108348097 	 6.43
588.2982587507 	 25.11
589.3020610374 	 12.11
598.2911620001 	 61.96
599.2904337186 	 19.5
600.2870253624 	 13.15
626.2860766222 	 26.51
627.2853483407 	 7.9
637.3146370964 	 8.35
648.3193881233 	 9.82
649.3272131554 	 7.16
650.3224621285 	 7.31
658.3122913727 	 50.07
659.3115630912 	 30.21
660.3153653779 	 10.86
696.3279414369 	 11.23
697.335766469 	 5.69
779.401440731 	 214.92
END IONS

BEGIN IONS
PEPMASS=472.2074
CHARGE=1
MSLEVEL=2
RT=0
SOURCE_INSTRUMENT=qTOF
FILENAME=CCMSLIB00000079272.ms
IONMODE=Positive
ORGANISM=Natural
NAME=1H-Indole-2-propanoic acid, 1-[(4-chlorophenyl)methyl]-3-[(1,1-dimethylethyl)thio]-Alpha,Alpha-dimethyl-5-(1-methylethyl)- [CAS]
PI=GNPS
DATACOLLECTOR=GNPS
SMILES=CC(C)c1ccc2c(c1)c(c(CC(C)(C)C(=O)O)n2Cc1ccc(cc1)Cl)SC(C)(C)C
INCHI=InChI=1S/C27H34ClNO2S/c1-17(2)19-10-13-22-21(14-19)24(32-26(3,4)5)23(15-27(6,7)25(30)31)29(22)16-18-8-11-20(28)12-9-18/h8-14,17H,15-16H2,1-7H3,(H,30,31)
FORMULA=C27H34ClNO2S
PUBMED=N/A
SUBMITUSER=BIOADREM
LIBRARYQUALITY=0
SPECTRUMID=CCMSLIB00000079272
SCANS=1564
ID=CCMSLIB00000079272
125.0152538705 	 11.3
162.0371959199 	 1.47
172.1120754225 	 0.9
202.0684960483 	 1.5
203.072950262 	 1.41
204.0841461125 	 45
211.1355505188 	 1.82
216.0841461125 	 0.85
244.1154462409 	 1.67
245.123271273 	 3.25
246.1277254867 	 0.62
248.0706045383 	 0.75
249.0818003888 	 1.55
254.0731031004 	 1.17
272.110360863 	 2.21
273.1181858951 	 4.87
274.1226401088 	 0.91
286.0451737904 	 3.98
287.0496280041 	 0.7
290.1209255493 	 8.38
291.1287505814 	 19.21
292.1332047951 	 3.53
293.123271273 	 0.99
296.120053293 	 5.39
298.1152647283 	 1.46
328.092123983 	 8.08
329.0965781967 	 2.04
331.091789632 	 0.82
337.1591784535 	 0.72
347.1913508382 	 5.15
348.1906225567 	 0.94
356.0870386051 	 0.82
370.1390741756 	 1.26
374.0976032914 	 5.55
375.1020575051 	 1.15
376.092123983 	 1.9
383.1646577619 	 3.85
384.1673002988 	 1.39
385.1591784535 	 1.66
398.1339887977 	 6.07
399.1384430114 	 1.96
414.1289034198 	 1.8
415.1367284519 	 1.22
416.144553484 	 100
417.1490076977 	 30.64
419.1468992077 	 7.62
430.1602035482 	 0.75
472.2071537408 	 14.95
END IONS

BEGIN IONS
PEPMASS=877.4586
CHARGE=1
MSLEVEL=2
RT=0
SOURCE_INSTRUMENT=qTOF
FILENAME=CCMSLIB00000079273.ms
IONMODE=Positive
ORGANISM=Natural
NAME=RIFAPENTINE
PI=GNPS
DATACOLLECTOR=GNPS
SMILES=C[C@H]1C=CC=C(C)C(=Nc2c(C=NN3CCN(CC3)C3CCCC3)c(c3c(c(c(C)c4c3C(=O)[C@@](C)(OC=C[C@@H]([C@@H](C)[C@H]([C@H](C)[C@@H]([C@H](C)[C@H]1O)O)OC(=O)C)OC)O4)O)c2O)O)O
INCHI=InChI=1S/C47H64N4O12/c1-24-13-12-14-25(2)46(59)49-37-32(23-48-51-20-18-50(19-21-51)31-15-10-11-16-31)41(56)34-35(42(37)57)40(55)29(6)44-36(34)45(58)47(8,63-44)61-22-17-33(60-9)26(3)43(62-30(7)52)28(5)39(54)27(4)38(24)53/h12-14,17,22-24,26-28,31,33,38-39,43,53-57H,10-11,15-16,18-21H2,1-9H3,(H,49,59)/t24-,26+,27+,28+,33-,38-,39+,43+,47-/m0/s1
FORMULA=C47H64N4O12
PUBMED=N/A
SUBMITUSER=BIOADREM
LIBRARYQUALITY=0
SPECTRUMID=CCMSLIB00000079273
SCANS=1565
ID=CCMSLIB00000079273
95.085526321 	 2
107.085526321 	 5.39
109.0647908789 	 2.52
109.1011763852 	 1.38
121.1011763852 	 2.43
123.0804409431 	 7.64
125.0960910073 	 1.89
133.1011763852 	 1.52
135.0804409431 	 2.37
135.1168264494 	 1.81
137.0960910073 	 2.57
145.1011763852 	 3.73
147.1168264494 	 4.35
151.0753555652 	 28.1
153.0910056294 	 3.9
157.1011763852 	 1.86
159.1168264494 	 2.52
161.0960910073 	 5.05
163.1117410715 	 17.36
173.0960910073 	 3.4
173.1324765136 	 2.2
174.1025733687 	 2.05
175.1117410715 	 3.22
175.1481265778 	 1.62
177.0910056294 	 2.78
177.1273911357 	 2.84
179.1066556936 	 4.7
189.126048465 	 1.94
191.1066556936 	 9.15
199.1103984008 	 1.55
201.1273911357 	 2.74
203.1430411999 	 1.95
217.1209630871 	 1.92
219.137955822 	 2.7
231.137955822 	 1.64
297.1849060146 	 3.1
454.2183909875 	 2
845.4331347899 	 100
846.440959822 	 67.24
847.4375514658 	 14.37
877.4593495404 	 61.68
END IONS

BEGIN IONS
PEPMASS=408.156
CHARGE=1
MSLEVEL=2
RT=0
SOURCE_INSTRUMENT=qTOF
FILENAME=CCMSLIB00000079350.ms
IONMODE=Positive
ORGANISM=Natural
NAME=MLS001141366-01!(2R)-2-[3-[(10aS)-1,3-dioxo-10,10a-dihydro-5H-imidazo[1,5-b]isoquinolin-2-yl]propanoylamino]-2-phenylacetic acid
PI=GNPS
DATACOLLECTOR=GNPS
SMILES=c1ccc(cc1)[C@H](C(=O)O)N=C(CCN1C(=O)[C@@H]2Cc3ccccc3CN2C1=O)O
INCHI=InChI=1S/C22H21N3O5/c26-18(23-19(21(28)29)14-6-2-1-3-7-14)10-11-24-20(27)17-12-15-8-4-5-9-16(15)13-25(17)22(24)30/h1-9,17,19H,10-13H2,(H,23,26)(H,28,29)/t17-,19+/m0/s1
FORMULA=C22H21N3O5
PUBMED=N/A
SUBMITUSER=BIOADREM
LIBRARYQUALITY=0
SPECTRUMID=CCMSLIB00000079350
SCANS=1568
ID=CCMSLIB00000079350
106.0651252299 	 1.45
107.0491408147 	 3.12
128.0494751657 	 0.93
130.0651252299 	 49.69
132.0807752941 	 32.31
135.0440554368 	 4.57
144.0807752941 	 8.56
146.060039852 	 1
158.060039852 	 28.86
160.0756899162 	 2.24
175.0865889535 	 8.18
186.0913399804 	 1.09
187.0865889535 	 100
201.1022390177 	 3.74
203.0815035756 	 63.41
215.0815035756 	 15.32
229.0971536398 	 4.02
257.0920682619 	 37.98
408.1553968002 	 0
END IONS

BEGIN IONS
PEPMASS=277.098
CHARGE=1
MSLEVEL=2
RT=0
SOURCE_INSTRUMENT=qTOF
FILENAME=CCMSLIB00000079351.ms
IONMODE=Positive
ORGANISM=Natural
NAME=MLS000728601-01!(2S)-3-benzoyl-2,7b-dihydro-1aH-oxireno[2,3-c]quinoline-2-carbonitrile
PI=GNPS
DATACOLLECTOR=GNPS
SMILES=c1ccc(cc1)C(=O)N1c2ccccc2C2C([C@@H]1C#N)O2
INCHI=InChI=1S/C17H12N2O2/c18-10-14-16-15(21-16)12-8-4-5-9-13(12)19(14)17(20)11-6-2-1-3-7-11/h1-9,14-16H/t14-,15?,16?/m0/s1
FORMULA=C17H12N2O2
PUBMED=N/A
SUBMITUSER=BIOADREM
LIBRARYQUALITY=0
SPECTRUMID=CCMSLIB00000079351
SCANS=1569
ID=CCMSLIB00000079351
104.0494751657 	 1.54
105.0334907505 	 100
165.0573001978 	 1.54
180.0807752941 	 1.61
181.0886003262 	 1.54
189.0698762568 	 1.29
204.0807752941 	 7.5
219.0916743314 	 1.26
247.0865889535 	 1.15
259.0865889535 	 1.26
260.0944139856 	 1.47
277.0971536398 	 0
END IONS

BEGIN IONS
PEPMASS=269.081
CHARGE=1
MSLEVEL=2
RT=0
SOURCE_INSTRUMENT=qTOF
FILENAME=CCMSLIB00000079352.ms
IONMODE=Positive
ORGANISM=Natural
NAME=MLS000697658-01!5-hydroxy-7-methoxy-2-phenylchromen-4-one
PI=GNPS
DATACOLLECTOR=GNPS
SMILES=COc1cc(c2c(=O)cc(c3ccccc3)oc2c1)O
INCHI=InChI=1S/C16H12O4/c1-19-11-7-12(17)16-13(18)9-14(20-15(16)8-11)10-5-3-2-4-6-10/h2-9,17H,1H3
FORMULA=C16H12O4
PUBMED=N/A
SUBMITUSER=BIOADREM
LIBRARYQUALITY=0
SPECTRUMID=CCMSLIB00000079352
SCANS=1570
ID=CCMSLIB00000079352
96.0205803405 	 0.98
103.0542261926 	 2.6
105.0334907505 	 1.83
111.0440554368 	 0.96
115.0542261926 	 0.84
116.0620512247 	 0.7
123.0076699305 	 0.86
124.0154949626 	 21.04
126.0464011605 	 0.87
129.0334907505 	 3.45
131.0491408147 	 0.77
139.0389700589 	 0.68
139.0542261926 	 0.82
141.0698762568 	 1.76
143.0491408147 	 0.93
144.0569658468 	 1.6
149.0233199947 	 0.67
152.0620512247 	 9.71
153.0698762568 	 2.91
155.0491408147 	 4.34
167.033884681 	 10.63
169.0647908789 	 5.11
170.072615911 	 4.37
171.0440554368 	 9.17
179.0491408147 	 4.18
180.0569658468 	 3.17
181.0647908789 	 6.91
197.059705501 	 17.65
198.0675305331 	 4.16
208.0518804689 	 4.27
209.059705501 	 2.36
225.0546201231 	 5.6
226.0624451552 	 100
236.046795091 	 0.7
254.0573597773 	 18.41
269.0808348736 	 82.52
END IONS

BEGIN IONS
PEPMASS=492.177
CHARGE=1
MSLEVEL=2
RT=0
SOURCE_INSTRUMENT=qTOF
FILENAME=CCMSLIB00000079353.ms
IONMODE=Positive
ORGANISM=Natural
NAME=MLS001075865-01!N-[2-[7-methoxy-6-[(Z)-(2,4,6-trioxo-1-prop-2-enyl-1,3-diazinan-5-ylidene)methyl]-1,3-benzodioxol-5-yl]ethyl]-N-methylbenzamide
PI=GNPS
DATACOLLECTOR=GNPS
SMILES=C=CCN1C(=O)/C(=C\c2c(CCN(C)C(=O)c3ccccc3)cc3c(c2OC)OCO3)/C(=NC1=O)O
INCHI=InChI=1S/C26H25N3O7/c1-4-11-29-25(32)19(23(30)27-26(29)33)14-18-17(13-20-22(21(18)34-3)36-15-35-20)10-12-28(2)24(31)16-8-6-5-7-9-16/h4-9,13-14H,1,10-12,15H2,2-3H3,(H,27,30,33)/b19-14-
FORMULA=C26H25N3O7
PUBMED=N/A
SUBMITUSER=BIOADREM
LIBRARYQUALITY=0
SPECTRUMID=CCMSLIB00000079353
SCANS=1571
ID=CCMSLIB00000079353
103.0542261926 	 1.09
105.0334907505 	 100
110.0236543457 	 1.19
159.0440554368 	 1.33
162.0913399804 	 1.64
189.0546201231 	 14.61
203.0702701873 	 3.45
213.0546201231 	 2.15
217.0495347452 	 1.06
218.0811692246 	 1.71
228.0655191604 	 1.17
229.0495347452 	 6.17
231.0651848094 	 10.34
247.0600994315 	 3.92
274.0709984688 	 1.21
314.1022985972 	 1.32
357.1081122566 	 6.12
492.1765261728 	 0
END IONS

BEGIN IONS
PEPMASS=481.245
CHARGE=1
MSLEVEL=2
RT=0
SOURCE_INSTRUMENT=qTOF
FILENAME=CCMSLIB00000079354.ms
IONMODE=Positive
ORGANISM=Natural
NAME=MLS001158449-01!(2S)-2-[[(2S)-3-methyl-2-[[(2S)-3-oxo-2-propan-2-yl-2,4-dihydroquinoxaline-1-carbonyl]amino]butanoyl]amino]-3-phenylpropanoic acid
PI=GNPS
DATACOLLECTOR=GNPS
SMILES=CC(C)[C@@H](C(=N[C@@H](Cc1ccccc1)C(=O)O)O)N=C(N1c2ccccc2N=C([C@@H]1C(C)C)O)O
INCHI=InChI=1S/C26H32N4O5/c1-15(2)21(23(31)28-19(25(33)34)14-17-10-6-5-7-11-17)29-26(35)30-20-13-9-8-12-18(20)27-24(32)22(30)16(3)4/h5-13,15-16,19,21-22H,14H2,1-4H3,(H,27,32)(H,28,31)(H,29,35)(H,33,34)/t19-,21-,22-/m0/s1
FORMULA=C26H32N4O5
PUBMED=N/A
SUBMITUSER=BIOADREM
LIBRARYQUALITY=0
SPECTRUMID=CCMSLIB00000079354
SCANS=1572
ID=CCMSLIB00000079354
107.060374203 	 2.29
117.0447241388 	 0.82
119.060374203 	 26.36
120.0807752941 	 6.64
128.0494751657 	 1.1
133.0396387609 	 18.84
135.0552888251 	 27.45
146.0964253583 	 1.64
147.0552888251 	 100
161.034553383 	 17.6
161.0709388893 	 4.91
163.1229744598 	 90.19
173.1073243956 	 2.93
174.0787639214 	 0.95
175.0502034472 	 3.23
175.0865889535 	 7.68
179.0451180693 	 19.15
189.1022390177 	 41.74
191.1178890819 	 5.64
217.0971536398 	 75.08
245.1284537682 	 6.01
260.1757383118 	 18.68
288.1706529339 	 74.59
316.165567556 	 1.43
481.2445461585 	 0
END IONS

BEGIN IONS
PEPMASS=486.193
CHARGE=1
MSLEVEL=2
RT=0
SOURCE_INSTRUMENT=qTOF
FILENAME=CCMSLIB00000079356.ms
IONMODE=Positive
ORGANISM=Natural
NAME=MLS001141331-01!(2S)-2-[[2-(3-benzyl-4,8-dimethyl-2-oxochromen-7-yl)oxyacetyl]amino]-3-phenylpropanoic acid
PI=GNPS
DATACOLLECTOR=GNPS
SMILES=Cc1c2ccc(c(C)c2oc(=O)c1Cc1ccccc1)OCC(=N[C@@H](Cc1ccccc1)C(=O)O)O
INCHI=InChI=1S/C29H27NO6/c1-18-22-13-14-25(19(2)27(22)36-29(34)23(18)15-20-9-5-3-6-10-20)35-17-26(31)30-24(28(32)33)16-21-11-7-4-8-12-21/h3-14,24H,15-17H2,1-2H3,(H,30,31)(H,32,33)/t24-/m0/s1
FORMULA=C29H27NO6
PUBMED=N/A
SUBMITUSER=BIOADREM
LIBRARYQUALITY=0
SPECTRUMID=CCMSLIB00000079356
SCANS=1573
ID=CCMSLIB00000079356
103.0542261926 	 3.21
105.0698762568 	 8.63
115.0542261926 	 5.88
117.0573001978 	 7.37
119.085526321 	 1.08
123.0440554368 	 1.32
129.0698762568 	 2.12
130.0651252299 	 16.65
131.0491408147 	 1.66
132.0807752941 	 71.87
144.0569658468 	 1.39
149.059705501 	 1.98
160.0756899162 	 1.46
175.0753555652 	 6.33
179.085526321 	 2.3
192.0933513531 	 4.74
203.0702701873 	 100
207.1168264494 	 5.3
217.1011763852 	 1.55
220.0882659752 	 2.14
235.1117410715 	 6.36
237.1273911357 	 1.63
250.0988306615 	 1.52
265.1223057578 	 6.6
293.1172203799 	 33.23
321.112135002 	 1.1
362.1386841035 	 1.17
408.1441634119 	 5.71
440.1856342961 	 2.21
486.1911136045 	 0.96
END IONS

BEGIN IONS
PEPMASS=204.102
CHARGE=1
MSLEVEL=2
RT=0
SOURCE_INSTRUMENT=qTOF
FILENAME=CCMSLIB00000079357.ms
IONMODE=Positive
ORGANISM=Natural
NAME=MLS001048862-01!3-(1H-indol-3-yl)-2-methylpropanoic acid
PI=GNPS
DATACOLLECTOR=GNPS
SMILES=CC(Cc1c[nH]c2ccccc12)C(=O)O
INCHI=InChI=1S/C12H13NO2/c1-8(12(14)15)6-9-7-13-11-5-3-2-4-10(9)11/h2-5,7-8,13H,6H2,1H3,(H,14,15)
FORMULA=C12H13NO2
PUBMED=N/A
SUBMITUSER=BIOADREM
LIBRARYQUALITY=0
SPECTRUMID=CCMSLIB00000079357
SCANS=1574
ID=CCMSLIB00000079357
103.0542261926 	 10.47
117.0573001978 	 9.51
128.0494751657 	 2.11
130.0651252299 	 100
143.072950262 	 5.25
158.0964253583 	 2.68
204.1019046667 	 0
END IONS

BEGIN IONS
PEPMASS=461.313
CHARGE=1
MSLEVEL=2
RT=0
SOURCE_INSTRUMENT=qTOF
FILENAME=CCMSLIB00000079358.ms
IONMODE=Positive
ORGANISM=Natural
NAME=MLS001141033-01!1-[(2S)-2-amino-4-methylpentanoyl]-N-[(2S)-1-[(4-methoxyphenyl)methylamino]-3-methyl-1-oxobutan-2-yl]piperidine-4-carboxamide
PI=GNPS
DATACOLLECTOR=GNPS
SMILES=CC(C)C[C@@H](C(=O)N1CCC(CC1)C(=N[C@@H](C(C)C)C(=NCc1ccc(cc1)OC)O)O)N
INCHI=InChI=1S/C25H40N4O4/c1-16(2)14-21(26)25(32)29-12-10-19(11-13-29)23(30)28-22(17(3)4)24(31)27-15-18-6-8-20(33-5)9-7-18/h6-9,16-17,19,21-22H,10-15,26H2,1-5H3,(H,27,31)(H,28,30)/t21-,22-/m0/s1
FORMULA=C25H40N4O4
PUBMED=N/A
SUBMITUSER=BIOADREM
LIBRARYQUALITY=0
SPECTRUMID=CCMSLIB00000079358
SCANS=1575
ID=CCMSLIB00000079358
106.0413157826 	 0.82
112.0756899162 	 62.26
121.0647908789 	 100
129.1022390177 	 0.54
130.0862546025 	 0.51
140.1433755509 	 2.38
181.1335391461 	 0.46
183.1491892103 	 19.17
185.1522632155 	 0.24
209.1284537682 	 0.34
211.1441038324 	 25
213.1471778376 	 0.29
223.1441038324 	 0.24
228.1706529339 	 0.45
237.1597538966 	 6.64
279.2067040892 	 0.63
296.2332531907 	 6.01
324.2281678128 	 4.08
348.2281678128 	 21.75
461.3122317932 	 2.24
END IONS

BEGIN IONS
PEPMASS=485.0692
CHARGE=1
MSLEVEL=2
RT=0
SOURCE_INSTRUMENT=qTOF
FILENAME=CCMSLIB00000079359.ms
IONMODE=Positive
ORGANISM=Natural
NAME=MLS001160002-01!
PI=GNPS
DATACOLLECTOR=GNPS
SMILES=Cc1c2ccc(cc2oc(=O)c1Br)OCC(=O)N1C[C@H]2C[C@@H](C1)c1cccc(=O)n1C2
INCHI=InChI=1S/C23H21BrN2O5/c1-13-17-6-5-16(8-19(17)31-23(29)22(13)24)30-12-21(28)25-9-14-7-15(11-25)18-3-2-4-20(27)26(18)10-14/h2-6,8,14-15H,7,9-12H2,1H3/t14-,15+/m1/s1
FORMULA=C23H21BrN2O5
PUBMED=N/A
SUBMITUSER=BIOADREM
LIBRARYQUALITY=0
SPECTRUMID=CCMSLIB00000079359
SCANS=1576
ID=CCMSLIB00000079359
109.0522148199 	 2.21
117.0573001978 	 0.84
122.060039852 	 1.62
132.0443897878 	 1.4
132.0807752941 	 1.2
133.0522148199 	 1.57
134.060039852 	 6.04
135.0678648841 	 1.43
142.0624451552 	 1.02
146.060039852 	 31.57
147.0678648841 	 19.42
148.0756899162 	 7.3
158.060039852 	 1.58
159.0440554368 	 0.77
159.0651848094 	 2.14
160.0756899162 	 11.55
162.0913399804 	 1.38
172.0756899162 	 3.39
173.0835149483 	 13.86
174.0886599057 	 3.9
188.0706045383 	 2.23
189.1022390177 	 100
190.1073839751 	 16.31
191.0788235009 	 1.76
203.1178890819 	 1.64
204.125714114 	 0.81
217.0944735651 	 0.93
218.1022985972 	 1.1
231.112803704 	 2.35
232.1206287361 	 4.65
238.9702180689 	 1.54
264.1104579803 	 1.35
266.965132691 	 7.05
294.9600473131 	 0.79
406.152322795 	 4.37
485.070660395 	 63.55
END IONS

BEGIN IONS
PEPMASS=341.1384
CHARGE=1
MSLEVEL=2
RT=0
SOURCE_INSTRUMENT=qTOF
FILENAME=CCMSLIB00000079360.ms
IONMODE=Positive
ORGANISM=Natural
NAME=MLS000697746-01!(2R,3S,3aS)-2-(1,3-benzodioxol-5-yl)-5-methoxy-3-methyl-3a-prop-2-enyl-2,3-dihydro-1-benzofuran-6-one
PI=GNPS
DATACOLLECTOR=GNPS
SMILES=C=CC[C@@]12C=C(C(=O)C=C2O[C@H]([C@H]1C)c1ccc2c(c1)OCO2)OC
INCHI=InChI=1S/C20H20O5/c1-4-7-20-10-17(22-3)14(21)9-18(20)25-19(12(20)2)13-5-6-15-16(8-13)24-11-23-15/h4-6,8-10,12,19H,1,7,11H2,2-3H3/t12-,19-,20-/m1/s1
FORMULA=C20H20O5
PUBMED=N/A
SUBMITUSER=BIOADREM
LIBRARYQUALITY=0
SPECTRUMID=CCMSLIB00000079360
SCANS=1577
ID=CCMSLIB00000079360
103.0542261926 	 11.86
119.0491408147 	 30.92
133.0284053726 	 31.04
135.0440554368 	 38.86
136.0518804689 	 5.01
137.059705501 	 16.29
147.0440554368 	 53.27
148.0518804689 	 11.35
149.0233199947 	 11.83
149.059705501 	 9.8
151.0753555652 	 7.01
159.0804409431 	 16.27
160.0518804689 	 7.49
161.059705501 	 12.4
163.0389700589 	 11.45
165.0546201231 	 47.11
176.046795091 	 4.99
177.0546201231 	 8.75
179.0702701873 	 10.21
181.0647908789 	 11.24
183.0804409431 	 6.04
185.059705501 	 6.01
187.0753555652 	 11
204.0780952194 	 6.73
210.0675305331 	 5.42
211.0753555652 	 8.09
212.046795091 	 4.91
215.0702701873 	 6.23
225.0910056294 	 5.18
227.0702701873 	 9.61
230.0937452836 	 6.42
231.0651848094 	 17.32
237.0546201231 	 10.04
239.0702701873 	 61.76
251.0702701873 	 5.68
253.0495347452 	 34.73
254.0573597773 	 6.61
255.0651848094 	 8.52
257.0808348736 	 40.51
267.0651848094 	 40.46
268.0730098415 	 17.72
269.0808348736 	 6.11
283.0964849378 	 10.09
285.0757494957 	 48.52
300.099224592 	 100
341.1383497525 	 1.05
END IONS

BEGIN IONS
PEPMASS=498.191
CHARGE=1
MSLEVEL=2
RT=0
SOURCE_INSTRUMENT=qTOF
FILENAME=CCMSLIB00000079361.ms
IONMODE=Positive
ORGANISM=Natural
NAME=MLS001142759-01!(2S)-2-[[1-[(2S)-3-methyl-2-[(4-methylphenyl)sulfonylamino]butanoyl]piperidine-4-carbonyl]amino]butanedioic acid
PI=GNPS
DATACOLLECTOR=GNPS
SMILES=CC(C)[C@@H](C(=O)N1CCC(CC1)C(=N[C@@H](CC(=O)O)C(=O)O)O)NS(=O)(=O)c1ccc(C)cc1
INCHI=InChI=1S/C22H31N3O8S/c1-13(2)19(24-34(32,33)16-6-4-14(3)5-7-16)21(29)25-10-8-15(9-11-25)20(28)23-17(22(30)31)12-18(26)27/h4-7,13,15,17,19,24H,8-12H2,1-3H3,(H,23,28)(H,26,27)(H,30,31)/t17-,19-/m0/s1
FORMULA=C22H31N3O8S
PUBMED=N/A
SUBMITUSER=BIOADREM
LIBRARYQUALITY=0
SPECTRUMID=CCMSLIB00000079361
SCANS=1578
ID=CCMSLIB00000079361
107.0491408147 	 4.3
112.0756899162 	 76.03
114.0787639214 	 4.39
123.0189033188 	 6.77
125.0960910073 	 3.93
131.0888971394 	 3.75
134.0447837183 	 3.39
146.1049786719 	 5.31
155.0161261268 	 100
156.0165575951 	 11.07
156.0655191604 	 4.3
184.0552512873 	 4.94
211.1441038324 	 4.39
226.0896254209 	 59.65
227.097450453 	 4.48
228.0841461125 	 4.57
228.1104579803 	 4.48
245.110695214 	 43.28
246.1158401714 	 14.09
253.1005244582 	 3.39
365.1529539592 	 5.03
498.1904616775 	 0
END IONS

BEGIN IONS
PEPMASS=832.354
CHARGE=1
MSLEVEL=2
RT=0
SOURCE_INSTRUMENT=qTOF
FILENAME=CCMSLIB00000079362.ms
IONMODE=Positive
ORGANISM=Natural
NAME=MLS001097651-01!
PI=GNPS
DATACOLLECTOR=GNPS
SMILES=C/C=C(\C)/C(=N[C@@H](c1ccccc1)[C@H](C(=O)O[C@H]1C[C@]2([C@H](C3[C@@](C)([C@H](C[C@@H]4[C@]3(CO4)OC(=O)C)O)C(=O)[C@@H](C(=C1C)C2(C)C)OC(=O)C)OC(=O)c1ccccc1)O)O)O
INCHI=InChI=1S/C45H53NO14/c1-9-23(2)39(52)46-33(27-16-12-10-13-17-27)34(50)41(54)58-29-21-45(55)38(59-40(53)28-18-14-11-15-19-28)36-43(8,30(49)20-31-44(36,22-56-31)60-26(5)48)37(51)35(57-25(4)47)32(24(29)3)42(45,6)7/h9-19,29-31,33-36,38,49-50,55H,20-22H2,1-8H3,(H,46,52)/b23-9+/t29-,30-,31+,33-,34+,35+,36?,38-,43+,44-,45+/m0/s1
FORMULA=C45H53NO14
PUBMED=N/A
SUBMITUSER=BIOADREM
LIBRARYQUALITY=0
SPECTRUMID=CCMSLIB00000079362
SCANS=1579
ID=CCMSLIB00000079362
105.0334907505 	 97.83
118.0651252299 	 14.85
119.085526321 	 24.32
121.0647908789 	 15.27
123.0804409431 	 15.18
133.0647908789 	 23.81
133.1011763852 	 20.75
147.0804409431 	 12.35
149.059705501 	 22.33
149.0960910073 	 18.26
159.0804409431 	 16.45
161.0960910073 	 23.18
169.1011763852 	 17.91
175.0753555652 	 13.16
177.0910056294 	 13.93
181.1011763852 	 13.49
183.1168264494 	 15.38
185.0960910073 	 12.91
189.0910056294 	 11.91
193.1011763852 	 15.41
194.1090014173 	 12.7
195.1168264494 	 22.12
197.0960910073 	 12.4
206.1090014173 	 14.21
207.1168264494 	 14.09
209.0960910073 	 15.45
209.1324765136 	 22.01
211.1117410715 	 17.22
211.1481265778 	 15.27
213.1273911357 	 12.12
218.1175547309 	 100
219.1168264494 	 14.81
220.1246514815 	 17.03
221.1324765136 	 30.1
223.1117410715 	 19.23
224.1195661036 	 13.9
225.1273911357 	 22.49
235.1481265778 	 21.31
237.1273911357 	 30.31
239.1430411999 	 34.54
246.112469353 	 19.14
247.0964849378 	 21.91
248.1195661036 	 12.77
249.1273911357 	 16.5
251.1430411999 	 12.28
253.1586912641 	 20.39
255.137955822 	 13.28
263.1430411999 	 39.45
264.1230340393 	 96.55
267.137955822 	 16.5
281.1536058862 	 41.09
291.137955822 	 20.69
299.1641705725 	 20.62
309.1485205083 	 41.7
327.1590851946 	 42.39
509.2196740787 	 24.34
832.3538814159 	 0
END IONS

BEGIN IONS
PEPMASS=212.108
CHARGE=1
MSLEVEL=2
RT=0
SOURCE_INSTRUMENT=qTOF
FILENAME=CCMSLIB00000079363.ms
IONMODE=Positive
ORGANISM=Natural
NAME=MLS000863588-01!2-methoxy-3-methyl-9H-carbazole
PI=GNPS
DATACOLLECTOR=GNPS
SMILES=Cc1cc2c3ccccc3[nH]c2cc1OC
INCHI=InChI=1S/C14H13NO/c1-9-7-11-10-5-3-4-6-12(10)15-13(11)8-14(9)16-2/h3-8,15H,1-2H3
FORMULA=C14H13NO
PUBMED=N/A
SUBMITUSER=BIOADREM
LIBRARYQUALITY=0
SPECTRUMID=CCMSLIB00000079363
SCANS=1580
ID=CCMSLIB00000079363
127.0542261926 	 5.85
128.0494751657 	 9.6
150.0464011605 	 7.52
151.0542261926 	 15.87
152.0620512247 	 46.97
153.0698762568 	 7.1
154.0651252299 	 100
167.072950262 	 30.48
180.0807752941 	 95.62
182.060039852 	 48.43
196.0756899162 	 80.17
197.0835149483 	 86.64
212.1069900446 	 0
END IONS

BEGIN IONS
PEPMASS=249.092
CHARGE=1
MSLEVEL=2
RT=0
SOURCE_INSTRUMENT=qTOF
FILENAME=CCMSLIB00000079364.ms
IONMODE=Positive
ORGANISM=Natural
NAME=MLS002637755-01!
PI=GNPS
DATACOLLECTOR=GNPS
SMILES=c1ccc(cc1)C(=O)Oc1cccc2ccccc12
INCHI=InChI=1S/C17H12O2/c18-17(14-8-2-1-3-9-14)19-16-12-6-10-13-7-4-5-11-15(13)16/h1-12H
FORMULA=C17H12O2
PUBMED=N/A
SUBMITUSER=BIOADREM
LIBRARYQUALITY=0
SPECTRUMID=CCMSLIB00000079364
SCANS=1581
ID=CCMSLIB00000079364
105.0334907505 	 100
128.0620512247 	 3.4
179.085526321 	 2.1
203.085526321 	 3.8
249.0910056294 	 0
END IONS

BEGIN IONS
PEPMASS=397.188
CHARGE=1
MSLEVEL=2
RT=0
SOURCE_INSTRUMENT=qTOF
FILENAME=CCMSLIB00000079365.ms
IONMODE=Positive
ORGANISM=Natural
NAME=MLS001141076-01!
PI=GNPS
DATACOLLECTOR=GNPS
SMILES=C[C@@H](C(=NC1CC1)O)N1C(=O)[C@]2(C)c3c(CCN2C1=O)c1cc(ccc1[nH]3)OC
INCHI=InChI=1S/C21H24N4O4/c1-11(18(26)22-12-4-5-12)25-19(27)21(2)17-14(8-9-24(21)20(25)28)15-10-13(29-3)6-7-16(15)23-17/h6-7,10-12,23H,4-5,8-9H2,1-3H3,(H,22,26)/t11-,21-/m0/s1
FORMULA=C21H24N4O4
PUBMED=N/A
SUBMITUSER=BIOADREM
LIBRARYQUALITY=0
SPECTRUMID=CCMSLIB00000079365
SCANS=1582
ID=CCMSLIB00000079365
131.072950262 	 1.01
143.072950262 	 1.04
159.0678648841 	 1.31
174.0913399804 	 11.5
182.0838492993 	 0.39
183.0678648841 	 0.77
198.0913399804 	 5.98
201.1022390177 	 0.62
210.0787639214 	 0.72
213.1022390177 	 5.8
215.1178890819 	 24.31
225.1022390177 	 0.51
227.1178890819 	 0.37
241.0971536398 	 30.02
243.112803704 	 2.53
267.112803704 	 0.69
269.0920682619 	 3.35
284.1393528055 	 100
295.1077183261 	 0.44
312.1342674276 	 10.57
397.1870312796 	 0
END IONS

BEGIN IONS
PEPMASS=352.1645
CHARGE=1
MSLEVEL=2
RT=0
SOURCE_INSTRUMENT=qTOF
FILENAME=CCMSLIB00000079366.ms
IONMODE=Positive
ORGANISM=Natural
NAME=MLS001075063-01!
PI=GNPS
DATACOLLECTOR=GNPS
SMILES=CC(=O)c1ccc(cc1)NC(=O)N1C[C@H]2C[C@@H](C1)c1cccc(=O)n1C2
INCHI=InChI=1S/C20H21N3O3/c1-13(24)15-5-7-17(8-6-15)21-20(26)22-10-14-9-16(12-22)18-3-2-4-19(25)23(18)11-14/h2-8,14,16H,9-12H2,1H3,(H,21,26)/t14-,16+/m1/s1
FORMULA=C20H21N3O3
PUBMED=N/A
SUBMITUSER=BIOADREM
LIBRARYQUALITY=0
SPECTRUMID=CCMSLIB00000079366
SCANS=1583
ID=CCMSLIB00000079366
96.0443897878 	 1.16
105.0573001978 	 0.93
106.0651252299 	 2.52
115.0542261926 	 1.34
118.0651252299 	 2.62
120.0807752941 	 1.12
122.060039852 	 2.78
129.0698762568 	 1.22
130.0651252299 	 3.45
131.072950262 	 3.78
132.0443897878 	 9.06
133.0522148199 	 13.5
134.060039852 	 8.63
142.0651252299 	 3.72
144.0807752941 	 3.21
146.060039852 	 40.06
148.0756899162 	 20.96
156.0807752941 	 2.55
158.060039852 	 9.08
159.0678648841 	 6.81
160.0756899162 	 80.7
170.060039852 	 1.26
172.0756899162 	 13.35
174.0913399804 	 31.51
188.0706045383 	 6.02
189.1022390177 	 28.93
191.1178890819 	 6.58
217.0971536398 	 100
235.1077183261 	 11.01
352.165567556 	 4.64
END IONS

BEGIN IONS
PEPMASS=438.192
CHARGE=1
MSLEVEL=2
RT=0
SOURCE_INSTRUMENT=qTOF
FILENAME=CCMSLIB00000079367.ms
IONMODE=Positive
ORGANISM=Natural
NAME=MLS001140981-01!4-[[2-(4-methyl-6-oxobenzo[c]chromen-3-yl)oxypropanoylamino]methyl]cyclohexane-1-carboxylic acid
PI=GNPS
DATACOLLECTOR=GNPS
SMILES=Cc1c(ccc2c3ccccc3c(=O)oc12)OC(C)C(=NC[C@H]1CC[C@@H](CC1)C(=O)O)O
INCHI=InChI=1S/C25H27NO6/c1-14-21(12-11-19-18-5-3-4-6-20(18)25(30)32-22(14)19)31-15(2)23(27)26-13-16-7-9-17(10-8-16)24(28)29/h3-6,11-12,15-17H,7-10,13H2,1-2H3,(H,26,27)(H,28,29)/t15?,16-,17-
FORMULA=C25H27NO6
PUBMED=N/A
SUBMITUSER=BIOADREM
LIBRARYQUALITY=0
SPECTRUMID=CCMSLIB00000079367
SCANS=1584
ID=CCMSLIB00000079367
95.085526321 	 11.76
110.0964253583 	 3.34
111.1042503904 	 3.4
112.1120754225 	 6.63
123.0804409431 	 3.36
124.0756899162 	 2.55
138.0913399804 	 6.63
138.1277254867 	 9.54
140.1069900446 	 15.57
141.0698762568 	 4.08
152.0620512247 	 5.2
152.1069900446 	 4.52
153.0698762568 	 6.07
155.085526321 	 4.37
165.0698762568 	 8.21
166.1226401088 	 7.88
167.1304651409 	 29.13
169.0647908789 	 3.13
179.085526321 	 5.14
181.0647908789 	 24.9
184.1332047951 	 14.87
185.059705501 	 3.15
197.0960910073 	 4.96
207.0804409431 	 3.73
209.059705501 	 3.48
210.0675305331 	 4.29
211.0753555652 	 5.91
213.1359444493 	 3.61
225.0546201231 	 13.5
225.0910056294 	 13.89
226.0624451552 	 28.99
227.0702701873 	 42.55
235.0753555652 	 5.95
253.0859202515 	 100
281.0808348736 	 9.04
392.1856342961 	 5.87
438.1911136045 	 0
END IONS

BEGIN IONS
PEPMASS=169.05
CHARGE=1
MSLEVEL=2
RT=0
SOURCE_INSTRUMENT=qTOF
FILENAME=CCMSLIB00000079368.ms
IONMODE=Positive
ORGANISM=Natural
NAME=MLS000517276-01!
PI=GNPS
DATACOLLECTOR=GNPS
SMILES=COc1ccc(c(c1)O)C(=O)O
INCHI=InChI=1S/C8H8O4/c1-12-5-2-3-6(8(10)11)7(9)4-5/h2-4,9H,1H3,(H,10,11)
FORMULA=C8H8O4
PUBMED=N/A
SUBMITUSER=BIOADREM
LIBRARYQUALITY=0
SPECTRUMID=CCMSLIB00000079368
SCANS=1585
ID=CCMSLIB00000079368
95.0491408147 	 10.27
108.0205803405 	 38.81
136.0154949626 	 6.16
151.0389700589 	 100
169.0495347452 	 0
END IONS

BEGIN IONS
PEPMASS=231.0648
CHARGE=1
MSLEVEL=2
RT=0
SOURCE_INSTRUMENT=qTOF
FILENAME=CCMSLIB00000079369.ms
IONMODE=Positive
ORGANISM=Natural
NAME=MLS000697721-01!
PI=GNPS
DATACOLLECTOR=GNPS
SMILES=Cc1cc(=O)c2c(cc3c(cco3)c2OC)o1
INCHI=InChI=1S/C13H10O4/c1-7-5-9(14)12-11(17-7)6-10-8(3-4-16-10)13(12)15-2/h3-6H,1-2H3
FORMULA=C13H10O4
PUBMED=N/A
SUBMITUSER=BIOADREM
LIBRARYQUALITY=0
SPECTRUMID=CCMSLIB00000079369
SCANS=1586
ID=CCMSLIB00000079369
103.0542261926 	 1.32
116.0256657184 	 0.34
117.0334907505 	 0.39
120.0205803405 	 8.07
131.0491408147 	 11.86
132.0569658468 	 10.85
135.0076699305 	 1.8
145.0284053726 	 1.07
148.0154949626 	 9.59
159.0440554368 	 5.65
160.0518804689 	 16.56
173.0233199947 	 0.37
176.0104095847 	 16.17
187.0389700589 	 12.59
188.046795091 	 4.35
192.0417097131 	 5.1
203.0702701873 	 0.77
215.033884681 	 0.38
216.0417097131 	 100
231.0651848094 	 1.83
END IONS

BEGIN IONS
PEPMASS=326.1314
CHARGE=1
MSLEVEL=2
RT=0
SOURCE_INSTRUMENT=qTOF
FILENAME=CCMSLIB00000079370.ms
IONMODE=Positive
ORGANISM=Natural
NAME=MLS001075522-01!N-(2-pyridin-3-ylpiperidine-1-carbothioyl)benzamide
PI=GNPS
DATACOLLECTOR=GNPS
SMILES=c1ccc(cc1)C(=NC(=S)N1CCCCC1c1cccnc1)O
INCHI=InChI=1S/C18H19N3OS/c22-17(14-7-2-1-3-8-14)20-18(23)21-12-5-4-10-16(21)15-9-6-11-19-13-15/h1-3,6-9,11,13,16H,4-5,10,12H2,(H,20,22,23)
FORMULA=C18H19N3OS
PUBMED=N/A
SUBMITUSER=BIOADREM
LIBRARYQUALITY=0
SPECTRUMID=CCMSLIB00000079370
SCANS=1587
ID=CCMSLIB00000079370
103.0542261926 	 0.64
104.0494751657 	 0.54
105.0334907505 	 15.62
106.0651252299 	 2.12
107.0365647557 	 0.49
117.0573001978 	 11.53
118.0651252299 	 22.61
119.072950262 	 5.9
120.0807752941 	 96.31
122.060039852 	 1.61
127.0542261926 	 0.49
128.0620512247 	 0.78
129.0698762568 	 1.85
130.0651252299 	 15.39
131.072950262 	 10.99
132.0807752941 	 4.91
134.0964253583 	 3.7
144.0807752941 	 8.81
146.0964253583 	 48.19
154.0651252299 	 0.53
155.060374203 	 0.71
157.0760242672 	 0.52
161.1073243956 	 4.22
163.1229744598 	 100
171.0916743314 	 5
172.0994993635 	 5.11
188.1182234329 	 74.32
205.0793950856 	 69.51
326.1321589376 	 0.17
END IONS

BEGIN IONS
PEPMASS=426.1911
CHARGE=1
MSLEVEL=2
RT=0
SOURCE_INSTRUMENT=qTOF
FILENAME=CCMSLIB00000079371.ms
IONMODE=Positive
ORGANISM=Natural
NAME=MLS001158260-01!N-[2-(3,4-dimethoxyphenyl)ethyl]-2-(3,4,7-trimethyl-2-oxochromen-5-yl)oxyacetamide
PI=GNPS
DATACOLLECTOR=GNPS
SMILES=Cc1cc(c2c(C)c(C)c(=O)oc2c1)OCC(=NCCc1ccc(c(c1)OC)OC)O
INCHI=InChI=1S/C24H27NO6/c1-14-10-20(23-15(2)16(3)24(27)31-21(23)11-14)30-13-22(26)25-9-8-17-6-7-18(28-4)19(12-17)29-5/h6-7,10-12H,8-9,13H2,1-5H3,(H,25,26)
FORMULA=C24H27NO6
PUBMED=N/A
SUBMITUSER=BIOADREM
LIBRARYQUALITY=0
SPECTRUMID=CCMSLIB00000079371
SCANS=1588
ID=CCMSLIB00000079371
103.0542261926 	 3.58
105.0698762568 	 1.86
107.0491408147 	 3.29
109.0647908789 	 1.95
118.0413157826 	 1.59
119.085526321 	 1.78
120.0569658468 	 1.74
121.0647908789 	 5.99
132.0443897878 	 1.76
133.0647908789 	 5.15
133.1011763852 	 1.82
134.072615911 	 5.07
135.0440554368 	 5.8
135.0804409431 	 3.62
136.0518804689 	 1.74
146.072615911 	 6.03
147.0678648841 	 7.23
148.0756899162 	 2.89
149.059705501 	 7.92
149.0960910073 	 1.61
150.0675305331 	 27.53
151.0753555652 	 10.14
159.0804409431 	 6.37
161.059705501 	 2.7
161.0960910073 	 2.6
162.0675305331 	 3.9
162.0913399804 	 6.6
164.0831805973 	 11.5
165.0910056294 	 100
175.0753555652 	 3.42
176.0831805973 	 19.92
177.0910056294 	 10.52
179.0940796346 	 3.9
189.0910056294 	 14.12
194.1175547309 	 9.74
204.0780952194 	 5.89
205.0859202515 	 23.61
219.1015703157 	 2.18
426.1911136045 	 8.02
END IONS

BEGIN IONS
PEPMASS=458.218
CHARGE=1
MSLEVEL=2
RT=0
SOURCE_INSTRUMENT=qTOF
FILENAME=CCMSLIB00000079372.ms
IONMODE=Positive
ORGANISM=Natural
NAME=MLS001158166-01!4-[[[2-[(4,8,8-trimethyl-2-oxo-9,10-dihydropyrano[2,3-h]chromen-5-yl)oxy]acetyl]amino]methyl]cyclohexane-1-carboxylic acid
PI=GNPS
DATACOLLECTOR=GNPS
SMILES=Cc1cc(=O)oc2c3CCC(C)(C)Oc3cc(c12)OCC(=NC[C@H]1CC[C@@H](CC1)C(=O)O)O
INCHI=InChI=1S/C25H31NO7/c1-14-10-21(28)32-23-17-8-9-25(2,3)33-18(17)11-19(22(14)23)31-13-20(27)26-12-15-4-6-16(7-5-15)24(29)30/h10-11,15-16H,4-9,12-13H2,1-3H3,(H,26,27)(H,29,30)/t15-,16-
FORMULA=C25H31NO7
PUBMED=N/A
SUBMITUSER=BIOADREM
LIBRARYQUALITY=0
SPECTRUMID=CCMSLIB00000079372
SCANS=1589
ID=CCMSLIB00000079372
95.085526321 	 29.93
105.0698762568 	 3.7
107.085526321 	 5.66
110.0964253583 	 24.47
112.1120754225 	 5.55
123.0804409431 	 8.97
124.1120754225 	 9.75
134.0964253583 	 4.37
138.0913399804 	 15.05
140.1069900446 	 9.61
141.0910056294 	 4.9
152.1069900446 	 42.77
153.1148150767 	 10.45
161.059705501 	 4.4
163.0389700589 	 4.68
170.1175547309 	 63.99
176.046795091 	 5.04
177.0546201231 	 13.96
180.1019046667 	 18.22
189.0546201231 	 9.7
198.112469353 	 67.88
204.0417097131 	 5.33
205.0495347452 	 91.2
217.0495347452 	 100
219.0651848094 	 7.74
233.0444493673 	 5.44
245.0444493673 	 91.79
247.0600994315 	 10.09
248.0679244636 	 3.73
262.0709984688 	 52.94
264.086648533 	 48.51
273.112135002 	 47.37
301.1070496241 	 45.57
318.1335987256 	 57.48
344.1492487898 	 7.9
356.1492487898 	 73.46
402.1547280982 	 10.01
412.2118490466 	 98.12
458.217328355 	 0
END IONS

BEGIN IONS
PEPMASS=389.182
CHARGE=1
MSLEVEL=2
RT=0
SOURCE_INSTRUMENT=qTOF
FILENAME=CCMSLIB00000079373.ms
IONMODE=Positive
ORGANISM=Natural
NAME=MLS001158620-01!(2R)-1-[(2S)-3-methyl-2-[(3-oxo-2,4-dihydroquinoxaline-1-carbonyl)amino]butanoyl]pyrrolidine-2-carboxylic acid
PI=GNPS
DATACOLLECTOR=GNPS
SMILES=CC(C)[C@@H](C(=O)N1CCC[C@@H]1C(=O)O)N=C(N1CC(=Nc2ccccc12)O)O
INCHI=InChI=1S/C19H24N4O5/c1-11(2)16(17(25)22-9-5-8-14(22)18(26)27)21-19(28)23-10-15(24)20-12-6-3-4-7-13(12)23/h3-4,6-7,11,14,16H,5,8-10H2,1-2H3,(H,20,24)(H,21,28)(H,26,27)/t14-,16+/m1/s1
FORMULA=C19H24N4O5
PUBMED=N/A
SUBMITUSER=BIOADREM
LIBRARYQUALITY=0
SPECTRUMID=CCMSLIB00000079373
SCANS=1590
ID=CCMSLIB00000079373
107.0001792494 	 0.92
108.9920198663 	 0.99
116.0706045383 	 4.88
119.060374203 	 17.44
120.0655191604 	 1.06
121.0760242672 	 13.23
129.0447241388 	 0.99
132.0417097131 	 1.68
147.0552888251 	 100
149.0682588146 	 2.08
150.0311450268 	 4.39
163.1229744598 	 1.53
165.0546201231 	 19.88
172.0968192888 	 1.37
175.0502034472 	 25.83
195.112803704 	 2.2
201.1022390177 	 1.96
218.1261080445 	 2.71
229.0971536398 	 1.74
246.1210226666 	 26.8
389.1819459017 	 0
END IONS

BEGIN IONS
PEPMASS=386.154
CHARGE=1
MSLEVEL=2
RT=0
SOURCE_INSTRUMENT=qTOF
FILENAME=CCMSLIB00000079374.ms
IONMODE=Positive
ORGANISM=Natural
NAME=MLS001146639-01!2,6-dimethoxy-N-(2-pyridin-3-ylpiperidine-1-carbothioyl)benzamide
PI=GNPS
DATACOLLECTOR=GNPS
SMILES=COc1cccc(c1C(=NC(=S)N1CCCCC1c1cccnc1)O)OC
INCHI=InChI=1S/C20H23N3O3S/c1-25-16-9-5-10-17(26-2)18(16)19(24)22-20(27)23-12-4-3-8-15(23)14-7-6-11-21-13-14/h5-7,9-11,13,15H,3-4,8,12H2,1-2H3,(H,22,24,27)
FORMULA=C20H23N3O3S
PUBMED=N/A
SUBMITUSER=BIOADREM
LIBRARYQUALITY=0
SPECTRUMID=CCMSLIB00000079374
SCANS=1591
ID=CCMSLIB00000079374
105.0334907505 	 0.28
107.0127553084 	 3.96
109.0647908789 	 0.76
117.0573001978 	 0.87
118.0651252299 	 2.02
120.0807752941 	 2.42
122.0362304047 	 5.53
129.0698762568 	 0.22
130.0651252299 	 1.33
131.072950262 	 0.94
132.0807752941 	 0.64
135.0440554368 	 1.63
137.059705501 	 0.27
144.0807752941 	 0.8
146.0964253583 	 6.46
147.0552888251 	 4.59
150.0311450268 	 23.59
161.1073243956 	 0.52
163.1229744598 	 3.44
165.0546201231 	 100
175.0502034472 	 1.16
246.1237027413 	 2.07
386.1532883102 	 0
END IONS

BEGIN IONS
PEPMASS=385.1239
CHARGE=1
MSLEVEL=2
RT=0
SOURCE_INSTRUMENT=qTOF
FILENAME=CCMSLIB00000079375.ms
IONMODE=Positive
ORGANISM=Natural
NAME=MLS000574930-01!
PI=GNPS
DATACOLLECTOR=GNPS
SMILES=CC1=CC(=O)O[C@@H]1[C@@]1(C)C[C@@H]2[C@@]3(CO)[C@@H](CC(=O)O2)[C@@H](C)C(=O)C(=C13)O
INCHI=InChI=1S/C19H22O7/c1-8-4-12(21)26-17(8)18(3)6-11-19(7-20)10(5-13(22)25-11)9(2)14(23)15(24)16(18)19/h4,9-11,17,20,24H,5-7H2,1-3H3/t9-,10+,11-,17+,18+,19-/m1/s1
FORMULA=C19H22O7
PUBMED=N/A
SUBMITUSER=BIOADREM
LIBRARYQUALITY=0
SPECTRUMID=CCMSLIB00000079375
SCANS=1592
ID=CCMSLIB00000079375
98.0362304047 	 15.1
99.0440554368 	 5.96
131.085526321 	 5.07
145.1011763852 	 13.8
155.085526321 	 9.47
158.072615911 	 6.71
159.0804409431 	 14.99
173.059705501 	 9.77
173.0960910073 	 27.29
174.1039160394 	 5.97
179.1066556936 	 3.64
185.0960910073 	 7.01
187.0753555652 	 13.2
188.0831805973 	 13.94
189.0910056294 	 10.37
197.0960910073 	 6.86
201.0910056294 	 100
213.0910056294 	 5.59
219.1015703157 	 19.31
225.0910056294 	 7.9
225.1273911357 	 4.33
229.0859202515 	 22.22
230.0937452836 	 21.85
233.0808348736 	 15.59
235.1117410715 	 10.66
238.0988306615 	 5.15
239.1066556936 	 11.11
240.1144807257 	 5.29
247.0964849378 	 24.83
248.1043099699 	 9.25
249.0910056294 	 4.33
253.1223057578 	 12.38
263.1066556936 	 13.65
265.1070496241 	 21.46
266.1148746562 	 100
267.1015703157 	 4.77
281.1172203799 	 11.63
285.112135002 	 6.26
285.1332643746 	 3.72
333.1332643746 	 3.95
363.1438290609 	 85.9
END IONS

BEGIN IONS
PEPMASS=393.131
CHARGE=1
MSLEVEL=2
RT=0
SOURCE_INSTRUMENT=qTOF
FILENAME=CCMSLIB00000079377.ms
IONMODE=Positive
ORGANISM=Natural
NAME=MLS000697724-01!(2R,3S,3aS)-2-(1,3-benzodioxol-5-yl)-5,7-dimethoxy-3-methyl-3a-prop-2-enyl-2,3-dihydro-1-benzofuran-6-one
PI=GNPS
DATACOLLECTOR=GNPS
SMILES=C=CC[C@@]12C=C(C(=O)C(=C2O[C@H]([C@H]1C)c1ccc2c(c1)OCO2)OC)OC
INCHI=InChI=1S/C21H22O6/c1-5-8-21-10-16(23-3)17(22)19(24-4)20(21)27-18(12(21)2)13-6-7-14-15(9-13)26-11-25-14/h5-7,9-10,12,18H,1,8,11H2,2-4H3/t12-,18-,21-/m1/s1
FORMULA=C21H22O6
PUBMED=N/A
SUBMITUSER=BIOADREM
LIBRARYQUALITY=0
SPECTRUMID=CCMSLIB00000079377
SCANS=1594
ID=CCMSLIB00000079377
83.085526321 	 4.63
123.1168264494 	 6.28
141.0334907505 	 6.72
315.086314182 	 100
330.1097892783 	 37.56
331.1176143104 	 7.49
371.1489144388 	 0
END IONS

BEGIN IONS
PEPMASS=253.2277
CHARGE=1
MSLEVEL=2
RT=0
SOURCE_INSTRUMENT=qTOF
FILENAME=CCMSLIB00000079378.ms
IONMODE=Positive
ORGANISM=Natural
NAME=MLS002639189-01!
PI=GNPS
DATACOLLECTOR=GNPS
SMILES=C1CCC(CC1)CN=C(NCC1CCCCC1)O
INCHI=InChI=1S/C15H28N2O/c18-15(16-11-13-7-3-1-4-8-13)17-12-14-9-5-2-6-10-14/h13-14H,1-12H2,(H2,16,17,18)
FORMULA=C15H28N2O
PUBMED=N/A
SUBMITUSER=BIOADREM
LIBRARYQUALITY=0
SPECTRUMID=CCMSLIB00000079378
SCANS=1595
ID=CCMSLIB00000079378
97.1011763852 	 100
99.1042503904 	 1.33
114.1277254867 	 89.67
157.1335391461 	 75.86
253.2274395313 	 148.73
END IONS

BEGIN IONS
PEPMASS=398.134
CHARGE=1
MSLEVEL=2
RT=0
SOURCE_INSTRUMENT=qTOF
FILENAME=CCMSLIB00000079380.ms
IONMODE=Positive
ORGANISM=Natural
NAME=MLS001076859-01!
PI=GNPS
DATACOLLECTOR=GNPS
SMILES=c1cc2[C@@H]3C[C@H](CN(C3)C(=S)N=C(/C=C/c3ccc(cc3)F)O)Cn2c(=O)c1
INCHI=InChI=1S/C21H20FN3O2S/c22-17-7-4-14(5-8-17)6-9-19(26)23-21(28)24-11-15-10-16(13-24)18-2-1-3-20(27)25(18)12-15/h1-9,15-16H,10-13H2,(H,23,26,28)/b9-6+/t15-,16-/m1/s1
FORMULA=C21H20FN3O2S
PUBMED=N/A
SUBMITUSER=BIOADREM
LIBRARYQUALITY=0
SPECTRUMID=CCMSLIB00000079380
SCANS=1596
ID=CCMSLIB00000079380
101.0385761284 	 5.21
119.0491408147 	 1.13
121.0448043605 	 59.01
122.047463793 	 6.08
131.072950262 	 0.98
132.0443897878 	 2.42
132.0807752941 	 0.5
133.0522148199 	 3.12
134.060039852 	 3.07
146.060039852 	 5.12
146.0964253583 	 1.1
148.0756899162 	 42.3
149.0397189826 	 99.86
156.0807752941 	 0.84
158.060039852 	 2.84
159.0678648841 	 1.88
160.0756899162 	 27.95
172.0756899162 	 3.81
174.0913399804 	 22.51
191.1178890819 	 100
199.0865889535 	 0.49
233.0743097077 	 77.36
250.1008588092 	 19.35
276.0819181483 	 1.1
398.1333017918 	 0
END IONS

BEGIN IONS
PEPMASS=345.1445
CHARGE=1
MSLEVEL=2
RT=0
SOURCE_INSTRUMENT=qTOF
FILENAME=CCMSLIB00000079381.ms
IONMODE=Positive
ORGANISM=Natural
NAME=MLS001139277-01!(2S)-5-oxo-1-(3-oxo-1H-2-benzofuran-1-yl)-N-(oxolan-2-ylmethyl)pyrrolidine-2-carboxamide
PI=GNPS
DATACOLLECTOR=GNPS
SMILES=c1ccc2c(c1)C(N1[C@@H](CCC1=O)C(=NCC1CCCO1)O)OC2=O
INCHI=InChI=1S/C18H20N2O5/c21-15-8-7-14(16(22)19-10-11-4-3-9-24-11)20(15)17-12-5-1-2-6-13(12)18(23)25-17/h1-2,5-6,11,14,17H,3-4,7-10H2,(H,19,22)/t11?,14-,17?/m0/s1
FORMULA=C18H20N2O5
PUBMED=N/A
SUBMITUSER=BIOADREM
LIBRARYQUALITY=0
SPECTRUMID=CCMSLIB00000079381
SCANS=1597
ID=CCMSLIB00000079381
105.0334907505 	 11.85
116.0494751657 	 0.46
133.0284053726 	 100
142.0651252299 	 0.5
144.0807752941 	 0.64
154.0651252299 	 0.43
170.060039852 	 0.54
172.0756899162 	 5.72
198.0549544741 	 1.03
216.0655191604 	 0.52
216.1019046667 	 2.72
345.1444977629 	 0.08
END IONS

BEGIN IONS
PEPMASS=477.214
CHARGE=1
MSLEVEL=2
RT=0
SOURCE_INSTRUMENT=qTOF
FILENAME=CCMSLIB00000079382.ms
IONMODE=Positive
ORGANISM=Natural
NAME=MLS001142747-01!
PI=GNPS
DATACOLLECTOR=GNPS
SMILES=C[C@@H](C(=NCc1ccc(c(c1)OC)OC)O)N1C(=O)[C@]2(C)c3c(CCN2C1=O)c1ccccc1[nH]3
INCHI=InChI=1S/C26H28N4O5/c1-15(23(31)27-14-16-9-10-20(34-3)21(13-16)35-4)30-24(32)26(2)22-18(11-12-29(26)25(30)33)17-7-5-6-8-19(17)28-22/h5-10,13,15,28H,11-12,14H2,1-4H3,(H,27,31)/t15-,26-/m0/s1
FORMULA=C26H28N4O5
PUBMED=N/A
SUBMITUSER=BIOADREM
LIBRARYQUALITY=0
SPECTRUMID=CCMSLIB00000079382
SCANS=1598
ID=CCMSLIB00000079382
106.0413157826 	 0.43
107.0491408147 	 5.72
108.0569658468 	 2.17
118.0413157826 	 0.22
135.0440554368 	 3.42
136.0518804689 	 3.31
151.0753555652 	 100
254.1301307899 	 2.75
282.125045412 	 0.78
477.2132460301 	 0
END IONS

BEGIN IONS
PEPMASS=467.2487
CHARGE=1
MSLEVEL=2
RT=0
SOURCE_INSTRUMENT=qTOF
FILENAME=CCMSLIB00000079383.ms
IONMODE=Positive
ORGANISM=Natural
NAME=MLS001141047-01!1-[(2S)-2-amino-4-methylsulfanylbutanoyl]-N-[(2S)-1-[(2-fluorophenyl)methylamino]-3-methyl-1-oxobutan-2-yl]piperidine-4-carboxamide
PI=GNPS
DATACOLLECTOR=GNPS
SMILES=CC(C)[C@@H](C(=NCc1ccccc1F)O)N=C(C1CCN(CC1)C(=O)[C@H](CCSC)N)O
INCHI=InChI=1S/C23H35FN4O3S/c1-15(2)20(22(30)26-14-17-6-4-5-7-18(17)24)27-21(29)16-8-11-28(12-9-16)23(31)19(25)10-13-32-3/h4-7,15-16,19-20H,8-14,25H2,1-3H3,(H,26,30)(H,27,29)/t19-,20-/m0/s1
FORMULA=C23H35FN4O3S
PUBMED=N/A
SUBMITUSER=BIOADREM
LIBRARYQUALITY=0
SPECTRUMID=CCMSLIB00000079383
SCANS=1599
ID=CCMSLIB00000079383
104.0528459841 	 9.56
109.0448043605 	 6.16
110.0964253583 	 0.45
111.0916743314 	 0.43
112.0756899162 	 100
123.0552888251 	 0.59
126.071353462 	 4.63
129.1022390177 	 1.19
139.0865889535 	 0.83
158.0997961767 	 1.74
164.1069900446 	 0.78
167.0815035756 	 1.84
167.1178890819 	 2.21
180.1183036546 	 0.48
181.1335391461 	 0.96
183.1491892103 	 21.2
210.1600882476 	 0.51
211.1441038324 	 28.21
225.1397673782 	 18.45
235.1441038324 	 0.73
238.1550028697 	 1.82
266.1863029981 	 8.01
294.1812176202 	 0.93
297.163124715 	 0.85
314.1896738165 	 4.59
315.1900883892 	 1.59
336.2081812944 	 23.42
337.2108238313 	 4.4
342.1845884386 	 2.15
343.1850030113 	 0.5
383.2163031397 	 0.56
419.2452950822 	 6.95
450.2221167991 	 0.57
467.2486659006 	 1.49
END IONS

BEGIN IONS
PEPMASS=347.224
CHARGE=1
MSLEVEL=2
RT=0
SOURCE_INSTRUMENT=qTOF
FILENAME=CCMSLIB00000079384.ms
IONMODE=Positive
ORGANISM=Natural
NAME=MLS000728639-01!
PI=GNPS
DATACOLLECTOR=GNPS
SMILES=CN1CCC23c4ccccc4NC1C13CCN(C)C2Nc2ccccc12
INCHI=InChI=1S/C22H26N4/c1-25-13-11-22-16-8-4-5-9-17(16)23-19(25)21(22)12-14-26(2)20(22)24-18-10-6-3-7-15(18)21/h3-10,19-20,23-24H,11-14H2,1-2H3
FORMULA=C22H26N4
PUBMED=N/A
SUBMITUSER=BIOADREM
LIBRARYQUALITY=0
SPECTRUMID=CCMSLIB00000079384
SCANS=1600
ID=CCMSLIB00000079384
117.0573001978 	 12.23
118.0651252299 	 17.69
130.0651252299 	 54.12
132.0807752941 	 45.48
143.072950262 	 14.49
144.0807752941 	 60.77
156.0807752941 	 9.97
159.0916743314 	 8.24
168.0807752941 	 19.15
170.0964253583 	 15.82
173.1073243956 	 100
185.1073243956 	 22.47
211.1229744598 	 18.09
232.0994993635 	 21.28
233.1073243956 	 70.74
244.0994993635 	 14.63
245.1073243956 	 8.11
247.1229744598 	 53.19
257.1073243956 	 30.85
258.1151494277 	 33.78
259.1229744598 	 53.72
269.1073243956 	 16.22
273.138624524 	 20.88
285.138624524 	 58.24
347.2230228554 	 0
END IONS

BEGIN IONS
PEPMASS=424.184
CHARGE=1
MSLEVEL=2
RT=0
SOURCE_INSTRUMENT=qTOF
FILENAME=CCMSLIB00000079385.ms
IONMODE=Positive
ORGANISM=Natural
NAME=MLS001157745-01!(2S)-1-[(2S)-2-[(5-methoxy-1-methylindole-2-carbonyl)amino]-3-methylbutanoyl]pyrrolidine-2-carboxylic acid
PI=GNPS
DATACOLLECTOR=GNPS
SMILES=CC(C)[C@@H](C(=O)N1CCC[C@H]1C(=O)O)N=C(c1cc2cc(ccc2n1C)OC)O
INCHI=InChI=1S/C21H27N3O5/c1-12(2)18(20(26)24-9-5-6-16(24)21(27)28)22-19(25)17-11-13-10-14(29-4)7-8-15(13)23(17)3/h7-8,10-12,16,18H,5-6,9H2,1-4H3,(H,22,25)(H,27,28)/t16-,18-/m0/s1
FORMULA=C21H27N3O5
PUBMED=N/A
SUBMITUSER=BIOADREM
LIBRARYQUALITY=0
SPECTRUMID=CCMSLIB00000079385
SCANS=1601
ID=CCMSLIB00000079385
86.072615911 	 5.51
89.0385761284 	 4.35
95.072950262 	 9.19
97.0647908789 	 8.03
107.0127553084 	 5.51
109.0647908789 	 0.53
114.0913399804 	 4.74
116.0706045383 	 58.54
117.0573001978 	 2.79
119.0491408147 	 2.17
120.0318137288 	 3.87
120.0529431014 	 0.79
122.0573597773 	 0.52
123.0678648841 	 4.64
130.0736785435 	 0.43
134.047463793 	 4.45
136.0756899162 	 1.85
145.0522148199 	 2.11
147.0638421387 	 0.5
149.047129442 	 0.94
152.0620512247 	 4.74
160.0756899162 	 2.38
161.0794922029 	 0.93
167.0940796346 	 15.28
178.0611024845 	 5.13
187.0138179409 	 4.93
187.0951422671 	 5.9
188.0706045383 	 100
189.074406825 	 10.96
190.0736785435 	 0.99
201.1148150767 	 0.52
206.0811692246 	 3.97
216.138290173 	 4.92
237.1597538966 	 4.06
239.0702701873 	 11.61
257.0794922029 	 4.74
259.1441038324 	 1.35
288.1706529339 	 0.52
293.1172203799 	 4.26
305.1495831408 	 27.56
306.1448321139 	 7.64
402.2023469928 	 0
END IONS

BEGIN IONS
PEPMASS=374.1597
CHARGE=1
MSLEVEL=2
RT=0
SOURCE_INSTRUMENT=qTOF
FILENAME=CCMSLIB00000079387.ms
IONMODE=Positive
ORGANISM=Natural
NAME=MLS001141349-01!1-[2-(4-ethyl-7-methyl-2-oxochromen-5-yl)oxyacetyl]piperidine-4-carboxylic acid
PI=GNPS
DATACOLLECTOR=GNPS
SMILES=CCc1cc(=O)oc2cc(C)cc(c12)OCC(=O)N1CCC(CC1)C(=O)O
INCHI=InChI=1S/C20H23NO6/c1-3-13-10-18(23)27-16-9-12(2)8-15(19(13)16)26-11-17(22)21-6-4-14(5-7-21)20(24)25/h8-10,14H,3-7,11H2,1-2H3,(H,24,25)
FORMULA=C20H23NO6
PUBMED=N/A
SUBMITUSER=BIOADREM
LIBRARYQUALITY=0
SPECTRUMID=CCMSLIB00000079387
SCANS=1603
ID=CCMSLIB00000079387
96.0807752941 	 1.78
99.0440554368 	 6.26
103.0542261926 	 1.97
105.0698762568 	 3.51
112.0756899162 	 5.21
121.0647908789 	 3.59
124.0756899162 	 3.72
126.0913399804 	 7.79
128.0706045383 	 55.26
131.085526321 	 4.18
142.0862546025 	 100
146.072615911 	 3.25
147.0804409431 	 3.61
148.0518804689 	 2.56
159.0804409431 	 5.71
161.059705501 	 8
161.0960910073 	 7.6
170.0811692246 	 13.71
174.0675305331 	 9.41
175.0753555652 	 5.86
176.046795091 	 4.53
177.0546201231 	 19.11
187.0753555652 	 19.06
189.0910056294 	 24.54
199.0753555652 	 5.33
202.0624451552 	 10.27
203.0702701873 	 21.23
205.0859202515 	 10.98
217.0859202515 	 44.01
245.0808348736 	 11.88
328.1543341677 	 5.06
374.1598134761 	 11.21
END IONS

BEGIN IONS
PEPMASS=448.1866
CHARGE=1
MSLEVEL=2
RT=0
SOURCE_INSTRUMENT=qTOF
FILENAME=CCMSLIB00000079388.ms
IONMODE=Positive
ORGANISM=Natural
NAME=MLS001158244-01!
PI=GNPS
DATACOLLECTOR=GNPS
SMILES=Cc1c(ccc2c(cc(=O)oc12)c1ccc(cc1)OC)OCC(=NCCCn1ccnc1)O
INCHI=InChI=1S/C25H25N3O5/c1-17-22(32-15-23(29)27-10-3-12-28-13-11-26-16-28)9-8-20-21(14-24(30)33-25(17)20)18-4-6-19(31-2)7-5-18/h4-9,11,13-14,16H,3,10,12,15H2,1-2H3,(H,27,29)
FORMULA=C25H25N3O5
PUBMED=N/A
SUBMITUSER=BIOADREM
LIBRARYQUALITY=0
SPECTRUMID=CCMSLIB00000079388
SCANS=1604
ID=CCMSLIB00000079388
95.060374203 	 3.23
98.060039852 	 0.61
99.0678648841 	 60.36
135.0440554368 	 0.87
194.072615911 	 0.74
208.0882659752 	 0.96
209.0960910073 	 0.99
211.0753555652 	 4.01
224.0831805973 	 0.88
225.086982884 	 0.77
230.0811692246 	 0.61
237.0910056294 	 4.29
238.0948079161 	 1
239.0702701873 	 8.99
239.1066556936 	 2.38
240.074072474 	 1
240.1104579803 	 0.67
241.0859202515 	 0.65
249.0910056294 	 0.94
251.1066556936 	 0.85
252.0807752941 	 1.24
254.0937452836 	 3.8
255.0975475703 	 0.94
267.1015703157 	 7.42
268.1053726024 	 1.3
277.0859202515 	 1.9
278.0897225382 	 0.73
279.1015703157 	 0.94
280.0756899162 	 1.15
280.1332047951 	 0.92
281.0794922029 	 1.27
282.0886599057 	 3.75
283.0964849378 	 2.08
294.112469353 	 0.93
295.0964849378 	 99.73
296.1029672992 	 17.82
297.1022390177 	 1.98
306.112469353 	 1.25
322.1073839751 	 1.65
323.0913995599 	 28.17
324.0978819213 	 3.51
325.0971536398 	 0.72
334.1073839751 	 0.68
336.1553968002 	 0.64
352.1179486614 	 2.72
353.1257736935 	 0.95
362.1386841035 	 1.04
365.1257736935 	 3.25
366.1335987256 	 0.75
380.1492487898 	 100
381.1570738219 	 24.84
382.1550028697 	 2.96
448.1866969286 	 2.11
END IONS

BEGIN IONS
PEPMASS=437.2071
CHARGE=1
MSLEVEL=2
RT=0
SOURCE_INSTRUMENT=qTOF
FILENAME=CCMSLIB00000079389.ms
IONMODE=Positive
ORGANISM=Natural
NAME=MLS001160488-01!2-[(8,8-dimethyl-2-oxo-4-propyl-9,10-dihydropyrano[2,3-h]chromen-5-yl)oxy]-N-(pyridin-2-ylmethyl)acetamide
PI=GNPS
DATACOLLECTOR=GNPS
SMILES=CCCc1cc(=O)oc2c3CCC(C)(C)Oc3cc(c12)OCC(=NCc1ccccn1)O
INCHI=InChI=1S/C25H28N2O5/c1-4-7-16-12-22(29)31-24-18-9-10-25(2,3)32-19(18)13-20(23(16)24)30-15-21(28)27-14-17-8-5-6-11-26-17/h5-6,8,11-13H,4,7,9-10,14-15H2,1-3H3,(H,27,28)
FORMULA=C25H28N2O5
PUBMED=N/A
SUBMITUSER=BIOADREM
LIBRARYQUALITY=0
SPECTRUMID=CCMSLIB00000079389
SCANS=1605
ID=CCMSLIB00000079389
105.0447241388 	 0.6
107.060374203 	 34.54
119.0365647557 	 9.08
119.060374203 	 2.34
121.0760242672 	 6.78
131.060374203 	 2.59
132.0681992351 	 4.3
149.0709388893 	 100
159.0804409431 	 0.49
163.0753555652 	 0.69
171.0804409431 	 0.52
187.0753555652 	 0.56
189.0546201231 	 0.77
189.0910056294 	 0.69
191.0702701873 	 1.01
201.0910056294 	 0.51
203.033884681 	 0.5
203.0702701873 	 0.7
205.0859202515 	 1.57
215.0702701873 	 0.54
217.0859202515 	 3.99
227.0702701873 	 1.09
229.0859202515 	 0.51
231.0651848094 	 1.86
233.0808348736 	 6.55
245.0808348736 	 21.08
257.0808348736 	 0.63
261.0757494957 	 0.6
273.0757494957 	 33.1
301.1434351304 	 2.05
329.1383497525 	 0.86
335.1390184545 	 0.49
346.1073839751 	 0.57
351.1339330766 	 0.49
363.1339330766 	 7.79
369.1444977629 	 1.27
381.1444977629 	 0.89
419.1965333334 	 0.85
437.2070980197 	 4.05
END IONS

BEGIN IONS
PEPMASS=481.1508
CHARGE=1
MSLEVEL=2
RT=0
SOURCE_INSTRUMENT=qTOF
FILENAME=CCMSLIB00000079390.ms
IONMODE=Positive
ORGANISM=Natural
NAME=MLS001160332-01!
PI=GNPS
DATACOLLECTOR=GNPS
SMILES=CC(C(=O)N1C[C@H]2C[C@@H](C1)c1cccc(=O)n1C2)Oc1cc2c(cc1Cl)c1CCCc1c(=O)o2
INCHI=InChI=1S/C26H25ClN2O5/c1-14(25(31)28-11-15-8-16(13-28)21-6-3-7-24(30)29(21)12-15)33-23-10-22-19(9-20(23)27)17-4-2-5-18(17)26(32)34-22/h3,6-7,9-10,14-16H,2,4-5,8,11-13H2,1H3/t14?,15-,16+/m1/s1
FORMULA=C26H25ClN2O5
PUBMED=N/A
SUBMITUSER=BIOADREM
LIBRARYQUALITY=0
SPECTRUMID=CCMSLIB00000079390
SCANS=1606
ID=CCMSLIB00000079390
110.060039852 	 0.74
117.0573001978 	 0.55
122.0573597773 	 1.53
132.0443897878 	 1.33
134.060039852 	 3.82
143.0702701873 	 0.67
145.0522148199 	 0.64
146.060039852 	 17.26
147.0678648841 	 20.42
148.0730098415 	 6.4
159.0651848094 	 2.04
160.0756899162 	 5.86
162.0913399804 	 1.95
163.0964849378 	 2.05
172.0756899162 	 2.25
173.0835149483 	 17.56
174.0886599057 	 3.07
175.0475233725 	 1.29
189.1022390177 	 100
190.1073839751 	 18.13
191.1178890819 	 12.47
202.0835745278 	 1.44
205.0944735651 	 0.8
217.0971536398 	 2.89
218.1022985972 	 0.81
245.1284537682 	 16.17
246.1335987256 	 10.5
481.1524756334 	 21.22
END IONS

BEGIN IONS
PEPMASS=438.1911
CHARGE=1
MSLEVEL=2
RT=0
SOURCE_INSTRUMENT=qTOF
FILENAME=CCMSLIB00000079391.ms
IONMODE=Positive
ORGANISM=Natural
NAME=MLS001141221-01!N-[(4-methoxyphenyl)methyl]-2-[(4,8,8-trimethyl-2-oxo-9,10-dihydropyrano[2,3-h]chromen-5-yl)oxy]acetamide
PI=GNPS
DATACOLLECTOR=GNPS
SMILES=Cc1cc(=O)oc2c3CCC(C)(C)Oc3cc(c12)OCC(=NCc1ccc(cc1)OC)O
INCHI=InChI=1S/C25H27NO6/c1-15-11-22(28)31-24-18-9-10-25(2,3)32-19(18)12-20(23(15)24)30-14-21(27)26-13-16-5-7-17(29-4)8-6-16/h5-8,11-12H,9-10,13-14H2,1-4H3,(H,26,27)
FORMULA=C25H27NO6
PUBMED=N/A
SUBMITUSER=BIOADREM
LIBRARYQUALITY=0
SPECTRUMID=CCMSLIB00000079391
SCANS=1607
ID=CCMSLIB00000079391
105.0334907505 	 0.29
106.0413157826 	 0.43
118.0651252299 	 0.26
121.0647908789 	 100
149.059705501 	 0.63
150.0913399804 	 3.64
160.0756899162 	 0.4
176.046795091 	 1.89
177.0546201231 	 1.59
178.0862546025 	 4.63
204.0417097131 	 0.71
205.0495347452 	 8.38
263.1152090072 	 0.3
382.1285133477 	 3.41
438.1911136045 	 6.45
END IONS

BEGIN IONS
PEPMASS=577.245
CHARGE=1
MSLEVEL=2
RT=0
SOURCE_INSTRUMENT=qTOF
FILENAME=CCMSLIB00000079392.ms
IONMODE=Positive
ORGANISM=Natural
NAME=MLS001140665-01!
PI=GNPS
DATACOLLECTOR=GNPS
SMILES=CC(C)c1ccc(cc1)C1c2c(C[C@H]3C(=O)N(c4ccccc4C(=O)N4CCC[C@@H]4C(=O)O)C(=O)N13)c1ccccc1[nH]2
INCHI=InChI=1S/C34H32N4O5/c1-19(2)20-13-15-21(16-14-20)30-29-24(22-8-3-5-10-25(22)35-29)18-28-32(40)38(34(43)37(28)30)26-11-6-4-9-23(26)31(39)36-17-7-12-27(36)33(41)42/h3-6,8-11,13-16,19,27-28,30,35H,7,12,17-18H2,1-2H3,(H,41,42)/t27-,28+,30?/m1/s1
FORMULA=C34H32N4O5
PUBMED=N/A
SUBMITUSER=BIOADREM
LIBRARYQUALITY=0
SPECTRUMID=CCMSLIB00000079392
SCANS=1608
ID=CCMSLIB00000079392
105.0698762568 	 0.8
133.1011763852 	 3.46
146.0236543457 	 5.14
208.0743472455 	 7.53
216.0807752941 	 1
217.0886003262 	 4.28
218.0964253583 	 100
219.100227645 	 16.71
230.0964253583 	 2.36
236.0692618676 	 30.52
244.1080526771 	 0.62
246.1237027413 	 0.55
248.1433755509 	 0.78
250.1212974381 	 1.7
257.1199004546 	 0.8
258.0913399804 	 1.77
258.1237027413 	 0.76
259.1315277734 	 1.03
260.1433755509 	 4.89
261.1471778376 	 12.58
271.0865889535 	 0.82
272.1433755509 	 13.3
273.1022390177 	 1.83
273.1471778376 	 3.08
278.1162120602 	 7.66
300.138290173 	 4.6
301.1420924597 	 1.46
302.1175547309 	 0.62
315.1491892103 	 2.76
316.152991497 	 2.24
349.1295164007 	 0.56
359.1138663365 	 1.24
376.1166059907 	 2.44
377.1244310228 	 7.16
378.1322560549 	 2.74
391.1764665933 	 2.06
401.1608165291 	 0.6
419.1713812154 	 19.43
434.1863029981 	 5.17
462.1812176202 	 32.63
577.2445461585 	 0
END IONS

BEGIN IONS
PEPMASS=516.2163
CHARGE=1
MSLEVEL=2
RT=0
SOURCE_INSTRUMENT=qTOF
FILENAME=CCMSLIB00000079393.ms
IONMODE=Positive
ORGANISM=Natural
NAME=MLS001142816-01!(2S)-2-[[1-[(2S)-3-methyl-2-[(4-methylphenyl)sulfonylamino]butanoyl]piperidine-4-carbonyl]amino]-2-phenylacetic acid
PI=GNPS
DATACOLLECTOR=GNPS
SMILES=CC(C)[C@@H](C(=O)N1CCC(CC1)C(=N[C@@H](c1ccccc1)C(=O)O)O)NS(=O)(=O)c1ccc(C)cc1
INCHI=InChI=1S/C26H33N3O6S/c1-17(2)22(28-36(34,35)21-11-9-18(3)10-12-21)25(31)29-15-13-20(14-16-29)24(30)27-23(26(32)33)19-7-5-4-6-8-19/h4-12,17,20,22-23,28H,13-16H2,1-3H3,(H,27,30)(H,32,33)/t22-,23-/m0/s1
FORMULA=C26H33N3O6S
PUBMED=N/A
SUBMITUSER=BIOADREM
LIBRARYQUALITY=0
SPECTRUMID=CCMSLIB00000079393
SCANS=1609
ID=CCMSLIB00000079393
106.0651252299 	 10.39
107.0491408147 	 1.09
107.072950262 	 0.82
110.060039852 	 0.84
112.0756899162 	 97.5
135.0440554368 	 5.2
155.0161261268 	 100
163.0212115047 	 0.85
200.1069900446 	 0.82
206.0759867294 	 0.88
226.0896254209 	 56.86
228.0841461125 	 6.55
245.1284537682 	 1.2
261.1181858951 	 0.71
263.1390184545 	 34.72
264.138290173 	 8.41
265.1494860235 	 0.71
337.1580393371 	 1.36
338.1573110556 	 1.11
364.1689383744 	 0.88
382.1835258061 	 0.75
470.2108031891 	 1.58
471.2186282212 	 1.29
516.2162824975 	 0.67
END IONS

BEGIN IONS
PEPMASS=409.175
CHARGE=1
MSLEVEL=2
RT=0
SOURCE_INSTRUMENT=qTOF
FILENAME=CCMSLIB00000079394.ms
IONMODE=Positive
ORGANISM=Natural
NAME=MLS001141215-01!N-(pyridin-4-ylmethyl)-2-[(4,8,8-trimethyl-2-oxo-9,10-dihydropyrano[2,3-h]chromen-5-yl)oxy]acetamide
PI=GNPS
DATACOLLECTOR=GNPS
SMILES=Cc1cc(=O)oc2c3CCC(C)(C)Oc3cc(c12)OCC(=NCc1ccncc1)O
INCHI=InChI=1S/C23H24N2O5/c1-14-10-20(27)29-22-16-4-7-23(2,3)30-17(16)11-18(21(14)22)28-13-19(26)25-12-15-5-8-24-9-6-15/h5-6,8-11H,4,7,12-13H2,1-3H3,(H,25,26)
FORMULA=C23H24N2O5
PUBMED=N/A
SUBMITUSER=BIOADREM
LIBRARYQUALITY=0
SPECTRUMID=CCMSLIB00000079394
SCANS=1610
ID=CCMSLIB00000079394
96.0443897878 	 1.03
104.0494751657 	 1.78
106.0651252299 	 4.3
107.060374203 	 47.15
108.0443897878 	 18.75
119.060374203 	 9.38
120.0443897878 	 34.5
121.0760242672 	 38.28
131.060374203 	 1.21
132.0443897878 	 1.57
132.0681992351 	 0.82
133.0647908789 	 0.35
135.0440554368 	 0.68
147.0552888251 	 1.76
149.0709388893 	 50.83
150.0787639214 	 12.09
159.0440554368 	 0.45
161.059705501 	 1.02
176.046795091 	 1.05
177.0546201231 	 2.75
179.0576941283 	 0.29
182.0685931656 	 0.28
189.0546201231 	 2.03
205.0495347452 	 19.79
207.0526087504 	 0.63
217.0495347452 	 7.69
233.0444493673 	 0.34
245.0444493673 	 1.36
273.112135002 	 1.98
301.1070496241 	 0.62
342.1210226666 	 0.7
353.1131976345 	 100
409.1757978913 	 11.6
END IONS

BEGIN IONS
PEPMASS=530.2755
CHARGE=1
MSLEVEL=2
RT=0
SOURCE_INSTRUMENT=qTOF
FILENAME=CCMSLIB00000079395.ms
IONMODE=Positive
ORGANISM=Natural
NAME=MLS001141046-01!
PI=GNPS
DATACOLLECTOR=GNPS
SMILES=C[C@@H](C(=NC1CCN(CC1)Cc1ccccc1)O)N1C(=O)[C@]2(C)c3c(CCN2C1=O)c1cc(ccc1[nH]3)OC
INCHI=InChI=1S/C30H35N5O4/c1-19(27(36)31-21-11-14-33(15-12-21)18-20-7-5-4-6-8-20)35-28(37)30(2)26-23(13-16-34(30)29(35)38)24-17-22(39-3)9-10-25(24)32-26/h4-10,17,19,21,32H,11-16,18H2,1-3H3,(H,31,36)/t19-,30-/m0/s1
FORMULA=C30H35N5O4
PUBMED=N/A
SUBMITUSER=BIOADREM
LIBRARYQUALITY=0
SPECTRUMID=CCMSLIB00000079395
SCANS=1611
ID=CCMSLIB00000079395
120.0807752941 	 1.54
145.1011763852 	 1.21
146.0964253583 	 1.35
159.0678648841 	 0.99
160.0756899162 	 1.47
172.1120754225 	 7.19
173.0835149483 	 5.15
174.1277254867 	 100
191.1542745882 	 1.21
198.0913399804 	 1.8
200.1069900446 	 1.16
213.1022390177 	 2.14
215.1178890819 	 4.75
241.0971536398 	 7.98
242.0964253583 	 2.02
243.112803704 	 1.48
249.1148150767 	 1.3
250.1186173634 	 3.1
264.138290173 	 21.13
265.1420924597 	 5.22
269.0920682619 	 2.38
270.0913399804 	 0.94
282.1237027413 	 1.9
284.1393528055 	 74.97
286.1226401088 	 3.09
296.1029672992 	 1.46
297.1107923313 	 2.07
310.1186173634 	 1.71
312.1342674276 	 30.68
313.1335391461 	 5.35
324.1342674276 	 1
331.1441038324 	 3.36
340.1291820497 	 0.97
341.1284537682 	 1.1
358.1635561833 	 1.24
359.1390184545 	 1.72
374.1863029981 	 21.64
375.1901052848 	 7.09
402.1812176202 	 16.49
438.2135803811 	 1.01
515.2527055416 	 1.49
530.2761806379 	 145.82
END IONS

BEGIN IONS
PEPMASS=504.2241
CHARGE=1
MSLEVEL=2
RT=0
SOURCE_INSTRUMENT=qTOF
FILENAME=CCMSLIB00000079396.ms
IONMODE=Positive
ORGANISM=Natural
NAME=MLS001139345-01!N-[2-(3,4-dimethoxyphenyl)ethyl]-2-imino-5-oxo-1-(oxolan-2-ylmethyl)dipyrido[1,2-d:3',4'-f]pyrimidine-3-carboxamide
PI=GNPS
DATACOLLECTOR=GNPS
SMILES=COc1ccc(CCN=C(c2cc3c(nc4ccccn4c3=O)n(CC3CCCO3)c2=N)O)cc1OC
INCHI=InChI=1S/C27H29N5O5/c1-35-21-9-8-17(14-22(21)36-2)10-11-29-26(33)19-15-20-25(30-23-7-3-4-12-31(23)27(20)34)32(24(19)28)16-18-6-5-13-37-18/h3-4,7-9,12,14-15,18,28H,5-6,10-11,13,16H2,1-2H3,(H,29,33)
FORMULA=C27H29N5O5
PUBMED=N/A
SUBMITUSER=BIOADREM
LIBRARYQUALITY=0
SPECTRUMID=CCMSLIB00000079396
SCANS=1612
ID=CCMSLIB00000079396
105.0698762568 	 0.86
120.0556231761 	 1.28
133.0647908789 	 1.12
135.0440554368 	 0.8
135.0790982724 	 0.56
150.0675305331 	 6.33
165.0910056294 	 16.69
184.0505377982 	 3.97
211.0614368355 	 5.38
212.0665817929 	 2.49
221.0457867713 	 1.11
237.0757494957 	 1.06
239.0563514576 	 100
240.061496415 	 22.57
251.0563514576 	 2.9
257.0669161439 	 1.75
277.0720015218 	 1.42
279.1213570176 	 0.68
281.0669161439 	 0.61
293.1033016502 	 0.71
297.1319217039 	 0.95
305.1033016502 	 2.65
311.1138663365 	 2
323.1138663365 	 72.37
340.140415438 	 0.61
402.1560655022 	 0.97
404.1353300601 	 2.19
420.1666301885 	 19.69
446.1822802527 	 0.69
486.2135803811 	 1.06
488.192844939 	 2.25
504.2241450674 	 68.52
END IONS

BEGIN IONS
PEPMASS=360.1451
CHARGE=1
MSLEVEL=2
RT=0
SOURCE_INSTRUMENT=qTOF
FILENAME=CCMSLIB00000079397.ms
IONMODE=Positive
ORGANISM=Natural
NAME=MLS001139463-01!(2R)-1-[2-(3,4,7-trimethyl-2-oxochromen-5-yl)oxyacetyl]pyrrolidine-2-carboxylic acid
PI=GNPS
DATACOLLECTOR=GNPS
SMILES=Cc1cc(c2c(C)c(C)c(=O)oc2c1)OCC(=O)N1CCC[C@@H]1C(=O)O
INCHI=InChI=1S/C19H21NO6/c1-10-7-14(17-11(2)12(3)19(24)26-15(17)8-10)25-9-16(21)20-6-4-5-13(20)18(22)23/h7-8,13H,4-6,9H2,1-3H3,(H,22,23)/t13-/m1/s1
FORMULA=C19H21NO6
PUBMED=N/A
SUBMITUSER=BIOADREM
LIBRARYQUALITY=0
SPECTRUMID=CCMSLIB00000079397
SCANS=1613
ID=CCMSLIB00000079397
95.0491408147 	 3.93
98.060039852 	 14.83
100.0756899162 	 27.21
105.0698762568 	 11.69
107.085526321 	 4.13
112.0756899162 	 33.99
119.085526321 	 5.26
121.0647908789 	 15.28
128.0706045383 	 26.28
129.0698762568 	 5.01
130.0777012889 	 7.71
131.0491408147 	 5.21
133.1011763852 	 8.6
137.059705501 	 4.72
144.0569658468 	 4.08
146.072615911 	 9.18
147.0804409431 	 11.44
149.059705501 	 5.35
156.0655191604 	 18.52
158.072615911 	 4.47
159.0804409431 	 73.53
161.059705501 	 44.84
161.0960910073 	 30.45
174.0675305331 	 10.66
175.0753555652 	 26.87
176.0831805973 	 85.41
187.0753555652 	 9.33
189.0910056294 	 100
199.0753555652 	 4.13
204.0780952194 	 33.4
205.0859202515 	 59.53
217.0859202515 	 89.54
245.0808348736 	 40.47
263.0913995599 	 6.97
360.1441634119 	 9.28
END IONS

BEGIN IONS
PEPMASS=408.145
CHARGE=1
MSLEVEL=2
RT=0
SOURCE_INSTRUMENT=qTOF
FILENAME=CCMSLIB00000079398.ms
IONMODE=Positive
ORGANISM=Natural
NAME=MLS001139300-01!(2S)-2-[[2-[(4-oxo-2,3-dihydro-1H-cyclopenta[c]chromen-7-yl)oxy]acetyl]amino]-3-phenylpropanoic acid
PI=GNPS
DATACOLLECTOR=GNPS
SMILES=c1ccc(cc1)C[C@@H](C(=O)O)N=C(COc1ccc2c3CCCc3c(=O)oc2c1)O
INCHI=InChI=1S/C23H21NO6/c25-21(24-19(22(26)27)11-14-5-2-1-3-6-14)13-29-15-9-10-17-16-7-4-8-18(16)23(28)30-20(17)12-15/h1-3,5-6,9-10,12,19H,4,7-8,11,13H2,(H,24,25)(H,26,27)/t19-/m0/s1
FORMULA=C23H21NO6
PUBMED=N/A
SUBMITUSER=BIOADREM
LIBRARYQUALITY=0
SPECTRUMID=CCMSLIB00000079398
SCANS=1614
ID=CCMSLIB00000079398
103.0542261926 	 11.14
105.0698762568 	 31.32
107.0491408147 	 2.12
115.0542261926 	 8.36
120.0807752941 	 28.29
127.0542261926 	 1.24
128.0620512247 	 15.3
129.0698762568 	 22.32
131.0491408147 	 3.63
131.085526321 	 5.45
132.0807752941 	 100
133.0647908789 	 4.75
141.0698762568 	 3.28
145.0647908789 	 3.22
147.0440554368 	 3.8
147.0804409431 	 2.14
150.0913399804 	 2.09
157.0647908789 	 28.13
159.0804409431 	 14.08
161.059705501 	 1.14
174.0675305331 	 4.18
175.0753555652 	 3.15
185.059705501 	 54.19
187.0753555652 	 30.78
202.0624451552 	 8.17
203.0702701873 	 35.36
215.0702701873 	 61.65
243.0651848094 	 4.39
362.1386841035 	 11.34
363.1465091356 	 4.51
408.1441634119 	 0
END IONS

BEGIN IONS
PEPMASS=374.16
CHARGE=1
MSLEVEL=2
RT=0
SOURCE_INSTRUMENT=qTOF
FILENAME=CCMSLIB00000079399.ms
IONMODE=Positive
ORGANISM=Natural
NAME=MLS001140910-01!4-[[2-(2-oxochromen-7-yl)oxypropanoylamino]methyl]cyclohexane-1-carboxylic acid
PI=GNPS
DATACOLLECTOR=GNPS
SMILES=CC(C(=NC[C@H]1CC[C@@H](CC1)C(=O)O)O)Oc1ccc2ccc(=O)oc2c1
INCHI=InChI=1S/C20H23NO6/c1-12(19(23)21-11-13-2-4-15(5-3-13)20(24)25)26-16-8-6-14-7-9-18(22)27-17(14)10-16/h6-10,12-13,15H,2-5,11H2,1H3,(H,21,23)(H,24,25)/t12?,13-,15-
FORMULA=C20H23NO6
PUBMED=N/A
SUBMITUSER=BIOADREM
LIBRARYQUALITY=0
SPECTRUMID=CCMSLIB00000079399
SCANS=1615
ID=CCMSLIB00000079399
95.085526321 	 11.88
105.0698762568 	 7.64
107.0491408147 	 7.78
110.0964253583 	 3.22
112.1120754225 	 9.87
115.0542261926 	 4.05
117.0698762568 	 2.01
119.0491408147 	 4.85
121.0647908789 	 5.39
133.0647908789 	 8.82
138.0913399804 	 5.18
138.1277254867 	 10.65
140.1069900446 	 49.92
145.0284053726 	 6.53
145.0647908789 	 3.52
161.059705501 	 16.7
163.0389700589 	 100
166.0862546025 	 1.51
171.0440554368 	 1.92
189.0546201231 	 92.43
194.1175547309 	 5.68
217.0495347452 	 2.53
234.0760838467 	 13.11
328.1543341677 	 7.57
374.1598134761 	 0
END IONS

BEGIN IONS
PEPMASS=194.082
CHARGE=1
MSLEVEL=2
RT=0
SOURCE_INSTRUMENT=qTOF
FILENAME=CCMSLIB00000079400.ms
IONMODE=Positive
ORGANISM=Natural
NAME=MLS002206418-01!2-[benzoyl(methyl)amino]acetic acid
PI=GNPS
DATACOLLECTOR=GNPS
SMILES=CN(CC(=O)O)C(=O)c1ccccc1
INCHI=InChI=1S/C10H11NO3/c1-11(7-9(12)13)10(14)8-5-3-2-4-6-8/h2-6H,7H2,1H3,(H,12,13)
FORMULA=C10H11NO3
PUBMED=N/A
SUBMITUSER=BIOADREM
LIBRARYQUALITY=0
SPECTRUMID=CCMSLIB00000079400
SCANS=1616
ID=CCMSLIB00000079400
105.0334907505 	 100
194.0811692246 	 0
END IONS

BEGIN IONS
PEPMASS=239.0687
CHARGE=1
MSLEVEL=2
RT=0
SOURCE_INSTRUMENT=qTOF
FILENAME=CCMSLIB00000079401.ms
IONMODE=Positive
ORGANISM=Natural
NAME=MLS002207277-01!3-hydroxy-2-phenylchromen-4-one
PI=GNPS
DATACOLLECTOR=GNPS
SMILES=c1ccc(cc1)c1c(c(=O)c2ccccc2o1)O
INCHI=InChI=1S/C15H10O3/c16-13-11-8-4-5-9-12(11)18-15(14(13)17)10-6-2-1-3-7-10/h1-9,17H
FORMULA=C15H10O3
PUBMED=N/A
SUBMITUSER=BIOADREM
LIBRARYQUALITY=0
SPECTRUMID=CCMSLIB00000079401
SCANS=1617
ID=CCMSLIB00000079401
105.0334907505 	 24.63
115.0542261926 	 6.6
117.0334907505 	 2.11
119.0491408147 	 3.78
121.0284053726 	 63.2
128.0620512247 	 2.56
133.0284053726 	 23.63
139.0542261926 	 7.76
152.0620512247 	 10.35
153.0698762568 	 11.88
154.0777012889 	 3.56
163.0542261926 	 2.48
164.0620512247 	 7.18
165.0698762568 	 100
168.0569658468 	 5.23
176.0620512247 	 3.19
181.0647908789 	 13.81
193.0647908789 	 9.53
194.072615911 	 2.51
196.0518804689 	 3.91
221.059705501 	 11.19
239.0702701873 	 122.57
END IONS

BEGIN IONS
PEPMASS=539.159
CHARGE=1
MSLEVEL=2
RT=0
SOURCE_INSTRUMENT=qTOF
FILENAME=CCMSLIB00000079402.ms
IONMODE=Positive
ORGANISM=Natural
NAME=MLS001140853-01!3-(4-chlorophenyl)-2-[[(2S)-2-[[2-(2,3,5-trimethyl-7-oxofuro[3,2-g]chromen-6-yl)acetyl]amino]propanoyl]amino]propanoic acid
PI=GNPS
DATACOLLECTOR=GNPS
SMILES=Cc1c(C)oc2cc3c(cc12)c(C)c(CC(=N[C@@H](C)C(=NC(Cc1ccc(cc1)Cl)C(=O)O)O)O)c(=O)o3
INCHI=InChI=1S/C28H27ClN2O7/c1-13-16(4)37-23-12-24-20(10-19(13)23)14(2)21(28(36)38-24)11-25(32)30-15(3)26(33)31-22(27(34)35)9-17-5-7-18(29)8-6-17/h5-8,10,12,15,22H,9,11H2,1-4H3,(H,30,32)(H,31,33)(H,34,35)/t15-,22?/m0/s1
FORMULA=C28H27ClN2O7
PUBMED=N/A
SUBMITUSER=BIOADREM
LIBRARYQUALITY=0
SPECTRUMID=CCMSLIB00000079402
SCANS=1618
ID=CCMSLIB00000079402
141.0698762568 	 0.37
142.0777012889 	 0.2
154.0413157826 	 0.57
157.0647908789 	 0.37
157.0971536398 	 0.41
170.072615911 	 0.21
182.072615911 	 0.31
185.0960910073 	 0.67
198.0675305331 	 0.52
213.0910056294 	 7.22
214.0948079161 	 0.75
241.0859202515 	 100
242.0897225382 	 17.79
269.0808348736 	 16.14
270.0846371603 	 2.78
539.1579549418 	 0
END IONS

BEGIN IONS
PEPMASS=276.124
CHARGE=1
MSLEVEL=2
RT=0
SOURCE_INSTRUMENT=qTOF
FILENAME=CCMSLIB00000079403.ms
IONMODE=Positive
ORGANISM=Natural
NAME=MLS000876766-01!4-[[2-[(E)-3-hydroxybut-1-enyl]-5-oxooxolan-3-yl]amino]benzaldehyde
PI=GNPS
DATACOLLECTOR=GNPS
SMILES=CC(/C=C/C1C(CC(=O)O1)Nc1ccc(cc1)C=O)O
INCHI=InChI=1S/C15H17NO4/c1-10(18)2-7-14-13(8-15(19)20-14)16-12-5-3-11(9-17)4-6-12/h2-7,9-10,13-14,16,18H,8H2,1H3/b7-2+
FORMULA=C15H17NO4
PUBMED=N/A
SUBMITUSER=BIOADREM
LIBRARYQUALITY=0
SPECTRUMID=CCMSLIB00000079403
SCANS=1619
ID=CCMSLIB00000079403
106.0413157826 	 5.77
117.0573001978 	 12.52
120.0443897878 	 9.7
128.0620512247 	 6.47
130.0624451552 	 13.22
131.0702701873 	 6.75
132.0443897878 	 100
134.060039852 	 6.05
143.0702701873 	 11.81
144.0807752941 	 11.95
146.0573597773 	 7.74
148.0393044099 	 6.19
156.0780952194 	 5.49
158.0964253583 	 11.25
160.1093953478 	 14.21
169.0886003262 	 5.34
170.0964253583 	 18.14
172.0730098415 	 6.33
173.0808348736 	 5.91
174.0549544741 	 11.67
174.0913399804 	 5.49
184.1120754225 	 5.63
188.1043099699 	 12.52
198.0913399804 	 12.24
276.1230340393 	 0
END IONS

BEGIN IONS
PEPMASS=179.071
CHARGE=1
MSLEVEL=2
RT=0
SOURCE_INSTRUMENT=qTOF
FILENAME=CCMSLIB00000079404.ms
IONMODE=Positive
ORGANISM=Natural
NAME=MLS002473129-01!(E)-3-(4-methoxyphenyl)prop-2-enoic acid
PI=GNPS
DATACOLLECTOR=GNPS
SMILES=COc1ccc(cc1)/C=C/C(=O)O
INCHI=InChI=1S/C10H10O3/c1-13-9-5-2-8(3-6-9)4-7-10(11)12/h2-7H,1H3,(H,11,12)/b7-4+
FORMULA=C10H10O3
PUBMED=N/A
SUBMITUSER=BIOADREM
LIBRARYQUALITY=0
SPECTRUMID=CCMSLIB00000079404
SCANS=1620
ID=CCMSLIB00000079404
101.0385761284 	 16.05
103.0542261926 	 31.72
105.0698762568 	 16.63
109.0647908789 	 8.7
118.0413157826 	 52.61
119.0491408147 	 12.77
133.0647908789 	 100
137.059705501 	 7.74
179.0702701873 	 0
END IONS

BEGIN IONS
PEPMASS=293.212
CHARGE=1
MSLEVEL=2
RT=0
SOURCE_INSTRUMENT=qTOF
FILENAME=CCMSLIB00000079405.ms
IONMODE=Positive
ORGANISM=Natural
NAME=MLS001048914-01!1-(2,6-dihydroxyphenyl)dodecan-1-one
PI=GNPS
DATACOLLECTOR=GNPS
SMILES=CCCCCCCCCCCC(=O)c1c(cccc1O)O
INCHI=InChI=1S/C18H28O3/c1-2-3-4-5-6-7-8-9-10-12-15(19)18-16(20)13-11-14-17(18)21/h11,13-14,20-21H,2-10,12H2,1H3
FORMULA=C18H28O3
PUBMED=N/A
SUBMITUSER=BIOADREM
LIBRARYQUALITY=0
SPECTRUMID=CCMSLIB00000079405
SCANS=1621
ID=CCMSLIB00000079405
95.0491408147 	 4.45
102.0464011605 	 1.58
103.0542261926 	 28
105.0698762568 	 1.76
107.0491408147 	 19.11
111.0440554368 	 8.41
117.0698762568 	 0.98
119.0491408147 	 2.14
121.0647908789 	 37.44
122.072615911 	 4.54
123.0440554368 	 100
131.0491408147 	 4.32
135.0440554368 	 7.6
137.059705501 	 4.94
139.0389700589 	 79.28
149.059705501 	 27.61
163.0753555652 	 3.68
293.2111207651 	 0
END IONS

BEGIN IONS
PEPMASS=414.192
CHARGE=1
MSLEVEL=2
RT=0
SOURCE_INSTRUMENT=qTOF
FILENAME=CCMSLIB00000079406.ms
IONMODE=Positive
ORGANISM=Natural
NAME=MLS001075746-01!
PI=GNPS
DATACOLLECTOR=GNPS
SMILES=CC(C(=NCC1CCC(CC1)C(=O)O)O)Oc1ccc2c3CCCc3c(=O)oc2c1
INCHI=InChI=1S/C23H27NO6/c1-13(21(25)24-12-14-5-7-15(8-6-14)22(26)27)29-16-9-10-18-17-3-2-4-19(17)23(28)30-20(18)11-16/h9-11,13-15H,2-8,12H2,1H3,(H,24,25)(H,26,27)
FORMULA=C23H27NO6
PUBMED=N/A
SUBMITUSER=BIOADREM
LIBRARYQUALITY=0
SPECTRUMID=CCMSLIB00000079406
SCANS=1622
ID=CCMSLIB00000079406
95.085526321 	 3.47
105.0698762568 	 0.94
110.0964253583 	 0.99
115.0542261926 	 0.68
122.0964253583 	 1.54
129.0698762568 	 2.22
131.0491408147 	 2.23
131.085526321 	 1.02
133.0647908789 	 3.67
138.0913399804 	 1.98
138.1277254867 	 4.16
140.1069900446 	 22.26
144.0569658468 	 0.99
145.1011763852 	 1.1
147.0440554368 	 2.02
147.0804409431 	 1.03
155.085526321 	 0.75
157.0647908789 	 1.78
158.072615911 	 1.46
159.0804409431 	 1.04
166.1226401088 	 2.32
173.059705501 	 1.24
173.0960910073 	 4.05
175.0753555652 	 2.21
183.0804409431 	 0.63
185.059705501 	 1.39
194.1175547309 	 7.47
201.0910056294 	 16.7
203.0702701873 	 100
229.0859202515 	 48.2
257.0808348736 	 2.97
274.1073839751 	 9.61
414.1911136045 	 0
END IONS

BEGIN IONS
PEPMASS=464.2049
CHARGE=1
MSLEVEL=2
RT=0
SOURCE_INSTRUMENT=qTOF
FILENAME=CCMSLIB00000079407.ms
IONMODE=Positive
ORGANISM=Natural
NAME=MLS001158621-01!
PI=GNPS
DATACOLLECTOR=GNPS
SMILES=CCCCc1cc(=O)oc2cc(ccc12)OCC(=O)N1CCC(CC1)(c1ccccc1)C(=O)O
INCHI=InChI=1S/C27H29NO6/c1-2-3-7-19-16-25(30)34-23-17-21(10-11-22(19)23)33-18-24(29)28-14-12-27(13-15-28,26(31)32)20-8-5-4-6-9-20/h4-6,8-11,16-17H,2-3,7,12-15,18H2,1H3,(H,31,32)
FORMULA=C27H29NO6
PUBMED=N/A
SUBMITUSER=BIOADREM
LIBRARYQUALITY=0
SPECTRUMID=CCMSLIB00000079407
SCANS=1623
ID=CCMSLIB00000079407
103.0542261926 	 3.11
105.0698762568 	 1.87
110.060039852 	 1.75
115.0542261926 	 8.98
117.0698762568 	 6.33
128.0620512247 	 29.51
141.0698762568 	 3.51
142.0777012889 	 4.72
143.085526321 	 87.61
144.0569658468 	 5.16
145.1011763852 	 8.9
155.085526321 	 2.56
157.0647908789 	 1.89
158.0964253583 	 53.95
159.1042503904 	 32.95
160.1120754225 	 13.56
161.059705501 	 3.25
172.1120754225 	 9.45
173.0960910073 	 4.38
186.0913399804 	 6.65
187.0991650125 	 100
189.0546201231 	 2.64
190.1226401088 	 6.02
200.1069900446 	 5.25
201.0910056294 	 13.12
203.1066556936 	 6.85
204.1019046667 	 13.12
218.1175547309 	 25.87
219.1015703157 	 5.9
231.1015703157 	 42.87
259.0964849378 	 16.63
276.1230340393 	 6.09
390.2063697382 	 2.53
418.2012843603 	 28.56
464.2067636687 	 3.96
END IONS

BEGIN IONS
PEPMASS=495.2966
CHARGE=1
MSLEVEL=2
RT=0
SOURCE_INSTRUMENT=qTOF
FILENAME=CCMSLIB00000079408.ms
IONMODE=Positive
ORGANISM=Natural
NAME=MLS001140925-01!1-[(2S)-2-amino-3-phenylpropanoyl]-N-[(2S)-1-[(4-methoxyphenyl)methylamino]-3-methyl-1-oxobutan-2-yl]piperidine-4-carboxamide
PI=GNPS
DATACOLLECTOR=GNPS
SMILES=CC(C)[C@@H](C(=NCc1ccc(cc1)OC)O)N=C(C1CCN(CC1)C(=O)[C@H](Cc1ccccc1)N)O
INCHI=InChI=1S/C28H38N4O4/c1-19(2)25(27(34)30-18-21-9-11-23(36-3)12-10-21)31-26(33)22-13-15-32(16-14-22)28(35)24(29)17-20-7-5-4-6-8-20/h4-12,19,22,24-25H,13-18,29H2,1-3H3,(H,30,34)(H,31,33)/t24-,25-/m0/s1
FORMULA=C28H38N4O4
PUBMED=N/A
SUBMITUSER=BIOADREM
LIBRARYQUALITY=0
SPECTRUMID=CCMSLIB00000079408
SCANS=1624
ID=CCMSLIB00000079408
98.0964253583 	 0.36
103.0542261926 	 5.96
106.0413157826 	 0.51
112.0756899162 	 58.36
114.0787639214 	 0.52
118.0651252299 	 0.37
120.0807752941 	 53.84
121.0647908789 	 100
129.1022390177 	 0.69
174.1277254867 	 5.44
176.1433755509 	 0.51
181.1335391461 	 0.94
183.1491892103 	 21.51
209.1284537682 	 1.32
211.1441038324 	 16.1
237.1597538966 	 4.64
313.191054025 	 0.57
330.2176031265 	 7.98
358.2125177486 	 4.19
495.296581729 	 1.91
END IONS

BEGIN IONS
PEPMASS=479.182
CHARGE=1
MSLEVEL=2
RT=0
SOURCE_INSTRUMENT=qTOF
FILENAME=CCMSLIB00000079409.ms
IONMODE=Positive
ORGANISM=Natural
NAME=MLS001162686-01!3-(5-hydroxy-1H-indol-3-yl)-2-[2-(3,4,7-trimethyl-2-oxochromen-5-yl)oxypropanoylamino]propanoic acid
PI=GNPS
DATACOLLECTOR=GNPS
SMILES=Cc1cc(c2c(C)c(C)c(=O)oc2c1)OC(C)C(=NC(Cc1c[nH]c2ccc(cc12)O)C(=O)O)O
INCHI=InChI=1S/C26H26N2O7/c1-12-7-21(23-13(2)14(3)26(33)35-22(23)8-12)34-15(4)24(30)28-20(25(31)32)9-16-11-27-19-6-5-17(29)10-18(16)19/h5-8,10-11,15,20,27,29H,9H2,1-4H3,(H,28,30)(H,31,32)
FORMULA=C26H26N2O7
PUBMED=N/A
SUBMITUSER=BIOADREM
LIBRARYQUALITY=0
SPECTRUMID=CCMSLIB00000079409
SCANS=1625
ID=CCMSLIB00000079409
105.0698762568 	 6.66
106.0651252299 	 4.38
117.0546201231 	 3.95
119.085526321 	 9.9
121.0647908789 	 5.98
130.0651252299 	 6.66
133.0522148199 	 7.03
133.1011763852 	 4.5
134.060039852 	 20.04
146.060039852 	 100
147.1168264494 	 5.7
148.0756899162 	 6.85
149.0960910073 	 3.85
158.060039852 	 17.61
159.0764181977 	 21.34
161.059705501 	 5.8
161.0960910073 	 7.06
162.0549544741 	 31.98
163.0600994315 	 6.11
170.060039852 	 8.51
171.0651848094 	 15.36
175.0865889535 	 28.28
176.0831805973 	 14.15
177.086982884 	 4.9
184.0756899162 	 31.02
186.0549544741 	 19.7
186.0913399804 	 18.9
187.0964849378 	 5.46
188.0831805973 	 7.15
203.1066556936 	 34.63
204.0655191604 	 53.68
205.0859202515 	 52.02
206.0897225382 	 9.96
212.0706045383 	 4.44
215.0815035756 	 9
216.0780952194 	 3.79
229.0971536398 	 5.7
230.1049786719 	 17.24
231.1015703157 	 69.16
232.1053726024 	 9.96
248.1155433582 	 4.22
259.0964849378 	 4.41
433.1757978913 	 4.63
479.1812771997 	 0
END IONS

BEGIN IONS
PEPMASS=302.137
CHARGE=1
MSLEVEL=2
RT=0
SOURCE_INSTRUMENT=qTOF
FILENAME=CCMSLIB00000079410.ms
IONMODE=Positive
ORGANISM=Natural
NAME=MLS001140587-01!N-cyclopentyl-2-(4-methyl-2-oxochromen-7-yl)oxyacetamide
PI=GNPS
DATACOLLECTOR=GNPS
SMILES=Cc1cc(=O)oc2cc(ccc12)OCC(=NC1CCCC1)O
INCHI=InChI=1S/C17H19NO4/c1-11-8-17(20)22-15-9-13(6-7-14(11)15)21-10-16(19)18-12-4-2-3-5-12/h6-9,12H,2-5,10H2,1H3,(H,18,19)
FORMULA=C17H19NO4
PUBMED=N/A
SUBMITUSER=BIOADREM
LIBRARYQUALITY=0
SPECTRUMID=CCMSLIB00000079410
SCANS=1626
ID=CCMSLIB00000079410
103.0542261926 	 3.33
105.0698762568 	 6.25
121.0647908789 	 7.96
131.0491408147 	 1.8
132.0205803405 	 0.26
147.0440554368 	 0.38
149.059705501 	 1.06
159.0440554368 	 1.51
177.0546201231 	 100
302.1386841035 	 2.23
END IONS

BEGIN IONS
PEPMASS=418.1755
CHARGE=1
MSLEVEL=2
RT=0
SOURCE_INSTRUMENT=qTOF
FILENAME=CCMSLIB00000079411.ms
IONMODE=Positive
ORGANISM=Natural
NAME=MLS001158712-01!N-(3-imidazol-1-ylpropyl)-2-(2-oxo-4-phenylchromen-7-yl)oxypropanamide
PI=GNPS
DATACOLLECTOR=GNPS
SMILES=CC(C(=NCCCn1ccnc1)O)Oc1ccc2c(cc(=O)oc2c1)c1ccccc1
INCHI=InChI=1S/C24H23N3O4/c1-17(24(29)26-10-5-12-27-13-11-25-16-27)30-19-8-9-20-21(18-6-3-2-4-7-18)15-23(28)31-22(20)14-19/h2-4,6-9,11,13-17H,5,10,12H2,1H3,(H,26,29)
FORMULA=C24H23N3O4
PUBMED=N/A
SUBMITUSER=BIOADREM
LIBRARYQUALITY=0
SPECTRUMID=CCMSLIB00000079411
SCANS=1627
ID=CCMSLIB00000079411
95.060374203 	 1.8
98.060039852 	 0.44
112.0756899162 	 63.51
113.0835149483 	 100
163.0376273882 	 2.49
165.0698762568 	 1.89
166.0777012889 	 1.33
167.085526321 	 0.45
169.0647908789 	 0.58
178.0777012889 	 1.75
179.0815035756 	 0.42
181.0647908789 	 0.44
191.085526321 	 0.98
193.1011763852 	 0.38
194.072615911 	 1.1
195.0804409431 	 0.72
197.059705501 	 2.38
202.0777012889 	 0.69
203.085526321 	 0.71
209.0960910073 	 2.81
210.1025733687 	 0.64
219.0804409431 	 0.76
221.0960910073 	 2.71
222.0675305331 	 0.46
223.0753555652 	 0.79
237.0910056294 	 3.48
238.0974879908 	 0.38
239.0702701873 	 4.88
247.0753555652 	 1.15
250.0624451552 	 2
251.0702701873 	 0.55
265.0859202515 	 91.35
266.0924026129 	 17.77
277.0859202515 	 0.53
293.0808348736 	 6.76
294.087317235 	 1.67
350.1386841035 	 55.88
418.1761322423 	 5.13
END IONS

BEGIN IONS
PEPMASS=271.133
CHARGE=1
MSLEVEL=2
RT=0
SOURCE_INSTRUMENT=qTOF
FILENAME=CCMSLIB00000079412.ms
IONMODE=Positive
ORGANISM=Natural
NAME=MLS002472952-01!3-hydroxy-1-(4-hydroxyphenyl)-5-phenylpentan-1-one
PI=GNPS
DATACOLLECTOR=GNPS
SMILES=c1ccc(cc1)CCC(CC(=O)c1ccc(cc1)O)O
INCHI=InChI=1S/C17H18O3/c18-15-10-7-14(8-11-15)17(20)12-16(19)9-6-13-4-2-1-3-5-13/h1-5,7-8,10-11,16,18-19H,6,9,12H2
FORMULA=C17H18O3
PUBMED=N/A
SUBMITUSER=BIOADREM
LIBRARYQUALITY=0
SPECTRUMID=CCMSLIB00000079412
SCANS=1628
ID=CCMSLIB00000079412
104.0256657184 	 2.75
109.0284053726 	 3.87
111.0440554368 	 1.57
115.0542261926 	 36.37
119.0491408147 	 1.86
121.0284053726 	 100
137.059705501 	 2.3
271.1328704441 	 0
END IONS

BEGIN IONS
PEPMASS=408.1918
CHARGE=1
MSLEVEL=2
RT=0
SOURCE_INSTRUMENT=qTOF
FILENAME=CCMSLIB00000079413.ms
IONMODE=Positive
ORGANISM=Natural
NAME=MLS001158963-01!N-(3-imidazol-1-ylpropyl)-3-(3,5,9-trimethyl-7-oxofuro[3,2-g]chromen-6-yl)propanamide
PI=GNPS
DATACOLLECTOR=GNPS
SMILES=Cc1coc2c(C)c3c(cc12)c(C)c(CCC(=NCCCn1ccnc1)O)c(=O)o3
INCHI=InChI=1S/C23H25N3O4/c1-14-12-29-21-16(3)22-19(11-18(14)21)15(2)17(23(28)30-22)5-6-20(27)25-7-4-9-26-10-8-24-13-26/h8,10-13H,4-7,9H2,1-3H3,(H,25,27)
FORMULA=C23H25N3O4
PUBMED=N/A
SUBMITUSER=BIOADREM
LIBRARYQUALITY=0
SPECTRUMID=CCMSLIB00000079413
SCANS=1629
ID=CCMSLIB00000079413
141.0698762568 	 0.38
142.0777012889 	 0.49
157.1011763852 	 0.96
170.072615911 	 0.29
185.0960910073 	 0.96
198.0675305331 	 0.24
199.1117410715 	 0.33
213.0910056294 	 7.78
227.1066556936 	 0.46
241.0859202515 	 100
255.1015703157 	 15.99
265.0859202515 	 0.24
283.0964849378 	 22.44
340.1543341677 	 36.18
408.1917823065 	 0.33
END IONS

BEGIN IONS
PEPMASS=433.223
CHARGE=1
MSLEVEL=2
RT=0
SOURCE_INSTRUMENT=qTOF
FILENAME=CCMSLIB00000079414.ms
IONMODE=Positive
ORGANISM=Natural
NAME=MLS000876978-01!3,4-dimethyl-2,5-bis(3,4,5-trimethoxyphenyl)oxolane
PI=GNPS
DATACOLLECTOR=GNPS
SMILES=CC1C(C)C(c2cc(c(c(c2)OC)OC)OC)OC1c1cc(c(c(c1)OC)OC)OC
INCHI=InChI=1S/C24H32O7/c1-13-14(2)22(16-11-19(27-5)24(30-8)20(12-16)28-6)31-21(13)15-9-17(25-3)23(29-7)18(10-15)26-4/h9-14,21-22H,1-8H3
FORMULA=C24H32O7
PUBMED=N/A
SUBMITUSER=BIOADREM
LIBRARYQUALITY=0
SPECTRUMID=CCMSLIB00000079414
SCANS=1630
ID=CCMSLIB00000079414
107.0491408147 	 2.18
123.0440554368 	 2.61
135.0440554368 	 2.46
135.0804409431 	 2.13
136.0518804689 	 4.28
137.059705501 	 4
138.0675305331 	 19.94
139.0389700589 	 5.11
147.0440554368 	 3.71
148.0518804689 	 12.15
149.059705501 	 3.71
151.0753555652 	 6.25
152.046795091 	 2.82
153.0546201231 	 2.25
154.0624451552 	 21.61
158.072615911 	 1.95
162.0675305331 	 3.01
163.0753555652 	 2.85
164.0831805973 	 2.74
165.0546201231 	 7.28
166.0624451552 	 18.76
167.0702701873 	 4.25
168.0780952194 	 5.61
169.0859202515 	 27.91
173.0960910073 	 15.36
177.0910056294 	 1.91
178.0988306615 	 9.9
179.0702701873 	 3.88
180.0780952194 	 7.29
181.0859202515 	 100
189.0910056294 	 5.75
192.0780952194 	 3.18
194.0937452836 	 10.67
195.0651848094 	 20.82
195.1015703157 	 20.73
197.0808348736 	 10.1
201.0910056294 	 20.06
207.1015703157 	 1.93
209.1172203799 	 18.78
216.1144807257 	 77.47
217.0859202515 	 13.72
225.112135002 	 2.61
232.1093953478 	 16.19
247.1328704441 	 20.96
265.1434351304 	 5.71
433.2220793819 	 0
END IONS

BEGIN IONS
PEPMASS=439.218
CHARGE=1
MSLEVEL=2
RT=0
SOURCE_INSTRUMENT=qTOF
FILENAME=CCMSLIB00000079415.ms
IONMODE=Positive
ORGANISM=Natural
NAME=MLS001141057-01!1-[(2S)-2-amino-4-methylsulfanylbutanoyl]-N-[(2S)-1-[(4-fluorophenyl)methylamino]-1-oxopropan-2-yl]piperidine-4-carboxamide
PI=GNPS
DATACOLLECTOR=GNPS
SMILES=C[C@@H](C(=NCc1ccc(cc1)F)O)N=C(C1CCN(CC1)C(=O)[C@H](CCSC)N)O
INCHI=InChI=1S/C21H31FN4O3S/c1-14(19(27)24-13-15-3-5-17(22)6-4-15)25-20(28)16-7-10-26(11-8-16)21(29)18(23)9-12-30-2/h3-6,14,16,18H,7-13,23H2,1-2H3,(H,24,27)(H,25,28)/t14-,18-/m0/s1
FORMULA=C21H31FN4O3S
PUBMED=N/A
SUBMITUSER=BIOADREM
LIBRARYQUALITY=0
SPECTRUMID=CCMSLIB00000079415
SCANS=1631
ID=CCMSLIB00000079415
104.0528459841 	 6.3
106.0651252299 	 0.68
109.0448043605 	 9.97
111.0916743314 	 0.48
112.0756899162 	 100
122.060039852 	 0.49
126.071353462 	 1.67
130.0684960483 	 0.54
138.0913399804 	 0.51
139.0865889535 	 2.01
140.0706045383 	 0.54
152.0870035262 	 2.79
155.1178890819 	 7.46
167.0815035756 	 2.69
181.0971536398 	 0.8
183.112803704 	 12.86
184.1154462409 	 1.26
197.1084672498 	 5.14
207.112803704 	 1.52
209.1284537682 	 0.8
210.1185202461 	 2.76
211.1025358309 	 0.42
211.1263452782 	 0.79
237.1233683903 	 0.44
238.1134348682 	 1.15
238.1550028697 	 4.21
239.1554174424 	 1.01
266.1499174918 	 0.86
286.1561457239 	 0.95
297.1267392087 	 0.43
308.176881166 	 37.23
391.2139949538 	 11.02
392.2128145618 	 1.73
422.1908166707 	 0.54
439.2173657722 	 0
END IONS

BEGIN IONS
PEPMASS=353.186
CHARGE=1
MSLEVEL=2
RT=0
SOURCE_INSTRUMENT=qTOF
FILENAME=CCMSLIB00000079416.ms
IONMODE=Positive
ORGANISM=Natural
NAME=MLS000111555-01!
PI=GNPS
DATACOLLECTOR=GNPS
SMILES=CC1C2CN3CCc4c5ccccc5[nH]c4C3CC2C(=CO1)C(=O)OC
INCHI=InChI=1S/C21H24N2O3/c1-12-16-10-23-8-7-14-13-5-3-4-6-18(13)22-20(14)19(23)9-15(16)17(11-26-12)21(24)25-2/h3-6,11-12,15-16,19,22H,7-10H2,1-2H3
FORMULA=C21H24N2O3
PUBMED=N/A
SUBMITUSER=BIOADREM
LIBRARYQUALITY=0
SPECTRUMID=CCMSLIB00000079416
SCANS=1632
ID=CCMSLIB00000079416
103.0542261926 	 0.62
115.0542261926 	 2.24
117.0698762568 	 4.94
127.0542261926 	 1.09
129.0698762568 	 0.55
130.0651252299 	 1.81
131.072950262 	 0.43
142.0651252299 	 0.66
143.072950262 	 7.98
144.0807752941 	 100
154.0651252299 	 0.84
156.0807752941 	 3.64
157.0886003262 	 0.71
158.0964253583 	 2.21
167.072950262 	 1.78
168.0807752941 	 2.06
170.0964253583 	 5.44
179.085526321 	 0.46
180.0807752941 	 1.02
181.0886003262 	 0.9
182.0964253583 	 2.66
194.0964253583 	 0.78
206.0964253583 	 0.9
217.0886003262 	 0.63
218.0964253583 	 0.71
219.1042503904 	 0.47
220.0756899162 	 0.49
220.1120754225 	 0.54
224.1069900446 	 0.75
232.1120754225 	 0.68
234.0913399804 	 0.67
234.1277254867 	 0.52
235.0991650125 	 0.47
250.1226401088 	 0.95
252.1019046667 	 2.3
260.1069900446 	 0.53
278.1175547309 	 1.07
321.1597538966 	 1.55
353.1859686471 	 3.67
END IONS

BEGIN IONS
PEPMASS=416.205
CHARGE=1
MSLEVEL=2
RT=0
SOURCE_INSTRUMENT=qTOF
FILENAME=CCMSLIB00000079417.ms
IONMODE=Positive
ORGANISM=Natural
NAME=MLS001032152-01!5-[2-(4-hydroxypiperidin-1-yl)-2-oxoethoxy]-3,4,8,8-tetramethyl-9,10-dihydropyrano[2,3-h]chromen-2-one
PI=GNPS
DATACOLLECTOR=GNPS
SMILES=Cc1c(C)c(=O)oc2c3CCC(C)(C)Oc3cc(c12)OCC(=O)N1CCC(CC1)O
INCHI=InChI=1S/C23H29NO6/c1-13-14(2)22(27)29-21-16-5-8-23(3,4)30-17(16)11-18(20(13)21)28-12-19(26)24-9-6-15(25)7-10-24/h11,15,25H,5-10,12H2,1-4H3
FORMULA=C23H29NO6
PUBMED=N/A
SUBMITUSER=BIOADREM
LIBRARYQUALITY=0
SPECTRUMID=CCMSLIB00000079417
SCANS=1633
ID=CCMSLIB00000079417
96.0807752941 	 2.65
100.0756899162 	 55.37
114.0913399804 	 84.36
124.0756899162 	 1.45
128.0706045383 	 2.33
134.072615911 	 1.45
142.0862546025 	 100
161.059705501 	 2.07
163.0753555652 	 2.35
175.0753555652 	 4.98
177.0546201231 	 2.56
189.0546201231 	 2.77
190.0624451552 	 9.09
203.0702701873 	 12.05
205.0859202515 	 2.53
219.0651848094 	 34.26
229.1223057578 	 2.74
231.0651848094 	 35.53
246.0760838467 	 1.63
247.0600994315 	 3.59
247.1328704441 	 1.39
259.0600994315 	 55.19
287.1277850662 	 9.95
300.086648533 	 2.14
315.1226996883 	 15.03
342.1335987256 	 5.55
360.1441634119 	 30.23
398.1961989824 	 3.71
416.2067636687 	 68.19
END IONS

BEGIN IONS
PEPMASS=442.147
CHARGE=1
MSLEVEL=2
RT=0
SOURCE_INSTRUMENT=qTOF
FILENAME=CCMSLIB00000079419.ms
IONMODE=Positive
ORGANISM=Natural
NAME=MLS001304016-01!
PI=GNPS
DATACOLLECTOR=GNPS
SMILES=c1cc(ccc1C(=O)N[C@@H](CCC(=O)O)C(=O)O)NCc1cnc2c(c(nc(=N)[nH]2)O)n1
INCHI=InChI=1S/C19H19N7O6/c20-19-25-15-14(17(30)26-19)23-11(8-22-15)7-21-10-3-1-9(2-4-10)16(29)24-12(18(31)32)5-6-13(27)28/h1-4,8,12,21H,5-7H2,(H,24,29)(H,27,28)(H,31,32)(H3,20,22,25,26,30)/t12-/m0/s1
FORMULA=C19H19N7O6
PUBMED=N/A
SUBMITUSER=BIOADREM
LIBRARYQUALITY=0
SPECTRUMID=CCMSLIB00000079419
SCANS=1635
ID=CCMSLIB00000079419
106.0399731119 	 7.66
108.0569658468 	 8.91
109.0369586862 	 1.79
109.0607681335 	 1.3
120.0443897878 	 44.67
121.0481920745 	 5.07
133.0481920745 	 1.85
134.034887734 	 3.42
148.0631138572 	 1.9
149.0431066966 	 1.27
162.0383556697 	 1.3
176.0580284793 	 76.04
177.061830766 	 8.96
210.0536118034 	 1.52
221.0457867713 	 1.43
250.0696557981 	 1.76
269.1145350385 	 1.21
295.0937995964 	 100
296.0989445538 	 19.33
313.1043642827 	 3.72
442.1469573789 	 0
END IONS

BEGIN IONS
PEPMASS=206.1177
CHARGE=1
MSLEVEL=2
RT=0
SOURCE_INSTRUMENT=qTOF
FILENAME=CCMSLIB00000079420.ms
IONMODE=Positive
ORGANISM=Natural
NAME=MLS001049069-01!6,7-dimethoxy-1-methyl-3,4-dihydroisoquinoline
PI=GNPS
DATACOLLECTOR=GNPS
SMILES=CC1=NCCc2cc(c(cc12)OC)OC
INCHI=InChI=1S/C12H15NO2/c1-8-10-7-12(15-3)11(14-2)6-9(10)4-5-13-8/h6-7H,4-5H2,1-3H3
FORMULA=C12H15NO2
PUBMED=N/A
SUBMITUSER=BIOADREM
LIBRARYQUALITY=0
SPECTRUMID=CCMSLIB00000079420
SCANS=1636
ID=CCMSLIB00000079420
116.0620512247 	 1.75
118.0651252299 	 1.1
119.0491408147 	 2.35
121.0647908789 	 3.22
130.0651252299 	 1.69
131.072950262 	 1.72
132.0807752941 	 17.84
133.0886003262 	 3.55
134.0964253583 	 0.69
143.072950262 	 0.74
144.0807752941 	 11.51
145.0886003262 	 10.36
146.060039852 	 4.23
146.0964253583 	 1.77
147.0678648841 	 8.49
148.0756899162 	 2.35
160.0756899162 	 12.9
161.0835149483 	 5.84
162.0913399804 	 32.83
172.0756899162 	 2.15
174.0549544741 	 3.54
174.0913399804 	 5.25
175.0627795062 	 2.37
176.0706045383 	 10.59
190.0862546025 	 100
191.0940796346 	 21.48
206.1175547309 	 22.6
END IONS

BEGIN IONS
PEPMASS=267.0765
CHARGE=1
MSLEVEL=2
RT=0
SOURCE_INSTRUMENT=qTOF
FILENAME=CCMSLIB00000079421.ms
IONMODE=Positive
ORGANISM=Natural
NAME=MLS000574953-01!
PI=GNPS
DATACOLLECTOR=GNPS
SMILES=COc1c2c3c(ccn2)c2ccccc2n3c(=O)c1O
INCHI=InChI=1S/C15H10N2O3/c1-20-14-11-12-9(6-7-16-11)8-4-2-3-5-10(8)17(12)15(19)13(14)18/h2-7,18H,1H3
FORMULA=C15H10N2O3
PUBMED=N/A
SUBMITUSER=BIOADREM
LIBRARYQUALITY=0
SPECTRUMID=CCMSLIB00000079421
SCANS=1637
ID=CCMSLIB00000079421
114.0464011605 	 0.31
128.0494751657 	 0.35
140.0494751657 	 1.82
141.0573001978 	 4.67
155.060374203 	 3.25
167.060374203 	 1.81
168.0681992351 	 80.21
183.0552888251 	 100
193.0760242672 	 0.44
211.0865889535 	 0.34
224.0580284793 	 0.42
239.0815035756 	 0.35
252.0529431014 	 60.19
267.0764181977 	 9.17
END IONS

BEGIN IONS
PEPMASS=416.207
CHARGE=1
MSLEVEL=2
RT=0
SOURCE_INSTRUMENT=qTOF
FILENAME=CCMSLIB00000079422.ms
IONMODE=Positive
ORGANISM=Natural
NAME=MLS001140970-01!4-[[2-(4-ethyl-7-methyl-2-oxochromen-5-yl)oxypropanoylamino]methyl]cyclohexane-1-carboxylic acid
PI=GNPS
DATACOLLECTOR=GNPS
SMILES=CCc1cc(=O)oc2cc(C)cc(c12)OC(C)C(=NC[C@H]1CC[C@@H](CC1)C(=O)O)O
INCHI=InChI=1S/C23H29NO6/c1-4-16-11-20(25)30-19-10-13(2)9-18(21(16)19)29-14(3)22(26)24-12-15-5-7-17(8-6-15)23(27)28/h9-11,14-15,17H,4-8,12H2,1-3H3,(H,24,26)(H,27,28)/t14?,15-,17-
FORMULA=C23H29NO6
PUBMED=N/A
SUBMITUSER=BIOADREM
LIBRARYQUALITY=0
SPECTRUMID=CCMSLIB00000079422
SCANS=1638
ID=CCMSLIB00000079422
95.085526321 	 6.94
105.0698762568 	 3.35
112.1120754225 	 2.53
119.085526321 	 1.78
121.0647908789 	 7.64
128.0620512247 	 1.72
131.085526321 	 2.49
133.0647908789 	 1.7
138.1277254867 	 12.56
140.1069900446 	 11.49
142.0777012889 	 1.6
143.085526321 	 1.46
149.0960910073 	 2.07
152.1069900446 	 1.46
157.1011763852 	 1.64
159.0804409431 	 1.5
166.1226401088 	 7.72
167.1304651409 	 14.88
175.1117410715 	 3.69
177.0910056294 	 2.99
184.1332047951 	 6.36
189.0546201231 	 1.56
203.1066556936 	 6.36
205.0859202515 	 100
231.1015703157 	 26.33
259.0964849378 	 13.94
276.1230340393 	 8.52
370.2012843603 	 9.25
416.2067636687 	 0
END IONS

BEGIN IONS
PEPMASS=447.203
CHARGE=1
MSLEVEL=2
RT=0
SOURCE_INSTRUMENT=qTOF
FILENAME=CCMSLIB00000079423.ms
IONMODE=Positive
ORGANISM=Natural
NAME=MLS001142424-01!
PI=GNPS
DATACOLLECTOR=GNPS
SMILES=C[C@@H](C(=NCc1ccccc1)O)N1C(=O)[C@]2(C)c3c(CCN2C1=O)c1cc(ccc1[nH]3)OC
INCHI=InChI=1S/C25H26N4O4/c1-15(22(30)26-14-16-7-5-4-6-8-16)29-23(31)25(2)21-18(11-12-28(25)24(29)32)19-13-17(33-3)9-10-20(19)27-21/h4-10,13,15,27H,11-12,14H2,1-3H3,(H,26,30)/t15-,25-/m0/s1
FORMULA=C25H26N4O4
PUBMED=N/A
SUBMITUSER=BIOADREM
LIBRARYQUALITY=0
SPECTRUMID=CCMSLIB00000079423
SCANS=1639
ID=CCMSLIB00000079423
117.0698762568 	 1.19
143.072950262 	 0.73
144.0807752941 	 0.78
158.0573597773 	 0.75
159.0678648841 	 2.77
160.0756899162 	 1.11
172.0756899162 	 1.43
173.0821722776 	 2.63
174.0913399804 	 14.98
184.0730098415 	 0.82
186.0913399804 	 1.39
198.0913399804 	 6.5
201.1022390177 	 1.35
213.1022390177 	 9.77
215.1178890819 	 25.99
225.1022390177 	 0.91
241.0971536398 	 30.47
243.112803704 	 3.04
250.1212974381 	 2.36
262.1199600341 	 1
268.1444381834 	 1.06
269.0920682619 	 2.8
270.087317235 	 2.78
270.125045412 	 0.69
282.1237027413 	 2.21
284.1393528055 	 100
285.138624524 	 16.74
286.1464495561 	 2.68
288.1356100983 	 0.65
289.1308590714 	 1.36
305.1621591998 	 2.62
310.1186173634 	 1.2
312.1342674276 	 9.15
313.1335391461 	 3.05
314.1413641782 	 0.66
331.1441038324 	 2.51
331.177809264 	 0.74
447.2026813438 	 0
END IONS

BEGIN IONS
PEPMASS=449.208
CHARGE=1
MSLEVEL=2
RT=0
SOURCE_INSTRUMENT=qTOF
FILENAME=CCMSLIB00000079424.ms
IONMODE=Positive
ORGANISM=Natural
NAME=MLS001162658-01!
PI=GNPS
DATACOLLECTOR=GNPS
SMILES=CCCc1cc(=O)oc2c(C)c(ccc12)OCC(=O)N1C[C@H]2C[C@@H](C1)c1cccc(=O)n1C2
INCHI=InChI=1S/C26H28N2O5/c1-3-5-18-11-25(31)33-26-16(2)22(9-8-20(18)26)32-15-24(30)27-12-17-10-19(14-27)21-6-4-7-23(29)28(21)13-17/h4,6-9,11,17,19H,3,5,10,12-15H2,1-2H3/t17-,19+/m1/s1
FORMULA=C26H28N2O5
PUBMED=N/A
SUBMITUSER=BIOADREM
LIBRARYQUALITY=0
SPECTRUMID=CCMSLIB00000079424
SCANS=1640
ID=CCMSLIB00000079424
109.0886003262 	 1.88
117.1022390177 	 0.63
124.1120754225 	 0.64
128.1069900446 	 0.42
129.1148150767 	 0.73
132.0893286077 	 1.05
133.0971536398 	 2.46
134.1049786719 	 5.03
145.1461152051 	 0.52
146.1090014173 	 24.39
147.1168264494 	 13.3
148.1246514815 	 4.8
149.0920682619 	 0.42
158.1175547309 	 0.59
161.1324765136 	 1.16
172.1332047951 	 2.03
173.1410298272 	 13.89
174.1488548593 	 3.43
175.1077183261 	 0.92
175.1441038324 	 0.59
189.163776642 	 100
190.1675789287 	 16.27
191.1794267062 	 5.74
217.1699246524 	 1.47
219.1703185829 	 0.48
232.1933997487 	 4.8
233.2012247808 	 1.64
284.2246998771 	 1.15
449.2070980197 	 0
END IONS

BEGIN IONS
PEPMASS=269.0809
CHARGE=1
MSLEVEL=2
RT=0
SOURCE_INSTRUMENT=qTOF
FILENAME=CCMSLIB00000079425.ms
IONMODE=Positive
ORGANISM=Natural
NAME=MLS001049032-01!6-hydroxy-2-(4-methoxyphenyl)chromen-4-one
PI=GNPS
DATACOLLECTOR=GNPS
SMILES=COc1ccc(cc1)c1cc(=O)c2cc(ccc2o1)O
INCHI=InChI=1S/C16H12O4/c1-19-12-5-2-10(3-6-12)16-9-14(18)13-8-11(17)4-7-15(13)20-16/h2-9,17H,1H3
FORMULA=C16H12O4
PUBMED=N/A
SUBMITUSER=BIOADREM
LIBRARYQUALITY=0
SPECTRUMID=CCMSLIB00000079425
SCANS=1641
ID=CCMSLIB00000079425
105.0698762568 	 0.48
109.0284053726 	 1.1
116.0256657184 	 0.48
118.0413157826 	 0.96
131.0491408147 	 0.56
133.0647908789 	 3.12
137.0233199947 	 21.44
141.0698762568 	 0.51
144.0205803405 	 0.54
152.0620512247 	 1.05
157.0647908789 	 6.31
158.072615911 	 5.45
159.0440554368 	 2.65
169.0647908789 	 1.93
170.072615911 	 1.29
181.0647908789 	 1.33
185.059705501 	 0.48
195.0804409431 	 0.58
197.059705501 	 1.35
198.0675305331 	 0.94
204.0780952194 	 0.4
209.059705501 	 0.52
213.0910056294 	 1.22
225.0546201231 	 1.59
226.0624451552 	 100
254.0573597773 	 33.68
269.0808348736 	 56.22
END IONS

BEGIN IONS
PEPMASS=501.166
CHARGE=1
MSLEVEL=2
RT=0
SOURCE_INSTRUMENT=qTOF
FILENAME=CCMSLIB00000079427.ms
IONMODE=Positive
ORGANISM=Natural
NAME=MLS001157908-01!3-(5-hydroxy-1H-indol-3-yl)-2-[2-(4-methyl-6-oxobenzo[c]chromen-3-yl)oxypropanoylamino]propanoic acid
PI=GNPS
DATACOLLECTOR=GNPS
SMILES=Cc1c(ccc2c3ccccc3c(=O)oc12)OC(C)C(=NC(Cc1c[nH]c2ccc(cc12)O)C(=O)O)O
INCHI=InChI=1S/C28H24N2O7/c1-14-24(10-8-19-18-5-3-4-6-20(18)28(35)37-25(14)19)36-15(2)26(32)30-23(27(33)34)11-16-13-29-22-9-7-17(31)12-21(16)22/h3-10,12-13,15,23,29,31H,11H2,1-2H3,(H,30,32)(H,33,34)
FORMULA=C28H24N2O7
PUBMED=N/A
SUBMITUSER=BIOADREM
LIBRARYQUALITY=0
SPECTRUMID=CCMSLIB00000079427
SCANS=1643
ID=CCMSLIB00000079427
110.060039852 	 3.41
134.060039852 	 12.03
135.0651848094 	 3.32
146.060039852 	 100
153.0698762568 	 7.5
156.0807752941 	 4.18
158.060039852 	 26.68
160.0730098415 	 12.67
162.0549544741 	 24.83
166.0777012889 	 3.06
169.1011763852 	 5.86
171.0651848094 	 8.49
173.0808348736 	 13.06
174.0787639214 	 19.53
175.0865889535 	 27.24
179.085526321 	 4.53
181.0647908789 	 36.08
183.0651848094 	 4.57
184.0756899162 	 12.72
185.0808348736 	 3.58
186.0549544741 	 25.69
186.0886599057 	 16.42
187.0865889535 	 5.3
188.0706045383 	 3.88
197.0960910073 	 4.66
200.0620512247 	 4.83
201.0658535114 	 8.23
201.1022390177 	 15.65
202.0651252299 	 3.53
202.0862546025 	 3.23
204.0655191604 	 36.42
205.0647908789 	 9.53
209.059705501 	 4.83
210.0675305331 	 3.19
212.0917339109 	 4.31
215.0815035756 	 14.44
227.0702701873 	 3.06
229.0971536398 	 9.7
230.1022985972 	 33.84
231.1042503904 	 5.17
253.0859202515 	 39.05
384.1230340393 	 4.96
455.1601478271 	 6.64
501.1656271355 	 0
END IONS

BEGIN IONS
PEPMASS=360.1422
CHARGE=1
MSLEVEL=2
RT=0
SOURCE_INSTRUMENT=qTOF
FILENAME=CCMSLIB00000079429.ms
IONMODE=Positive
ORGANISM=Natural
NAME=MLS001141399-01!1-[2-(3,4-dimethyl-2-oxochromen-7-yl)oxyacetyl]piperidine-4-carboxylic acid
PI=GNPS
DATACOLLECTOR=GNPS
SMILES=Cc1c(C)c(=O)oc2cc(ccc12)OCC(=O)N1CCC(CC1)C(=O)O
INCHI=InChI=1S/C19H21NO6/c1-11-12(2)19(24)26-16-9-14(3-4-15(11)16)25-10-17(21)20-7-5-13(6-8-20)18(22)23/h3-4,9,13H,5-8,10H2,1-2H3,(H,22,23)
FORMULA=C19H21NO6
PUBMED=N/A
SUBMITUSER=BIOADREM
LIBRARYQUALITY=0
SPECTRUMID=CCMSLIB00000079429
SCANS=1645
ID=CCMSLIB00000079429
96.0807752941 	 9.16
99.0440554368 	 11.83
105.0698762568 	 8.19
112.0756899162 	 15.59
114.0549544741 	 30.28
116.0620512247 	 5.98
117.0698762568 	 21.25
119.085526321 	 10.07
124.0756899162 	 8.51
125.0835149483 	 9.55
126.0913399804 	 37.1
128.0706045383 	 97.34
130.0862546025 	 11.76
134.072615911 	 4.09
142.0862546025 	 78.23
145.0647908789 	 12.74
147.0440554368 	 6.17
147.0804409431 	 11.05
156.0569658468 	 5.85
162.0675305331 	 28.91
170.0811692246 	 11.44
173.059705501 	 10.33
174.0675305331 	 4.55
175.0753555652 	 46.52
190.0624451552 	 8.84
191.0702701873 	 15.33
203.0702701873 	 100
231.0651848094 	 8.19
244.0968192888 	 8.12
286.1437694814 	 16.57
314.1386841035 	 30.86
342.1335987256 	 5.2
360.1441634119 	 15.66
END IONS

BEGIN IONS
PEPMASS=415.2226
CHARGE=1
MSLEVEL=2
RT=0
SOURCE_INSTRUMENT=qTOF
FILENAME=CCMSLIB00000079430.ms
IONMODE=Positive
ORGANISM=Natural
NAME=MLS002694431-01!
PI=GNPS
DATACOLLECTOR=GNPS
SMILES=COc1ccc2c3CCN4CC5CC(C(C(C5CC4c3[nH]c2c1)C(=O)OC)OC)O
INCHI=InChI=1S/C23H30N2O5/c1-28-13-4-5-14-15-6-7-25-11-12-8-19(26)22(29-2)20(23(27)30-3)16(12)10-18(25)21(15)24-17(14)9-13/h4-5,9,12,16,18-20,22,24,26H,6-8,10-11H2,1-3H3
FORMULA=C23H30N2O5
PUBMED=N/A
SUBMITUSER=BIOADREM
LIBRARYQUALITY=0
SPECTRUMID=CCMSLIB00000079430
SCANS=1646
ID=CCMSLIB00000079430
117.0698762568 	 1.54
130.0651252299 	 2.87
131.072950262 	 5.5
132.0807752941 	 2.19
133.0647908789 	 1.49
142.0651252299 	 1.56
143.072950262 	 4.22
144.0807752941 	 1.74
146.060039852 	 1.3
147.0804409431 	 1.8
159.0678648841 	 18.1
160.0756899162 	 5.9
161.0835149483 	 4.05
162.0913399804 	 3.49
164.0706045383 	 1.25
173.0835149483 	 3.49
174.0913399804 	 100
176.0706045383 	 1.27
178.0862546025 	 3.51
185.0835149483 	 1.37
186.0913399804 	 2.38
187.0991650125 	 1.34
188.1069900446 	 6.99
190.0862546025 	 2.16
192.1019046667 	 2.68
200.1069900446 	 2.8
208.0968192888 	 1.73
210.112469353 	 5.26
222.112469353 	 5.55
224.1069900446 	 2.46
225.112135002 	 1.36
226.1226401088 	 2.37
236.1069900446 	 2.56
238.1226401088 	 3.67
239.1304651409 	 2.09
240.1230340393 	 3.09
250.1226401088 	 1.51
251.1277850662 	 2.59
253.1335391461 	 1.29
254.1413641782 	 28.28
261.1148150767 	 1.25
265.1308590714 	 1.37
274.1226401088 	 1.37
275.1304651409 	 1.24
276.138290173 	 2.51
289.1461152051 	 1.27
336.1594195456 	 1.86
354.1699842319 	 2.95
366.1699842319 	 2.61
381.1808832692 	 1.58
383.1965333334 	 2.86
386.1961989824 	 1.81
398.1961989824 	 1.84
413.2070980197 	 1.54
415.2227480839 	 22.52
END IONS

BEGIN IONS
PEPMASS=335.1288
CHARGE=1
MSLEVEL=2
RT=0
SOURCE_INSTRUMENT=qTOF
FILENAME=CCMSLIB00000079431.ms
IONMODE=Positive
ORGANISM=Natural
NAME=MLS000876968-01!5-methoxy-8,8-dimethyl-2-phenylpyrano[2,3-h]chromen-4-one
PI=GNPS
DATACOLLECTOR=GNPS
SMILES=CC1(C)C=Cc2c(cc(c3c(=O)cc(c4ccccc4)oc23)OC)O1
INCHI=InChI=1S/C21H18O4/c1-21(2)10-9-14-17(25-21)12-18(23-3)19-15(22)11-16(24-20(14)19)13-7-5-4-6-8-13/h4-12H,1-3H3
FORMULA=C21H18O4
PUBMED=N/A
SUBMITUSER=BIOADREM
LIBRARYQUALITY=0
SPECTRUMID=CCMSLIB00000079431
SCANS=1647
ID=CCMSLIB00000079431
105.0334907505 	 2.19
135.0440554368 	 0.75
144.0569658468 	 0.4
145.0647908789 	 0.58
147.0440554368 	 0.68
159.0804409431 	 0.25
171.0440554368 	 0.27
172.0518804689 	 0.52
175.0389700589 	 0.5
187.0753555652 	 0.35
197.059705501 	 0.25
200.046795091 	 1.63
201.0546201231 	 2.49
203.033884681 	 33.36
215.0702701873 	 1.53
249.0910056294 	 0.45
250.0988306615 	 0.37
251.0702701873 	 0.32
260.0831805973 	 0.3
263.0702701873 	 0.24
267.0651848094 	 0.57
274.0988306615 	 0.33
277.0859202515 	 1.78
278.0937452836 	 0.42
279.0651848094 	 0.45
280.0730098415 	 0.49
288.0780952194 	 0.36
291.0651848094 	 0.62
291.1015703157 	 1.13
302.0937452836 	 5.17
303.1015703157 	 6.17
305.0808348736 	 100
317.1172203799 	 2.8
319.0964849378 	 1.32
320.1043099699 	 2.91
335.1277850662 	 39.76
END IONS

BEGIN IONS
PEPMASS=317.103
CHARGE=1
MSLEVEL=2
RT=0
SOURCE_INSTRUMENT=qTOF
FILENAME=CCMSLIB00000079432.ms
IONMODE=Positive
ORGANISM=Natural
NAME=MLS002472933-01!9-(2-hydroxy-3-methylbut-3-enoxy)-4-methoxyfuro[3,2-g]chromen-7-one
PI=GNPS
DATACOLLECTOR=GNPS
SMILES=C=C(C)C(COc1c2c(cco2)c(c2ccc(=O)oc12)OC)O
INCHI=InChI=1S/C17H16O6/c1-9(2)12(18)8-22-17-15-11(6-7-21-15)14(20-3)10-4-5-13(19)23-16(10)17/h4-7,12,18H,1,8H2,2-3H3
FORMULA=C17H16O6
PUBMED=N/A
SUBMITUSER=BIOADREM
LIBRARYQUALITY=0
SPECTRUMID=CCMSLIB00000079432
SCANS=1648
ID=CCMSLIB00000079432
103.0178406863 	 1.55
116.0256657184 	 2.06
117.0334907505 	 3.59
119.0491408147 	 2.23
132.0205803405 	 2.96
133.0284053726 	 5.43
134.0362304047 	 3.56
143.0127553084 	 7.28
144.0205803405 	 3.99
145.0284053726 	 12.93
147.0440554368 	 8.01
148.0154949626 	 2.09
160.0154949626 	 27.85
161.0233199947 	 5.76
162.0311450268 	 3.56
164.0104095847 	 2.53
172.0154949626 	 1.58
173.0233199947 	 8.67
175.0389700589 	 64.66
188.0104095847 	 55.2
200.0104095847 	 1.82
201.0182346168 	 2.77
202.0260596489 	 1.82
203.033884681 	 76.01
204.0053242068 	 2.01
215.033884681 	 9.75
218.020974271 	 21.43
230.020974271 	 3.37
231.0287993031 	 100
233.0444493673 	 11.6
317.1019642462 	 0
END IONS

BEGIN IONS
PEPMASS=421.176
CHARGE=1
MSLEVEL=2
RT=0
SOURCE_INSTRUMENT=qTOF
FILENAME=CCMSLIB00000079433.ms
IONMODE=Positive
ORGANISM=Natural
NAME=MLS001159956-01!
PI=GNPS
DATACOLLECTOR=GNPS
SMILES=Cc1c(C)c(=O)oc2cc(ccc12)OCC(=O)N1C[C@H]2C[C@@H](C1)c1cccc(=O)n1C2
INCHI=InChI=1S/C24H24N2O5/c1-14-15(2)24(29)31-21-9-18(6-7-19(14)21)30-13-23(28)25-10-16-8-17(12-25)20-4-3-5-22(27)26(20)11-16/h3-7,9,16-17H,8,10-13H2,1-2H3/t16-,17+/m1/s1
FORMULA=C24H24N2O5
PUBMED=N/A
SUBMITUSER=BIOADREM
LIBRARYQUALITY=0
SPECTRUMID=CCMSLIB00000079433
SCANS=1649
ID=CCMSLIB00000079433
108.0443897878 	 0.42
109.0522148199 	 3.18
110.0573597773 	 1.07
117.0698762568 	 2.17
119.085526321 	 0.61
122.060039852 	 2.87
123.0678648841 	 0.99
129.0698762568 	 0.51
130.0651252299 	 0.39
131.072950262 	 0.46
132.0443897878 	 1.61
132.0807752941 	 0.82
133.0522148199 	 2.38
133.0859202515 	 0.51
134.060039852 	 3.98
135.0678648841 	 1.24
145.0647908789 	 2.79
146.060039852 	 26.59
147.0678648841 	 15.93
148.0756899162 	 9.94
150.0787639214 	 0.57
154.0624451552 	 0.56
158.060039852 	 1.2
159.0678648841 	 2.66
160.0756899162 	 14.52
162.0675305331 	 1.06
162.0886599057 	 1.61
163.0991650125 	 0.54
172.0756899162 	 2.53
173.0835149483 	 14.48
174.0886599057 	 3.51
175.0753555652 	 4.61
188.0706045383 	 1
189.1022390177 	 100
190.1073839751 	 16.38
201.0658535114 	 1.57
203.0702701873 	 11.55
204.1230340393 	 0.71
205.0733441925 	 0.7
217.0944735651 	 0.54
218.1022985972 	 0.39
231.112803704 	 2.62
232.1179486614 	 4.14
233.1257736935 	 0.69
256.0968192888 	 0.99
403.165233205 	 0.49
421.1757978913 	 119.58
END IONS

BEGIN IONS
PEPMASS=963.4924
CHARGE=1
MSLEVEL=2
RT=0
SOURCE_INSTRUMENT=qTOF
FILENAME=CCMSLIB00000079434.ms
IONMODE=Positive
ORGANISM=Natural
NAME=MLS000563081-01!
PI=GNPS
DATACOLLECTOR=GNPS
SMILES=C[C@@H]1[C@H]([C@@H]([C@@H]([C@H](O1)O[C@@H]1[C@H]([C@@H]([C@@H](C(=O)O)O[C@H]1O[C@@H]1CC[C@@]2(C)C(CC[C@]3(C)C2CC=C2[C@@H]4CC(C)(C)CC[C@@]4(CC[C@@]32C)C(=O)O[C@H]2[C@@H]([C@H]([C@@H]([C@@H](CO)O2)O)O)O)C1(C)C)O)O)O)O)O
INCHI=InChI=1S/C48H76O18/c1-21-28(50)30(52)34(56)39(61-21)65-37-33(55)32(54)36(38(58)59)64-41(37)63-27-12-13-45(6)25(44(27,4)5)11-14-47(8)26(45)10-9-22-23-19-43(2,3)15-17-48(23,18-16-46(22,47)7)42(60)66-40-35(57)31(53)29(51)24(20-49)62-40/h9,21,23-37,39-41,49-57H,10-20H2,1-8H3,(H,58,59)/t21-,23+,24-,25?,26?,27-,28-,29-,30+,31+,32+,33+,34+,35-,36+,37-,39-,40+,41-,45+,46-,47-,48+/m1/s1
FORMULA=C48H76O18
PUBMED=N/A
SUBMITUSER=BIOADREM
LIBRARYQUALITY=0
SPECTRUMID=CCMSLIB00000079434
SCANS=1650
ID=CCMSLIB00000079434
101.1324765136 	 5.03
107.0702701873 	 3.3
113.1324765136 	 4.92
147.0651848094 	 3.84
163.0600994315 	 11.36
165.0757494957 	 61.15
167.1794267062 	 5.63
177.0393639894 	 18.51
181.1950767704 	 5.25
195.0499286757 	 17.53
207.2107268346 	 3.35
323.0972727988 	 100
324.1050978309 	 8.5
333.2788063998 	 3.68
341.1078374851 	 12.5
417.372706785 	 10.77
457.3676214071 	 3.19
459.3832714713 	 3.46
601.4098801523 	 6.44
602.4118319455 	 4.06
619.4204448386 	 90.53
620.4223966318 	 49.73
621.4302216639 	 9.09
633.3997093965 	 4.17
779.4576182059 	 3.3
795.4372766943 	 15.31
813.426712008 	 5.41
941.5104416374 	 129.71
END IONS

BEGIN IONS
PEPMASS=447.1926
CHARGE=1
MSLEVEL=2
RT=0
SOURCE_INSTRUMENT=qTOF
FILENAME=CCMSLIB00000079435.ms
IONMODE=Positive
ORGANISM=Natural
NAME=MLS001158370-01!
PI=GNPS
DATACOLLECTOR=GNPS
SMILES=Cc1c(ccc2c3CCCc3c(=O)oc12)OCC(=O)N1C[C@H]2C[C@@H](C1)c1cccc(=O)n1C2
INCHI=InChI=1S/C26H26N2O5/c1-15-22(9-8-19-18-4-2-5-20(18)26(31)33-25(15)19)32-14-24(30)27-11-16-10-17(13-27)21-6-3-7-23(29)28(21)12-16/h3,6-9,16-17H,2,4-5,10-14H2,1H3/t16-,17+/m1/s1
FORMULA=C26H26N2O5
PUBMED=N/A
SUBMITUSER=BIOADREM
LIBRARYQUALITY=0
SPECTRUMID=CCMSLIB00000079435
SCANS=1651
ID=CCMSLIB00000079435
109.0522148199 	 3.18
117.0573001978 	 0.89
122.060039852 	 1.65
128.0620512247 	 1.03
131.0702701873 	 0.67
132.0443897878 	 1.23
132.0807752941 	 0.55
133.0495347452 	 2.51
134.060039852 	 7.01
143.085526321 	 1.1
145.0522148199 	 0.73
146.060039852 	 27.4
147.0678648841 	 14.41
148.0730098415 	 6.05
159.0651848094 	 2.31
160.0756899162 	 8.97
162.0913399804 	 1.63
163.0991650125 	 0.77
171.0804409431 	 2.14
172.0756899162 	 3.84
173.0835149483 	 24.69
174.0886599057 	 1.86
175.0865889535 	 0.87
189.1022390177 	 100
191.1178890819 	 6.95
201.0910056294 	 9.65
203.1178890819 	 1.58
229.0859202515 	 6.9
231.112803704 	 2.78
257.0808348736 	 3.78
264.1104579803 	 1.05
419.1965333334 	 1.7
447.1914479555 	 37.62
END IONS

BEGIN IONS
PEPMASS=271.096
CHARGE=1
MSLEVEL=2
RT=0
SOURCE_INSTRUMENT=qTOF
FILENAME=CCMSLIB00000079436.ms
IONMODE=Positive
ORGANISM=Natural
NAME=MLS000876992-01!(E)-1-(2,4-dihydroxy-6-methoxyphenyl)-3-phenylprop-2-en-1-one
PI=GNPS
DATACOLLECTOR=GNPS
SMILES=COc1cc(cc(c1C(=O)/C=C/c1ccccc1)O)O
INCHI=InChI=1S/C16H14O4/c1-20-15-10-12(17)9-14(19)16(15)13(18)8-7-11-5-3-2-4-6-11/h2-10,17,19H,1H3/b8-7+
FORMULA=C16H14O4
PUBMED=N/A
SUBMITUSER=BIOADREM
LIBRARYQUALITY=0
SPECTRUMID=CCMSLIB00000079436
SCANS=1652
ID=CCMSLIB00000079436
96.0205803405 	 0.92
109.0284053726 	 1.13
111.0076699305 	 2.17
111.0440554368 	 2.07
121.0284053726 	 0.48
124.0154949626 	 21.11
137.0233199947 	 1.7
139.0389700589 	 1.92
152.0104095847 	 24.71
167.033884681 	 100
271.0964849378 	 0.21
END IONS

BEGIN IONS
PEPMASS=285.113
CHARGE=1
MSLEVEL=2
RT=0
SOURCE_INSTRUMENT=qTOF
FILENAME=CCMSLIB00000079437.ms
IONMODE=Positive
ORGANISM=Natural
NAME=MLS002703585-01!
PI=GNPS
DATACOLLECTOR=GNPS
SMILES=c1ccc(cc1)COC(=O)CC(=O)OCc1ccccc1
INCHI=InChI=1S/C17H16O4/c18-16(20-12-14-7-3-1-4-8-14)11-17(19)21-13-15-9-5-2-6-10-15/h1-10H,11-13H2
FORMULA=C17H16O4
PUBMED=N/A
SUBMITUSER=BIOADREM
LIBRARYQUALITY=0
SPECTRUMID=CCMSLIB00000079437
SCANS=1653
ID=CCMSLIB00000079437
105.0334907505 	 6.18
115.0542261926 	 37.45
133.0284053726 	 28.35
143.0491408147 	 6.57
171.0440554368 	 3.72
178.0777012889 	 23.59
179.085526321 	 10.69
190.0777012889 	 11.56
191.085526321 	 7.68
193.1011763852 	 33.41
202.0777012889 	 74.66
203.085526321 	 100
204.0569658468 	 3.96
205.1011763852 	 9.58
219.0804409431 	 5.46
221.0960910073 	 35.31
231.0804409431 	 80.84
249.0910056294 	 4.51
285.112135002 	 0
END IONS

BEGIN IONS
PEPMASS=461.2071
CHARGE=1
MSLEVEL=2
RT=0
SOURCE_INSTRUMENT=qTOF
FILENAME=CCMSLIB00000079438.ms
IONMODE=Positive
ORGANISM=Natural
NAME=MLS001032297-01!
PI=GNPS
DATACOLLECTOR=GNPS
SMILES=Cc1c(ccc2c3CCCc3c(=O)oc12)OC(C)C(=O)N1C[C@H]2C[C@@H](C1)c1cccc(=O)n1C2
INCHI=InChI=1S/C27H28N2O5/c1-15-23(10-9-20-19-5-3-6-21(19)27(32)34-25(15)20)33-16(2)26(31)28-12-17-11-18(14-28)22-7-4-8-24(30)29(22)13-17/h4,7-10,16-18H,3,5-6,11-14H2,1-2H3/t16?,17-,18+/m1/s1
FORMULA=C27H28N2O5
PUBMED=N/A
SUBMITUSER=BIOADREM
LIBRARYQUALITY=0
SPECTRUMID=CCMSLIB00000079438
SCANS=1654
ID=CCMSLIB00000079438
128.1433755509 	 0.41
145.1825007114 	 0.4
146.1539402372 	 20.11
147.1617652693 	 20.62
159.1743413283 	 1.51
202.216540494 	 0.98
461.2070980197 	 0.03
END IONS

BEGIN IONS
PEPMASS=565.209
CHARGE=1
MSLEVEL=2
RT=0
SOURCE_INSTRUMENT=qTOF
FILENAME=CCMSLIB00000079439.ms
IONMODE=Positive
ORGANISM=Natural
NAME=MLS001140676-01!
PI=GNPS
DATACOLLECTOR=GNPS
SMILES=COc1ccc(cc1)C1c2c(C[C@H]3C(=O)N(c4ccccc4C(=O)N4CCC[C@H]4C(=O)O)C(=O)N13)c1ccccc1[nH]2
INCHI=InChI=1S/C32H28N4O6/c1-42-19-14-12-18(13-15-19)28-27-22(20-7-2-4-9-23(20)33-27)17-26-30(38)36(32(41)35(26)28)24-10-5-3-8-21(24)29(37)34-16-6-11-25(34)31(39)40/h2-5,7-10,12-15,25-26,28,33H,6,11,16-17H2,1H3,(H,39,40)/t25-,26-,28?/m0/s1
FORMULA=C32H28N4O6
PUBMED=N/A
SUBMITUSER=BIOADREM
LIBRARYQUALITY=0
SPECTRUMID=CCMSLIB00000079439
SCANS=1655
ID=CCMSLIB00000079439
146.0236543457 	 7.57
204.0807752941 	 3.46
206.0964253583 	 3.52
210.0913399804 	 1.32
217.0886003262 	 6.47
218.0964253583 	 100
219.100227645 	 16.68
232.0756899162 	 1.52
233.0835149483 	 3.02
234.0913399804 	 11.28
235.0951422671 	 1.53
238.0862546025 	 20.91
245.0835149483 	 1.17
246.0913399804 	 2.23
247.0991650125 	 4.57
248.1069900446 	 82.68
249.113472406 	 68.46
260.1069900446 	 14.68
261.1107923313 	 3.08
262.0822318571 	 1.76
266.0811692246 	 42.68
271.0865889535 	 2.11
272.0944139856 	 1.04
273.1022390177 	 0.94
275.1178890819 	 0.99
288.1019046667 	 10.41
289.1057069534 	 2.98
290.0771464792 	 2.23
299.0815035756 	 3.4
303.112803704 	 4.7
314.0924026129 	 1.43
342.087317235 	 1.73
346.1100640498 	 1.07
364.1206287361 	 0.96
375.1087809586 	 1.03
379.1441038324 	 3.55
380.1479061191 	 0.96
389.1284537682 	 2.43
392.1115206128 	 1.85
407.1390184545 	 31.12
408.1428207412 	 10.07
422.1499174918 	 4.45
450.1448321139 	 33.5
565.2081606522 	 0
END IONS

BEGIN IONS
PEPMASS=203.118
CHARGE=1
MSLEVEL=2
RT=0
SOURCE_INSTRUMENT=qTOF
FILENAME=CCMSLIB00000079440.ms
IONMODE=Positive
ORGANISM=Natural
NAME=MLS001250169-01!
PI=GNPS
DATACOLLECTOR=GNPS
SMILES=CC(=NCCc1c[nH]c2ccccc12)O
INCHI=InChI=1S/C12H14N2O/c1-9(15)13-7-6-10-8-14-12-5-3-2-4-11(10)12/h2-5,8,14H,6-7H2,1H3,(H,13,15)
FORMULA=C12H14N2O
PUBMED=N/A
SUBMITUSER=BIOADREM
LIBRARYQUALITY=0
SPECTRUMID=CCMSLIB00000079440
SCANS=1656
ID=CCMSLIB00000079440
103.0542261926 	 5.72
115.0542261926 	 19.89
119.085526321 	 1.52
127.0542261926 	 7.06
132.0807752941 	 2.11
143.072950262 	 49.27
144.0807752941 	 100
203.1178890819 	 0
END IONS

BEGIN IONS
PEPMASS=398.1597
CHARGE=1
MSLEVEL=2
RT=0
SOURCE_INSTRUMENT=qTOF
FILENAME=CCMSLIB00000079441.ms
IONMODE=Positive
ORGANISM=Natural
NAME=MLS001141217-01!N-(furan-2-ylmethyl)-2-[(4,8,8-trimethyl-2-oxo-9,10-dihydropyrano[2,3-h]chromen-5-yl)oxy]acetamide
PI=GNPS
DATACOLLECTOR=GNPS
SMILES=Cc1cc(=O)oc2c3CCC(C)(C)Oc3cc(c12)OCC(=NCc1ccco1)O
INCHI=InChI=1S/C22H23NO6/c1-13-9-19(25)28-21-15-6-7-22(2,3)29-16(15)10-17(20(13)21)27-12-18(24)23-11-14-5-4-8-26-14/h4-5,8-10H,6-7,11-12H2,1-3H3,(H,23,24)
FORMULA=C22H23NO6
PUBMED=N/A
SUBMITUSER=BIOADREM
LIBRARYQUALITY=0
SPECTRUMID=CCMSLIB00000079441
SCANS=1657
ID=CCMSLIB00000079441
97.0284053726 	 31.43
108.0443897878 	 2.67
109.0284053726 	 10.15
110.060039852 	 36.56
120.0443897878 	 2.64
138.0549544741 	 36.77
149.059705501 	 6.46
159.0440554368 	 2.18
163.0389700589 	 2.03
176.046795091 	 10.88
189.0546201231 	 4.06
204.0417097131 	 3.85
205.0495347452 	 99.52
217.0495347452 	 8.55
245.0444493673 	 4.58
262.0709984688 	 4.36
285.0757494957 	 5.21
342.0972132193 	 100
398.1598134761 	 38.56
END IONS

BEGIN IONS
PEPMASS=179.107
CHARGE=1
MSLEVEL=2
RT=0
SOURCE_INSTRUMENT=qTOF
FILENAME=CCMSLIB00000079442.ms
IONMODE=Positive
ORGANISM=Natural
NAME=MLS001065600-01!
PI=GNPS
DATACOLLECTOR=GNPS
SMILES=C=CCc1ccc(c(c1)OC)OC
INCHI=InChI=1S/C11H14O2/c1-4-5-9-6-7-10(12-2)11(8-9)13-3/h4,6-8H,1,5H2,2-3H3
FORMULA=C11H14O2
PUBMED=N/A
SUBMITUSER=BIOADREM
LIBRARYQUALITY=0
SPECTRUMID=CCMSLIB00000079442
SCANS=1658
ID=CCMSLIB00000079442
95.0491408147 	 19.57
105.0698762568 	 21.74
119.0491408147 	 29.35
123.0440554368 	 80.98
138.0675305331 	 26.09
149.059705501 	 100
179.1066556936 	 0
END IONS

BEGIN IONS
PEPMASS=422.1598
CHARGE=1
MSLEVEL=2
RT=0
SOURCE_INSTRUMENT=qTOF
FILENAME=CCMSLIB00000079443.ms
IONMODE=Positive
ORGANISM=Natural
NAME=MLS001075356-01!(2S)-2-[2-[(7-methyl-4-oxo-2,3-dihydro-1H-cyclopenta[c]chromen-9-yl)oxy]propanoylamino]-2-phenylacetic acid
PI=GNPS
DATACOLLECTOR=GNPS
SMILES=Cc1cc(c2c3CCCc3c(=O)oc2c1)OC(C)C(=N[C@@H](c1ccccc1)C(=O)O)O
INCHI=InChI=1S/C24H23NO6/c1-13-11-18(20-16-9-6-10-17(16)24(29)31-19(20)12-13)30-14(2)22(26)25-21(23(27)28)15-7-4-3-5-8-15/h3-5,7-8,11-12,14,21H,6,9-10H2,1-2H3,(H,25,26)(H,27,28)/t14?,21-/m0/s1
FORMULA=C24H23NO6
PUBMED=N/A
SUBMITUSER=BIOADREM
LIBRARYQUALITY=0
SPECTRUMID=CCMSLIB00000079443
SCANS=1659
ID=CCMSLIB00000079443
105.0698762568 	 7.21
107.0491408147 	 4.52
115.0542261926 	 1.22
117.0698762568 	 1.18
128.0620512247 	 2.03
129.0698762568 	 0.99
130.0777012889 	 1.29
131.085526321 	 1.81
133.0647908789 	 1.67
135.0440554368 	 9.72
141.0698762568 	 1.36
143.085526321 	 1.99
144.0569658468 	 1.48
145.0647908789 	 10.2
147.0804409431 	 2.14
154.0777012889 	 1.53
158.072615911 	 6.11
159.0804409431 	 4.48
159.1168264494 	 0.99
161.059705501 	 4.01
161.0960910073 	 1.61
163.0389700589 	 1.13
169.0647908789 	 0.89
171.0804409431 	 11.61
187.0753555652 	 5.38
187.1117410715 	 1.35
189.0546201231 	 1.55
189.0910056294 	 6.03
199.0753555652 	 1.77
199.1117410715 	 0.93
200.0831805973 	 0.8
215.0702701873 	 41.21
215.1066556936 	 9.68
217.0859202515 	 100
243.1015703157 	 68.77
271.0964849378 	 3.21
288.1230340393 	 6.28
422.1598134761 	 0.55
END IONS

BEGIN IONS
PEPMASS=255.1488
CHARGE=1
MSLEVEL=2
RT=0
SOURCE_INSTRUMENT=qTOF
FILENAME=CCMSLIB00000079444.ms
IONMODE=Positive
ORGANISM=Natural
NAME=MLS001049075-01![(6aR,9R)-7-methyl-6,6a,8,9-tetrahydro-4H-indolo[4,3-fg]quinoline-9-yl]methanol
PI=GNPS
DATACOLLECTOR=GNPS
SMILES=CN1C[C@@H](C=C2c3cccc4c3c(C[C@@H]12)c[nH]4)CO
INCHI=InChI=1S/C16H18N2O/c1-18-8-10(9-19)5-13-12-3-2-4-14-16(12)11(7-17-14)6-15(13)18/h2-5,7,10,15,17,19H,6,8-9H2,1H3/t10-,15-/m1/s1
FORMULA=C16H18N2O
PUBMED=N/A
SUBMITUSER=BIOADREM
LIBRARYQUALITY=0
SPECTRUMID=CCMSLIB00000079444
SCANS=1660
ID=CCMSLIB00000079444
128.0620512247 	 4.9
129.0698762568 	 10.77
130.0651252299 	 2.39
142.0651252299 	 4.65
144.0807752941 	 3.87
151.0542261926 	 2.16
152.0620512247 	 9.16
154.0651252299 	 41.81
156.0807752941 	 8.71
163.0542261926 	 2.39
165.0698762568 	 27.16
167.072950262 	 35.23
168.0807752941 	 43.35
170.0964253583 	 4.68
178.0777012889 	 6.71
180.0807752941 	 41.77
182.0838492993 	 60.55
183.0916743314 	 8.74
191.072950262 	 14.1
192.0807752941 	 100
193.0886003262 	 33.42
194.0964253583 	 37.74
197.1073243956 	 87.29
204.0807752941 	 6.23
207.0916743314 	 13.61
208.0994993635 	 15.48
209.1073243956 	 19.45
212.1069900446 	 2.55
221.1073243956 	 15.48
222.1151494277 	 7.32
223.1229744598 	 54.19
237.138624524 	 6.9
239.1178890819 	 24.81
240.125714114 	 57.32
255.1491892103 	 32.71
END IONS

BEGIN IONS
PEPMASS=495.2589
CHARGE=1
MSLEVEL=2
RT=0
SOURCE_INSTRUMENT=qTOF
FILENAME=CCMSLIB00000079445.ms
IONMODE=Positive
ORGANISM=Natural
NAME=MLS000563057-01!
PI=GNPS
DATACOLLECTOR=GNPS
SMILES=C[C@@]12CC[C@@H]3C(=CC(=O)O3)C1CC[C@]13CC(CCC23)[C@](C1)(CO)O[C@@H]1[C@@H]([C@H]([C@@H]([C@@H](CO)O1)O)O)O
INCHI=InChI=1S/C26H38O9/c1-24-6-5-16-14(8-19(29)33-16)15(24)4-7-25-9-13(2-3-18(24)25)26(11-25,12-28)35-23-22(32)21(31)20(30)17(10-27)34-23/h8,13,15-18,20-23,27-28,30-32H,2-7,9-12H2,1H3/t13?,15?,16-,17-,18?,20-,21+,22-,23-,24-,25+,26+/m1/s1
FORMULA=C26H38O9
PUBMED=N/A
SUBMITUSER=BIOADREM
LIBRARYQUALITY=0
SPECTRUMID=CCMSLIB00000079445
SCANS=1661
ID=CCMSLIB00000079445
95.085526321 	 21.82
105.0698762568 	 27.01
117.0698762568 	 74.6
119.085526321 	 57.6
121.1011763852 	 36.85
128.0620512247 	 21.65
129.0698762568 	 30.41
131.085526321 	 62.25
135.0804409431 	 18.43
135.1168264494 	 22
141.0698762568 	 43.83
142.0777012889 	 21.29
143.085526321 	 44.72
145.1011763852 	 39.71
151.0753555652 	 27.37
155.085526321 	 41.5
157.1011763852 	 43.11
159.1168264494 	 48.84
165.0910056294 	 20.93
167.085526321 	 32.92
169.1011763852 	 37.92
171.1168264494 	 19.32
181.1011763852 	 51.52
183.1168264494 	 37.03
185.1324765136 	 26.83
203.1066556936 	 22.36
207.1168264494 	 27.01
209.1324765136 	 45.97
211.1481265778 	 21.65
213.163776642 	 17.35
223.1481265778 	 64.4
225.163776642 	 16.99
239.1794267062 	 16.46
241.1586912641 	 39.89
251.1794267062 	 57.96
269.1536058862 	 35.78
269.1899913925 	 49.55
270.1614309183 	 16.82
279.1743413283 	 44.54
285.1849060146 	 16.82
297.1849060146 	 100
315.1954707009 	 17.71
495.2588588187 	 37.03
END IONS

BEGIN IONS
PEPMASS=362.101
CHARGE=1
MSLEVEL=2
RT=0
SOURCE_INSTRUMENT=qTOF
FILENAME=CCMSLIB00000079446.ms
IONMODE=Positive
ORGANISM=Natural
NAME=MLS001140385-01!N-[3-(3-methoxyphenyl)-4-oxochromen-2-yl]furan-2-carboxamide
PI=GNPS
DATACOLLECTOR=GNPS
SMILES=COc1cccc(c1)c1c(=O)c2ccccc2oc1N=C(c1ccco1)O
INCHI=InChI=1S/C21H15NO5/c1-25-14-7-4-6-13(12-14)18-19(23)15-8-2-3-9-16(15)27-21(18)22-20(24)17-10-5-11-26-17/h2-12H,1H3,(H,22,24)
FORMULA=C21H15NO5
PUBMED=N/A
SUBMITUSER=BIOADREM
LIBRARYQUALITY=0
SPECTRUMID=CCMSLIB00000079446
SCANS=1662
ID=CCMSLIB00000079446
95.0127553084 	 100
105.0334907505 	 1.23
107.0491408147 	 3.97
119.0491408147 	 2.24
121.0284053726 	 21.23
133.0284053726 	 3.7
135.0440554368 	 0.94
160.0154949626 	 1.99
175.0389700589 	 0.95
213.0910056294 	 3.56
223.0627795062 	 1.04
241.0859202515 	 0.89
251.0576941283 	 9.24
269.0808348736 	 46.19
279.0526087504 	 3.69
294.0760838467 	 17.25
362.1022985972 	 5.09
END IONS

BEGIN IONS
PEPMASS=609.2306
CHARGE=1
MSLEVEL=2
RT=0
SOURCE_INSTRUMENT=qTOF
FILENAME=CCMSLIB00000079447.ms
IONMODE=Positive
ORGANISM=Natural
NAME=MLS001097641-01!
PI=GNPS
DATACOLLECTOR=GNPS
SMILES=CC1=C2[C@H](C(=O)[C@]3(C)[C@@H](C[C@@H]4[C@@](CO4)(C3[C@@H]([C@](C[C@@H]1O)(C2(C)C)O)OC(=O)c1ccccc1)OC(=O)C)O)OC(=O)C
INCHI=InChI=1S/C31H38O11/c1-15-19(34)13-31(38)26(41-27(37)18-10-8-7-9-11-18)24-29(6,20(35)12-21-30(24,14-39-21)42-17(3)33)25(36)23(40-16(2)32)22(15)28(31,4)5/h7-11,19-21,23-24,26,34-35,38H,12-14H2,1-6H3/t19-,20+,21+,23+,24?,26-,29+,30-,31+/m0/s1
FORMULA=C31H38O11
PUBMED=N/A
SUBMITUSER=BIOADREM
LIBRARYQUALITY=0
SPECTRUMID=CCMSLIB00000079447
SCANS=1663
ID=CCMSLIB00000079447
83.0491408147 	 22.41
101.059705501 	 3.77
101.0960910073 	 4.17
132.0933513531 	 5.42
135.1168264494 	 4.21
137.0960910073 	 4.08
153.1273911357 	 3.54
163.1117410715 	 3.63
273.1485205083 	 3.99
317.1019642462 	 4.48
317.1747352588 	 12.24
333.1696498809 	 4.93
345.1696498809 	 58.4
346.1716016741 	 17.39
362.1301307899 	 5.65
364.1821663604 	 3.27
377.1958646314 	 7.58
405.1907792535 	 48.5
406.1927310467 	 14.25
437.1958646314 	 8.83
438.2036896635 	 3.99
439.2115146956 	 3.85
467.2064293177 	 26.31
499.2326440682 	 32.14
500.2404691003 	 11.7
527.2275586903 	 100
528.2353837224 	 30.43
587.2486880629 	 28.82
END IONS

BEGIN IONS
PEPMASS=301.108
CHARGE=1
MSLEVEL=2
RT=0
SOURCE_INSTRUMENT=qTOF
FILENAME=CCMSLIB00000079448.ms
IONMODE=Positive
ORGANISM=Natural
NAME=MLS000877012-01!8-hydroxy-5,7-dimethoxy-2-phenyl-2,3-dihydrochromen-4-one
PI=GNPS
DATACOLLECTOR=GNPS
SMILES=COc1cc(c(c2c1C(=O)CC(c1ccccc1)O2)O)OC
INCHI=InChI=1S/C17H16O5/c1-20-13-9-14(21-2)16(19)17-15(13)11(18)8-12(22-17)10-6-4-3-5-7-10/h3-7,9,12,19H,8H2,1-2H3
FORMULA=C17H16O5
PUBMED=N/A
SUBMITUSER=BIOADREM
LIBRARYQUALITY=0
SPECTRUMID=CCMSLIB00000079448
SCANS=1664
ID=CCMSLIB00000079448
95.0491408147 	 4.02
96.0205803405 	 3.12
124.0154949626 	 4.78
126.0311450268 	 5.86
136.0154949626 	 5.23
137.0233199947 	 3
139.0025845526 	 4.91
139.0389700589 	 3.38
154.0260596489 	 9.75
166.9974991747 	 6.18
182.020974271 	 66.22
197.0444493673 	 100
301.1070496241 	 0
END IONS

BEGIN IONS
PEPMASS=472.176
CHARGE=1
MSLEVEL=2
RT=0
SOURCE_INSTRUMENT=qTOF
FILENAME=CCMSLIB00000079449.ms
IONMODE=Positive
ORGANISM=Natural
NAME=MLS001146569-01!(2S)-2-[[2-(3-benzyl-4-methyl-2-oxochromen-7-yl)oxyacetyl]amino]-3-phenylpropanoic acid
PI=GNPS
DATACOLLECTOR=GNPS
SMILES=Cc1c2ccc(cc2oc(=O)c1Cc1ccccc1)OCC(=N[C@@H](Cc1ccccc1)C(=O)O)O
INCHI=InChI=1S/C28H25NO6/c1-18-22-13-12-21(16-25(22)35-28(33)23(18)14-19-8-4-2-5-9-19)34-17-26(30)29-24(27(31)32)15-20-10-6-3-7-11-20/h2-13,16,24H,14-15,17H2,1H3,(H,29,30)(H,31,32)/t24-/m0/s1
FORMULA=C28H25NO6
PUBMED=N/A
SUBMITUSER=BIOADREM
LIBRARYQUALITY=0
SPECTRUMID=CCMSLIB00000079449
SCANS=1665
ID=CCMSLIB00000079449
103.0542261926 	 6.78
105.0698762568 	 21.03
115.0542261926 	 7.01
117.0573001978 	 15.21
129.0698762568 	 2.3
130.0651252299 	 23.96
131.0491408147 	 1.66
132.0807752941 	 100
145.0647908789 	 1.47
160.0756899162 	 2.04
161.059705501 	 6.96
166.0777012889 	 1.03
167.085526321 	 1.38
178.0777012889 	 15.44
189.0546201231 	 64.08
192.0933513531 	 2.18
193.1011763852 	 12.92
201.0546201231 	 1.28
203.085526321 	 1.49
205.1011763852 	 1.36
207.0804409431 	 2.47
221.0960910073 	 21.02
223.1117410715 	 2.7
229.0495347452 	 2.07
233.0960910073 	 1.17
249.0910056294 	 8.96
251.1066556936 	 4.92
267.1015703157 	 3.25
279.1015703157 	 16.28
348.1230340393 	 2
394.1285133477 	 4.26
426.1699842319 	 4.92
472.1754635403 	 0
END IONS

BEGIN IONS
PEPMASS=435.1913
CHARGE=1
MSLEVEL=2
RT=0
SOURCE_INSTRUMENT=qTOF
FILENAME=CCMSLIB00000079450.ms
IONMODE=Positive
ORGANISM=Natural
NAME=MLS001159966-01!
PI=GNPS
DATACOLLECTOR=GNPS
SMILES=Cc1cc(c2c(C)c(C)c(=O)oc2c1)OCC(=O)N1C[C@H]2C[C@@H](C1)c1cccc(=O)n1C2
INCHI=InChI=1S/C25H26N2O5/c1-14-7-20(24-15(2)16(3)25(30)32-21(24)8-14)31-13-23(29)26-10-17-9-18(12-26)19-5-4-6-22(28)27(19)11-17/h4-8,17-18H,9-13H2,1-3H3/t17-,18+/m1/s1
FORMULA=C25H26N2O5
PUBMED=N/A
SUBMITUSER=BIOADREM
LIBRARYQUALITY=0
SPECTRUMID=CCMSLIB00000079450
SCANS=1666
ID=CCMSLIB00000079450
105.0698762568 	 0.78
109.0522148199 	 2.07
110.060039852 	 0.43
117.0573001978 	 0.73
118.0651252299 	 0.86
122.060039852 	 2.56
132.0443897878 	 2.44
132.0807752941 	 0.65
133.0522148199 	 2.02
134.060039852 	 7.83
142.0651252299 	 0.39
144.0807752941 	 0.61
146.060039852 	 28.88
147.0678648841 	 13.71
148.0756899162 	 8.89
149.0709388893 	 1.81
158.060039852 	 0.79
160.0756899162 	 10.78
161.0835149483 	 1.88
162.0913399804 	 1.04
172.0756899162 	 4.32
173.0835149483 	 18.76
174.0913399804 	 2.54
175.0502034472 	 0.63
188.0706045383 	 2.11
189.1022390177 	 100
191.1178890819 	 11.12
203.0815035756 	 0.98
217.0886003262 	 6.22
227.0702701873 	 0.43
231.112803704 	 4.35
232.1206287361 	 5.23
245.0835149483 	 2.1
252.1019046667 	 0.73
264.1104579803 	 0.6
270.112469353 	 1.01
417.1808832692 	 0.72
435.1914479555 	 27.71
END IONS

BEGIN IONS
PEPMASS=466.2224
CHARGE=1
MSLEVEL=2
RT=0
SOURCE_INSTRUMENT=qTOF
FILENAME=CCMSLIB00000079451.ms
IONMODE=Positive
ORGANISM=Natural
NAME=MLS001076814-01!(2S)-2-[[2-(3-hexyl-4-methyl-2-oxochromen-7-yl)oxyacetyl]amino]-3-phenylpropanoic acid
PI=GNPS
DATACOLLECTOR=GNPS
SMILES=CCCCCCc1c(C)c2ccc(cc2oc1=O)OCC(=N[C@@H](Cc1ccccc1)C(=O)O)O
INCHI=InChI=1S/C27H31NO6/c1-3-4-5-9-12-22-18(2)21-14-13-20(16-24(21)34-27(22)32)33-17-25(29)28-23(26(30)31)15-19-10-7-6-8-11-19/h6-8,10-11,13-14,16,23H,3-5,9,12,15,17H2,1-2H3,(H,28,29)(H,30,31)/t23-/m0/s1
FORMULA=C27H31NO6
PUBMED=N/A
SUBMITUSER=BIOADREM
LIBRARYQUALITY=0
SPECTRUMID=CCMSLIB00000079451
SCANS=1667
ID=CCMSLIB00000079451
103.0542261926 	 5.73
105.0698762568 	 20.67
107.0491408147 	 2.83
115.0542261926 	 6.19
117.0573001978 	 13.5
119.085526321 	 1.35
120.0807752941 	 23.95
121.0647908789 	 1.41
130.0651252299 	 16.6
131.0491408147 	 1.62
132.0807752941 	 100
133.0647908789 	 2.89
135.0440554368 	 1.49
135.0804409431 	 1.44
145.0647908789 	 5.48
145.1011763852 	 3.13
147.0804409431 	 5.85
149.059705501 	 1.94
150.0913399804 	 1.31
159.0804409431 	 4.45
161.059705501 	 10.53
162.0675305331 	 3.38
163.0753555652 	 2.07
173.059705501 	 3.18
175.0753555652 	 5.47
177.0546201231 	 2.84
178.0862546025 	 1.93
187.1481265778 	 47.1
189.0546201231 	 10.85
190.0624451552 	 6.26
191.0702701873 	 2.28
197.1324765136 	 1.33
203.0702701873 	 5.39
205.0859202515 	 3.16
215.1430411999 	 16.11
217.1586912641 	 1.33
243.137955822 	 7.28
245.1536058862 	 5.25
271.1328704441 	 1.72
273.1485205083 	 30.22
301.1434351304 	 2.32
363.1954707009 	 3.22
420.2169344245 	 11.94
466.2224137329 	 0.58
END IONS

BEGIN IONS
PEPMASS=510.26
CHARGE=1
MSLEVEL=2
RT=0
SOURCE_INSTRUMENT=qTOF
FILENAME=CCMSLIB00000079452.ms
IONMODE=Positive
ORGANISM=Natural
NAME=MLS001140513-01!(2R)-2-[[(2R)-2-[[1-[(2-methylpropan-2-yl)oxycarbonyl]-4-phenylpiperidine-4-carbonyl]amino]propanoyl]amino]-2-phenylacetic acid
PI=GNPS
DATACOLLECTOR=GNPS
SMILES=C[C@H](C(=N[C@H](c1ccccc1)C(=O)O)O)N=C(C1(CCN(CC1)C(=O)OC(C)(C)C)c1ccccc1)O
INCHI=InChI=1S/C28H35N3O6/c1-19(23(32)30-22(24(33)34)20-11-7-5-8-12-20)29-25(35)28(21-13-9-6-10-14-21)15-17-31(18-16-28)26(36)37-27(2,3)4/h5-14,19,22H,15-18H2,1-4H3,(H,29,35)(H,30,32)(H,33,34)/t19-,22-/m1/s1
FORMULA=C28H35N3O6
PUBMED=N/A
SUBMITUSER=BIOADREM
LIBRARYQUALITY=0
SPECTRUMID=CCMSLIB00000079452
SCANS=1668
ID=CCMSLIB00000079452
90.0549544741 	 6.02
100.0393044099 	 1.02
105.0698762568 	 0.41
106.0651252299 	 3.51
107.0491408147 	 1.37
115.0542261926 	 0.86
117.0698762568 	 3.71
128.0620512247 	 1.2
129.0698762568 	 0.63
131.085526321 	 8.12
133.1011763852 	 1.29
135.0440554368 	 13.98
143.085526321 	 5.43
145.0607681335 	 0.51
152.0706045383 	 20.52
158.0964253583 	 0.54
160.1120754225 	 100
170.0964253583 	 1.59
186.0913399804 	 0.94
187.1229744598 	 3.35
188.1069900446 	 60.15
204.1019046667 	 24.46
216.1019046667 	 1.09
223.1077183261 	 12.35
231.1491892103 	 1.93
259.1441038324 	 15.02
275.1390184545 	 0.55
276.1706529339 	 24.97
277.1546685187 	 19.89
303.1339330766 	 0.4
340.1543341677 	 0.76
348.2070384402 	 0.94
357.1485205083 	 0.78
366.2176031265 	 4
382.1801549877 	 4.25
384.1805489182 	 0.69
400.190719674 	 1.42
410.2074323707 	 100
411.2067040892 	 25.77
414.1785375455 	 0.7
426.1699842319 	 1.67
428.1856342961 	 0.93
454.1972616149 	 4.63
455.1965333334 	 1.8
510.2598618717 	 0.28
END IONS

BEGIN IONS
PEPMASS=621.255
CHARGE=1
MSLEVEL=2
RT=0
SOURCE_INSTRUMENT=qTOF
FILENAME=CCMSLIB00000079454.ms
IONMODE=Positive
ORGANISM=Natural
NAME=MLS000728660-01!
PI=GNPS
DATACOLLECTOR=GNPS
SMILES=C=C[C@@H]1[C@H](C[C@H]2CC(=O)C[C@H](CC(=O)CCc3ccc(cc3)O)O2)C(=CO[C@H]1OC1C(C(C(C(CO)O1)O)O)O)C(=O)OC
INCHI=InChI=1S/C31H40O13/c1-3-22-23(13-21-12-19(35)11-20(42-21)10-18(34)9-6-16-4-7-17(33)8-5-16)24(29(39)40-2)15-41-30(22)44-31-28(38)27(37)26(36)25(14-32)43-31/h3-5,7-8,15,20-23,25-28,30-33,36-38H,1,6,9-14H2,2H3/t20-,21+,22+,23-,25?,26?,27?,28?,30-,31?/m0/s1
FORMULA=C31H40O13
PUBMED=N/A
SUBMITUSER=BIOADREM
LIBRARYQUALITY=0
SPECTRUMID=CCMSLIB00000079454
SCANS=1670
ID=CCMSLIB00000079454
85.0647908789 	 4.44
107.0491408147 	 100
111.0440554368 	 5.35
121.0284053726 	 6.88
123.0440554368 	 7.16
129.0698762568 	 10.57
133.0647908789 	 5.22
139.0389700589 	 14.12
139.0753555652 	 5.91
143.0702701873 	 3.62
145.0647908789 	 9.39
147.0440554368 	 8.28
151.0389700589 	 27.12
153.0546201231 	 9.32
159.0440554368 	 11.75
163.0753555652 	 9.6
165.0546201231 	 72.74
167.0702701873 	 23.5
175.0389700589 	 5.29
175.0753555652 	 17.39
177.0546201231 	 10.85
193.0859202515 	 19.61
217.0859202515 	 21.07
218.0937452836 	 4.94
225.0910056294 	 7.02
227.0913995599 	 2.4
243.1015703157 	 5.84
245.0808348736 	 6.54
261.112135002 	 16.55
262.1199600341 	 10.22
269.1019642462 	 2.31
275.1277850662 	 4.98
278.1148746562 	 6.33
279.1226996883 	 24.34
303.1226996883 	 8.62
307.0659726704 	 2.31
317.1019642462 	 2.31
339.1226996883 	 6.68
357.1332643746 	 7.7
358.1410894067 	 3.08
373.164564503 	 3.17
389.1594791251 	 100
390.1673041572 	 31.85
391.1539998167 	 13.35
391.1598730556 	 10.65
409.164564503 	 28.58
427.1751291893 	 10.42
429.1755231198 	 2.99
457.1704377419 	 3.22
459.2013439398 	 39.78
621.2541673713 	 27
END IONS

BEGIN IONS
PEPMASS=239.0686
CHARGE=1
MSLEVEL=2
RT=0
SOURCE_INSTRUMENT=qTOF
FILENAME=CCMSLIB00000079456.ms
IONMODE=Positive
ORGANISM=Natural
NAME=MLS001049140-01!7-hydroxy-3-phenylchromen-4-one
PI=GNPS
DATACOLLECTOR=GNPS
SMILES=c1ccc(cc1)c1coc2cc(ccc2c1=O)O
INCHI=InChI=1S/C15H10O3/c16-11-6-7-12-14(8-11)18-9-13(15(12)17)10-4-2-1-3-5-10/h1-9,16H
FORMULA=C15H10O3
PUBMED=N/A
SUBMITUSER=BIOADREM
LIBRARYQUALITY=0
SPECTRUMID=CCMSLIB00000079456
SCANS=1672
ID=CCMSLIB00000079456
102.0464011605 	 3.64
103.0542261926 	 12.11
105.0334907505 	 1.68
115.0542261926 	 8.89
127.0542261926 	 2.41
128.0620512247 	 4.83
129.0698762568 	 6.62
133.0284053726 	 1.87
134.0362304047 	 1.42
139.0542261926 	 3.81
140.0620512247 	 1.52
141.0698762568 	 15.06
152.0620512247 	 9.74
153.0698762568 	 26.49
154.0777012889 	 7.86
155.085526321 	 17.65
164.0620512247 	 2.58
165.0698762568 	 100
168.0569658468 	 8.26
181.0647908789 	 16.42
182.072615911 	 8.63
183.0804409431 	 37.43
197.059705501 	 1.39
211.0753555652 	 3.97
221.059705501 	 2.64
239.0702701873 	 104.29
END IONS

BEGIN IONS
PEPMASS=267.0998
CHARGE=1
MSLEVEL=2
RT=0
SOURCE_INSTRUMENT=qTOF
FILENAME=CCMSLIB00000079457.ms
IONMODE=Positive
ORGANISM=Natural
NAME=MLS002473407-01!5-hydroxy-2-(2-phenylethyl)chromen-4-one
PI=GNPS
DATACOLLECTOR=GNPS
SMILES=c1ccc(cc1)CCc1cc(=O)c2c(cccc2o1)O
INCHI=InChI=1S/C17H14O3/c18-14-7-4-8-16-17(14)15(19)11-13(20-16)10-9-12-5-2-1-3-6-12/h1-8,11,18H,9-10H2
FORMULA=C17H14O3
PUBMED=N/A
SUBMITUSER=BIOADREM
LIBRARYQUALITY=0
SPECTRUMID=CCMSLIB00000079457
SCANS=1673
ID=CCMSLIB00000079457
107.0127553084 	 0.53
108.0205803405 	 0.66
136.0154949626 	 2.47
137.0233199947 	 65.33
147.0440554368 	 1.89
163.0389700589 	 0.87
175.0389700589 	 0.72
176.046795091 	 100
267.1015703157 	 15.74
END IONS

BEGIN IONS
PEPMASS=457.1646
CHARGE=1
MSLEVEL=2
RT=0
SOURCE_INSTRUMENT=qTOF
FILENAME=CCMSLIB00000079458.ms
IONMODE=Positive
ORGANISM=Natural
NAME=MLS001143525-01!
PI=GNPS
DATACOLLECTOR=GNPS
SMILES=COc1cc(C2C(c3ccccc3)C(c3cc(cc(=O)o3)OC)C2c2ccccc2)oc(=O)c1
INCHI=InChI=1S/C28H24O6/c1-31-19-13-21(33-23(29)15-19)27-25(17-9-5-3-6-10-17)28(26(27)18-11-7-4-8-12-18)22-14-20(32-2)16-24(30)34-22/h3-16,25-28H,1-2H3
FORMULA=C28H24O6
PUBMED=N/A
SUBMITUSER=BIOADREM
LIBRARYQUALITY=0
SPECTRUMID=CCMSLIB00000079458
SCANS=1674
ID=CCMSLIB00000079458
103.0542261926 	 5.31
108.0205803405 	 0.33
115.0542261926 	 1.52
123.0440554368 	 0.75
127.0542261926 	 0.41
128.0620512247 	 1.94
129.0698762568 	 2.56
131.0491408147 	 38.69
139.0542261926 	 0.58
140.0620512247 	 1.06
141.0698762568 	 19.32
151.0542261926 	 0.94
152.0620512247 	 2.96
153.0698762568 	 4.33
155.0491408147 	 2.95
155.085526321 	 0.96
157.0647908789 	 0.58
158.072615911 	 1.2
165.0698762568 	 1.8
168.0569658468 	 9.79
169.0647908789 	 8.61
173.0960910073 	 3.51
179.0491408147 	 5.05
181.0647908789 	 0.44
183.0804409431 	 10.06
186.0675305331 	 10.89
197.059705501 	 7.08
201.0910056294 	 31.42
211.0753555652 	 3.84
229.0859202515 	 100
457.164564503 	 0.68
END IONS

BEGIN IONS
PEPMASS=470.1354
CHARGE=1
MSLEVEL=2
RT=0
SOURCE_INSTRUMENT=qTOF
FILENAME=CCMSLIB00000079459.ms
IONMODE=Positive
ORGANISM=Natural
NAME=MLS001158641-01!3-(4-chlorophenyl)-2-[[2-[(3-methyl-6-oxo-7,8,9,10-tetrahydrobenzo[c]chromen-1-yl)oxy]acetyl]amino]propanoic acid
PI=GNPS
DATACOLLECTOR=GNPS
SMILES=Cc1cc(c2c3CCCCc3c(=O)oc2c1)OCC(=NC(Cc1ccc(cc1)Cl)C(=O)O)O
INCHI=InChI=1S/C25H24ClNO6/c1-14-10-20(23-17-4-2-3-5-18(17)25(31)33-21(23)11-14)32-13-22(28)27-19(24(29)30)12-15-6-8-16(26)9-7-15/h6-11,19H,2-5,12-13H2,1H3,(H,27,28)(H,29,30)
FORMULA=C25H24ClNO6
PUBMED=N/A
SUBMITUSER=BIOADREM
LIBRARYQUALITY=0
SPECTRUMID=CCMSLIB00000079459
SCANS=1675
ID=CCMSLIB00000079459
103.0542261926 	 1.99
118.0651252299 	 2.62
119.072950262 	 3.92
121.0647908789 	 2
125.0152538705 	 3.06
130.0651252299 	 7.85
131.072950262 	 9.11
137.059705501 	 5.42
139.0309039347 	 8.69
145.0647908789 	 3.37
149.059705501 	 3.23
151.0309039347 	 2.05
154.041802972 	 13.33
154.0777012889 	 2.61
155.085526321 	 2.95
156.0933513531 	 3.21
159.0804409431 	 2.78
161.0601926904 	 2.52
166.041802972 	 33.89
169.0652780683 	 5.82
169.1011763852 	 2.05
172.0882659752 	 6.41
173.059705501 	 2.34
174.0675305331 	 4.71
177.0546201231 	 4.98
182.072615911 	 2.07
183.0804409431 	 4.29
184.0523676583 	 2.2
184.0882659752 	 8.8
185.0960910073 	 2.59
197.0960910073 	 2.76
199.1117410715 	 4.7
200.0831805973 	 3.72
203.1066556936 	 2.82
211.0753555652 	 2.2
213.0546201231 	 2.34
215.0707573767 	 29.31
215.1066556936 	 27.13
228.0780952194 	 10.5
229.0859202515 	 16.78
230.094232473 	 19.63
231.1015703157 	 31.46
243.1015703157 	 100
271.0964849378 	 18.29
289.1070496241 	 2.61
470.1364912182 	 7.35
END IONS

BEGIN IONS
PEPMASS=335.259
CHARGE=1
MSLEVEL=2
RT=0
SOURCE_INSTRUMENT=qTOF
FILENAME=CCMSLIB00000079460.ms
IONMODE=Positive
ORGANISM=Natural
NAME=MLS002667412-01!
PI=GNPS
DATACOLLECTOR=GNPS
SMILES=CC(=O)C1CCC2C3CC(C4CC(CCC4(C)C3CCC12C)O)O
INCHI=InChI=1S/C21H34O3/c1-12(22)15-4-5-16-14-11-19(24)18-10-13(23)6-8-21(18,3)17(14)7-9-20(15,16)2/h13-19,23-24H,4-11H2,1-3H3
FORMULA=C21H34O3
PUBMED=N/A
SUBMITUSER=BIOADREM
LIBRARYQUALITY=0
SPECTRUMID=CCMSLIB00000079460
SCANS=1676
ID=CCMSLIB00000079460
95.085526321 	 14.8
105.0698762568 	 38.27
117.0698762568 	 48.6
119.085526321 	 14.53
123.1168264494 	 13.69
129.0698762568 	 22.35
131.085526321 	 46.37
133.1011763852 	 30.17
134.1090014173 	 13.97
135.1168264494 	 32.68
141.0698762568 	 15.08
143.085526321 	 20.67
144.0933513531 	 24.58
147.1168264494 	 60.34
149.1324765136 	 17.6
159.1168264494 	 100
171.1168264494 	 26.54
173.1324765136 	 56.15
175.1481265778 	 33.52
185.1324765136 	 22.91
187.1481265778 	 15.36
199.1481265778 	 51.4
201.163776642 	 44.97
215.1794267062 	 14.8
335.2580709577 	 0
END IONS

BEGIN IONS
PEPMASS=449.171
CHARGE=1
MSLEVEL=2
RT=0
SOURCE_INSTRUMENT=qTOF
FILENAME=CCMSLIB00000079461.ms
IONMODE=Positive
ORGANISM=Natural
NAME=MLS001146454-01!(2S)-3-(1H-indol-3-yl)-2-[[2-(3,4,8-trimethyl-2-oxochromen-7-yl)oxyacetyl]amino]propanoic acid
PI=GNPS
DATACOLLECTOR=GNPS
SMILES=Cc1c(C)c(=O)oc2c(C)c(ccc12)OCC(=N[C@@H](Cc1c[nH]c2ccccc12)C(=O)O)O
INCHI=InChI=1S/C25H24N2O6/c1-13-14(2)25(31)33-23-15(3)21(9-8-17(13)23)32-12-22(28)27-20(24(29)30)10-16-11-26-19-7-5-4-6-18(16)19/h4-9,11,20,26H,10,12H2,1-3H3,(H,27,28)(H,29,30)/t20-/m0/s1
FORMULA=C25H24N2O6
PUBMED=N/A
SUBMITUSER=BIOADREM
LIBRARYQUALITY=0
SPECTRUMID=CCMSLIB00000079461
SCANS=1677
ID=CCMSLIB00000079461
105.0698762568 	 3.18
115.0542261926 	 11.69
116.0580284793 	 3.74
118.0651252299 	 13.78
129.0698762568 	 6.33
130.0651252299 	 100
131.072950262 	 10.48
132.0807752941 	 5.02
142.0651252299 	 16.59
143.072950262 	 18.77
144.0807752941 	 60.12
145.0859202515 	 9.65
146.060039852 	 27.32
154.0651252299 	 7.64
155.0702701873 	 6.68
156.0807752941 	 14.45
157.0760242672 	 13.83
158.0838492993 	 46.19
160.0842432298 	 3.84
161.0920682619 	 2.6
170.060039852 	 46.79
171.0916743314 	 34.54
172.0756899162 	 2.57
172.0968192888 	 8.28
177.0910056294 	 2.18
182.0838492993 	 4.82
183.0678648841 	 5.21
184.0756899162 	 5.31
185.0709388893 	 9.49
187.0753555652 	 2.35
188.0706045383 	 34.32
189.0910056294 	 7.14
200.0944139856 	 14.76
205.0859202515 	 30.23
217.0859202515 	 36.5
218.0897225382 	 3.34
245.0808348736 	 2.33
262.1073839751 	 6.12
346.152322795 	 3.38
403.165233205 	 19.85
449.1707125134 	 0
END IONS

BEGIN IONS
PEPMASS=483.1672
CHARGE=1
MSLEVEL=2
RT=0
SOURCE_INSTRUMENT=qTOF
FILENAME=CCMSLIB00000079462.ms
IONMODE=Positive
ORGANISM=Natural
NAME=MLS001159936-01!
PI=GNPS
DATACOLLECTOR=GNPS
SMILES=CCCCc1cc(=O)oc2cc(c(cc12)Cl)OCC(=O)N1C[C@H]2C[C@@H](C1)c1cccc(=O)n1C2
INCHI=InChI=1S/C26H27ClN2O5/c1-2-3-5-17-9-26(32)34-22-11-23(20(27)10-19(17)22)33-15-25(31)28-12-16-8-18(14-28)21-6-4-7-24(30)29(21)13-16/h4,6-7,9-11,16,18H,2-3,5,8,12-15H2,1H3/t16-,18+/m1/s1
FORMULA=C26H27ClN2O5
PUBMED=N/A
SUBMITUSER=BIOADREM
LIBRARYQUALITY=0
SPECTRUMID=CCMSLIB00000079462
SCANS=1678
ID=CCMSLIB00000079462
109.0522148199 	 2.41
117.0573001978 	 0.44
121.0396387609 	 0.46
122.060039852 	 2.09
130.0651252299 	 0.37
132.0443897878 	 1.66
132.0807752941 	 0.79
133.0522148199 	 3.38
134.060039852 	 5.51
144.0807752941 	 0.51
145.0886003262 	 0.46
146.060039852 	 26.97
147.0678648841 	 21.53
148.0756899162 	 5.44
149.0709388893 	 1.69
154.0651252299 	 0.54
158.060039852 	 0.71
159.0678648841 	 2.15
160.0756899162 	 10.28
162.0913399804 	 1.09
163.0991650125 	 0.51
172.0756899162 	 5.2
173.0835149483 	 18.56
175.0502034472 	 1.09
175.0865889535 	 0.72
179.0622040631 	 0.71
188.0706045383 	 1.31
189.1022390177 	 100
195.0207331789 	 0.53
201.0910056294 	 0.41
203.0815035756 	 0.86
203.1178890819 	 1.61
209.0727687494 	 0.39
217.0971536398 	 1.57
230.0937452836 	 0.52
231.112803704 	 2.47
232.1206287361 	 3.64
237.0676833715 	 0.9
265.0625979936 	 3.63
318.0891470951 	 0.45
483.1681256976 	 69.8
END IONS

BEGIN IONS
PEPMASS=196.134
CHARGE=1
MSLEVEL=2
RT=0
SOURCE_INSTRUMENT=qTOF
FILENAME=CCMSLIB00000079463.ms
IONMODE=Positive
ORGANISM=Natural
NAME=MLS000516034-01!
PI=GNPS
DATACOLLECTOR=GNPS
SMILES=CNCCc1ccc(c(c1)OC)OC
INCHI=InChI=1S/C11H17NO2/c1-12-7-6-9-4-5-10(13-2)11(8-9)14-3/h4-5,8,12H,6-7H2,1-3H3
FORMULA=C11H17NO2
PUBMED=N/A
SUBMITUSER=BIOADREM
LIBRARYQUALITY=0
SPECTRUMID=CCMSLIB00000079463
SCANS=1679
ID=CCMSLIB00000079463
102.0464011605 	 6.77
103.0542261926 	 69.66
104.0620512247 	 19.88
105.0334907505 	 6.33
105.0698762568 	 20.32
107.0491408147 	 58.32
109.0647908789 	 4.86
118.0413157826 	 10.75
119.0491408147 	 52.28
120.0569658468 	 15.76
121.0647908789 	 39.03
123.0440554368 	 6.33
133.0647908789 	 37.41
134.072615911 	 74.96
135.0440554368 	 58.91
138.0675305331 	 8.84
150.0675305331 	 100
165.0910056294 	 87.63
166.0862546025 	 9.43
196.1332047951 	 0
END IONS

BEGIN IONS
PEPMASS=456.148
CHARGE=1
MSLEVEL=2
RT=0
SOURCE_INSTRUMENT=qTOF
FILENAME=CCMSLIB00000079464.ms
IONMODE=Positive
ORGANISM=Natural
NAME=MLS001141330-01!(2R)-3-benzylsulfanyl-2-[[2-(4-ethyl-7-methyl-2-oxochromen-5-yl)oxyacetyl]amino]propanoic acid
PI=GNPS
DATACOLLECTOR=GNPS
SMILES=CCc1cc(=O)oc2cc(C)cc(c12)OCC(=N[C@@H](CSCc1ccccc1)C(=O)O)O
INCHI=InChI=1S/C24H25NO6S/c1-3-17-11-22(27)31-20-10-15(2)9-19(23(17)20)30-12-21(26)25-18(24(28)29)14-32-13-16-7-5-4-6-8-16/h4-11,18H,3,12-14H2,1-2H3,(H,25,26)(H,28,29)/t18-/m0/s1
FORMULA=C24H25NO6S
PUBMED=N/A
SUBMITUSER=BIOADREM
LIBRARYQUALITY=0
SPECTRUMID=CCMSLIB00000079464
SCANS=1680
ID=CCMSLIB00000079464
103.0542261926 	 8.89
105.0698762568 	 9.29
115.0542261926 	 16.43
125.0233199947 	 5.45
128.0620512247 	 12.79
131.0491408147 	 30.17
131.085526321 	 6.33
135.0804409431 	 8.82
141.0698762568 	 13.74
147.0804409431 	 5.39
150.0464011605 	 8.82
153.0698762568 	 8.42
158.072615911 	 8.42
161.059705501 	 10.37
161.0960910073 	 8.01
168.0569658468 	 13.27
169.0647908789 	 9.02
174.0675305331 	 14.55
176.046795091 	 9.76
177.0546201231 	 19.46
183.0804409431 	 16.63
186.0675305331 	 13.33
187.0753555652 	 37.51
189.0546201231 	 18.65
189.0910056294 	 29.43
190.0624451552 	 6.33
201.0910056294 	 38.25
202.0624451552 	 19.39
203.0702701873 	 24.31
204.0780952194 	 56.63
205.0859202515 	 56.3
217.0859202515 	 65.99
229.0859202515 	 100
245.0808348736 	 17.51
333.1155058204 	 6.06
456.1475342303 	 0
END IONS

BEGIN IONS
PEPMASS=361.092
CHARGE=1
MSLEVEL=2
RT=0
SOURCE_INSTRUMENT=qTOF
FILENAME=CCMSLIB00000079465.ms
IONMODE=Positive
ORGANISM=Natural
NAME=MLS000563187-01!
PI=GNPS
DATACOLLECTOR=GNPS
SMILES=C(CO)[C@H](CO)c1c(cc2c(c1O)C(=O)c1c(cc(cc1O)O)C2=O)O
INCHI=InChI=1S/C18H16O8/c19-2-1-7(6-20)13-12(23)5-10-15(17(13)25)18(26)14-9(16(10)24)3-8(21)4-11(14)22/h3-5,7,19-23,25H,1-2,6H2/t7-/m1/s1
FORMULA=C18H16O8
PUBMED=N/A
SUBMITUSER=BIOADREM
LIBRARYQUALITY=0
SPECTRUMID=CCMSLIB00000079465
SCANS=1681
ID=CCMSLIB00000079465
173.0233199947 	 3.05
185.059705501 	 3.65
187.0389700589 	 8.84
199.0389700589 	 3.35
215.033884681 	 10.69
229.0495347452 	 11.99
231.0287993031 	 7.19
241.0495347452 	 11.09
253.0495347452 	 4.2
257.0444493673 	 12.69
269.0444493673 	 36.91
279.0651848094 	 6.84
282.0522743994 	 4.6
285.0393639894 	 100
297.0393639894 	 8.94
307.0600994315 	 3.8
310.0471890215 	 12.14
313.0706641178 	 9.59
325.0706641178 	 75.77
361.0917934904 	 0
END IONS

BEGIN IONS
PEPMASS=484.153
CHARGE=1
MSLEVEL=2
RT=0
SOURCE_INSTRUMENT=qTOF
FILENAME=CCMSLIB00000079466.ms
IONMODE=Positive
ORGANISM=Natural
NAME=MLS001140994-01!4-[[2-(6-chloro-2-oxo-4-phenylchromen-7-yl)oxypropanoylamino]methyl]cyclohexane-1-carboxylic acid
PI=GNPS
DATACOLLECTOR=GNPS
SMILES=CC(C(=NC[C@H]1CC[C@@H](CC1)C(=O)O)O)Oc1cc2c(cc1Cl)c(cc(=O)o2)c1ccccc1
INCHI=InChI=1S/C26H26ClNO6/c1-15(25(30)28-14-16-7-9-18(10-8-16)26(31)32)33-23-13-22-20(11-21(23)27)19(12-24(29)34-22)17-5-3-2-4-6-17/h2-6,11-13,15-16,18H,7-10,14H2,1H3,(H,28,30)(H,31,32)/t15?,16-,18-
FORMULA=C26H26ClNO6
PUBMED=N/A
SUBMITUSER=BIOADREM
LIBRARYQUALITY=0
SPECTRUMID=CCMSLIB00000079466
SCANS=1682
ID=CCMSLIB00000079466
95.085526321 	 4.99
105.0334907505 	 1.36
109.1011763852 	 1.36
110.060039852 	 1.46
111.1042503904 	 4.42
112.1120754225 	 3.86
124.0756899162 	 2.61
138.0913399804 	 5.13
138.1277254867 	 7.21
140.1069900446 	 38.63
152.1069900446 	 4.75
165.0698762568 	 1.64
166.0777012889 	 1.42
166.1226401088 	 5.58
167.1304651409 	 20.65
180.0933513531 	 1.42
182.072615911 	 1.51
184.1332047951 	 5.86
194.072615911 	 4.23
199.0309039347 	 1.46
203.0258185568 	 1.41
207.0804409431 	 2.56
208.0882659752 	 1.95
210.0675305331 	 2.5
219.0804409431 	 2.36
220.0882659752 	 1.79
229.0369586862 	 2.47
231.0207331789 	 2.7
235.0753555652 	 2.54
236.0831805973 	 5.58
243.0571186852 	 2.25
255.0162232441 	 1.53
263.0702701873 	 1.98
264.0780952194 	 3.23
271.0520333073 	 5.45
273.0312978652 	 100
274.0346129625 	 15.28
276.0336435889 	 4.2
299.0469479294 	 58.43
300.0502630267 	 9.14
301.041468621 	 15.18
302.0492936531 	 2.35
327.0418625515 	 2.86
344.068411653 	 7.6
345.0676833715 	 2.27
438.146661974 	 5.41
439.1544870061 	 2.92
484.1521412824 	 0
END IONS

BEGIN IONS
PEPMASS=374.16
CHARGE=1
MSLEVEL=2
RT=0
SOURCE_INSTRUMENT=qTOF
FILENAME=CCMSLIB00000079467.ms
IONMODE=Positive
ORGANISM=Natural
NAME=MLS001141234-01!1-[2-(3,4,8-trimethyl-2-oxochromen-7-yl)oxyacetyl]piperidine-4-carboxylic acid
PI=GNPS
DATACOLLECTOR=GNPS
SMILES=Cc1c(C)c(=O)oc2c(C)c(ccc12)OCC(=O)N1CCC(CC1)C(=O)O
INCHI=InChI=1S/C20H23NO6/c1-11-12(2)20(25)27-18-13(3)16(5-4-15(11)18)26-10-17(22)21-8-6-14(7-9-21)19(23)24/h4-5,14H,6-10H2,1-3H3,(H,23,24)
FORMULA=C20H23NO6
PUBMED=N/A
SUBMITUSER=BIOADREM
LIBRARYQUALITY=0
SPECTRUMID=CCMSLIB00000079467
SCANS=1683
ID=CCMSLIB00000079467
95.0491408147 	 2.49
99.0440554368 	 9.62
108.0807752941 	 2.36
111.0440554368 	 2.49
112.0756899162 	 11.31
114.0549544741 	 10.65
126.0913399804 	 20.62
128.0706045383 	 100
130.0862546025 	 13.85
135.0804409431 	 2.32
142.0862546025 	 74.03
159.0804409431 	 28.24
170.0811692246 	 5.75
171.0889942567 	 5.52
176.0831805973 	 20.67
189.0910056294 	 26.55
204.0780952194 	 16.17
217.0859202515 	 69.18
245.0808348736 	 3.56
374.1598134761 	 0
END IONS

BEGIN IONS
PEPMASS=422.16
CHARGE=1
MSLEVEL=2
RT=0
SOURCE_INSTRUMENT=qTOF
FILENAME=CCMSLIB00000079468.ms
IONMODE=Positive
ORGANISM=Natural
NAME=MLS001139219-01!(2S)-2-[2-[(4-oxo-2,3-dihydro-1H-cyclopenta[c]chromen-7-yl)oxy]propanoylamino]-3-phenylpropanoic acid
PI=GNPS
DATACOLLECTOR=GNPS
SMILES=CC(C(=N[C@@H](Cc1ccccc1)C(=O)O)O)Oc1ccc2c3CCCc3c(=O)oc2c1
INCHI=InChI=1S/C24H23NO6/c1-14(22(26)25-20(23(27)28)12-15-6-3-2-4-7-15)30-16-10-11-18-17-8-5-9-19(17)24(29)31-21(18)13-16/h2-4,6-7,10-11,13-14,20H,5,8-9,12H2,1H3,(H,25,26)(H,27,28)/t14?,20-/m0/s1
FORMULA=C24H23NO6
PUBMED=N/A
SUBMITUSER=BIOADREM
LIBRARYQUALITY=0
SPECTRUMID=CCMSLIB00000079468
SCANS=1684
ID=CCMSLIB00000079468
103.0542261926 	 12.99
105.0698762568 	 5.12
115.0542261926 	 1.92
117.0698762568 	 3.13
120.0807752941 	 48.69
128.0620512247 	 12.42
129.0698762568 	 14.04
131.0491408147 	 3.28
131.085526321 	 5.71
133.0647908789 	 7.84
143.085526321 	 1.73
144.0569658468 	 1.62
145.0647908789 	 5.57
145.1011763852 	 7.67
146.060039852 	 3.17
146.0964253583 	 13.87
147.0440554368 	 4.06
148.0518804689 	 3.53
155.085526321 	 2.56
157.0647908789 	 8.1
157.1011763852 	 1.66
158.072615911 	 4.75
159.0804409431 	 4.18
160.0518804689 	 1.88
160.0756899162 	 1.41
173.059705501 	 6.41
173.0960910073 	 27.02
175.0753555652 	 2.62
183.0804409431 	 2.82
185.059705501 	 13.47
186.0675305331 	 4.06
187.0753555652 	 1.95
201.0910056294 	 53.11
202.0624451552 	 2.26
203.0702701873 	 38.18
229.0859202515 	 100
231.0889942567 	 1.75
422.1598134761 	 0
END IONS

BEGIN IONS
PEPMASS=220.1106
CHARGE=1
MSLEVEL=2
RT=0
SOURCE_INSTRUMENT=qTOF
FILENAME=CCMSLIB00000079469.ms
IONMODE=Positive
ORGANISM=Natural
NAME=MLS002415761-01!
PI=GNPS
DATACOLLECTOR=GNPS
SMILES=c1ccc(cc1)Nc1cccc2ccccc12
INCHI=InChI=1S/C16H13N/c1-2-9-14(10-3-1)17-16-12-6-8-13-7-4-5-11-15(13)16/h1-12,17H
FORMULA=C16H13N
PUBMED=N/A
SUBMITUSER=BIOADREM
LIBRARYQUALITY=0
SPECTRUMID=CCMSLIB00000079469
SCANS=1685
ID=CCMSLIB00000079469
102.0464011605 	 2.86
103.0542261926 	 1.82
115.0542261926 	 55.82
116.0620512247 	 10.6
126.0464011605 	 1.63
127.0542261926 	 2.85
128.0620512247 	 63.69
140.0494751657 	 0.6
142.0651252299 	 11.34
143.072950262 	 100
152.0620512247 	 0.72
165.0698762568 	 0.94
176.0620512247 	 0.28
178.0777012889 	 3.15
194.0964253583 	 0.27
202.0777012889 	 10.27
203.085526321 	 6.4
204.0807752941 	 12.96
205.0886003262 	 6.05
219.1042503904 	 9.53
220.1120754225 	 17.5
END IONS

BEGIN IONS
PEPMASS=481.1518
CHARGE=1
MSLEVEL=2
RT=0
SOURCE_INSTRUMENT=qTOF
FILENAME=CCMSLIB00000079470.ms
IONMODE=Positive
ORGANISM=Natural
NAME=MLS001160411-01!
PI=GNPS
DATACOLLECTOR=GNPS
SMILES=C1CCc2c(C1)c1cc(c(cc1oc2=O)OCC(=O)N1C[C@H]2C[C@@H](C1)c1cccc(=O)n1C2)Cl
INCHI=InChI=1S/C26H25ClN2O5/c27-20-9-19-17-4-1-2-5-18(17)26(32)34-22(19)10-23(20)33-14-25(31)28-11-15-8-16(13-28)21-6-3-7-24(30)29(21)12-15/h3,6-7,9-10,15-16H,1-2,4-5,8,11-14H2/t15-,16+/m1/s1
FORMULA=C26H25ClN2O5
PUBMED=N/A
SUBMITUSER=BIOADREM
LIBRARYQUALITY=0
SPECTRUMID=CCMSLIB00000079470
SCANS=1686
ID=CCMSLIB00000079470
104.0494751657 	 0.83
109.0522148199 	 2.89
117.0573001978 	 0.92
122.060039852 	 3.48
132.0443897878 	 1.76
132.0807752941 	 0.44
133.0522148199 	 2.09
134.060039852 	 6.07
142.0651252299 	 0.83
143.0491408147 	 0.58
145.0522148199 	 0.47
145.0886003262 	 0.58
146.060039852 	 22.71
147.0678648841 	 20.53
148.0756899162 	 6.8
158.060039852 	 0.46
159.0678648841 	 1.92
160.0756899162 	 10.28
162.0913399804 	 0.96
172.0756899162 	 2.21
173.0835149483 	 15.19
175.0502034472 	 1.21
189.1022390177 	 100
217.0971536398 	 1.95
232.1206287361 	 5.48
481.1524756334 	 43.4
END IONS

BEGIN IONS
PEPMASS=467.136
CHARGE=1
MSLEVEL=2
RT=0
SOURCE_INSTRUMENT=qTOF
FILENAME=CCMSLIB00000079471.ms
IONMODE=Positive
ORGANISM=Natural
NAME=MLS001158368-01!
PI=GNPS
DATACOLLECTOR=GNPS
SMILES=C1Cc2c(C1)c(=O)oc1cc(c(cc21)Cl)OCC(=O)N1C[C@H]2C[C@@H](C1)c1cccc(=O)n1C2
INCHI=InChI=1S/C25H23ClN2O5/c26-19-8-18-16-3-1-4-17(16)25(31)33-21(18)9-22(19)32-13-24(30)27-10-14-7-15(12-27)20-5-2-6-23(29)28(20)11-14/h2,5-6,8-9,14-15H,1,3-4,7,10-13H2/t14-,15+/m1/s1
FORMULA=C25H23ClN2O5
PUBMED=N/A
SUBMITUSER=BIOADREM
LIBRARYQUALITY=0
SPECTRUMID=CCMSLIB00000079471
SCANS=1687
ID=CCMSLIB00000079471
104.0494751657 	 0.59
109.0522148199 	 2.67
110.0573597773 	 0.38
117.0573001978 	 1.62
122.060039852 	 2.89
123.0651848094 	 1.12
129.0698762568 	 0.42
132.0443897878 	 1.53
133.0522148199 	 1.55
134.0573597773 	 6.71
135.0678648841 	 2.04
144.0807752941 	 0.5
145.0859202515 	 0.98
146.060039852 	 28.56
147.0678648841 	 15.44
148.0730098415 	 7.92
149.0709388893 	 0.99
159.0651848094 	 2.65
160.0730098415 	 9.92
162.0913399804 	 0.91
163.0991650125 	 1.25
172.0756899162 	 2.8
173.0835149483 	 22.72
174.0886599057 	 4.54
175.0475233725 	 1.63
188.0679244636 	 1.03
189.1022390177 	 100
191.1152090072 	 8.04
203.0788235009 	 0.56
203.1178890819 	 0.67
213.0546201231 	 1.01
217.0944735651 	 1.07
221.0363832431 	 3.45
231.112803704 	 3.27
232.1179486614 	 4.03
249.0312978652 	 2.88
277.0262124873 	 0.66
403.165233205 	 0.75
467.1368255692 	 52.38
END IONS

BEGIN IONS
PEPMASS=391.166
CHARGE=1
MSLEVEL=2
RT=0
SOURCE_INSTRUMENT=qTOF
FILENAME=CCMSLIB00000079472.ms
IONMODE=Positive
ORGANISM=Natural
NAME=MLS001158643-01!2-(4,7-dimethyl-2-oxochromen-5-yl)oxy-N-[2-(1H-indol-3-yl)ethyl]acetamide
PI=GNPS
DATACOLLECTOR=GNPS
SMILES=Cc1cc(c2c(C)cc(=O)oc2c1)OCC(=NCCc1c[nH]c2ccccc12)O
INCHI=InChI=1S/C23H22N2O4/c1-14-9-19(23-15(2)11-22(27)29-20(23)10-14)28-13-21(26)24-8-7-16-12-25-18-6-4-3-5-17(16)18/h3-6,9-12,25H,7-8,13H2,1-2H3,(H,24,26)
FORMULA=C23H22N2O4
PUBMED=N/A
SUBMITUSER=BIOADREM
LIBRARYQUALITY=0
SPECTRUMID=CCMSLIB00000079472
SCANS=1688
ID=CCMSLIB00000079472
102.0464011605 	 0.25
103.0542261926 	 1.58
107.0491408147 	 0.41
107.085526321 	 0.26
115.0542261926 	 4.38
117.0698762568 	 9.7
119.085526321 	 0.96
127.0542261926 	 2.52
129.0698762568 	 2.55
130.0651252299 	 3.14
131.072950262 	 1.42
132.0569658468 	 1.46
133.0647908789 	 0.29
135.0804409431 	 0.75
142.0651252299 	 2.7
143.072950262 	 20.87
144.0807752941 	 100
147.0440554368 	 0.25
147.0804409431 	 1.07
156.0807752941 	 2.89
158.0838492993 	 1.53
161.059705501 	 1.15
162.0675305331 	 0.93
173.1073243956 	 1.09
175.0753555652 	 1.08
190.0624451552 	 4.48
191.0702701873 	 9.88
203.0702701873 	 2.62
231.0651848094 	 0.43
248.0917339109 	 0.31
391.165233205 	 0
END IONS

BEGIN IONS
PEPMASS=361.129
CHARGE=1
MSLEVEL=2
RT=0
SOURCE_INSTRUMENT=qTOF
FILENAME=CCMSLIB00000079473.ms
IONMODE=Positive
ORGANISM=Natural
NAME=MLS000563514-01!2-hydroxy-4-(2-hydroxy-4-methoxy-3,6-dimethylbenzoyl)oxy-3,6-dimethylbenzoic acid
PI=GNPS
DATACOLLECTOR=GNPS
SMILES=Cc1cc(c(C)c(c1C(=O)O)O)OC(=O)c1c(C)cc(c(C)c1O)OC
INCHI=InChI=1S/C19H20O7/c1-8-7-13(11(4)16(20)14(8)18(22)23)26-19(24)15-9(2)6-12(25-5)10(3)17(15)21/h6-7,20-21H,1-5H3,(H,22,23)
FORMULA=C19H20O7
PUBMED=N/A
SUBMITUSER=BIOADREM
LIBRARYQUALITY=0
SPECTRUMID=CCMSLIB00000079473
SCANS=1689
ID=CCMSLIB00000079473
104.0256657184 	 0.54
108.0569658468 	 1.5
119.0491408147 	 0.6
123.0804409431 	 6.23
136.0518804689 	 3.97
151.0753555652 	 2.86
164.046795091 	 1.33
179.0702701873 	 100
361.1281789967 	 0
END IONS

BEGIN IONS
PEPMASS=425.171
CHARGE=1
MSLEVEL=2
RT=0
SOURCE_INSTRUMENT=qTOF
FILENAME=CCMSLIB00000079474.ms
IONMODE=Positive
ORGANISM=Natural
NAME=MLS001141072-01!(2S)-1-(4,5-dimethoxy-3-oxo-1H-2-benzofuran-1-yl)-N-(2-ethylphenyl)-5-oxopyrrolidine-2-carboxamide
PI=GNPS
DATACOLLECTOR=GNPS
SMILES=CCc1ccccc1N=C([C@@H]1CCC(=O)N1C1c2ccc(c(c2C(=O)O1)OC)OC)O
INCHI=InChI=1S/C23H24N2O6/c1-4-13-7-5-6-8-15(13)24-21(27)16-10-12-18(26)25(16)22-14-9-11-17(29-2)20(30-3)19(14)23(28)31-22/h5-9,11,16,22H,4,10,12H2,1-3H3,(H,24,27)/t16-,22?/m0/s1
FORMULA=C23H24N2O6
PUBMED=N/A
SUBMITUSER=BIOADREM
LIBRARYQUALITY=0
SPECTRUMID=CCMSLIB00000079474
SCANS=1690
ID=CCMSLIB00000079474
107.0491408147 	 3.34
108.0165575951 	 0.96
109.0284053726 	 3.55
121.0284053726 	 2.38
122.0362304047 	 3.98
123.0400326914 	 1.37
135.0440554368 	 4.84
137.0233199947 	 1.42
149.0233199947 	 4.82
149.0556827556 	 1.66
150.0311450268 	 6.72
154.0346129625 	 0.78
163.0389700589 	 15.29
178.0260596489 	 3.33
193.0495347452 	 100
194.0533370319 	 13.53
425.1707125134 	 0
END IONS

BEGIN IONS
PEPMASS=432.145
CHARGE=1
MSLEVEL=2
RT=0
SOURCE_INSTRUMENT=qTOF
FILENAME=CCMSLIB00000079475.ms
IONMODE=Positive
ORGANISM=Natural
NAME=MLS001159064-01!(2S)-2-[[2-(4-methyl-6-oxobenzo[c]chromen-3-yl)oxyacetyl]amino]-3-phenylpropanoic acid
PI=GNPS
DATACOLLECTOR=GNPS
SMILES=Cc1c(ccc2c3ccccc3c(=O)oc12)OCC(=N[C@@H](Cc1ccccc1)C(=O)O)O
INCHI=InChI=1S/C25H21NO6/c1-15-21(12-11-18-17-9-5-6-10-19(17)25(30)32-23(15)18)31-14-22(27)26-20(24(28)29)13-16-7-3-2-4-8-16/h2-12,20H,13-14H2,1H3,(H,26,27)(H,28,29)/t20-/m0/s1
FORMULA=C25H21NO6
PUBMED=N/A
SUBMITUSER=BIOADREM
LIBRARYQUALITY=0
SPECTRUMID=CCMSLIB00000079475
SCANS=1691
ID=CCMSLIB00000079475
103.0542261926 	 9.81
105.0698762568 	 14.63
107.0491408147 	 1.43
115.0542261926 	 4.15
118.0777012889 	 5.89
130.0651252299 	 14.25
132.0807752941 	 49.18
141.0698762568 	 1.38
146.060039852 	 0.91
152.0620512247 	 8.47
153.0698762568 	 16.59
155.085526321 	 1.79
160.0756899162 	 1.17
161.0835149483 	 3.29
165.0698762568 	 3.16
167.085526321 	 1.02
181.0647908789 	 100
209.059705501 	 13.25
211.0753555652 	 6.06
224.046795091 	 0.9
239.0702701873 	 69.69
267.0651848094 	 1.02
351.1101236293 	 1.07
432.1441634119 	 0
END IONS

BEGIN IONS
PEPMASS=506.2021
CHARGE=1
MSLEVEL=2
RT=0
SOURCE_INSTRUMENT=qTOF
FILENAME=CCMSLIB00000079476.ms
IONMODE=Positive
ORGANISM=Natural
NAME=MLS000563039-01!
PI=GNPS
DATACOLLECTOR=GNPS
SMILES=C=C[C@@H]1[C@@H]2C[C@@H]3c4cc(c(cc4CCN3C(=O)C2=COC1O[C@H]1[C@@H]([C@H]([C@@H]([C@@H](CO)O1)O)O)O)OC)O
INCHI=InChI=1S/C25H31NO10/c1-3-12-14-7-16-13-8-17(28)18(33-2)6-11(13)4-5-26(16)23(32)15(14)10-34-24(12)36-25-22(31)21(30)20(29)19(9-27)35-25/h3,6,8,10,12,14,16,19-22,24-25,27-31H,1,4-5,7,9H2,2H3/t12-,14+,16-,19-,20-,21+,22-,24?,25+/m1/s1
FORMULA=C25H31NO10
PUBMED=N/A
SUBMITUSER=BIOADREM
LIBRARYQUALITY=0
SPECTRUMID=CCMSLIB00000079476
SCANS=1692
ID=CCMSLIB00000079476
117.0698762568 	 0.73
135.0678648841 	 0.41
149.059705501 	 1.2
151.0753555652 	 4.2
163.0627795062 	 3.47
178.0862546025 	 100
206.0811692246 	 1.22
274.1073839751 	 25.04
298.1437694814 	 0.62
326.1386841035 	 0.59
344.1492487898 	 13.34
506.2020722213 	 0.15
END IONS

BEGIN IONS
PEPMASS=401.2057
CHARGE=1
MSLEVEL=2
RT=0
SOURCE_INSTRUMENT=qTOF
FILENAME=CCMSLIB00000079477.ms
IONMODE=Positive
ORGANISM=Natural
NAME=MLS001140389-01!1-[2-(4-butyl-7-methyl-2-oxochromen-5-yl)oxyacetyl]piperidine-4-carboxamide
PI=GNPS
DATACOLLECTOR=GNPS
SMILES=CCCCc1cc(=O)oc2cc(C)cc(c12)OCC(=O)N1CCC(CC1)C(=N)O
INCHI=InChI=1S/C22H28N2O5/c1-3-4-5-16-12-20(26)29-18-11-14(2)10-17(21(16)18)28-13-19(25)24-8-6-15(7-9-24)22(23)27/h10-12,15H,3-9,13H2,1-2H3,(H2,23,27)
FORMULA=C22H28N2O5
PUBMED=N/A
SUBMITUSER=BIOADREM
LIBRARYQUALITY=0
SPECTRUMID=CCMSLIB00000079477
SCANS=1693
ID=CCMSLIB00000079477
96.0807752941 	 8.85
98.060039852 	 11.74
110.060039852 	 10.64
124.0756899162 	 9.67
125.0835149483 	 6.26
126.0913399804 	 7.44
127.0865889535 	 100
137.059705501 	 8.9
141.1022390177 	 94.09
145.0647908789 	 6.39
147.0804409431 	 6.16
149.059705501 	 8.9
151.0753555652 	 4.81
158.072615911 	 5.4
159.0804409431 	 6.72
161.059705501 	 20.4
161.0960910073 	 5.63
163.0753555652 	 7.65
165.0546201231 	 22.5
169.0971536398 	 16.54
174.0675305331 	 6.03
175.0753555652 	 31.76
175.1117410715 	 7.16
177.0546201231 	 11.84
185.0960910073 	 9.43
186.1039160394 	 7.85
189.0546201231 	 13.14
189.0910056294 	 8.8
191.0702701873 	 17.82
203.0702701873 	 58.35
203.1066556936 	 12.58
212.0831805973 	 4.65
215.0702701873 	 7.52
217.1223057578 	 53.75
227.1066556936 	 7.72
231.1015703157 	 4.93
245.1172203799 	 88.72
246.1210226666 	 13.6
248.1281194172 	 6.98
273.112135002 	 33.57
300.1230340393 	 8.8
328.190719674 	 8.46
356.1856342961 	 18.51
384.1805489182 	 12.25
401.2070980197 	 12.12
END IONS

BEGIN IONS
PEPMASS=458.137
CHARGE=1
MSLEVEL=2
RT=0
SOURCE_INSTRUMENT=qTOF
FILENAME=CCMSLIB00000079478.ms
IONMODE=Positive
ORGANISM=Natural
NAME=MLS001141380-01!3-(4-chlorophenyl)-2-[[2-(7-methyl-2-oxo-4-propylchromen-5-yl)oxyacetyl]amino]propanoic acid
PI=GNPS
DATACOLLECTOR=GNPS
SMILES=CCCc1cc(=O)oc2cc(C)cc(c12)OCC(=NC(Cc1ccc(cc1)Cl)C(=O)O)O
INCHI=InChI=1S/C24H24ClNO6/c1-3-4-16-12-22(28)32-20-10-14(2)9-19(23(16)20)31-13-21(27)26-18(24(29)30)11-15-5-7-17(25)8-6-15/h5-10,12,18H,3-4,11,13H2,1-2H3,(H,26,27)(H,29,30)
FORMULA=C24H24ClNO6
PUBMED=N/A
SUBMITUSER=BIOADREM
LIBRARYQUALITY=0
SPECTRUMID=CCMSLIB00000079478
SCANS=1694
ID=CCMSLIB00000079478
103.0542261926 	 7.28
105.0698762568 	 6.81
115.0542261926 	 8.15
117.0698762568 	 6.51
118.0651252299 	 6.05
119.072950262 	 12.05
121.0647908789 	 6
125.0152538705 	 8.19
128.0620512247 	 7.63
129.0698762568 	 8.54
130.0651252299 	 23.95
131.072950262 	 22.69
133.0647908789 	 7
137.059705501 	 6.25
139.0309039347 	 17.84
142.0777012889 	 14.87
143.085526321 	 7.63
145.0647908789 	 13.98
147.0804409431 	 8.01
149.059705501 	 10.41
154.041802972 	 43.07
160.0882659752 	 6.05
161.059705501 	 24.84
166.041802972 	 74.07
171.0804409431 	 11.23
172.0882659752 	 18.81
174.0675305331 	 6.09
175.0753555652 	 30.72
175.1117410715 	 12.65
177.0546201231 	 32.24
187.1117410715 	 10.67
188.0831805973 	 26.85
189.0546201231 	 9.31
189.0910056294 	 31.35
190.0624451552 	 13.38
201.0546201231 	 16.99
203.0702701873 	 100
203.1066556936 	 34.22
216.0780952194 	 14.38
217.0500219346 	 6.75
231.1015703157 	 99.23
259.0964849378 	 28.03
412.1310119098 	 5.84
458.1364912182 	 0
END IONS

BEGIN IONS
PEPMASS=329.139
CHARGE=1
MSLEVEL=2
RT=0
SOURCE_INSTRUMENT=qTOF
FILENAME=CCMSLIB00000079479.ms
IONMODE=Positive
ORGANISM=Natural
NAME=MLS000863586-01!(8,8-dimethyl-2-oxo-9,10-dihydropyrano[2,3-h]chromen-9-yl) (Z)-2-methylbut-2-enoate
PI=GNPS
DATACOLLECTOR=GNPS
SMILES=C/C=C(/C)\C(=O)OC1Cc2c(ccc3ccc(=O)oc23)OC1(C)C
INCHI=InChI=1S/C19H20O5/c1-5-11(2)18(21)22-15-10-13-14(24-19(15,3)4)8-6-12-7-9-16(20)23-17(12)13/h5-9,15H,10H2,1-4H3/b11-5-
FORMULA=C19H20O5
PUBMED=N/A
SUBMITUSER=BIOADREM
LIBRARYQUALITY=0
SPECTRUMID=CCMSLIB00000079479
SCANS=1695
ID=CCMSLIB00000079479
103.0542261926 	 1.66
105.0698762568 	 1.12
115.0542261926 	 3.05
117.0698762568 	 1.8
128.0620512247 	 2.05
129.0698762568 	 1.32
131.0491408147 	 38.28
133.0647908789 	 0.84
141.0698762568 	 0.68
143.0491408147 	 4.05
147.0440554368 	 8
155.085526321 	 2.43
158.072615911 	 1.05
159.0440554368 	 31.49
165.0698762568 	 1.2
169.0647908789 	 1.54
171.0440554368 	 1.16
173.059705501 	 6.22
175.0389700589 	 34.51
183.0804409431 	 0.97
186.0675305331 	 1.18
187.0389700589 	 100
201.0546201231 	 3.98
201.0910056294 	 3.19
213.0546201231 	 1.09
229.0859202515 	 15.81
329.1383497525 	 0
END IONS

BEGIN IONS
PEPMASS=291.1217
CHARGE=1
MSLEVEL=2
RT=0
SOURCE_INSTRUMENT=qTOF
FILENAME=CCMSLIB00000079481.ms
IONMODE=Positive
ORGANISM=Natural
NAME=MLS000876814-01!13,15-dihydroxy-5-methyl-4-oxabicyclo[10.4.0]hexadeca-1(16),9,12,14-tetraene-3,11-dione
PI=GNPS
DATACOLLECTOR=GNPS
SMILES=CC1CCCC=CC(=O)c2c(cc(cc2O)O)CC(=O)O1
INCHI=InChI=1S/C16H18O5/c1-10-5-3-2-4-6-13(18)16-11(8-15(20)21-10)7-12(17)9-14(16)19/h4,6-7,9-10,17,19H,2-3,5,8H2,1H3
FORMULA=C16H18O5
PUBMED=N/A
SUBMITUSER=BIOADREM
LIBRARYQUALITY=0
SPECTRUMID=CCMSLIB00000079481
SCANS=1697
ID=CCMSLIB00000079481
104.0620512247 	 3.8
116.0620512247 	 2.37
119.085526321 	 3.01
129.0698762568 	 9.39
130.0413157826 	 2.53
131.0491408147 	 3.11
141.0698762568 	 3.8
144.0569658468 	 4.85
147.0440554368 	 2.74
161.059705501 	 6.91
161.0960910073 	 2.37
162.0675305331 	 4.17
175.0753555652 	 11.13
176.046795091 	 4.06
177.0546201231 	 7.02
185.059705501 	 3.48
189.0546201231 	 3.43
190.0624451552 	 21.85
203.0702701873 	 100
217.0859202515 	 5.7
233.1172203799 	 2.64
291.1226996883 	 12.19
END IONS

BEGIN IONS
PEPMASS=449.219
CHARGE=1
MSLEVEL=2
RT=0
SOURCE_INSTRUMENT=qTOF
FILENAME=CCMSLIB00000079482.ms
IONMODE=Positive
ORGANISM=Natural
NAME=MLS001140949-01!
PI=GNPS
DATACOLLECTOR=GNPS
SMILES=CC(C)C[C@@H](C(=NCc1ccco1)O)N1C(=O)[C@]2(C)c3c(CCN2C1=O)c1ccccc1[nH]3
INCHI=InChI=1S/C25H28N4O4/c1-15(2)13-20(22(30)26-14-16-7-6-12-33-16)29-23(31)25(3)21-18(10-11-28(25)24(29)32)17-8-4-5-9-19(17)27-21/h4-9,12,15,20,27H,10-11,13-14H2,1-3H3,(H,26,30)/t20-,25-/m0/s1
FORMULA=C25H28N4O4
PUBMED=N/A
SUBMITUSER=BIOADREM
LIBRARYQUALITY=0
SPECTRUMID=CCMSLIB00000079482
SCANS=1698
ID=CCMSLIB00000079482
144.125714114 	 23.44
149.1410298272 	 4.06
183.1491892103 	 11.87
185.1648392745 	 25.85
206.1651736255 	 2.28
210.1574081729 	 2.25
211.152657146 	 22.72
224.1757383118 	 4.69
238.1716016741 	 5.65
240.1872517383 	 69.05
241.1586912641 	 25.63
241.191054025 	 17.68
242.1624935508 	 3.56
253.1699246524 	 2.41
254.2101124454 	 21.49
256.1893770033 	 100
257.1899913925 	 22.31
268.1933997487 	 19.76
269.1972020354 	 2.96
274.1999416896 	 2.66
287.2077667217 	 2.22
291.2026813438 	 2.63
449.218331408 	 0
END IONS

BEGIN IONS
PEPMASS=213.092
CHARGE=1
MSLEVEL=2
RT=0
SOURCE_INSTRUMENT=qTOF
FILENAME=CCMSLIB00000079483.ms
IONMODE=Positive
ORGANISM=Natural
NAME=MLS001066368-01!2,2-diphenylacetic acid
PI=GNPS
DATACOLLECTOR=GNPS
SMILES=c1ccc(cc1)C(c1ccccc1)C(=O)O
INCHI=InChI=1S/C14H12O2/c15-14(16)13(11-7-3-1-4-8-11)12-9-5-2-6-10-12/h1-10,13H,(H,15,16)
FORMULA=C14H12O2
PUBMED=N/A
SUBMITUSER=BIOADREM
LIBRARYQUALITY=0
SPECTRUMID=CCMSLIB00000079483
SCANS=1699
ID=CCMSLIB00000079483
107.0491408147 	 38.26
135.0440554368 	 22.51
152.0620512247 	 100
165.0698762568 	 65.27
167.085526321 	 98.71
213.0910056294 	 0
END IONS

BEGIN IONS
PEPMASS=370.1761
CHARGE=1
MSLEVEL=2
RT=0
SOURCE_INSTRUMENT=qTOF
FILENAME=CCMSLIB00000079484.ms
IONMODE=Positive
ORGANISM=Natural
NAME=MLS001146613-01!
PI=GNPS
DATACOLLECTOR=GNPS
SMILES=COc1ccc(c(c1)OC)N=C(N1C[C@@H]2C[C@@H](C1)c1cccc(=O)n1C2)O
INCHI=InChI=1S/C20H23N3O4/c1-26-15-6-7-16(18(9-15)27-2)21-20(25)22-10-13-8-14(12-22)17-4-3-5-19(24)23(17)11-13/h3-7,9,13-14H,8,10-12H2,1-2H3,(H,21,25)/t13-,14-/m0/s1
FORMULA=C20H23N3O4
PUBMED=N/A
SUBMITUSER=BIOADREM
LIBRARYQUALITY=0
SPECTRUMID=CCMSLIB00000079484
SCANS=1700
ID=CCMSLIB00000079484
96.0443897878 	 0.8
103.0542261926 	 0.73
104.0494751657 	 1
106.0651252299 	 1.34
108.0443897878 	 1.43
109.0522148199 	 1.61
110.060039852 	 1.25
115.0542261926 	 1.3
116.0494751657 	 0.85
117.0573001978 	 2.83
118.0651252299 	 1.98
120.0807752941 	 0.73
122.060039852 	 1.47
128.0494751657 	 1.12
129.0698762568 	 2.38
130.0651252299 	 3.31
131.072950262 	 3.65
132.0443897878 	 8.26
132.0807752941 	 3.5
133.0522148199 	 12.02
134.060039852 	 6.13
138.0549544741 	 1.48
142.0624451552 	 2.25
144.0807752941 	 1.77
145.0522148199 	 2.05
146.060039852 	 36.61
148.0756899162 	 37.53
152.0706045383 	 1.38
153.0784295704 	 0.99
154.0651252299 	 1.79
156.0807752941 	 3.28
157.0522148199 	 0.71
157.0859202515 	 1.02
158.060039852 	 9.4
159.0678648841 	 6
160.0756899162 	 84.44
172.0756899162 	 12.44
174.0913399804 	 35.38
180.0655191604 	 1.96
188.0706045383 	 5.26
189.1022390177 	 38.47
191.1178890819 	 27.28
199.0865889535 	 1.88
200.0706045383 	 1.02
217.0971536398 	 100
235.1077183261 	 5.24
370.1761322423 	 2.95
END IONS

BEGIN IONS
PEPMASS=456.1208
CHARGE=1
MSLEVEL=2
RT=0
SOURCE_INSTRUMENT=qTOF
FILENAME=CCMSLIB00000079485.ms
IONMODE=Positive
ORGANISM=Natural
NAME=MLS001157898-01!3-(4-chlorophenyl)-2-[[2-[(7-methyl-4-oxo-2,3-dihydro-1H-cyclopenta[c]chromen-9-yl)oxy]acetyl]amino]propanoic acid
PI=GNPS
DATACOLLECTOR=GNPS
SMILES=Cc1cc(c2c3CCCc3c(=O)oc2c1)OCC(=NC(Cc1ccc(cc1)Cl)C(=O)O)O
INCHI=InChI=1S/C24H22ClNO6/c1-13-9-19(22-16-3-2-4-17(16)24(30)32-20(22)10-13)31-12-21(27)26-18(23(28)29)11-14-5-7-15(25)8-6-14/h5-10,18H,2-4,11-12H2,1H3,(H,26,27)(H,28,29)
FORMULA=C24H22ClNO6
PUBMED=N/A
SUBMITUSER=BIOADREM
LIBRARYQUALITY=0
SPECTRUMID=CCMSLIB00000079485
SCANS=1701
ID=CCMSLIB00000079485
103.0542261926 	 2.17
115.0542261926 	 2.48
117.0698762568 	 1.78
129.0698762568 	 1.95
131.072950262 	 8.14
137.0152538705 	 1.6
141.0698762568 	 2.25
142.0777012889 	 7.41
143.085526321 	 1.67
144.0569658468 	 1.87
145.0647908789 	 2.44
145.1011763852 	 4.37
152.0387289668 	 2.56
153.0698762568 	 1.6
154.041802972 	 13.85
155.0491408147 	 2.42
155.085526321 	 2
158.072615911 	 6.67
159.0804409431 	 2.98
161.0601926904 	 2.7
166.041802972 	 38.17
169.0652780683 	 3.19
170.072615911 	 6.87
171.0804409431 	 5.3
173.0960910073 	 3.94
183.0804409431 	 2.5
184.0523676583 	 2.75
185.0960910073 	 12.51
186.0675305331 	 2.89
187.0758427546 	 1.73
188.0831805973 	 4.42
189.0910056294 	 6.33
201.0910056294 	 21.17
214.0624451552 	 9.37
215.0707573767 	 35.91
216.0780952194 	 20.01
217.0859202515 	 44.35
229.0859202515 	 100
257.0808348736 	 11.55
275.0913995599 	 2.04
410.1153618456 	 2.97
456.120841154 	 5.98
END IONS

BEGIN IONS
PEPMASS=267.138
CHARGE=1
MSLEVEL=2
RT=0
SOURCE_INSTRUMENT=qTOF
FILENAME=CCMSLIB00000079486.ms
IONMODE=Positive
ORGANISM=Natural
NAME=MLS001048917-01!2-(2-hydroxy-5-prop-2-enylphenyl)-4-prop-2-enylphenol
PI=GNPS
DATACOLLECTOR=GNPS
SMILES=C=CCc1ccc(c(c1)c1cc(CC=C)ccc1O)O
INCHI=InChI=1S/C18H18O2/c1-3-5-13-7-9-17(19)15(11-13)16-12-14(6-4-2)8-10-18(16)20/h3-4,7-12,19-20H,1-2,5-6H2
FORMULA=C18H18O2
PUBMED=N/A
SUBMITUSER=BIOADREM
LIBRARYQUALITY=0
SPECTRUMID=CCMSLIB00000079486
SCANS=1702
ID=CCMSLIB00000079486
103.0542261926 	 4.46
115.0542261926 	 7.23
128.0620512247 	 5.09
129.0698762568 	 4.82
141.0698762568 	 18.01
151.0542261926 	 4.41
152.0620512247 	 13.01
153.0698762568 	 10.64
155.085526321 	 9.1
165.0698762568 	 49.61
167.085526321 	 7.59
168.0569658468 	 8.64
169.0647908789 	 21.24
177.0698762568 	 7.37
178.0777012889 	 15.55
179.085526321 	 14.23
184.0518804689 	 4.73
191.085526321 	 10.6
192.0569658468 	 3.87
193.0647908789 	 17.19
194.072615911 	 7.37
195.0804409431 	 9.23
197.059705501 	 100
207.0804409431 	 26.38
208.0882659752 	 11.32
209.0960910073 	 4.09
210.0675305331 	 12.78
211.0753555652 	 29.88
223.0753555652 	 11.69
224.0831805973 	 7.46
226.0988306615 	 12.91
267.137955822 	 3.96
END IONS

BEGIN IONS
PEPMASS=472.1521
CHARGE=1
MSLEVEL=2
RT=0
SOURCE_INSTRUMENT=qTOF
FILENAME=CCMSLIB00000079487.ms
IONMODE=Positive
ORGANISM=Natural
NAME=MLS001141243-01!2-[[2-(4-butyl-7-methyl-2-oxochromen-5-yl)oxyacetyl]amino]-3-(4-chlorophenyl)propanoic acid
PI=GNPS
DATACOLLECTOR=GNPS
SMILES=CCCCc1cc(=O)oc2cc(C)cc(c12)OCC(=NC(Cc1ccc(cc1)Cl)C(=O)O)O
INCHI=InChI=1S/C25H26ClNO6/c1-3-4-5-17-13-23(29)33-21-11-15(2)10-20(24(17)21)32-14-22(28)27-19(25(30)31)12-16-6-8-18(26)9-7-16/h6-11,13,19H,3-5,12,14H2,1-2H3,(H,27,28)(H,30,31)
FORMULA=C25H26ClNO6
PUBMED=N/A
SUBMITUSER=BIOADREM
LIBRARYQUALITY=0
SPECTRUMID=CCMSLIB00000079487
SCANS=1703
ID=CCMSLIB00000079487
103.0542261926 	 6.87
118.0651252299 	 6.65
119.072950262 	 8.64
121.0647908789 	 8.55
125.0152538705 	 8.14
129.0698762568 	 10.25
130.0651252299 	 17.95
131.072950262 	 14.46
135.0804409431 	 5.41
137.059705501 	 13.81
139.0309039347 	 14.95
145.0647908789 	 4.65
146.072615911 	 6.08
147.0804409431 	 5.18
151.0309039347 	 6.4
154.041802972 	 41.69
159.0809281325 	 12.43
161.0601926904 	 20.71
161.0960910073 	 5.43
163.0753555652 	 4.68
165.0546201231 	 35.13
166.041802972 	 72.72
175.0753555652 	 30.58
177.0546201231 	 22.97
185.0965781967 	 5
187.1117410715 	 5.48
189.0551073125 	 9.89
191.0702701873 	 18.77
202.0993178509 	 5.17
203.0702701873 	 90.58
213.0914928188 	 5.25
215.0707573767 	 11.89
217.1227929472 	 35.43
227.107142883 	 5.72
230.094232473 	 7.91
231.1020575051 	 5.95
233.1172203799 	 57.27
245.1177075693 	 100
273.1126221914 	 24.21
426.146661974 	 6.39
472.1521412824 	 7.98
END IONS

BEGIN IONS
PEPMASS=360.145
CHARGE=1
MSLEVEL=2
RT=0
SOURCE_INSTRUMENT=qTOF
FILENAME=CCMSLIB00000079489.ms
IONMODE=Positive
ORGANISM=Natural
NAME=MLS001139433-01!(2R)-1-[2-(3,4,8-trimethyl-2-oxochromen-7-yl)oxyacetyl]pyrrolidine-2-carboxylic acid
PI=GNPS
DATACOLLECTOR=GNPS
SMILES=Cc1c(C)c(=O)oc2c(C)c(ccc12)OCC(=O)N1CCC[C@@H]1C(=O)O
INCHI=InChI=1S/C19H21NO6/c1-10-11(2)19(24)26-17-12(3)15(7-6-13(10)17)25-9-16(21)20-8-4-5-14(20)18(22)23/h6-7,14H,4-5,8-9H2,1-3H3,(H,22,23)/t14-/m1/s1
FORMULA=C19H21NO6
PUBMED=N/A
SUBMITUSER=BIOADREM
LIBRARYQUALITY=0
SPECTRUMID=CCMSLIB00000079489
SCANS=1705
ID=CCMSLIB00000079489
98.060039852 	 7.16
100.0756899162 	 17.31
105.0698762568 	 4.52
112.0756899162 	 14.75
116.0620512247 	 4.25
117.0698762568 	 1.95
121.0647908789 	 6.09
127.0542261926 	 1.99
128.0706045383 	 9.57
129.0698762568 	 7.12
131.085526321 	 18.08
133.0647908789 	 2.11
133.1011763852 	 4.56
149.0960910073 	 10.3
156.0655191604 	 3.22
159.0804409431 	 60.74
161.059705501 	 5.06
161.0960910073 	 10.03
187.0753555652 	 4.37
189.0910056294 	 14.63
205.0859202515 	 26.69
217.0859202515 	 100
263.0913995599 	 2.91
286.1437694814 	 14.17
360.1441634119 	 0
END IONS

BEGIN IONS
PEPMASS=469.224
CHARGE=1
MSLEVEL=2
RT=0
SOURCE_INSTRUMENT=qTOF
FILENAME=CCMSLIB00000079490.ms
IONMODE=Positive
ORGANISM=Natural
NAME=MLS001158468-01!(3S)-N-[(2S)-3-(1H-indol-3-yl)-1-(3-methoxyanilino)-1-oxopropan-2-yl]-1,2,3,4-tetrahydroisoquinoline-3-carboxamide
PI=GNPS
DATACOLLECTOR=GNPS
SMILES=COc1cccc(c1)N=C([C@H](Cc1c[nH]c2ccccc12)N=C([C@@H]1Cc2ccccc2CN1)O)O
INCHI=InChI=1S/C28H28N4O3/c1-35-22-10-6-9-21(15-22)31-28(34)26(14-20-17-29-24-12-5-4-11-23(20)24)32-27(33)25-13-18-7-2-3-8-19(18)16-30-25/h2-12,15,17,25-26,29-30H,13-14,16H2,1H3,(H,31,34)(H,32,33)/t25-,26-/m0/s1
FORMULA=C28H28N4O3
PUBMED=N/A
SUBMITUSER=BIOADREM
LIBRARYQUALITY=0
SPECTRUMID=CCMSLIB00000079490
SCANS=1706
ID=CCMSLIB00000079490
103.0542261926 	 0.86
105.0698762568 	 1.81
115.0542261926 	 3.27
117.0573001978 	 3.21
130.0651252299 	 41.14
132.0807752941 	 100
142.0651252299 	 1.95
157.0760242672 	 0.43
159.0916743314 	 46.16
170.060039852 	 2.17
187.0865889535 	 38.94
265.1335391461 	 1.14
293.1284537682 	 2.24
318.1600882476 	 1.68
346.1550028697 	 0.27
469.2234167859 	 0
END IONS

BEGIN IONS
PEPMASS=468.1641
CHARGE=1
MSLEVEL=2
RT=0
SOURCE_INSTRUMENT=qTOF
FILENAME=CCMSLIB00000079491.ms
IONMODE=Positive
ORGANISM=Natural
NAME=MLS001141257-01!1-[2-[[(2Z)-2-[(2,5-dimethoxyphenyl)methylidene]-3-oxo-1-benzofuran-6-yl]oxy]acetyl]piperidine-4-carboxylic acid
PI=GNPS
DATACOLLECTOR=GNPS
SMILES=COc1ccc(c(c1)/C=C\1/C(=O)c2ccc(cc2O1)OCC(=O)N1CCC(CC1)C(=O)O)OC
INCHI=InChI=1S/C25H25NO8/c1-31-17-4-6-20(32-2)16(11-17)12-22-24(28)19-5-3-18(13-21(19)34-22)33-14-23(27)26-9-7-15(8-10-26)25(29)30/h3-6,11-13,15H,7-10,14H2,1-2H3,(H,29,30)/b22-12-
FORMULA=C25H25NO8
PUBMED=N/A
SUBMITUSER=BIOADREM
LIBRARYQUALITY=0
SPECTRUMID=CCMSLIB00000079491
SCANS=1707
ID=CCMSLIB00000079491
110.060039852 	 1.81
112.0756899162 	 1.91
128.0706045383 	 51.39
142.0862546025 	 100
143.085526321 	 8
148.0518804689 	 8.6
170.0811692246 	 17.31
171.0804409431 	 2.04
175.0389700589 	 3.87
227.0702701873 	 1.94
251.0702701873 	 3.72
255.0651848094 	 2.41
267.0651848094 	 12.6
269.0444493673 	 5.1
270.0886599057 	 4.92
279.0651848094 	 5.29
283.0600994315 	 1.91
283.0964849378 	 2.28
284.0679244636 	 4.84
296.0679244636 	 2.75
298.0835745278 	 3.35
299.0913995599 	 12.6
311.0913995599 	 12.28
352.1179486614 	 1.72
422.1598134761 	 6.19
436.139078034 	 4.3
438.1183425919 	 12.17
439.126167624 	 2.75
453.1418176882 	 12
454.1496427203 	 2.28
468.1652927845 	 58.93
END IONS

BEGIN IONS
PEPMASS=435.157
CHARGE=1
MSLEVEL=2
RT=0
SOURCE_INSTRUMENT=qTOF
FILENAME=CCMSLIB00000079492.ms
IONMODE=Positive
ORGANISM=Natural
NAME=MLS000876973-01!5-chloro-9-(3-hydroxy-2-methylbutanoyl)-6a-methyl-3-[(E)-3-methylpent-1-enyl]-9,9a-dihydrofuro[2,3-h]isochromene-6,8-dione
PI=GNPS
DATACOLLECTOR=GNPS
SMILES=CCC(C)/C=C/C1=CC2=C(C(=O)C3(C)C(C2=CO1)C(C(=O)C(C)C(C)O)C(=O)O3)Cl
INCHI=InChI=1S/C23H27ClO6/c1-6-11(2)7-8-14-9-15-16(10-29-14)18-17(20(26)12(3)13(4)25)22(28)30-23(18,5)21(27)19(15)24/h7-13,17-18,25H,6H2,1-5H3/b8-7+
FORMULA=C23H27ClO6
PUBMED=N/A
SUBMITUSER=BIOADREM
LIBRARYQUALITY=0
SPECTRUMID=CCMSLIB00000079492
SCANS=1708
ID=CCMSLIB00000079492
155.085526321 	 3.21
156.0933513531 	 5.26
165.0698762568 	 2.6
183.0804409431 	 2.79
184.0882659752 	 8.8
191.0622040631 	 3.66
205.041468621 	 2.29
219.0571186852 	 77.16
225.0910056294 	 3.99
225.1273911357 	 2.69
226.1352161678 	 5.27
233.0727687494 	 5.31
248.0962438457 	 64.83
253.1223057578 	 3.76
254.1301307899 	 2.97
261.0312978652 	 2.98
261.1040688778 	 3.29
276.0547729615 	 5.25
305.093898122 	 32.52
314.0340375194 	 2.92
317.093898122 	 19.08
332.0446022057 	 4.46
333.0888127441 	 8.01
343.0731626799 	 16
353.1747352588 	 2.41
361.0837273662 	 42.94
389.1514130009 	 100
417.146327623 	 23.6
435.1568923093 	 0
END IONS

BEGIN IONS
PEPMASS=341.139
CHARGE=1
MSLEVEL=2
RT=0
SOURCE_INSTRUMENT=qTOF
FILENAME=CCMSLIB00000079493.ms
IONMODE=Positive
ORGANISM=Natural
NAME=MLS000876983-01!2-(3,4-dihydroxyphenyl)-7-hydroxy-8-(3-methylbut-2-enyl)-2,3-dihydrochromen-4-one
PI=GNPS
DATACOLLECTOR=GNPS
SMILES=CC(=CCc1c(ccc2C(=O)CC(c3ccc(c(c3)O)O)Oc12)O)C
INCHI=InChI=1S/C20H20O5/c1-11(2)3-5-13-15(21)8-6-14-17(23)10-19(25-20(13)14)12-4-7-16(22)18(24)9-12/h3-4,6-9,19,21-22,24H,5,10H2,1-2H3
FORMULA=C20H20O5
PUBMED=N/A
SUBMITUSER=BIOADREM
LIBRARYQUALITY=0
SPECTRUMID=CCMSLIB00000079493
SCANS=1709
ID=CCMSLIB00000079493
121.0284053726 	 6.75
131.0127553084 	 7.73
149.0233199947 	 100
167.033884681 	 9.6
341.1383497525 	 0
END IONS

BEGIN IONS
PEPMASS=355.155
CHARGE=1
MSLEVEL=2
RT=0
SOURCE_INSTRUMENT=qTOF
FILENAME=CCMSLIB00000079494.ms
IONMODE=Positive
ORGANISM=Natural
NAME=MLS000697598-01!
PI=GNPS
DATACOLLECTOR=GNPS
SMILES=CC(=CCc1c(ccc2[C@@H]3COc4cc(cc(c4[C@@H]3Oc12)OC)O)O)C
INCHI=InChI=1S/C21H22O5/c1-11(2)4-5-14-16(23)7-6-13-15-10-25-18-9-12(22)8-17(24-3)19(18)21(15)26-20(13)14/h4,6-9,15,21-23H,5,10H2,1-3H3/t15-,21+/m0/s1
FORMULA=C21H22O5
PUBMED=N/A
SUBMITUSER=BIOADREM
LIBRARYQUALITY=0
SPECTRUMID=CCMSLIB00000079494
SCANS=1710
ID=CCMSLIB00000079494
103.0542261926 	 9.55
107.0491408147 	 6.74
121.0647908789 	 4.89
123.0440554368 	 6.83
131.0491408147 	 7.45
135.0440554368 	 100
147.0440554368 	 13.15
149.059705501 	 12.04
151.0389700589 	 5.22
159.0440554368 	 20.73
161.059705501 	 7.69
163.0389700589 	 4.18
174.0675305331 	 3.27
175.0389700589 	 7.23
177.0546201231 	 4.4
182.072615911 	 3.32
185.059705501 	 5.1
187.0753555652 	 3.27
197.059705501 	 4.26
199.0753555652 	 3.89
211.0753555652 	 5.44
215.0702701873 	 5.88
225.0546201231 	 3.21
227.0702701873 	 3.47
228.0780952194 	 7.27
229.0859202515 	 4.26
239.0702701873 	 5.66
241.0495347452 	 6.03
243.1015703157 	 4.62
245.0808348736 	 3.23
253.0495347452 	 3.12
253.0859202515 	 5.59
256.0730098415 	 9.94
257.0808348736 	 6.58
267.0651848094 	 9.33
268.0730098415 	 6.67
271.0964849378 	 11.78
281.0808348736 	 4.64
283.0600994315 	 8.37
284.0679244636 	 21.02
299.0913995599 	 52.38
355.1539998167 	 0
END IONS

BEGIN IONS
PEPMASS=247.108
CHARGE=1
MSLEVEL=2
RT=0
SOURCE_INSTRUMENT=qTOF
FILENAME=CCMSLIB00000079495.ms
IONMODE=Positive
ORGANISM=Natural
NAME=MLS000686793-01!
PI=GNPS
DATACOLLECTOR=GNPS
SMILES=CC(=NC(Cc1c[nH]c2ccccc12)C(=O)O)O
INCHI=InChI=1S/C13H14N2O3/c1-8(16)15-12(13(17)18)6-9-7-14-11-5-3-2-4-10(9)11/h2-5,7,12,14H,6H2,1H3,(H,15,16)(H,17,18)
FORMULA=C13H14N2O3
PUBMED=N/A
SUBMITUSER=BIOADREM
LIBRARYQUALITY=0
SPECTRUMID=CCMSLIB00000079495
SCANS=1711
ID=CCMSLIB00000079495
102.0464011605 	 5.44
115.0542261926 	 48.92
117.0573001978 	 32.41
118.0651252299 	 40.72
130.0651252299 	 51.38
131.072950262 	 8.72
132.0807752941 	 63.28
140.0494751657 	 4.92
142.0651252299 	 30.97
143.072950262 	 30.26
144.0807752941 	 23.59
145.0647908789 	 6.05
146.060039852 	 62.46
159.0916743314 	 100
170.060039852 	 44.62
188.0706045383 	 32.82
247.1077183261 	 0
END IONS

BEGIN IONS
PEPMASS=271.097
CHARGE=1
MSLEVEL=2
RT=0
SOURCE_INSTRUMENT=qTOF
FILENAME=CCMSLIB00000079496.ms
IONMODE=Positive
ORGANISM=Natural
NAME=MLS000697611-01!
PI=GNPS
DATACOLLECTOR=GNPS
SMILES=COc1ccc2[C@@H]3COc4cc(ccc4[C@@H]3Oc2c1)O
INCHI=InChI=1S/C16H14O4/c1-18-10-3-5-11-13-8-19-14-6-9(17)2-4-12(14)16(13)20-15(11)7-10/h2-7,13,16-17H,8H2,1H3/t13-,16-/m0/s1
FORMULA=C16H14O4
PUBMED=N/A
SUBMITUSER=BIOADREM
LIBRARYQUALITY=0
SPECTRUMID=CCMSLIB00000079496
SCANS=1712
ID=CCMSLIB00000079496
107.0491408147 	 3.93
109.0647908789 	 27.46
115.0542261926 	 1.62
118.0413157826 	 2.93
119.0491408147 	 5.72
123.0440554368 	 11.16
133.0284053726 	 1.79
137.059705501 	 100
146.0362304047 	 3.1
147.0440554368 	 3.14
149.059705501 	 2.89
153.0698762568 	 3.14
161.059705501 	 7.89
162.0675305331 	 2.93
163.0389700589 	 1.86
181.0647908789 	 3.17
210.0675305331 	 2.72
238.0624451552 	 1.96
241.0495347452 	 2.45
271.0964849378 	 0
END IONS

BEGIN IONS
PEPMASS=206.0817
CHARGE=1
MSLEVEL=2
RT=0
SOURCE_INSTRUMENT=qTOF
FILENAME=CCMSLIB00000079497.ms
IONMODE=Positive
ORGANISM=Natural
NAME=MLS001049070-01!
PI=GNPS
DATACOLLECTOR=GNPS
SMILES=Cn1c(=O)cc(c2cccc(c12)O)OC
INCHI=InChI=1S/C11H11NO3/c1-12-10(14)6-9(15-2)7-4-3-5-8(13)11(7)12/h3-6,13H,1-2H3
FORMULA=C11H11NO3
PUBMED=N/A
SUBMITUSER=BIOADREM
LIBRARYQUALITY=0
SPECTRUMID=CCMSLIB00000079497
SCANS=1713
ID=CCMSLIB00000079497
102.0338251015 	 0.9
103.0178406863 	 1.25
104.0494751657 	 4.93
105.0334907505 	 1.11
105.0573001978 	 2.95
106.0287397236 	 2.89
106.0651252299 	 3.29
107.072950262 	 2.21
108.0443897878 	 3.49
114.0338251015 	 0.94
115.0416501336 	 7.93
116.0494751657 	 10.21
117.0573001978 	 5.75
118.0651252299 	 6.34
119.0491408147 	 1.13
120.0443897878 	 34.7
128.0494751657 	 3.74
130.0287397236 	 2.01
132.0443897878 	 1.02
133.0522148199 	 17.24
134.060039852 	 19.15
135.0678648841 	 9.63
136.0393044099 	 2.43
143.0365647557 	 1.03
144.0443897878 	 12.37
145.0522148199 	 4.59
146.060039852 	 27.34
148.0393044099 	 12.61
158.0236543457 	 1.05
160.0393044099 	 1.62
161.047129442 	 8.95
162.0549544741 	 44.28
163.0627795062 	 56.63
165.0420440641 	 1.9
174.0549544741 	 4.51
176.034219032 	 38.14
190.0498690962 	 14.6
191.0576941283 	 100
206.0811692246 	 38.16
END IONS

BEGIN IONS
PEPMASS=456.3474
CHARGE=1
MSLEVEL=2
RT=0
SOURCE_INSTRUMENT=qTOF
FILENAME=CCMSLIB00000079498.ms
IONMODE=Positive
ORGANISM=Natural
NAME=MLS000736975-01!
PI=GNPS
DATACOLLECTOR=GNPS
SMILES=CC1CCC2(C(C)C3C(CC4C5CC=C6CC(CCC6(C)C5CCC34C)OC(=O)C)O2)NC1
INCHI=InChI=1S/C29H45NO3/c1-17-8-13-29(30-16-17)18(2)26-25(33-29)15-24-22-7-6-20-14-21(32-19(3)31)9-11-27(20,4)23(22)10-12-28(24,26)5/h6,17-18,21-26,30H,7-16H2,1-5H3
FORMULA=C29H45NO3
PUBMED=N/A
SUBMITUSER=BIOADREM
LIBRARYQUALITY=0
SPECTRUMID=CCMSLIB00000079498
SCANS=1714
ID=CCMSLIB00000079498
105.0698762568 	 10.08
107.085526321 	 11.14
109.1011763852 	 17.99
117.0698762568 	 2.88
119.085526321 	 6.95
121.1011763852 	 11.38
123.1168264494 	 3.25
129.0698762568 	 6
131.085526321 	 12.86
133.1011763852 	 22.94
135.1168264494 	 3.05
141.0698762568 	 4.79
142.0777012889 	 9.67
143.085526321 	 11.16
145.1011763852 	 18.5
147.1168264494 	 34.2
149.1324765136 	 7.5
155.085526321 	 4.36
157.1011763852 	 100
159.1168264494 	 22.08
161.1324765136 	 5.52
171.1168264494 	 13.21
173.1324765136 	 6.37
183.1168264494 	 4.11
185.1324765136 	 7.59
187.1481265778 	 2.84
199.1481265778 	 2.3
213.163776642 	 2.96
225.163776642 	 5.29
238.1716016741 	 3.03
253.1950767704 	 92.58
378.3155262571 	 30.82
396.3260909434 	 6.48
438.3366556297 	 62.15
456.347220316 	 187.5
END IONS

BEGIN IONS
PEPMASS=360.143
CHARGE=1
MSLEVEL=2
RT=0
SOURCE_INSTRUMENT=qTOF
FILENAME=CCMSLIB00000079499.ms
IONMODE=Positive
ORGANISM=Natural
NAME=MLS001141339-01!1-[2-(4,7-dimethyl-2-oxochromen-5-yl)oxyacetyl]piperidine-4-carboxylic acid
PI=GNPS
DATACOLLECTOR=GNPS
SMILES=Cc1cc(c2c(C)cc(=O)oc2c1)OCC(=O)N1CCC(CC1)C(=O)O
INCHI=InChI=1S/C19H21NO6/c1-11-7-14(18-12(2)9-17(22)26-15(18)8-11)25-10-16(21)20-5-3-13(4-6-20)19(23)24/h7-9,13H,3-6,10H2,1-2H3,(H,23,24)
FORMULA=C19H21NO6
PUBMED=N/A
SUBMITUSER=BIOADREM
LIBRARYQUALITY=0
SPECTRUMID=CCMSLIB00000079499
SCANS=1715
ID=CCMSLIB00000079499
95.0491408147 	 3.96
98.060039852 	 2.71
99.0440554368 	 10.95
114.0549544741 	 12.92
119.0576941283 	 2.42
119.085526321 	 7.67
124.0756899162 	 5.21
128.0706045383 	 75.16
129.0698762568 	 8.44
130.0862546025 	 11.55
132.0569658468 	 3.88
133.0647908789 	 3.11
142.0862546025 	 100
145.0647908789 	 13.45
147.0804409431 	 10.14
159.0804409431 	 2.79
161.059705501 	 6.91
161.1046443209 	 2.34
162.0675305331 	 14.14
173.059705501 	 4.85
175.0753555652 	 21.57
190.0624451552 	 49.31
203.0702701873 	 59.33
205.0859202515 	 3.19
231.0651848094 	 19.18
314.1386841035 	 3.51
360.1441634119 	 26.9
END IONS

BEGIN IONS
PEPMASS=456.1466
CHARGE=1
MSLEVEL=2
RT=0
SOURCE_INSTRUMENT=qTOF
FILENAME=CCMSLIB00000079500.ms
IONMODE=Positive
ORGANISM=Natural
NAME=MLS001141350-01!(2R)-3-benzylsulfanyl-2-[[2-(3,4,7-trimethyl-2-oxochromen-5-yl)oxyacetyl]amino]propanoic acid
PI=GNPS
DATACOLLECTOR=GNPS
SMILES=Cc1cc(c2c(C)c(C)c(=O)oc2c1)OCC(=N[C@@H](CSCc1ccccc1)C(=O)O)O
INCHI=InChI=1S/C24H25NO6S/c1-14-9-19(22-15(2)16(3)24(29)31-20(22)10-14)30-11-21(26)25-18(23(27)28)13-32-12-17-7-5-4-6-8-17/h4-10,18H,11-13H2,1-3H3,(H,25,26)(H,27,28)/t18-/m0/s1
FORMULA=C24H25NO6S
PUBMED=N/A
SUBMITUSER=BIOADREM
LIBRARYQUALITY=0
SPECTRUMID=CCMSLIB00000079500
SCANS=1716
ID=CCMSLIB00000079500
105.0732470752 	 10.94
111.0314793778 	 7
115.057597011 	 12.85
121.0647908789 	 9.67
128.0654220431 	 11.7
129.0420440641 	 9.8
131.085526321 	 16.41
133.1011763852 	 19.85
146.072615911 	 24.55
147.0804409431 	 7.63
149.0419469468 	 60.05
159.0804409431 	 29.9
161.0960910073 	 28.5
166.0684960483 	 9.92
175.0753555652 	 45.17
176.0831805973 	 100
177.0910056294 	 8.78
189.0910056294 	 78.75
199.0753555652 	 12.98
203.0702701873 	 71.25
204.0780952194 	 69.08
205.0859202515 	 86.39
215.0736410057 	 27.99
217.0859202515 	 81.42
227.0702701873 	 9.8
243.0651848094 	 23.79
245.0808348736 	 32.57
246.0794546651 	 7.25
262.1073839751 	 9.8
263.0821943193 	 17.43
288.1230340393 	 11.32
456.1475342303 	 8.27
END IONS

BEGIN IONS
PEPMASS=396.145
CHARGE=1
MSLEVEL=2
RT=0
SOURCE_INSTRUMENT=qTOF
FILENAME=CCMSLIB00000079501.ms
IONMODE=Positive
ORGANISM=Natural
NAME=MLS001075158-01!(2S)-2-[[2-(3,4-dimethyl-2-oxochromen-7-yl)oxyacetyl]amino]-3-phenylpropanoic acid
PI=GNPS
DATACOLLECTOR=GNPS
SMILES=Cc1c(C)c(=O)oc2cc(ccc12)OCC(=N[C@@H](Cc1ccccc1)C(=O)O)O
INCHI=InChI=1S/C22H21NO6/c1-13-14(2)22(27)29-19-11-16(8-9-17(13)19)28-12-20(24)23-18(21(25)26)10-15-6-4-3-5-7-15/h3-9,11,18H,10,12H2,1-2H3,(H,23,24)(H,25,26)/t18-/m0/s1
FORMULA=C22H21NO6
PUBMED=N/A
SUBMITUSER=BIOADREM
LIBRARYQUALITY=0
SPECTRUMID=CCMSLIB00000079501
SCANS=1717
ID=CCMSLIB00000079501
102.0464011605 	 1.65
103.0542261926 	 12.75
104.0620512247 	 3.09
105.0698762568 	 47.75
107.0491408147 	 6.75
115.0542261926 	 15.28
117.0698762568 	 82.96
119.085526321 	 10.72
120.0807752941 	 39.7
123.0440554368 	 1.8
129.0698762568 	 3.18
132.0807752941 	 100
135.0804409431 	 8.18
145.0647908789 	 56.97
147.0440554368 	 2.94
147.0804409431 	 13.09
148.0518804689 	 1.51
150.0913399804 	 3.7
162.0675305331 	 7.51
163.0753555652 	 2.29
173.059705501 	 23.1
175.0753555652 	 34.57
190.0624451552 	 7.68
191.0702701873 	 29.14
203.0702701873 	 56.69
231.0651848094 	 4.01
293.1172203799 	 6.02
350.1386841035 	 6.97
396.1441634119 	 0
END IONS

BEGIN IONS
PEPMASS=462.2021
CHARGE=1
MSLEVEL=2
RT=0
SOURCE_INSTRUMENT=qTOF
FILENAME=CCMSLIB00000079502.ms
IONMODE=Positive
ORGANISM=Natural
NAME=MLS001140312-01!
PI=GNPS
DATACOLLECTOR=GNPS
SMILES=COc1cc(cc(c1OC)OC)c1c2c(cc(C(=O)NCC3CCCO3)[nH]1)c1ccccc1n2
INCHI=InChI=1S/C26H27N3O5/c1-31-21-11-15(12-22(32-2)25(21)33-3)23-24-18(17-8-4-5-9-19(17)28-24)13-20(29-23)26(30)27-14-16-7-6-10-34-16/h4-5,8-9,11-13,16,29H,6-7,10,14H2,1-3H3,(H,27,30)
FORMULA=C26H27N3O5
PUBMED=N/A
SUBMITUSER=BIOADREM
LIBRARYQUALITY=0
SPECTRUMID=CCMSLIB00000079502
SCANS=1718
ID=CCMSLIB00000079502
230.0838492993 	 0.59
231.0916743314 	 0.65
233.0709388893 	 0.32
243.0916743314 	 1.45
244.0631138572 	 0.26
244.0994993635 	 0.77
247.0865889535 	 0.69
257.0709388893 	 0.74
258.0787639214 	 1.3
259.0865889535 	 7.06
260.0917339109 	 1.5
261.1022390177 	 0.34
271.0865889535 	 1.84
272.0944139856 	 3.36
273.1022390177 	 13.54
274.1100640498 	 4.65
275.0815035756 	 4.36
286.0736785435 	 0.6
287.0815035756 	 27.91
288.086648533 	 5.92
289.0971536398 	 3
290.1049786719 	 1.48
300.0893286077 	 8.28
301.0971536398 	 22.89
302.1049786719 	 100
303.0764181977 	 11.75
303.1101236293 	 26.57
317.0920682619 	 1.29
318.099893294 	 18.63
333.1233683903 	 62.28
351.1339330766 	 24.99
361.1182830124 	 4.15
379.1288476987 	 6.24
462.2023469928 	 10.65
END IONS

BEGIN IONS
PEPMASS=323.02
CHARGE=1
MSLEVEL=2
RT=0
SOURCE_INSTRUMENT=qTOF
FILENAME=CCMSLIB00000079503.ms
IONMODE=Positive
ORGANISM=Natural
NAME=MLS001055372-01!
PI=GNPS
DATACOLLECTOR=GNPS
SMILES=c1cc(ccc1[C@H]([C@@H](CO)N=C(C(Cl)Cl)O)O)N(=O)=O
INCHI=InChI=1S/C11H12Cl2N2O5/c12-10(13)11(18)14-8(5-16)9(17)6-1-3-7(4-2-6)15(19)20/h1-4,8-10,16-17H,5H2,(H,14,18)/t8-,9-/m1/s1
FORMULA=C11H12Cl2N2O5
PUBMED=N/A
SUBMITUSER=BIOADREM
LIBRARYQUALITY=0
SPECTRUMID=CCMSLIB00000079503
SCANS=1719
ID=CCMSLIB00000079503
106.0624451552 	 4.97
115.0542261926 	 5.19
117.0546201231 	 8.51
118.0624451552 	 16.8
119.072950262 	 20.11
128.0620512247 	 10.39
130.0624451552 	 5.86
131.0001792494 	 4.86
132.0569658468 	 9.94
134.0573597773 	 5.41
135.0440554368 	 5.19
135.0678648841 	 9.94
136.0649437173 	 5.41
138.0311450268 	 6.19
142.0736785435 	 4.97
148.0631138572 	 5.97
150.0185689678 	 5.19
151.0600994315 	 11.6
164.0234728331 	 16.91
164.0553484046 	 5.52
165.0658535114 	 100
166.0709984688 	 6.96
168.0336435889 	 5.19
170.0685931656 	 4.86
191.033884681 	 4.86
192.0547729615 	 5.64
227.9932353372 	 4.86
229.0010603693 	 7.18
257.9957338993 	 23.43
269.9804777656 	 5.08
275.9950651973 	 9.61
323.0196029261 	 0
END IONS

BEGIN IONS
PEPMASS=405.155
CHARGE=1
MSLEVEL=2
RT=0
SOURCE_INSTRUMENT=qTOF
FILENAME=CCMSLIB00000079504.ms
IONMODE=Positive
ORGANISM=Natural
NAME=MLS000697638-01!
PI=GNPS
DATACOLLECTOR=GNPS
SMILES=COCOc1ccc(cc1)C1CC(=O)c2c(cc(cc2O1)OCOC)OCOC
INCHI=InChI=1S/C21H24O8/c1-23-11-26-15-6-4-14(5-7-15)18-10-17(22)21-19(28-13-25-3)8-16(27-12-24-2)9-20(21)29-18/h4-9,18H,10-13H2,1-3H3
FORMULA=C21H24O8
PUBMED=N/A
SUBMITUSER=BIOADREM
LIBRARYQUALITY=0
SPECTRUMID=CCMSLIB00000079504
SCANS=1720
ID=CCMSLIB00000079504
98.0362304047 	 1.7
105.0698762568 	 3.85
107.0491408147 	 2.26
109.0284053726 	 7.43
115.0542261926 	 1.99
118.0413157826 	 4.66
121.0284053726 	 2.23
121.0647908789 	 3.1
123.0076699305 	 1.94
131.0491408147 	 3.58
133.0647908789 	 46.46
135.0076699305 	 2.91
143.0491408147 	 2.53
145.0647908789 	 4.63
149.0233199947 	 6.94
151.0389700589 	 5.73
155.033884681 	 2.48
159.0440554368 	 28.18
161.059705501 	 100
165.0182346168 	 61.59
167.033884681 	 35.91
177.0182346168 	 7.86
179.033884681 	 7.08
183.0287993031 	 8.32
191.0702701873 	 66.08
193.0495347452 	 4.74
197.0444493673 	 28.94
209.0444493673 	 13
211.0600994315 	 5.38
241.0706641178 	 4.5
405.1543937472 	 0
END IONS

BEGIN IONS
PEPMASS=203.0823
CHARGE=1
MSLEVEL=2
RT=0
SOURCE_INSTRUMENT=qTOF
FILENAME=CCMSLIB00000079505.ms
IONMODE=Positive
ORGANISM=Natural
NAME=MLS001048974-01!3-hydroxy-2,3-dihydro-1H-pyrrolo[2,1-b]quinazolin-9-one
PI=GNPS
DATACOLLECTOR=GNPS
SMILES=c1ccc2c(c1)c(=O)n1CCC(c1n2)O
INCHI=InChI=1S/C11H10N2O2/c14-9-5-6-13-10(9)12-8-4-2-1-3-7(8)11(13)15/h1-4,9,14H,5-6H2
FORMULA=C11H10N2O2
PUBMED=N/A
SUBMITUSER=BIOADREM
LIBRARYQUALITY=0
SPECTRUMID=CCMSLIB00000079505
SCANS=1721
ID=CCMSLIB00000079505
102.0338251015 	 1.39
103.0542261926 	 2.38
104.0494751657 	 3.35
114.0338251015 	 0.53
128.0494751657 	 3.09
129.0447241388 	 1.21
130.0651252299 	 21.67
132.0443897878 	 1.01
140.0494751657 	 6.82
142.0525491709 	 2.6
155.060374203 	 3.58
156.0681992351 	 7.07
157.0760242672 	 6.73
158.060039852 	 10.46
167.060374203 	 6.14
184.0631138572 	 16.31
185.0709388893 	 100
203.0815035756 	 3.52
END IONS

BEGIN IONS
PEPMASS=423.1913
CHARGE=1
MSLEVEL=2
RT=0
SOURCE_INSTRUMENT=qTOF
FILENAME=CCMSLIB00000079508.ms
IONMODE=Positive
ORGANISM=Natural
NAME=MLS001158354-01!2-[(4-ethyl-8,8-dimethyl-2-oxo-9,10-dihydropyrano[2,3-h]chromen-5-yl)oxy]-N-(pyridin-2-ylmethyl)acetamide
PI=GNPS
DATACOLLECTOR=GNPS
SMILES=CCc1cc(=O)oc2c3CCC(C)(C)Oc3cc(c12)OCC(=NCc1ccccn1)O
INCHI=InChI=1S/C24H26N2O5/c1-4-15-11-21(28)30-23-17-8-9-24(2,3)31-18(17)12-19(22(15)23)29-14-20(27)26-13-16-7-5-6-10-25-16/h5-7,10-12H,4,8-9,13-14H2,1-3H3,(H,26,27)
FORMULA=C24H26N2O5
PUBMED=N/A
SUBMITUSER=BIOADREM
LIBRARYQUALITY=0
SPECTRUMID=CCMSLIB00000079508
SCANS=1722
ID=CCMSLIB00000079508
105.0447241388 	 0.77
106.0651252299 	 0.45
107.060374203 	 36.39
119.0365647557 	 9.86
119.060374203 	 2.41
121.0760242672 	 4.81
131.060374203 	 2.9
132.0681992351 	 4.86
145.0647908789 	 0.59
147.0804409431 	 0.79
149.0709388893 	 100
161.059705501 	 0.77
163.0753555652 	 0.55
175.0753555652 	 2.11
177.0546201231 	 0.56
189.0546201231 	 0.69
191.033884681 	 1.3
191.0702701873 	 1.69
201.0546201231 	 0.87
203.0702701873 	 4.9
215.0702701873 	 0.58
217.0495347452 	 1.29
219.0651848094 	 6.35
231.0651848094 	 25.74
233.0709388893 	 0.45
243.0651848094 	 0.63
247.0600994315 	 0.71
259.0600994315 	 29.53
261.0658535114 	 0.46
287.1277850662 	 2.22
304.0968192888 	 0.83
315.1226996883 	 0.91
321.1233683903 	 0.62
332.0917339109 	 0.54
349.1182830124 	 10.55
367.1288476987 	 1.07
405.1808832692 	 1.18
423.1914479555 	 4.27
END IONS

BEGIN IONS
PEPMASS=199.076
CHARGE=1
MSLEVEL=2
RT=0
SOURCE_INSTRUMENT=qTOF
FILENAME=CCMSLIB00000079509.ms
IONMODE=Positive
ORGANISM=Natural
NAME=MLS000863656-01!3-but-2-ynylisochromen-1-one
PI=GNPS
DATACOLLECTOR=GNPS
SMILES=CC#CCc1cc2ccccc2c(=O)o1
INCHI=InChI=1S/C13H10O2/c1-2-3-7-11-9-10-6-4-5-8-12(10)13(14)15-11/h4-6,8-9H,7H2,1H3
FORMULA=C13H10O2
PUBMED=N/A
SUBMITUSER=BIOADREM
LIBRARYQUALITY=0
SPECTRUMID=CCMSLIB00000079509
SCANS=1723
ID=CCMSLIB00000079509
102.0464011605 	 7.67
103.0542261926 	 11.14
105.0334907505 	 3.65
115.0542261926 	 23.01
126.0464011605 	 8.22
127.0542261926 	 15.07
128.0620512247 	 52.51
131.0491408147 	 19.45
145.0647908789 	 6.39
152.0620512247 	 100
153.0698762568 	 30.96
154.0777012889 	 12.79
171.0804409431 	 3.47
199.0753555652 	 0
END IONS

BEGIN IONS
PEPMASS=500.1559
CHARGE=1
MSLEVEL=2
RT=0
SOURCE_INSTRUMENT=qTOF
FILENAME=CCMSLIB00000079510.ms
IONMODE=Positive
ORGANISM=Natural
NAME=MLS001157984-01!(2S)-4-hydroxy-1-[2-[[(2Z)-3-oxo-2-[(2,3,4-trimethoxyphenyl)methylidene]-1-benzofuran-6-yl]oxy]acetyl]pyrrolidine-2-carboxylic acid
PI=GNPS
DATACOLLECTOR=GNPS
SMILES=COc1ccc(/C=C\2/C(=O)c3ccc(cc3O2)OCC(=O)N2CC(C[C@H]2C(=O)O)O)c(c1OC)OC
INCHI=InChI=1S/C25H25NO10/c1-32-18-7-4-13(23(33-2)24(18)34-3)8-20-22(29)16-6-5-15(10-19(16)36-20)35-12-21(28)26-11-14(27)9-17(26)25(30)31/h4-8,10,14,17,27H,9,11-12H2,1-3H3,(H,30,31)/b20-8-/t14?,17-/m0/s1
FORMULA=C25H25NO10
PUBMED=N/A
SUBMITUSER=BIOADREM
LIBRARYQUALITY=0
SPECTRUMID=CCMSLIB00000079510
SCANS=1724
ID=CCMSLIB00000079510
110.060039852 	 7.55
114.0549544741 	 17.78
116.0706045383 	 16.26
128.0706045383 	 14.63
137.0233199947 	 8.73
144.0655191604 	 22.21
163.0389700589 	 17.15
167.0702701873 	 13.79
172.0604337825 	 6.27
175.0389700589 	 7.94
178.0624451552 	 17.12
239.0702701873 	 10.25
251.0702701873 	 7.05
253.0495347452 	 23.75
255.0651848094 	 4.8
265.0495347452 	 10.57
266.0573597773 	 9.41
267.0651848094 	 17.62
268.0730098415 	 10.93
269.0808348736 	 10.54
270.0522743994 	 5.19
271.0600994315 	 10.51
279.0651848094 	 5.06
281.0444493673 	 15.86
282.0522743994 	 10.54
283.0600994315 	 28.19
285.0757494957 	 13.03
295.0600994315 	 22.42
296.0679244636 	 36.89
297.0757494957 	 25.46
299.0550140536 	 34.77
300.086648533 	 6.16
308.0679244636 	 5.11
309.0757494957 	 20.06
310.0835745278 	 4.93
311.0913995599 	 6.35
312.099224592 	 4.75
328.0941392141 	 9.36
329.1019642462 	 100
331.1050382514 	 5.93
340.0941392141 	 11.54
387.1074435546 	 9.7
408.1441634119 	 6.32
424.1026925277 	 7.63
454.113257214 	 5.19
500.1551220287 	 47.12
END IONS

BEGIN IONS
PEPMASS=545.334
CHARGE=1
MSLEVEL=2
RT=0
SOURCE_INSTRUMENT=qTOF
FILENAME=CCMSLIB00000079511.ms
IONMODE=Positive
ORGANISM=Natural
NAME=MLS001157801-01!tert-butyl (2S)-2-[4-[[(2S)-1-[(2-methoxyphenyl)methylamino]-3-methyl-1-oxobutan-2-yl]carbamoyl]piperidine-1-carbonyl]pyrrolidine-1-carboxylate
PI=GNPS
DATACOLLECTOR=GNPS
SMILES=CC(C)[C@@H](C(=NCc1ccccc1OC)O)N=C(C1CCN(CC1)C(=O)[C@@H]1CCCN1C(=O)OC(C)(C)C)O
INCHI=InChI=1S/C29H44N4O6/c1-19(2)24(26(35)30-18-21-10-7-8-12-23(21)38-6)31-25(34)20-13-16-32(17-14-20)27(36)22-11-9-15-33(22)28(37)39-29(3,4)5/h7-8,10,12,19-20,22,24H,9,11,13-18H2,1-6H3,(H,30,35)(H,31,34)/t22-,24-/m0/s1
FORMULA=C29H44N4O6
PUBMED=N/A
SUBMITUSER=BIOADREM
LIBRARYQUALITY=0
SPECTRUMID=CCMSLIB00000079511
SCANS=1725
ID=CCMSLIB00000079511
112.0756899162 	 63.74
121.0647908789 	 67.14
124.1120754225 	 1.41
138.0913399804 	 16.82
167.1542745882 	 1.03
181.1335391461 	 1.36
183.1491892103 	 27.95
209.1284537682 	 1.9
211.1441038324 	 58.93
237.1597538966 	 44.3
280.2019530623 	 23.08
281.2012247808 	 3.4
308.1968676844 	 21.6
309.1961394029 	 7.42
348.2281678128 	 65.36
349.2274395313 	 16.28
350.2352645634 	 3.35
427.2703669785 	 1.15
445.2809316648 	 100
545.3333611658 	 0
END IONS

BEGIN IONS
PEPMASS=332.186
CHARGE=1
MSLEVEL=2
RT=0
SOURCE_INSTRUMENT=qTOF
FILENAME=CCMSLIB00000079513.ms
IONMODE=Positive
ORGANISM=Natural
NAME=MLS001048980-01!4-hydroxy-3-[1-(5-hydroxy-2,6,6-trimethyloxan-2-yl)ethyl]-1H-quinolin-2-one
PI=GNPS
DATACOLLECTOR=GNPS
SMILES=CC(c1c(c2ccccc2nc1O)O)C1(C)CCC(C(C)(C)O1)O
INCHI=InChI=1S/C19H25NO4/c1-11(19(4)10-9-14(21)18(2,3)24-19)15-16(22)12-7-5-6-8-13(12)20-17(15)23/h5-8,11,14,21H,9-10H2,1-4H3,(H2,20,22,23)
FORMULA=C19H25NO4
PUBMED=N/A
SUBMITUSER=BIOADREM
LIBRARYQUALITY=0
SPECTRUMID=CCMSLIB00000079513
SCANS=1726
ID=CCMSLIB00000079513
115.0542261926 	 3.76
116.0494751657 	 0.7
120.0443897878 	 5.65
128.0494751657 	 0.86
130.0287397236 	 3.57
132.0443897878 	 0.73
142.0651252299 	 4.16
144.0443897878 	 1.85
144.0807752941 	 0.75
146.0236543457 	 1.51
146.060039852 	 1.69
154.0651252299 	 0.78
156.0443897878 	 1.09
158.060039852 	 2.63
162.0549544741 	 23.03
167.072950262 	 0.6
168.0443897878 	 1.22
170.060039852 	 22.8
172.0756899162 	 1.84
174.0549544741 	 37.84
182.060039852 	 1.1
186.0549544741 	 9.39
186.0913399804 	 2.64
188.0706045383 	 100
196.0756899162 	 1.21
198.0549544741 	 1.01
199.0627795062 	 0.59
200.0706045383 	 12.14
202.0862546025 	 2.37
210.0913399804 	 1.52
212.0706045383 	 1.39
213.0784295704 	 3.65
214.0862546025 	 5.22
216.1019046667 	 6.69
224.1069900446 	 0.71
226.0862546025 	 1.01
227.0940796346 	 0.65
228.1019046667 	 6.09
242.1175547309 	 9.18
244.1332047951 	 1.85
296.1645049235 	 1.93
314.1750696098 	 9.54
332.1856342961 	 0
END IONS

BEGIN IONS
PEPMASS=460.224
CHARGE=1
MSLEVEL=2
RT=0
SOURCE_INSTRUMENT=qTOF
FILENAME=CCMSLIB00000079514.ms
IONMODE=Positive
ORGANISM=Natural
NAME=MLS001140583-01!
PI=GNPS
DATACOLLECTOR=GNPS
SMILES=COc1cc(cc(c1OC)OC)c1c2c(cc(C(=O)NC3CCCCC3)[nH]1)c1ccccc1n2
INCHI=InChI=1S/C27H29N3O4/c1-32-22-13-16(14-23(33-2)26(22)34-3)24-25-19(18-11-7-8-12-20(18)29-25)15-21(30-24)27(31)28-17-9-5-4-6-10-17/h7-8,11-15,17,30H,4-6,9-10H2,1-3H3,(H,28,31)
FORMULA=C27H29N3O4
PUBMED=N/A
SUBMITUSER=BIOADREM
LIBRARYQUALITY=0
SPECTRUMID=CCMSLIB00000079514
SCANS=1727
ID=CCMSLIB00000079514
270.1614309183 	 0.38
272.1770809825 	 5.89
273.1849060146 	 17.89
275.1641705725 	 4.73
286.1590256151 	 0.84
287.1668506472 	 30.88
288.1719956046 	 6.68
290.1876456688 	 2.87
291.1954707009 	 0.35
301.191054025 	 24.45
302.1988790571 	 100
303.1703185829 	 14.12
303.1981507756 	 36.48
304.1695903014 	 3.45
304.203295733 	 4.29
318.1978164246 	 23.55
319.2016187113 	 6.63
327.1981507756 	 0.68
330.1852403656 	 1.76
331.1930653977 	 0.36
334.2250938076 	 24.94
345.2087154619 	 0.55
360.2434239465 	 21.07
460.2230824349 	 0
END IONS

BEGIN IONS
PEPMASS=480.202
CHARGE=1
MSLEVEL=2
RT=0
SOURCE_INSTRUMENT=qTOF
FILENAME=CCMSLIB00000079515.ms
IONMODE=Positive
ORGANISM=Natural
NAME=MLS001160379-01!(2S)-3-phenyl-2-[[2-[(3,4,8,8-tetramethyl-2-oxo-9,10-dihydropyrano[2,3-h]chromen-5-yl)oxy]acetyl]amino]propanoic acid
PI=GNPS
DATACOLLECTOR=GNPS
SMILES=Cc1c(C)c(=O)oc2c3CCC(C)(C)Oc3cc(c12)OCC(=N[C@@H](Cc1ccccc1)C(=O)O)O
INCHI=InChI=1S/C27H29NO7/c1-15-16(2)26(32)34-24-18-10-11-27(3,4)35-20(18)13-21(23(15)24)33-14-22(29)28-19(25(30)31)12-17-8-6-5-7-9-17/h5-9,13,19H,10-12,14H2,1-4H3,(H,28,29)(H,30,31)/t19-/m0/s1
FORMULA=C27H29NO7
PUBMED=N/A
SUBMITUSER=BIOADREM
LIBRARYQUALITY=0
SPECTRUMID=CCMSLIB00000079515
SCANS=1728
ID=CCMSLIB00000079515
103.0542261926 	 3.36
105.0698762568 	 2.57
109.0284053726 	 0.84
115.0542261926 	 3.89
117.0573001978 	 5.13
118.0651252299 	 1.28
120.0807752941 	 8.49
121.0647908789 	 1.36
130.0651252299 	 16.37
131.0491408147 	 1.87
132.0807752941 	 100
142.0651252299 	 1.43
145.0647908789 	 1
147.0804409431 	 1.39
149.059705501 	 1.23
160.0756899162 	 5.68
161.059705501 	 1.86
163.0753555652 	 2.84
170.060039852 	 1.16
173.059705501 	 2.09
175.0753555652 	 2.3
177.0546201231 	 2.18
178.0862546025 	 3.06
188.0706045383 	 1.3
191.0702701873 	 8.03
203.0702701873 	 4.2
206.0811692246 	 3.72
219.0651848094 	 45.93
231.0651848094 	 22.21
259.0600994315 	 24.34
287.1277850662 	 2.72
315.1226996883 	 2.6
378.1335987256 	 5.02
424.139078034 	 17.41
480.2016782908 	 1.04
END IONS

BEGIN IONS
PEPMASS=450.192
CHARGE=1
MSLEVEL=2
RT=0
SOURCE_INSTRUMENT=qTOF
FILENAME=CCMSLIB00000079516.ms
IONMODE=Positive
ORGANISM=Natural
NAME=MLS001158023-01!4-phenyl-1-[2-(3,4,7-trimethyl-2-oxochromen-5-yl)oxyacetyl]piperidine-4-carboxylic acid
PI=GNPS
DATACOLLECTOR=GNPS
SMILES=Cc1cc(c2c(C)c(C)c(=O)oc2c1)OCC(=O)N1CCC(CC1)(c1ccccc1)C(=O)O
INCHI=InChI=1S/C26H27NO6/c1-16-13-20(23-17(2)18(3)24(29)33-21(23)14-16)32-15-22(28)27-11-9-26(10-12-27,25(30)31)19-7-5-4-6-8-19/h4-8,13-14H,9-12,15H2,1-3H3,(H,30,31)
FORMULA=C26H27NO6
PUBMED=N/A
SUBMITUSER=BIOADREM
LIBRARYQUALITY=0
SPECTRUMID=CCMSLIB00000079516
SCANS=1729
ID=CCMSLIB00000079516
110.0964253583 	 5.28
128.1069900446 	 12.34
129.1148150767 	 6.41
131.1304651409 	 5.81
133.1461152051 	 4.08
145.1461152051 	 3.96
159.137955822 	 8.85
161.1172203799 	 13.05
161.1536058862 	 9.69
170.1539402372 	 2.79
171.137955822 	 2.7
173.1774153335 	 2.97
175.1355505188 	 8.54
176.1433755509 	 37.35
177.1485205083 	 3.97
190.1590256151 	 4.42
200.1770809825 	 6.08
201.1849060146 	 4.92
202.1927310467 	 10.19
204.1719956046 	 21.85
206.1903257435 	 6.23
219.1954707009 	 5.68
246.1699842319 	 4.81
262.2012843603 	 3.47
450.1911136045 	 0
END IONS

BEGIN IONS
PEPMASS=240.0661
CHARGE=1
MSLEVEL=2
RT=0
SOURCE_INSTRUMENT=qTOF
FILENAME=CCMSLIB00000079517.ms
IONMODE=Positive
ORGANISM=Natural
NAME=MLS000584985-01!
PI=GNPS
DATACOLLECTOR=GNPS
SMILES=c1ccc2c(c1)C(=O)c1c(ccc(c1C2=O)O)N
INCHI=InChI=1S/C14H9NO3/c15-9-5-6-10(16)12-11(9)13(17)7-3-1-2-4-8(7)14(12)18/h1-6,16H,15H2
FORMULA=C14H9NO3
PUBMED=N/A
SUBMITUSER=BIOADREM
LIBRARYQUALITY=0
SPECTRUMID=CCMSLIB00000079517
SCANS=1730
ID=CCMSLIB00000079517
103.0542261926 	 2.47
105.0334907505 	 17.24
106.0287397236 	 5.12
115.0542261926 	 19.93
127.0542261926 	 2.3
128.0620512247 	 19.87
129.0698762568 	 20.21
139.0542261926 	 100
141.0698762568 	 10.71
142.0651252299 	 3.89
143.0491408147 	 6.92
144.0080042815 	 3.46
151.0542261926 	 2.92
154.0651252299 	 9.05
156.0807752941 	 27.59
157.0647908789 	 18.02
162.0185689678 	 3.12
166.0651252299 	 60.98
167.0491408147 	 28.12
167.072950262 	 23.46
168.0569658468 	 6.97
168.0807752941 	 4.79
169.0647908789 	 4.13
170.060039852 	 8
182.060039852 	 4.34
183.0678648841 	 8.49
184.0756899162 	 15.01
185.059705501 	 8.13
193.0522148199 	 2.86
194.060039852 	 28.45
195.0678648841 	 9.29
197.059705501 	 8.79
198.0549544741 	 7.31
211.0627795062 	 4.49
212.0706045383 	 74.03
222.0549544741 	 41.52
239.0576941283 	 15.29
240.0655191604 	 118.32
END IONS

BEGIN IONS
PEPMASS=220.977
CHARGE=1
MSLEVEL=2
RT=0
SOURCE_INSTRUMENT=qTOF
FILENAME=CCMSLIB00000079518.ms
IONMODE=Positive
ORGANISM=Natural
NAME=MLS001048858-01!3,5-dichloro-4-methoxybenzoic acid
PI=GNPS
DATACOLLECTOR=GNPS
SMILES=COc1c(cc(cc1Cl)C(=O)O)Cl
INCHI=InChI=1S/C8H6Cl2O3/c1-13-7-5(9)2-4(8(11)12)3-6(7)10/h2-3H,1H3,(H,11,12)
FORMULA=C8H6Cl2O3
PUBMED=N/A
SUBMITUSER=BIOADREM
LIBRARYQUALITY=0
SPECTRUMID=CCMSLIB00000079518
SCANS=1731
ID=CCMSLIB00000079518
98.9996038063 	 50.72
107.0491408147 	 21.05
112.0074288384 	 25.36
124.9788683642 	 8.13
125.9866933963 	 9.89
126.9945184284 	 43.06
142.0179935247 	 100
159.9477210742 	 7.81
161.9633711384 	 24.72
220.9766754789 	 0
END IONS

BEGIN IONS
PEPMASS=388.176
CHARGE=1
MSLEVEL=2
RT=0
SOURCE_INSTRUMENT=qTOF
FILENAME=CCMSLIB00000079519.ms
IONMODE=Positive
ORGANISM=Natural
NAME=MLS001140927-01!4-[[[2-(4-ethyl-2-oxochromen-7-yl)oxyacetyl]amino]methyl]cyclohexane-1-carboxylic acid
PI=GNPS
DATACOLLECTOR=GNPS
SMILES=CCc1cc(=O)oc2cc(ccc12)OCC(=NC[C@H]1CC[C@@H](CC1)C(=O)O)O
INCHI=InChI=1S/C21H25NO6/c1-2-14-9-20(24)28-18-10-16(7-8-17(14)18)27-12-19(23)22-11-13-3-5-15(6-4-13)21(25)26/h7-10,13,15H,2-6,11-12H2,1H3,(H,22,23)(H,25,26)/t13-,15-
FORMULA=C21H25NO6
PUBMED=N/A
SUBMITUSER=BIOADREM
LIBRARYQUALITY=0
SPECTRUMID=CCMSLIB00000079519
SCANS=1732
ID=CCMSLIB00000079519
105.0698762568 	 1.13
107.0491408147 	 1.84
107.085526321 	 1.17
115.0542261926 	 1.76
117.0698762568 	 5.36
129.0698762568 	 0.63
132.0569658468 	 1.5
133.0647908789 	 0.65
135.0804409431 	 1.77
145.0647908789 	 4.02
147.0440554368 	 1.17
147.0804409431 	 2.05
149.059705501 	 1.5
157.0647908789 	 0.85
163.0753555652 	 2.01
173.059705501 	 11.72
175.0753555652 	 7.95
191.0702701873 	 100
203.0702701873 	 30.58
231.0651848094 	 18.12
248.0917339109 	 55.79
314.1750696098 	 0.65
342.1699842319 	 14.72
388.1754635403 	 0
END IONS

BEGIN IONS
PEPMASS=457.1854
CHARGE=1
MSLEVEL=2
RT=0
SOURCE_INSTRUMENT=qTOF
FILENAME=CCMSLIB00000079520.ms
IONMODE=Positive
ORGANISM=Natural
NAME=MLS001049101-01!3-hydroxy-9-methoxy-6-oxo-7-pentanoyl-1-pentylbenzo[b][1,4]benzodioxepine-2-carboxylic acid
PI=GNPS
DATACOLLECTOR=GNPS
SMILES=CCCCCc1c(c(cc2c1Oc1cc(cc(C(=O)CCCC)c1C(=O)O2)OC)O)C(=O)O
INCHI=InChI=1S/C25H28O8/c1-4-6-8-9-15-21(24(28)29)18(27)13-20-23(15)32-19-12-14(31-3)11-16(17(26)10-7-5-2)22(19)25(30)33-20/h11-13,27H,4-10H2,1-3H3,(H,28,29)
FORMULA=C25H28O8
PUBMED=N/A
SUBMITUSER=BIOADREM
LIBRARYQUALITY=0
SPECTRUMID=CCMSLIB00000079520
SCANS=1733
ID=CCMSLIB00000079520
158.072615911 	 4.64
173.0960910073 	 3.17
199.0753555652 	 3.39
201.0910056294 	 8.66
217.0859202515 	 4.92
227.0702701873 	 7.77
241.0859202515 	 3.76
251.0702701873 	 3.38
252.0780952194 	 3.3
255.0651848094 	 13.08
263.1066556936 	 4.46
264.0780952194 	 6.01
265.1223057578 	 9.2
267.0651848094 	 3.94
269.0808348736 	 4.57
269.1172203799 	 9.81
278.0937452836 	 3.91
280.0730098415 	 4.19
280.1093953478 	 3.27
281.1172203799 	 3.29
287.1277850662 	 8.93
291.1015703157 	 3.27
293.1172203799 	 7.8
295.0964849378 	 3.62
307.0600994315 	 3.44
307.0964849378 	 4.42
308.0679244636 	 3.35
308.1043099699 	 8.07
309.112135002 	 11.25
311.1277850662 	 7.1
313.1070496241 	 3.08
323.0913995599 	 4.21
325.1070496241 	 3.07
337.1070496241 	 7.06
341.1019642462 	 3.14
351.086314182 	 9.24
365.1747352588 	 3.57
369.0968788683 	 21.75
379.1539998167 	 22.7
393.1696498809 	 8.29
397.164564503 	 73.74
421.164564503 	 100
439.1751291893 	 6.25
457.1856938756 	 1.07
END IONS

BEGIN IONS
PEPMASS=269.118
CHARGE=1
MSLEVEL=2
RT=0
SOURCE_INSTRUMENT=qTOF
FILENAME=CCMSLIB00000079521.ms
IONMODE=Positive
ORGANISM=Natural
NAME=MLS001049077-01!
PI=GNPS
DATACOLLECTOR=GNPS
SMILES=C=CCc1ccc(c(c1)OC)OC(=O)c1ccccc1
INCHI=InChI=1S/C17H16O3/c1-3-7-13-10-11-15(16(12-13)19-2)20-17(18)14-8-5-4-6-9-14/h3-6,8-12H,1,7H2,2H3
FORMULA=C17H16O3
PUBMED=N/A
SUBMITUSER=BIOADREM
LIBRARYQUALITY=0
SPECTRUMID=CCMSLIB00000079521
SCANS=1734
ID=CCMSLIB00000079521
105.0334907505 	 100
142.0777012889 	 1.82
177.0910056294 	 0.77
197.059705501 	 1.34
227.0491408147 	 1.53
269.1172203799 	 0
END IONS

BEGIN IONS
PEPMASS=335.107
CHARGE=1
MSLEVEL=2
RT=0
SOURCE_INSTRUMENT=qTOF
FILENAME=CCMSLIB00000079522.ms
IONMODE=Positive
ORGANISM=Natural
NAME=MLS001141066-01!(3R)-N-cyclopropyl-6,7-dimethoxy-5-oxo-3,9b-dihydro-2H-[1,3]thiazolo[2,3-a]isoindole-3-carboxamide
PI=GNPS
DATACOLLECTOR=GNPS
SMILES=COc1ccc2c(c1OC)C(=O)N1[C@@H](CSC21)C(=NC1CC1)O
INCHI=InChI=1S/C16H18N2O4S/c1-21-11-6-5-9-12(13(11)22-2)15(20)18-10(7-23-16(9)18)14(19)17-8-3-4-8/h5-6,8,10,16H,3-4,7H2,1-2H3,(H,17,19)/t10-,16?/m0/s1
FORMULA=C16H18N2O4S
PUBMED=N/A
SUBMITUSER=BIOADREM
LIBRARYQUALITY=0
SPECTRUMID=CCMSLIB00000079522
SCANS=1735
ID=CCMSLIB00000079522
146.060039852 	 2.57
148.0393044099 	 1.05
149.0260000694 	 1.16
161.0260000694 	 1.84
162.0100156542 	 0.95
162.0338251015 	 0.93
162.0549544741 	 3.47
163.0627795062 	 1
164.0164604778 	 2.7
174.0549544741 	 2.07
175.032444893 	 0.95
175.0627795062 	 2.45
176.0706045383 	 2.7
177.0294680051 	 1.07
178.032110542 	 3.25
180.0239511589 	 1.1
189.0242855099 	 2.95
190.0498690962 	 1.66
190.0862546025 	 1.45
191.0576941283 	 4.35
192.0113750999 	 9.75
193.0158293136 	 1.17
195.0474262552 	 0.89
202.0498690962 	 1.02
205.0243826272 	 2.14
206.0270251641 	 15.23
206.0811692246 	 4.94
207.0348501962 	 23.95
217.0158293136 	 2.52
218.0270251641 	 3.25
219.0314793778 	 1.02
220.0393044099 	 1.66
222.0583252925 	 21.99
234.0219397862 	 3.78
235.0297648183 	 1.49
248.034219032 	 1.28
250.0532399146 	 100
335.1060037666 	 0
END IONS

BEGIN IONS
PEPMASS=422.1591
CHARGE=1
MSLEVEL=2
RT=0
SOURCE_INSTRUMENT=qTOF
FILENAME=CCMSLIB00000079523.ms
IONMODE=Positive
ORGANISM=Natural
NAME=MLS001076816-01!(2S)-2-[[2-[(4-methyl-6-oxo-7,8,9,10-tetrahydrobenzo[c]chromen-3-yl)oxy]acetyl]amino]-2-phenylacetic acid
PI=GNPS
DATACOLLECTOR=GNPS
SMILES=Cc1c(ccc2c3CCCCc3c(=O)oc12)OCC(=N[C@@H](c1ccccc1)C(=O)O)O
INCHI=InChI=1S/C24H23NO6/c1-14-19(12-11-17-16-9-5-6-10-18(16)24(29)31-22(14)17)30-13-20(26)25-21(23(27)28)15-7-3-2-4-8-15/h2-4,7-8,11-12,21H,5-6,9-10,13H2,1H3,(H,25,26)(H,27,28)/t21-/m0/s1
FORMULA=C24H23NO6
PUBMED=N/A
SUBMITUSER=BIOADREM
LIBRARYQUALITY=0
SPECTRUMID=CCMSLIB00000079523
SCANS=1736
ID=CCMSLIB00000079523
103.0542261926 	 3.68
105.0698762568 	 2.32
106.0651252299 	 12.42
107.0491408147 	 17
118.0651252299 	 30.78
119.0491408147 	 6
121.0647908789 	 8.62
129.0698762568 	 3.17
134.060039852 	 3.12
135.0440554368 	 36.89
136.0756899162 	 2.39
137.059705501 	 2.76
142.0777012889 	 5.84
145.0647908789 	 3.33
147.0440554368 	 2.65
149.059705501 	 38.22
157.1011763852 	 4.3
159.0804409431 	 3.4
164.0706045383 	 6.54
174.0675305331 	 3.54
175.0753555652 	 2.46
175.1117410715 	 2.24
183.0804409431 	 2.29
185.0960910073 	 25.37
187.1117410715 	 3.94
188.0831805973 	 2.17
200.0831805973 	 2.36
201.0910056294 	 10.11
202.0624451552 	 2.69
202.0988306615 	 7.15
203.1066556936 	 5.19
215.1066556936 	 70.72
229.0859202515 	 13.89
230.0937452836 	 37.27
231.1015703157 	 100
243.1015703157 	 65.44
271.0964849378 	 2.36
288.1230340393 	 45.39
376.1543341677 	 7.42
422.1598134761 	 1.8
END IONS

BEGIN IONS
PEPMASS=424.1392
CHARGE=1
MSLEVEL=2
RT=0
SOURCE_INSTRUMENT=qTOF
FILENAME=CCMSLIB00000079524.ms
IONMODE=Positive
ORGANISM=Natural
NAME=MLS001157934-01!(2S)-1-[2-[[(2Z)-2-[(3-methoxyphenyl)methylidene]-3-oxo-1-benzofuran-6-yl]oxy]acetyl]pyrrolidine-2-carboxylic acid
PI=GNPS
DATACOLLECTOR=GNPS
SMILES=COc1cccc(c1)/C=C\1/C(=O)c2ccc(cc2O1)OCC(=O)N1CCC[C@H]1C(=O)O
INCHI=InChI=1S/C23H21NO7/c1-29-15-5-2-4-14(10-15)11-20-22(26)17-8-7-16(12-19(17)31-20)30-13-21(25)24-9-3-6-18(24)23(27)28/h2,4-5,7-8,10-12,18H,3,6,9,13H2,1H3,(H,27,28)/b20-11-/t18-/m0/s1
FORMULA=C23H21NO7
PUBMED=N/A
SUBMITUSER=BIOADREM
LIBRARYQUALITY=0
SPECTRUMID=CCMSLIB00000079524
SCANS=1737
ID=CCMSLIB00000079524
98.060039852 	 6.45
100.0756899162 	 16.53
128.0706045383 	 16.44
129.0698762568 	 2.86
137.0233199947 	 8.09
156.0655191604 	 10.79
163.0389700589 	 4.53
181.0647908789 	 2.92
197.0960910073 	 2.54
198.0675305331 	 4.49
213.0910056294 	 26.55
220.0518804689 	 7.64
225.0910056294 	 3.56
226.0624451552 	 4.85
237.0546201231 	 26
251.0702701873 	 6.1
252.0417097131 	 15.15
253.0495347452 	 9.95
253.0859202515 	 5.78
255.0651848094 	 3.15
267.0651848094 	 5.26
269.0808348736 	 100
281.0808348736 	 54.83
282.0522743994 	 9.7
282.0886599057 	 9.31
283.0600994315 	 10.66
327.086314182 	 2.38
350.1386841035 	 8.89
378.1335987256 	 2.22
424.139078034 	 5.87
END IONS

BEGIN IONS
PEPMASS=213.0652
CHARGE=1
MSLEVEL=2
RT=0
SOURCE_INSTRUMENT=qTOF
FILENAME=CCMSLIB00000079525.ms
IONMODE=Positive
ORGANISM=Natural
NAME=MLS000736964-01!
PI=GNPS
DATACOLLECTOR=GNPS
SMILES=c1ccc2c(c1)nc1cc(c(=O)cc1o2)N
INCHI=InChI=1S/C12H8N2O2/c13-7-5-9-12(6-10(7)15)16-11-4-2-1-3-8(11)14-9/h1-6H,13H2
FORMULA=C12H8N2O2
PUBMED=N/A
SUBMITUSER=BIOADREM
LIBRARYQUALITY=0
SPECTRUMID=CCMSLIB00000079525
SCANS=1738
ID=CCMSLIB00000079525
102.0464011605 	 1.05
103.0542261926 	 7.13
104.0494751657 	 0.87
113.0385761284 	 0.68
116.0494751657 	 2.42
117.0573001978 	 3.78
128.0494751657 	 2.87
130.0651252299 	 26.09
140.0494751657 	 7.53
144.0443897878 	 6.52
145.0522148199 	 1.46
155.060374203 	 1.79
156.0681992351 	 4.91
158.060039852 	 27.55
168.0443897878 	 3.76
184.0631138572 	 3.11
185.0709388893 	 100
186.0549544741 	 22.25
213.0658535114 	 35.06
END IONS

BEGIN IONS
PEPMASS=416.171
CHARGE=1
MSLEVEL=2
RT=0
SOURCE_INSTRUMENT=qTOF
FILENAME=CCMSLIB00000079526.ms
IONMODE=Positive
ORGANISM=Natural
NAME=MLS001160389-01!(2S)-1-[2-[(4,8,8-trimethyl-2-oxo-9,10-dihydropyrano[2,3-h]chromen-5-yl)oxy]acetyl]pyrrolidine-2-carboxylic acid
PI=GNPS
DATACOLLECTOR=GNPS
SMILES=Cc1cc(=O)oc2c3CCC(C)(C)Oc3cc(c12)OCC(=O)N1CCC[C@H]1C(=O)O
INCHI=InChI=1S/C22H25NO7/c1-12-9-18(25)29-20-13-6-7-22(2,3)30-15(13)10-16(19(12)20)28-11-17(24)23-8-4-5-14(23)21(26)27/h9-10,14H,4-8,11H2,1-3H3,(H,26,27)/t14-/m0/s1
FORMULA=C22H25NO7
PUBMED=N/A
SUBMITUSER=BIOADREM
LIBRARYQUALITY=0
SPECTRUMID=CCMSLIB00000079526
SCANS=1739
ID=CCMSLIB00000079526
98.060039852 	 15.33
100.0756899162 	 13.8
107.0491408147 	 1.44
109.0284053726 	 1.81
121.0647908789 	 3.26
128.0706045383 	 32.38
149.059705501 	 4.19
156.0655191604 	 42.38
159.0440554368 	 3.22
161.059705501 	 2.34
163.0389700589 	 4.9
177.0546201231 	 9.56
187.0389700589 	 2.37
189.0546201231 	 5.67
199.0389700589 	 1.03
205.0495347452 	 100
217.0495347452 	 17.8
245.0444493673 	 13.65
263.0550140536 	 0.69
360.1077779056 	 21.97
416.1703781624 	 0
END IONS

BEGIN IONS
PEPMASS=575.119
CHARGE=1
MSLEVEL=2
RT=0
SOURCE_INSTRUMENT=qTOF
FILENAME=CCMSLIB00000079527.ms
IONMODE=Positive
ORGANISM=Natural
NAME=MLS000563067-01!
PI=GNPS
DATACOLLECTOR=GNPS
SMILES=Cc1cc(c2c(c1O)C(=O)[C@@]13[C@@H]4[C@@H]5[C@@H]([C@H]3C(=O)C3=C(c6c(cc(C)c(c6C(=O)[C@@]53[C@@H]([C@H]4O)C(=O)C1=C2O)O)O)O)O)O
INCHI=InChI=1S/C30H22O12/c1-5-3-7(31)9-11(19(5)33)27(41)29-13-14-24(38)17(29)26(40)16-22(36)10-8(32)4-6(2)20(34)12(10)28(42)30(14,16)18(23(13)37)25(39)15(29)21(9)35/h3-4,13-14,17-18,23-24,31-38H,1-2H3/t13-,14-,17+,18+,23+,24+,29+,30+/m1/s1
FORMULA=C30H22O12
PUBMED=N/A
SUBMITUSER=BIOADREM
LIBRARYQUALITY=0
SPECTRUMID=CCMSLIB00000079527
SCANS=1740
ID=CCMSLIB00000079527
197.059705501 	 1.65
215.0702701873 	 1.85
217.0495347452 	 1.88
243.0651848094 	 9.04
245.0444493673 	 2.68
253.0495347452 	 2.98
254.0573597773 	 5.59
271.0600994315 	 100
287.0550140536 	 21.92
289.0706641178 	 12.25
391.1023581767 	 2.63
419.0972727988 	 1.28
437.0714519788 	 1.62
437.1078374851 	 1.81
447.086314182 	 1.79
451.0812288041 	 1.88
465.1027521072 	 4.1
475.0812288041 	 2.7
479.0761434262 	 1.69
493.0917934904 	 10.44
494.0996185225 	 2.92
503.0761434262 	 5.05
504.0839684583 	 2.45
511.1023581767 	 4.26
512.1101832088 	 1.36
521.0867081125 	 24.3
522.0945331446 	 8.08
524.0737977025 	 1.81
539.0972727988 	 38.91
540.1050978309 	 12.4
575.1184021714 	 0
END IONS

BEGIN IONS
PEPMASS=252.139
CHARGE=1
MSLEVEL=2
RT=0
SOURCE_INSTRUMENT=qTOF
FILENAME=CCMSLIB00000079528.ms
IONMODE=Positive
ORGANISM=Natural
NAME=MLS000863653-01!(E)-3-phenyl-N-(2-phenylethyl)prop-2-enamide
PI=GNPS
DATACOLLECTOR=GNPS
SMILES=c1ccc(cc1)/C=C/C(=NCCc1ccccc1)O
INCHI=InChI=1S/C17H17NO/c19-17(12-11-15-7-3-1-4-8-15)18-14-13-16-9-5-2-6-10-16/h1-12H,13-14H2,(H,18,19)/b12-11+
FORMULA=C17H17NO
PUBMED=N/A
SUBMITUSER=BIOADREM
LIBRARYQUALITY=0
SPECTRUMID=CCMSLIB00000079528
SCANS=1741
ID=CCMSLIB00000079528
102.0464011605 	 3.15
103.0542261926 	 100
105.0698762568 	 90.63
117.0698762568 	 0.77
131.0491408147 	 80.97
160.0756899162 	 0.71
252.138290173 	 0
END IONS

BEGIN IONS
PEPMASS=519.213
CHARGE=1
MSLEVEL=2
RT=0
SOURCE_INSTRUMENT=qTOF
FILENAME=CCMSLIB00000079529.ms
IONMODE=Positive
ORGANISM=Natural
NAME=MLS001140219-01!(2S)-3-phenyl-2-[[(2S)-2-[3-(3,5,9-trimethyl-7-oxofuro[3,2-g]chromen-6-yl)propanoylamino]propanoyl]amino]propanoic acid
PI=GNPS
DATACOLLECTOR=GNPS
SMILES=Cc1coc2c(C)c3c(cc12)c(C)c(CCC(=N[C@@H](C)C(=N[C@@H](Cc1ccccc1)C(=O)O)O)O)c(=O)o3
INCHI=InChI=1S/C29H30N2O7/c1-15-14-37-25-17(3)26-22(13-21(15)25)16(2)20(29(36)38-26)10-11-24(32)30-18(4)27(33)31-23(28(34)35)12-19-8-6-5-7-9-19/h5-9,13-14,18,23H,10-12H2,1-4H3,(H,30,32)(H,31,33)(H,34,35)/t18-,23-/m0/s1
FORMULA=C29H30N2O7
PUBMED=N/A
SUBMITUSER=BIOADREM
LIBRARYQUALITY=0
SPECTRUMID=CCMSLIB00000079529
SCANS=1742
ID=CCMSLIB00000079529
120.0807752941 	 0.96
129.0698762568 	 0.26
141.0698762568 	 0.43
142.0777012889 	 0.46
146.0964253583 	 0.21
154.0777012889 	 0.44
155.0815035756 	 0.28
169.1011763852 	 0.32
182.0685931656 	 0.4
185.0960910073 	 0.61
195.0804409431 	 0.22
196.0882659752 	 0.23
197.0960910073 	 0.43
198.0675305331 	 0.22
213.0910056294 	 4.92
227.1066556936 	 0.75
241.0859202515 	 100
242.0897225382 	 21.8
243.0916743314 	 2.32
255.1015703157 	 23.58
256.1053726024 	 3.64
257.1073243956 	 0.48
283.0964849378 	 65.22
284.1002872245 	 11.99
285.1022390177 	 1.24
519.2125773281 	 0
END IONS

BEGIN IONS
PEPMASS=441.155
CHARGE=1
MSLEVEL=2
RT=0
SOURCE_INSTRUMENT=qTOF
FILENAME=CCMSLIB00000079530.ms
IONMODE=Positive
ORGANISM=Natural
NAME=MLS000877035-01!methyl 2-[[3-[(3,3-dimethyloxiran-2-yl)methyl]-4-hydroxyphenyl]methyl]-4-hydroxy-3-(4-hydroxyphenyl)-5-oxofuran-2-carboxylate
PI=GNPS
DATACOLLECTOR=GNPS
SMILES=CC1(C)C(Cc2cc(ccc2O)CC2(C(=C(C(=O)O2)O)c2ccc(cc2)O)C(=O)OC)O1
INCHI=InChI=1S/C24H24O8/c1-23(2)18(31-23)11-15-10-13(4-9-17(15)26)12-24(22(29)30-3)19(20(27)21(28)32-24)14-5-7-16(25)8-6-14/h4-10,18,25-27H,11-12H2,1-3H3
FORMULA=C24H24O8
PUBMED=N/A
SUBMITUSER=BIOADREM
LIBRARYQUALITY=0
SPECTRUMID=CCMSLIB00000079530
SCANS=1743
ID=CCMSLIB00000079530
107.0491408147 	 18.94
119.0491408147 	 10.52
121.0284053726 	 15.84
131.0491408147 	 49.26
145.0647908789 	 16.83
145.1011763852 	 25.25
147.0440554368 	 11.14
153.0698762568 	 9.65
155.085526321 	 61.7
158.072615911 	 56.75
159.0440554368 	 37.62
161.0960910073 	 10.77
173.0960910073 	 100
175.0389700589 	 14.54
191.1066556936 	 65.16
203.033884681 	 18.25
207.0804409431 	 17.7
219.0804409431 	 13.92
225.0910056294 	 11.08
235.0753555652 	 53.34
237.0910056294 	 39.48
247.0753555652 	 22.4
248.0831805973 	 17.51
249.0910056294 	 16.52
251.0702701873 	 15.84
253.0859202515 	 14.85
263.0702701873 	 30.51
265.0859202515 	 41.15
266.0573597773 	 9.96
275.0702701873 	 20.85
279.0651848094 	 12.5
281.0808348736 	 34.16
291.0651848094 	 16.27
293.0808348736 	 40.28
305.0808348736 	 12.81
309.0757494957 	 16.27
317.1172203799 	 12.44
335.1277850662 	 41.15
441.1543937472 	 0
END IONS

BEGIN IONS
PEPMASS=452.09
CHARGE=1
MSLEVEL=2
RT=0
SOURCE_INSTRUMENT=qTOF
FILENAME=CCMSLIB00000079531.ms
IONMODE=Positive
ORGANISM=Natural
NAME=MLS001141246-01!3-(4-chlorophenyl)-2-[[2-(6-oxobenzo[c]chromen-3-yl)oxyacetyl]amino]propanoic acid
PI=GNPS
DATACOLLECTOR=GNPS
SMILES=c1ccc2c(c1)c1ccc(cc1oc2=O)OCC(=NC(Cc1ccc(cc1)Cl)C(=O)O)O
INCHI=InChI=1S/C24H18ClNO6/c25-15-7-5-14(6-8-15)11-20(23(28)29)26-22(27)13-31-16-9-10-18-17-3-1-2-4-19(17)24(30)32-21(18)12-16/h1-10,12,20H,11,13H2,(H,26,27)(H,28,29)
FORMULA=C24H18ClNO6
PUBMED=N/A
SUBMITUSER=BIOADREM
LIBRARYQUALITY=0
SPECTRUMID=CCMSLIB00000079531
SCANS=1744
ID=CCMSLIB00000079531
103.0542261926 	 13.39
115.0542261926 	 6.36
117.0698762568 	 3.87
118.0651252299 	 8.18
119.072950262 	 12.74
125.0152538705 	 11.56
130.0651252299 	 37.48
131.072950262 	 42.59
137.0152538705 	 5.71
139.0309039347 	 29.17
139.0542261926 	 22.02
140.034219032 	 2.82
141.0698762568 	 9.12
152.0387289668 	 5.94
152.0598583394 	 3.3
153.0698762568 	 23.64
154.041802972 	 29.83
155.0469479294 	 3.54
157.0647908789 	 2.58
164.0256657184 	 5.2
166.041802972 	 91.69
167.0491408147 	 100
169.0625979936 	 17.33
171.0445426262 	 7.75
183.0418625515 	 1.9
184.0523676583 	 3.9
195.0440554368 	 45.74
197.0601926904 	 45.01
198.0653376478 	 8.26
211.0394572483 	 3.15
213.0546201231 	 11.92
225.0551073125 	 67.19
226.0602522699 	 10.96
253.0500219346 	 2.07
319.0605866209 	 1.56
349.0711513072 	 2.94
406.0840617172 	 1.85
452.0895410256 	 0
END IONS

BEGIN IONS
PEPMASS=492.239
CHARGE=1
MSLEVEL=2
RT=0
SOURCE_INSTRUMENT=qTOF
FILENAME=CCMSLIB00000079532.ms
IONMODE=Positive
ORGANISM=Natural
NAME=MLS001140911-01!4-[[2-(3-benzyl-4,7-dimethyl-2-oxochromen-5-yl)oxypropanoylamino]methyl]cyclohexane-1-carboxylic acid
PI=GNPS
DATACOLLECTOR=GNPS
SMILES=Cc1cc(c2c(C)c(Cc3ccccc3)c(=O)oc2c1)OC(C)C(=NC[C@H]1CC[C@@H](CC1)C(=O)O)O
INCHI=InChI=1S/C29H33NO6/c1-17-13-24(35-19(3)27(31)30-16-21-9-11-22(12-10-21)28(32)33)26-18(2)23(29(34)36-25(26)14-17)15-20-7-5-4-6-8-20/h4-8,13-14,19,21-22H,9-12,15-16H2,1-3H3,(H,30,31)(H,32,33)/t19?,21-,22-
FORMULA=C29H33NO6
PUBMED=N/A
SUBMITUSER=BIOADREM
LIBRARYQUALITY=0
SPECTRUMID=CCMSLIB00000079532
SCANS=1745
ID=CCMSLIB00000079532
95.085526321 	 9
110.0964253583 	 1.62
112.1120754225 	 3.61
117.0698762568 	 1.39
123.0804409431 	 1.4
129.0698762568 	 1.87
138.0913399804 	 3.04
138.1277254867 	 11.22
140.1069900446 	 8.53
147.0804409431 	 1.2
152.1069900446 	 2.81
157.0647908789 	 1.69
166.1226401088 	 5.62
167.1304651409 	 14.81
175.0753555652 	 6.31
184.1332047951 	 38.8
201.0910056294 	 1.09
203.0702701873 	 100
229.0859202515 	 13.13
251.1066556936 	 1.02
257.0808348736 	 2.61
259.0964849378 	 1.05
276.1230340393 	 1.69
279.1015703157 	 4.55
279.137955822 	 1.8
281.1172203799 	 19.76
307.1328704441 	 20.97
335.1277850662 	 8.3
352.1543341677 	 4.31
368.1856342961 	 2.58
446.2325844887 	 22.99
492.2380637971 	 0
END IONS

BEGIN IONS
PEPMASS=271.0594
CHARGE=1
MSLEVEL=2
RT=0
SOURCE_INSTRUMENT=qTOF
FILENAME=CCMSLIB00000079533.ms
IONMODE=Positive
ORGANISM=Natural
NAME=MLS002473243-01!3-(3,4-dihydroxyphenyl)-8-hydroxyisochromen-1-one
PI=GNPS
DATACOLLECTOR=GNPS
SMILES=c1cc2cc(c3ccc(c(c3)O)O)oc(=O)c2c(c1)O
INCHI=InChI=1S/C15H10O5/c16-10-5-4-8(6-12(10)18)13-7-9-2-1-3-11(17)14(9)15(19)20-13/h1-7,16-18H
FORMULA=C15H10O5
PUBMED=N/A
SUBMITUSER=BIOADREM
LIBRARYQUALITY=0
SPECTRUMID=CCMSLIB00000079533
SCANS=1746
ID=CCMSLIB00000079533
115.0542261926 	 12.52
125.0385761284 	 1.8
141.0698762568 	 14.61
150.0464011605 	 8.79
151.0542261926 	 21.69
152.0620512247 	 4.91
168.0569658468 	 5.13
169.0647908789 	 13.64
171.0440554368 	 6.81
180.0569658468 	 2.42
197.059705501 	 100
207.0440554368 	 2.92
225.0546201231 	 12.9
235.0389700589 	 2.83
253.0495347452 	 72.19
271.0600994315 	 5.31
END IONS

BEGIN IONS
PEPMASS=549.214
CHARGE=1
MSLEVEL=2
RT=0
SOURCE_INSTRUMENT=qTOF
FILENAME=CCMSLIB00000079535.ms
IONMODE=Positive
ORGANISM=Natural
NAME=MLS001140677-01!
PI=GNPS
DATACOLLECTOR=GNPS
SMILES=Cc1ccc(cc1)C1c2c(C[C@H]3C(=O)N(c4ccccc4C(=O)N4CCC[C@@H]4C(=O)O)C(=O)N13)c1ccccc1[nH]2
INCHI=InChI=1S/C32H28N4O5/c1-18-12-14-19(15-13-18)28-27-22(20-7-2-4-9-23(20)33-27)17-26-30(38)36(32(41)35(26)28)24-10-5-3-8-21(24)29(37)34-16-6-11-25(34)31(39)40/h2-5,7-10,12-15,25-26,28,33H,6,11,16-17H2,1H3,(H,39,40)/t25-,26+,28?/m1/s1
FORMULA=C32H28N4O5
PUBMED=N/A
SUBMITUSER=BIOADREM
LIBRARYQUALITY=0
SPECTRUMID=CCMSLIB00000079535
SCANS=1747
ID=CCMSLIB00000079535
217.0886003262 	 3.84
218.0964253583 	 100
219.100227645 	 16.07
222.0899973097 	 44.43
232.1120754225 	 39.2
244.1120754225 	 31.75
245.1158777092 	 5.26
246.0913399804 	 2.19
250.0849119318 	 33.27
259.1229744598 	 1.4
272.1069900446 	 13.7
273.1107923313 	 3.67
287.1178890819 	 8.4
363.1451664649 	 3.78
373.1295164007 	 3.42
376.1166059907 	 1.64
391.140081087 	 33.58
549.2132460301 	 0
END IONS

BEGIN IONS
PEPMASS=489.2119
CHARGE=1
MSLEVEL=2
RT=0
SOURCE_INSTRUMENT=qTOF
FILENAME=CCMSLIB00000079536.ms
IONMODE=Positive
ORGANISM=Natural
NAME=MLS000876995-01!methyl (2R,4aR,4bS,10aS,10bS,12aR)-6,10b-dihydroxy-2,4b,7,7,10a,12a-hexamethyl-12-methylidene-1,4,5,8-tetraoxo-4a,9,10,11-tetrahydronaphtho[1,2-h]isochromene-2-carboxylate
PI=GNPS
DATACOLLECTOR=GNPS
SMILES=C=C1C[C@@]2([C@@]3(C)CCC(=O)C(C)(C)C3=C(C(=O)[C@@]2(C)[C@@H]2C(=O)O[C@](C)(C(=O)[C@@]12C)C(=O)OC)O)O
INCHI=InChI=1S/C26H32O9/c1-12-11-26(33)22(4)10-9-13(27)21(2,3)15(22)14(28)17(29)24(26,6)16-18(30)35-25(7,20(32)34-8)19(31)23(12,16)5/h16,28,33H,1,9-11H2,2-8H3/t16-,22+,23+,24-,25-,26+/m1/s1
FORMULA=C26H32O9
PUBMED=N/A
SUBMITUSER=BIOADREM
LIBRARYQUALITY=0
SPECTRUMID=CCMSLIB00000079536
SCANS=1748
ID=CCMSLIB00000079536
133.0647908789 	 22.63
137.0960910073 	 46.78
147.0804409431 	 32.78
165.0910056294 	 56.55
175.0753555652 	 31.72
177.0546201231 	 58.06
177.0910056294 	 19.91
187.1117410715 	 23.62
189.0910056294 	 26.5
191.1066556936 	 23.47
203.0702701873 	 23.77
210.1403015457 	 21.88
223.1481265778 	 17.87
225.1273911357 	 19.45
225.163776642 	 25.81
229.1223057578 	 19.23
234.1403015457 	 17.87
237.1273911357 	 46.03
238.1352161678 	 23.16
249.163776642 	 34.44
252.150866232 	 21.42
253.1586912641 	 60.41
263.1430411999 	 24.98
265.1223057578 	 28.16
266.1301307899 	 21.57
267.1743413283 	 25.81
271.1692559504 	 31.72
277.1586912641 	 26.72
279.137955822 	 41.18
280.1457808541 	 21.2
281.1536058862 	 55.03
291.137955822 	 27.18
293.1172203799 	 19.3
295.1692559504 	 43.07
305.1536058862 	 22.33
307.1328704441 	 23.47
309.1485205083 	 18.62
322.1563455404 	 21.88
323.1641705725 	 72.52
333.1485205083 	 18.09
341.1747352588 	 100
350.1512601625 	 32.48
411.1802145672 	 17.87
489.2119086261 	 5.83
END IONS

BEGIN IONS
PEPMASS=259.097
CHARGE=1
MSLEVEL=2
RT=0
SOURCE_INSTRUMENT=qTOF
FILENAME=CCMSLIB00000079537.ms
IONMODE=Positive
ORGANISM=Natural
NAME=MLS000863605-01!3-phenyl-1-(2,4,6-trihydroxyphenyl)propan-1-one
PI=GNPS
DATACOLLECTOR=GNPS
SMILES=c1ccc(cc1)CCC(=O)c1c(cc(cc1O)O)O
INCHI=InChI=1S/C15H14O4/c16-11-8-13(18)15(14(19)9-11)12(17)7-6-10-4-2-1-3-5-10/h1-5,8-9,16,18-19H,6-7H2
FORMULA=C15H14O4
PUBMED=N/A
SUBMITUSER=BIOADREM
LIBRARYQUALITY=0
SPECTRUMID=CCMSLIB00000079537
SCANS=1749
ID=CCMSLIB00000079537
103.0542261926 	 27.53
105.0698762568 	 100
109.0284053726 	 9.98
111.0076699305 	 11.04
116.0620512247 	 6.35
127.0389700589 	 26.63
131.085526321 	 10.29
133.0647908789 	 11.65
139.0389700589 	 30.56
149.0233199947 	 7.87
153.0182346168 	 73.68
155.033884681 	 35.7
164.046795091 	 6.66
195.0651848094 	 8.93
259.0964849378 	 0
END IONS

BEGIN IONS
PEPMASS=357.097
CHARGE=1
MSLEVEL=2
RT=0
SOURCE_INSTRUMENT=qTOF
FILENAME=CCMSLIB00000079538.ms
IONMODE=Positive
ORGANISM=Natural
NAME=MLS000876961-01!methyl 4-hydroxy-3-(4-hydroxyphenyl)-2-[(4-hydroxyphenyl)methyl]-5-oxofuran-2-carboxylate
PI=GNPS
DATACOLLECTOR=GNPS
SMILES=COC(=O)C1(Cc2ccc(cc2)O)C(=C(C(=O)O1)O)c1ccc(cc1)O
INCHI=InChI=1S/C19H16O7/c1-25-18(24)19(10-11-2-6-13(20)7-3-11)15(16(22)17(23)26-19)12-4-8-14(21)9-5-12/h2-9,20-22H,10H2,1H3
FORMULA=C19H16O7
PUBMED=N/A
SUBMITUSER=BIOADREM
LIBRARYQUALITY=0
SPECTRUMID=CCMSLIB00000079538
SCANS=1750
ID=CCMSLIB00000079538
103.0542261926 	 12.87
107.0491408147 	 63.08
119.0491408147 	 6.5
121.0284053726 	 54.06
131.0491408147 	 45.17
147.0440554368 	 13.99
148.0518804689 	 5.24
152.0620512247 	 7.41
157.0284053726 	 5.45
159.0440554368 	 13.5
163.0389700589 	 5.03
165.0698762568 	 6.85
175.0389700589 	 18.39
176.0620512247 	 7.27
177.0698762568 	 14.62
178.0777012889 	 14.83
179.085526321 	 9.72
181.0647908789 	 9.23
191.085526321 	 5.87
205.0647908789 	 8.32
207.0804409431 	 22.8
218.072615911 	 11.61
219.0287993031 	 12.38
219.0804409431 	 6.43
223.0753555652 	 100
225.0910056294 	 6.78
234.0675305331 	 30.7
236.0831805973 	 13.57
251.0702701873 	 21.61
252.0780952194 	 25.31
279.0651848094 	 9.58
357.0968788683 	 0
END IONS

BEGIN IONS
PEPMASS=441.2292
CHARGE=1
MSLEVEL=2
RT=0
SOURCE_INSTRUMENT=qTOF
FILENAME=CCMSLIB00000079539.ms
IONMODE=Positive
ORGANISM=Natural
NAME=MLS001140521-01!1-[(2S)-2-aminopropanoyl]-N-[(2S)-1-(4-fluoroanilino)-1-oxo-3-phenylpropan-2-yl]piperidine-4-carboxamide
PI=GNPS
DATACOLLECTOR=GNPS
SMILES=C[C@@H](C(=O)N1CCC(CC1)C(=N[C@@H](Cc1ccccc1)C(=O)Nc1ccc(cc1)F)O)N
INCHI=InChI=1S/C24H29FN4O3/c1-16(26)24(32)29-13-11-18(12-14-29)22(30)28-21(15-17-5-3-2-4-6-17)23(31)27-20-9-7-19(25)8-10-20/h2-10,16,18,21H,11-15,26H2,1H3,(H,27,31)(H,28,30)/t16-,21-/m0/s1
FORMULA=C24H29FN4O3
PUBMED=N/A
SUBMITUSER=BIOADREM
LIBRARYQUALITY=0
SPECTRUMID=CCMSLIB00000079539
SCANS=1751
ID=CCMSLIB00000079539
103.0542261926 	 1.78
112.0756899162 	 100
120.0807752941 	 20.26
129.0698762568 	 0.84
129.1022390177 	 2.55
131.072950262 	 0.51
138.0913399804 	 1.55
146.0964253583 	 6.47
155.1178890819 	 0.48
182.1287881192 	 0.6
229.1335391461 	 0.6
231.1491892103 	 16.98
257.1648392745 	 0.4
285.1597538966 	 0.72
302.1863029981 	 10.85
330.1812176202 	 2.25
370.1925312302 	 9.39
441.229645018 	 0.79
END IONS

BEGIN IONS
PEPMASS=331.1904
CHARGE=1
MSLEVEL=2
RT=0
SOURCE_INSTRUMENT=qTOF
FILENAME=CCMSLIB00000079540.ms
IONMODE=Positive
ORGANISM=Natural
NAME=MLS001097670-01!
PI=GNPS
DATACOLLECTOR=GNPS
SMILES=CC(C)c1cc2C3CC4C(C)(C)CCC[C@@]4(c2c(c1O)O)C(=O)O3
INCHI=InChI=1S/C20H26O4/c1-10(2)11-8-12-13-9-14-19(3,4)6-5-7-20(14,18(23)24-13)15(12)17(22)16(11)21/h8,10,13-14,21-22H,5-7,9H2,1-4H3/t13?,14?,20-/m1/s1
FORMULA=C20H26O4
PUBMED=N/A
SUBMITUSER=BIOADREM
LIBRARYQUALITY=0
SPECTRUMID=CCMSLIB00000079540
SCANS=1752
ID=CCMSLIB00000079540
115.0542261926 	 4.1
141.0698762568 	 6.25
143.0491408147 	 6
143.085526321 	 5.97
145.0647908789 	 7.82
149.059705501 	 14.44
157.0647908789 	 9.69
157.1011763852 	 3.94
159.0804409431 	 3.73
161.059705501 	 5.86
163.0753555652 	 10.21
165.0910056294 	 6.47
169.0647908789 	 7.81
169.1011763852 	 11.95
171.0804409431 	 4.65
172.0882659752 	 4.86
173.059705501 	 25
174.0675305331 	 4.13
175.0753555652 	 6.05
182.072615911 	 8.41
183.0804409431 	 11.84
185.0960910073 	 9.17
187.0753555652 	 11.73
187.1117410715 	 6.69
189.0910056294 	 3.71
191.1066556936 	 23.83
197.0960910073 	 24.19
200.0831805973 	 31.69
201.0910056294 	 5.61
203.1066556936 	 13.45
209.0960910073 	 4.58
215.1066556936 	 100
217.1223057578 	 6.73
225.1273911357 	 21.23
227.1066556936 	 8.48
229.1223057578 	 15.85
243.137955822 	 15.11
267.1743413283 	 18.74
285.1849060146 	 25.67
331.190385323 	 0.56
END IONS

BEGIN IONS
PEPMASS=454.2323
CHARGE=1
MSLEVEL=2
RT=0
SOURCE_INSTRUMENT=qTOF
FILENAME=CCMSLIB00000079541.ms
IONMODE=Positive
ORGANISM=Natural
NAME=MLS001160369-01!2-[(8,8-dimethyl-2-oxo-4-propyl-9,10-dihydropyrano[2,3-h]chromen-5-yl)oxy]-N-(3-imidazol-1-ylpropyl)acetamide
PI=GNPS
DATACOLLECTOR=GNPS
SMILES=CCCc1cc(=O)oc2c3CCC(C)(C)Oc3cc(c12)OCC(=NCCCn1ccnc1)O
INCHI=InChI=1S/C25H31N3O5/c1-4-6-17-13-22(30)32-24-18-7-8-25(2,3)33-19(18)14-20(23(17)24)31-15-21(29)27-9-5-11-28-12-10-26-16-28/h10,12-14,16H,4-9,11,15H2,1-3H3,(H,27,29)
FORMULA=C25H31N3O5
PUBMED=N/A
SUBMITUSER=BIOADREM
LIBRARYQUALITY=0
SPECTRUMID=CCMSLIB00000079541
SCANS=1753
ID=CCMSLIB00000079541
95.060374203 	 2.45
98.060039852 	 0.98
99.0678648841 	 29.59
135.0790982724 	 0.97
161.059705501 	 1.08
171.0790982724 	 0.85
175.0740128945 	 1
177.0532774524 	 1.23
189.0546201231 	 1.62
189.0896629587 	 2.86
199.0740128945 	 1.4
203.033884681 	 1.18
203.0689275166 	 4.22
205.0859202515 	 1.49
216.1019046667 	 1.45
217.0845775808 	 21.21
227.0689275166 	 2.01
231.0638421387 	 2.85
233.0808348736 	 5.1
244.0968192888 	 3.1
245.0794922029 	 55.9
247.0839088788 	 1.66
255.0638421387 	 1.61
256.0968192888 	 1.29
272.0917339109 	 5.51
273.074406825 	 21.68
284.0917339109 	 0.91
284.1281194172 	 1.02
288.1230340393 	 2.68
301.1420924597 	 17.97
302.1022985972 	 1.15
312.1230340393 	 2.11
313.1182830124 	 1.12
329.1370070818 	 2.17
330.1335987256 	 100
386.1961989824 	 51.46
398.1710468644 	 11.82
454.2336471212 	 8.5
END IONS

BEGIN IONS
PEPMASS=444.1189
CHARGE=1
MSLEVEL=2
RT=0
SOURCE_INSTRUMENT=qTOF
FILENAME=CCMSLIB00000079542.ms
IONMODE=Positive
ORGANISM=Natural
NAME=MLS001141301-01!3-(4-chlorophenyl)-2-[[2-(3,4,7-trimethyl-2-oxochromen-5-yl)oxyacetyl]amino]propanoic acid
PI=GNPS
DATACOLLECTOR=GNPS
SMILES=Cc1cc(c2c(C)c(C)c(=O)oc2c1)OCC(=NC(Cc1ccc(cc1)Cl)C(=O)O)O
INCHI=InChI=1S/C23H22ClNO6/c1-12-8-18(21-13(2)14(3)23(29)31-19(21)9-12)30-11-20(26)25-17(22(27)28)10-15-4-6-16(24)7-5-15/h4-9,17H,10-11H2,1-3H3,(H,25,26)(H,27,28)
FORMULA=C23H22ClNO6
PUBMED=N/A
SUBMITUSER=BIOADREM
LIBRARYQUALITY=0
SPECTRUMID=CCMSLIB00000079542
SCANS=1754
ID=CCMSLIB00000079542
103.0542261926 	 4.24
105.0698762568 	 8.45
115.0542261926 	 2.38
117.0698762568 	 2.15
118.0651252299 	 4.53
119.072950262 	 7.57
121.0647908789 	 7.44
125.0152538705 	 5.47
128.0620512247 	 3.98
129.0698762568 	 2.14
130.0651252299 	 12.36
131.072950262 	 23.19
133.0647908789 	 2.15
133.1011763852 	 9.69
137.0152538705 	 2.59
139.0309039347 	 10.3
143.085526321 	 3.52
144.0574530362 	 5.43
145.0647908789 	 2.06
145.1011763852 	 2.99
146.072615911 	 4.13
147.0804409431 	 3.95
149.059705501 	 2.31
149.0965781967 	 3.16
154.041802972 	 21.43
159.0809281325 	 68.23
161.059705501 	 16.08
161.0960910073 	 22.66
166.041802972 	 51.29
174.0675305331 	 8.9
175.0753555652 	 12.23
176.0831805973 	 57.44
187.0758427546 	 4.98
189.0910056294 	 100
203.0702701873 	 6.26
204.0780952194 	 19.49
205.0864074409 	 46.57
217.0859202515 	 57.52
245.0808348736 	 20.3
398.1153618456 	 2.46
444.120841154 	 2.58
END IONS

BEGIN IONS
PEPMASS=585.291
CHARGE=1
MSLEVEL=2
RT=0
SOURCE_INSTRUMENT=qTOF
FILENAME=CCMSLIB00000079543.ms
IONMODE=Positive
ORGANISM=Natural
NAME=MLS002702983-01!
PI=GNPS
DATACOLLECTOR=GNPS
SMILES=CC1C(C(C(C(O1)OC1CC(C2(CO)C3C(CCC2(C1)O)C1(CCC(C2=CC(=O)OC2)C1(C)CC3O)O)O)O)O)O
INCHI=InChI=1S/C29H44O12/c1-13-22(34)23(35)24(36)25(40-13)41-15-8-19(32)28(12-30)21-17(3-5-27(28,37)9-15)29(38)6-4-16(14-7-20(33)39-11-14)26(29,2)10-18(21)31/h7,13,15-19,21-25,30-32,34-38H,3-6,8-12H2,1-2H3
FORMULA=C29H44O12
PUBMED=N/A
SUBMITUSER=BIOADREM
LIBRARYQUALITY=0
SPECTRUMID=CCMSLIB00000079543
SCANS=1755
ID=CCMSLIB00000079543
109.0647908789 	 10.71
117.0698762568 	 13.03
129.0698762568 	 32.53
131.085526321 	 29.46
133.1011763852 	 10.46
141.0698762568 	 26.14
143.085526321 	 31.7
145.1011763852 	 20.83
155.085526321 	 17.34
157.1011763852 	 100
159.0804409431 	 19
159.1168264494 	 22.9
165.0910056294 	 8.46
169.1011763852 	 16.35
183.1168264494 	 10.54
187.1117410715 	 18.34
205.1011763852 	 10.04
209.1324765136 	 10.79
273.163776642 	 19.34
291.1743413283 	 13.94
301.1586912641 	 16.51
313.1586912641 	 10.54
319.1692559504 	 37.34
331.1692559504 	 24.48
337.1798206367 	 59.92
338.1876456688 	 13.61
339.1954707009 	 13.03
349.1798206367 	 54.36
355.190385323 	 78.67
356.1982103551 	 14.19
367.190385323 	 53.44
373.2009500093 	 18.34
385.2009500093 	 24.9
403.2115146956 	 29.79
585.2905528776 	 0
END IONS

BEGIN IONS
PEPMASS=448.185
CHARGE=1
MSLEVEL=2
RT=0
SOURCE_INSTRUMENT=qTOF
FILENAME=CCMSLIB00000079544.ms
IONMODE=Positive
ORGANISM=Natural
NAME=MLS001075523-01!
PI=GNPS
DATACOLLECTOR=GNPS
SMILES=c1cc(cc(c1)C(F)(F)F)CN=C(CCC(=O)N1C[C@H]2C[C@@H](C1)c1cccc(=O)n1C2)O
INCHI=InChI=1S/C23H24F3N3O3/c24-23(25,26)18-4-1-3-15(10-18)11-27-20(30)7-8-21(31)28-12-16-9-17(14-28)19-5-2-6-22(32)29(19)13-16/h1-6,10,16-17H,7-9,11-14H2,(H,27,30)/t16-,17+/m1/s1
FORMULA=C23H24F3N3O3
PUBMED=N/A
SUBMITUSER=BIOADREM
LIBRARYQUALITY=0
SPECTRUMID=CCMSLIB00000079544
SCANS=1756
ID=CCMSLIB00000079544
134.060039852 	 0.28
146.060039852 	 1.69
148.0756899162 	 8.01
149.0772473431 	 0.73
158.060039852 	 0.47
160.0756899162 	 6.72
162.0913399804 	 0.54
172.0756899162 	 0.24
174.0913399804 	 1.51
175.0928974073 	 0.26
189.1022390177 	 3.3
191.1178890819 	 30.64
215.1178890819 	 0.29
227.1178890819 	 1.53
228.1194465088 	 0.25
245.1284537682 	 82.06
246.1300111951 	 14.78
255.112803704 	 0.6
273.1233683903 	 100
274.1249258172 	 14.06
428.1780240202 	 0.25
448.1842522523 	 0
END IONS

BEGIN IONS
PEPMASS=395.1966
CHARGE=1
MSLEVEL=2
RT=0
SOURCE_INSTRUMENT=qTOF
FILENAME=CCMSLIB00000079545.ms
IONMODE=Positive
ORGANISM=Natural
NAME=MLS000736497-01!10,11-dimethoxy-4a,5,5a,7,8,13a,15,15a,15b,16-decahydro-2H-4,6-methanoindolo[3,2,1-ij]oxepino[2,3,4-de]pyrrolo[2,3-h]quinoline-14-one
PI=GNPS
DATACOLLECTOR=GNPS
SMILES=COc1cc2c(cc1OC)N1C(=O)CC3C4C5CC6C2(CCN6CC5=CCO3)C14
INCHI=InChI=1S/C23H26N2O4/c1-27-16-8-14-15(9-17(16)28-2)25-20(26)10-18-21-13-7-19-23(14,22(21)25)4-5-24(19)11-12(13)3-6-29-18/h3,8-9,13,18-19,21-22H,4-7,10-11H2,1-2H3
FORMULA=C23H26N2O4
PUBMED=N/A
SUBMITUSER=BIOADREM
LIBRARYQUALITY=0
SPECTRUMID=CCMSLIB00000079545
SCANS=1757
ID=CCMSLIB00000079545
106.0651252299 	 4.52
124.0756899162 	 5.49
178.0862546025 	 4.32
185.0835149483 	 4.95
190.0862546025 	 5.49
204.1019046667 	 3.82
213.0784295704 	 42.34
214.0498690962 	 5.22
216.1019046667 	 14.08
228.1019046667 	 6.43
229.0733441925 	 31.29
240.1019046667 	 4.67
243.0889942567 	 4.08
244.0968192888 	 100
251.0940796346 	 11.9
252.0655191604 	 3.69
254.1175547309 	 10.42
256.0968192888 	 8.93
258.112469353 	 3.87
263.0940796346 	 13.86
264.1019046667 	 6.47
267.0889942567 	 19.97
278.1175547309 	 8.07
280.0968192888 	 11.79
282.112469353 	 34.27
296.1281194172 	 4.3
301.1097296988 	 4.23
306.112469353 	 9.76
307.1202943851 	 4.42
322.1437694814 	 15.51
324.1230340393 	 69.81
332.1281194172 	 8.67
338.1386841035 	 4.22
349.1546685187 	 7.32
350.1386841035 	 24.22
366.1699842319 	 4.52
367.165233205 	 63.81
379.165233205 	 8.21
380.1730582371 	 8.86
395.1965333334 	 436.95
END IONS

BEGIN IONS
PEPMASS=444.119
CHARGE=1
MSLEVEL=2
RT=0
SOURCE_INSTRUMENT=qTOF
FILENAME=CCMSLIB00000079546.ms
IONMODE=Positive
ORGANISM=Natural
NAME=MLS001141241-01!3-(4-chlorophenyl)-2-[[2-(4-ethyl-7-methyl-2-oxochromen-5-yl)oxyacetyl]amino]propanoic acid
PI=GNPS
DATACOLLECTOR=GNPS
SMILES=CCc1cc(=O)oc2cc(C)cc(c12)OCC(=NC(Cc1ccc(cc1)Cl)C(=O)O)O
INCHI=InChI=1S/C23H22ClNO6/c1-3-15-11-21(27)31-19-9-13(2)8-18(22(15)19)30-12-20(26)25-17(23(28)29)10-14-4-6-16(24)7-5-14/h4-9,11,17H,3,10,12H2,1-2H3,(H,25,26)(H,28,29)
FORMULA=C23H22ClNO6
PUBMED=N/A
SUBMITUSER=BIOADREM
LIBRARYQUALITY=0
SPECTRUMID=CCMSLIB00000079546
SCANS=1758
ID=CCMSLIB00000079546
103.0542261926 	 7.2
105.0698762568 	 7.62
115.0542261926 	 3.49
118.0651252299 	 5.75
119.072950262 	 4.74
121.0652780683 	 3.56
125.0152538705 	 7.98
128.0620512247 	 6.04
129.0698762568 	 4.24
130.0651252299 	 15.56
131.072950262 	 21.06
133.1011763852 	 5.64
137.0152538705 	 3.84
139.0309039347 	 8.37
143.085526321 	 3.79
144.0569658468 	 4.53
145.0647908789 	 4.73
146.0731031004 	 4.47
147.0445426262 	 3.36
147.0809281325 	 3.74
148.0523676583 	 5.98
149.0960910073 	 4.74
154.041802972 	 29.55
158.0731031004 	 6.92
159.0804409431 	 6.74
161.059705501 	 11.82
161.0960910073 	 11.73
166.041802972 	 50.11
173.0965781967 	 4.13
174.0680177225 	 36.33
175.0758427546 	 7.67
176.0472822804 	 5.8
177.0551073125 	 51.96
184.0523676583 	 3.9
187.0753555652 	 29.3
189.0914928188 	 46.32
201.0551073125 	 7.96
202.0629323446 	 45.29
203.0707573767 	 20.32
205.0859202515 	 48.96
217.0864074409 	 100
245.081322063 	 38.3
398.1153618456 	 4.47
444.120841154 	 7.78
END IONS

BEGIN IONS
PEPMASS=492.225
CHARGE=1
MSLEVEL=2
RT=0
SOURCE_INSTRUMENT=qTOF
FILENAME=CCMSLIB00000079547.ms
IONMODE=Positive
ORGANISM=Natural
NAME=MLS001159167-01!(2S)-3-(1H-indol-3-yl)-2-[[(2S)-3-methyl-2-[(3-oxo-2,4-dihydroquinoxaline-1-carbonyl)amino]pentanoyl]amino]propanoic acid
PI=GNPS
DATACOLLECTOR=GNPS
SMILES=CCC(C)[C@@H](C(=N[C@@H](Cc1c[nH]c2ccccc12)C(=O)O)O)N=C(N1CC(=Nc2ccccc12)O)O
INCHI=InChI=1S/C26H29N5O5/c1-3-15(2)23(30-26(36)31-14-22(32)28-19-10-6-7-11-21(19)31)24(33)29-20(25(34)35)12-16-13-27-18-9-5-4-8-17(16)18/h4-11,13,15,20,23,27H,3,12,14H2,1-2H3,(H,28,32)(H,29,33)(H,30,36)(H,34,35)/t15?,20-,23-/m0/s1
FORMULA=C26H29N5O5
PUBMED=N/A
SUBMITUSER=BIOADREM
LIBRARYQUALITY=0
SPECTRUMID=CCMSLIB00000079547
SCANS=1759
ID=CCMSLIB00000079547
119.060374203 	 11.05
121.0760242672 	 37.66
130.0651252299 	 7.88
142.0651252299 	 1.31
144.0443897878 	 1.61
144.0807752941 	 2.88
146.060039852 	 8.11
147.0552888251 	 100
149.0709388893 	 5.04
158.0838492993 	 2.11
159.0916743314 	 6.64
164.0818379266 	 3.99
170.060039852 	 3.04
175.0502034472 	 51.05
185.0709388893 	 4.27
188.0706045383 	 12.18
189.1022390177 	 1.11
189.138624524 	 1.05
192.0767525487 	 19.33
204.0767525487 	 7.59
205.0845775808 	 1.94
217.1335391461 	 1.56
232.1444381834 	 4.92
237.138624524 	 1.35
243.112803704 	 1.08
254.1651736255 	 1.03
260.1393528055 	 80.46
300.1580768749 	 0.93
492.2241450674 	 0
END IONS

BEGIN IONS
PEPMASS=416.207
CHARGE=1
MSLEVEL=2
RT=0
SOURCE_INSTRUMENT=qTOF
FILENAME=CCMSLIB00000079548.ms
IONMODE=Positive
ORGANISM=Natural
NAME=MLS001140957-01!4-[[[2-(4-butyl-2-oxochromen-7-yl)oxyacetyl]amino]methyl]cyclohexane-1-carboxylic acid
PI=GNPS
DATACOLLECTOR=GNPS
SMILES=CCCCc1cc(=O)oc2cc(ccc12)OCC(=NC[C@H]1CC[C@@H](CC1)C(=O)O)O
INCHI=InChI=1S/C23H29NO6/c1-2-3-4-17-11-22(26)30-20-12-18(9-10-19(17)20)29-14-21(25)24-13-15-5-7-16(8-6-15)23(27)28/h9-12,15-16H,2-8,13-14H2,1H3,(H,24,25)(H,27,28)/t15-,16-
FORMULA=C23H29NO6
PUBMED=N/A
SUBMITUSER=BIOADREM
LIBRARYQUALITY=0
SPECTRUMID=CCMSLIB00000079548
SCANS=1760
ID=CCMSLIB00000079548
105.0698762568 	 0.74
131.0491408147 	 0.97
133.0647908789 	 1.43
145.0284053726 	 1.07
145.1011763852 	 4.91
147.0440554368 	 1.53
148.0518804689 	 2.98
149.059705501 	 1.7
161.059705501 	 3.64
163.0389700589 	 5.35
163.1117410715 	 0.87
173.0960910073 	 2.38
175.0389700589 	 1.25
176.046795091 	 3.54
189.0546201231 	 4.36
191.1066556936 	 1.32
201.0910056294 	 12.96
219.1015703157 	 100
231.1015703157 	 45.85
258.112469353 	 0.92
259.0964849378 	 17.88
276.1230340393 	 80.24
370.2012843603 	 25.72
416.2067636687 	 0
END IONS

BEGIN IONS
PEPMASS=455.1375
CHARGE=1
MSLEVEL=2
RT=0
SOURCE_INSTRUMENT=qTOF
FILENAME=CCMSLIB00000079549.ms
IONMODE=Positive
ORGANISM=Natural
NAME=MLS001158367-01!
PI=GNPS
DATACOLLECTOR=GNPS
SMILES=Cc1c(C)c(=O)oc2cc(c(cc12)Cl)OCC(=O)N1C[C@H]2C[C@@H](C1)c1cccc(=O)n1C2
INCHI=InChI=1S/C24H23ClN2O5/c1-13-14(2)24(30)32-20-8-21(18(25)7-17(13)20)31-12-23(29)26-9-15-6-16(11-26)19-4-3-5-22(28)27(19)10-15/h3-5,7-8,15-16H,6,9-12H2,1-2H3/t15-,16+/m1/s1
FORMULA=C24H23ClN2O5
PUBMED=N/A
SUBMITUSER=BIOADREM
LIBRARYQUALITY=0
SPECTRUMID=CCMSLIB00000079549
SCANS=1761
ID=CCMSLIB00000079549
104.046795091 	 0.54
109.0495347452 	 2.52
110.060039852 	 0.44
118.0651252299 	 0.32
122.060039852 	 2.23
131.0702701873 	 0.34
132.0443897878 	 1.41
133.0522148199 	 2.3
134.060039852 	 4.39
135.0651848094 	 0.78
144.0807752941 	 0.38
145.0522148199 	 0.52
145.0859202515 	 0.32
146.060039852 	 23.77
147.0678648841 	 13.16
148.0756899162 	 6.01
151.0309039347 	 0.65
153.0465539989 	 0.6
158.060039852 	 0.82
159.0651848094 	 1.92
160.0756899162 	 8.82
162.0913399804 	 0.92
163.0964849378 	 0.45
171.0916743314 	 0.36
172.0756899162 	 3.94
173.0835149483 	 17.22
174.0886599057 	 3.85
181.041468621 	 0.45
188.0706045383 	 1.26
189.1022390177 	 100
190.1073839751 	 12.51
191.1178890819 	 9.08
203.1178890819 	 1.36
209.0363832431 	 1.45
217.0971536398 	 0.78
231.112803704 	 2.06
232.1206287361 	 3.91
237.0312978652 	 2.42
264.1104579803 	 0.65
290.0578469667 	 0.5
455.1368255692 	 57.29
END IONS

BEGIN IONS
PEPMASS=439.235
CHARGE=1
MSLEVEL=2
RT=0
SOURCE_INSTRUMENT=qTOF
FILENAME=CCMSLIB00000079550.ms
IONMODE=Positive
ORGANISM=Natural
NAME=MLS001141185-01!
PI=GNPS
DATACOLLECTOR=GNPS
SMILES=CC(C)[C@@H](C(=O)Nc1ccc(cc1)OC)N=C(N1C[C@H]2C[C@@H](C1)c1cccc(=O)n1C2)O
INCHI=InChI=1S/C24H30N4O4/c1-15(2)22(23(30)25-18-7-9-19(32-3)10-8-18)26-24(31)27-12-16-11-17(14-27)20-5-4-6-21(29)28(20)13-16/h4-10,15-17,22H,11-14H2,1-3H3,(H,25,30)(H,26,31)/t16-,17+,22+/m1/s1
FORMULA=C24H30N4O4
PUBMED=N/A
SUBMITUSER=BIOADREM
LIBRARYQUALITY=0
SPECTRUMID=CCMSLIB00000079550
SCANS=1762
ID=CCMSLIB00000079550
108.0443897878 	 0.22
117.0573001978 	 0.31
122.060039852 	 1.06
123.0651848094 	 0.31
132.0443897878 	 0.68
133.0522148199 	 1.12
134.060039852 	 0.89
145.0522148199 	 0.32
146.060039852 	 8.81
148.0756899162 	 5.63
149.0808348736 	 0.38
154.0651252299 	 0.25
158.060039852 	 3.21
159.0651848094 	 1.02
160.0756899162 	 17.85
161.0808348736 	 2.25
172.0756899162 	 3.75
174.0913399804 	 8.38
175.0964849378 	 0.98
188.0706045383 	 1.09
189.1022390177 	 24.32
191.1178890819 	 10.43
192.1230340393 	 1.23
217.0971536398 	 100
235.1077183261 	 13.55
270.1600882476 	 0.39
288.1706529339 	 84.33
316.165567556 	 0.4
439.2339814722 	 0
END IONS

BEGIN IONS
PEPMASS=422.16
CHARGE=1
MSLEVEL=2
RT=0
SOURCE_INSTRUMENT=qTOF
FILENAME=CCMSLIB00000079551.ms
IONMODE=Positive
ORGANISM=Natural
NAME=MLS001141252-01!(2S)-2-[2-[(6-oxo-7,8,9,10-tetrahydrobenzo[c]chromen-3-yl)oxy]propanoylamino]-2-phenylacetic acid
PI=GNPS
DATACOLLECTOR=GNPS
SMILES=CC(C(=N[C@@H](c1ccccc1)C(=O)O)O)Oc1ccc2c3CCCCc3c(=O)oc2c1
INCHI=InChI=1S/C24H23NO6/c1-14(22(26)25-21(23(27)28)15-7-3-2-4-8-15)30-16-11-12-18-17-9-5-6-10-19(17)24(29)31-20(18)13-16/h2-4,7-8,11-14,21H,5-6,9-10H2,1H3,(H,25,26)(H,27,28)/t14?,21-/m0/s1
FORMULA=C24H23NO6
PUBMED=N/A
SUBMITUSER=BIOADREM
LIBRARYQUALITY=0
SPECTRUMID=CCMSLIB00000079551
SCANS=1763
ID=CCMSLIB00000079551
105.0698762568 	 2.32
106.0651252299 	 5.81
107.0491408147 	 2.48
128.0620512247 	 2.33
132.0807752941 	 4.55
133.0647908789 	 2.02
135.0440554368 	 7.12
143.085526321 	 5.17
145.0647908789 	 1.23
147.0804409431 	 2.41
153.0698762568 	 1.57
159.1168264494 	 1.33
160.0756899162 	 1.44
171.0804409431 	 5.42
172.0882659752 	 1.74
173.059705501 	 1.62
174.0913399804 	 11.49
187.1117410715 	 2.76
201.0546201231 	 2.09
217.0859202515 	 24.09
243.1015703157 	 41.08
284.1406954762 	 100
312.1356100983 	 28.36
339.1465091356 	 1.27
422.1598134761 	 0
END IONS

BEGIN IONS
PEPMASS=425.219
CHARGE=1
MSLEVEL=2
RT=0
SOURCE_INSTRUMENT=qTOF
FILENAME=CCMSLIB00000079552.ms
IONMODE=Positive
ORGANISM=Natural
NAME=MLS001142429-01!
PI=GNPS
DATACOLLECTOR=GNPS
SMILES=C[C@@H](C(=NC1CCCC1)O)N1C(=O)[C@]2(C)c3c(CCN2C1=O)c1cc(ccc1[nH]3)OC
INCHI=InChI=1S/C23H28N4O4/c1-13(20(28)24-14-6-4-5-7-14)27-21(29)23(2)19-16(10-11-26(23)22(27)30)17-12-15(31-3)8-9-18(17)25-19/h8-9,12-14,25H,4-7,10-11H2,1-3H3,(H,24,28)/t13-,23-/m0/s1
FORMULA=C23H28N4O4
PUBMED=N/A
SUBMITUSER=BIOADREM
LIBRARYQUALITY=0
SPECTRUMID=CCMSLIB00000079552
SCANS=1764
ID=CCMSLIB00000079552
105.0698762568 	 0.63
106.0651252299 	 2.39
107.0491408147 	 1.05
128.0620512247 	 0.85
131.0491408147 	 0.63
132.0807752941 	 1.23
135.0440554368 	 1.68
143.085526321 	 1.4
145.0647908789 	 0.85
147.0804409431 	 0.7
159.0678648841 	 2.34
160.0756899162 	 0.65
171.0804409431 	 1.58
173.059705501 	 0.76
174.0913399804 	 14.47
185.0835149483 	 0.71
187.1117410715 	 1.3
198.0913399804 	 4.28
201.0546201231 	 0.74
210.0787639214 	 0.54
213.0784295704 	 1.78
213.1022390177 	 4.1
215.1178890819 	 19.05
217.0859202515 	 7.48
225.1022390177 	 0.54
241.0971536398 	 18.06
243.1015703157 	 10.55
268.1444381834 	 0.95
269.0920682619 	 2.95
284.1393528055 	 100
312.1342674276 	 25.27
339.1451664649 	 1.34
425.218331408 	 0
END IONS

BEGIN IONS
PEPMASS=176.071
CHARGE=1
MSLEVEL=2
RT=0
SOURCE_INSTRUMENT=qTOF
FILENAME=CCMSLIB00000079553.ms
IONMODE=Positive
ORGANISM=Natural
NAME=MLS001066408-01!
PI=GNPS
DATACOLLECTOR=GNPS
SMILES=c1ccc2c(c1)c(CC(=O)O)c[nH]2
INCHI=InChI=1S/C10H9NO2/c12-10(13)5-7-6-11-9-4-2-1-3-8(7)9/h1-4,6,11H,5H2,(H,12,13)
FORMULA=C10H9NO2
PUBMED=N/A
SUBMITUSER=BIOADREM
LIBRARYQUALITY=0
SPECTRUMID=CCMSLIB00000079553
SCANS=1765
ID=CCMSLIB00000079553
102.0464011605 	 8.28
103.0542261926 	 44.53
117.0573001978 	 6.56
130.0651252299 	 100
176.0706045383 	 0
END IONS

BEGIN IONS
PEPMASS=451.1864
CHARGE=1
MSLEVEL=2
RT=0
SOURCE_INSTRUMENT=qTOF
FILENAME=CCMSLIB00000079554.ms
IONMODE=Positive
ORGANISM=Natural
NAME=MLS001158177-01!
PI=GNPS
DATACOLLECTOR=GNPS
SMILES=Cc1c2ccc(c(c2oc(=O)c1CC(=O)N1C[C@H]2C[C@@H](C1)c1cccc(=O)n1C2)OC)OC
INCHI=InChI=1S/C25H26N2O6/c1-14-17-7-8-20(31-2)24(32-3)23(17)33-25(30)18(14)10-22(29)26-11-15-9-16(13-26)19-5-4-6-21(28)27(19)12-15/h4-8,15-16H,9-13H2,1-3H3/t15-,16+/m1/s1
FORMULA=C25H26N2O6
PUBMED=N/A
SUBMITUSER=BIOADREM
LIBRARYQUALITY=0
SPECTRUMID=CCMSLIB00000079554
SCANS=1766
ID=CCMSLIB00000079554
103.0542261926 	 0.23
121.0647908789 	 0.25
131.0491408147 	 0.28
144.0569658468 	 0.38
145.0647908789 	 0.37
146.072615911 	 0.32
147.0440554368 	 0.68
159.0440554368 	 0.56
160.0842432298 	 0.21
161.059705501 	 1.39
162.0675305331 	 0.81
165.0546201231 	 0.76
173.059705501 	 0.3
174.0675305331 	 0.91
175.0389700589 	 1.85
177.0546201231 	 0.2
177.0910056294 	 0.38
189.0546201231 	 2.07
190.0624451552 	 3.27
205.0859202515 	 3.14
206.0897225382 	 0.4
233.0808348736 	 100
234.0846371603 	 15.62
261.0757494957 	 3.66
451.1863625776 	 1.23
END IONS

BEGIN IONS
PEPMASS=247.0583
CHARGE=1
MSLEVEL=2
RT=0
SOURCE_INSTRUMENT=qTOF
FILENAME=CCMSLIB00000079555.ms
IONMODE=Positive
ORGANISM=Natural
NAME=MLS000876836-01!4,9-dimethoxyfuro[3,2-g]chromen-7-one
PI=GNPS
DATACOLLECTOR=GNPS
SMILES=COc1c2ccc(=O)oc2c(c2c1cco2)OC
INCHI=InChI=1S/C13H10O5/c1-15-10-7-3-4-9(14)18-12(7)13(16-2)11-8(10)5-6-17-11/h3-6H,1-2H3
FORMULA=C13H10O5
PUBMED=N/A
SUBMITUSER=BIOADREM
LIBRARYQUALITY=0
SPECTRUMID=CCMSLIB00000079555
SCANS=1767
ID=CCMSLIB00000079555
105.0334907505 	 6.08
133.0284053726 	 4.31
145.0284053726 	 2.57
161.0233199947 	 17.03
163.0025845526 	 9.92
171.0076699305 	 4.62
173.0233199947 	 1.94
189.0182346168 	 16.71
191.033884681 	 2.09
217.0131492389 	 100
232.0366243352 	 12.33
247.0600994315 	 1.86
END IONS

BEGIN IONS
PEPMASS=421.1763
CHARGE=1
MSLEVEL=2
RT=0
SOURCE_INSTRUMENT=qTOF
FILENAME=CCMSLIB00000079556.ms
IONMODE=Positive
ORGANISM=Natural
NAME=MLS001158172-01!
PI=GNPS
DATACOLLECTOR=GNPS
SMILES=Cc1cc(=O)oc2c(C)c(ccc12)OCC(=O)N1C[C@H]2C[C@@H](C1)c1cccc(=O)n1C2
INCHI=InChI=1S/C24H24N2O5/c1-14-8-23(29)31-24-15(2)20(7-6-18(14)24)30-13-22(28)25-10-16-9-17(12-25)19-4-3-5-21(27)26(19)11-16/h3-8,16-17H,9-13H2,1-2H3/t16-,17+/m1/s1
FORMULA=C24H24N2O5
PUBMED=N/A
SUBMITUSER=BIOADREM
LIBRARYQUALITY=0
SPECTRUMID=CCMSLIB00000079556
SCANS=1768
ID=CCMSLIB00000079556
104.0494751657 	 0.58
105.0573001978 	 0.44
111.0678648841 	 0.41
115.0542261926 	 0.64
118.0651252299 	 0.68
122.060039852 	 1.12
130.0651252299 	 0.44
132.0443897878 	 1.32
132.0807752941 	 0.75
133.0522148199 	 2.32
134.060039852 	 5.85
142.0651252299 	 0.46
143.072950262 	 0.56
145.0647908789 	 5.4
146.060039852 	 26.05
147.0678648841 	 14.22
148.0756899162 	 4.3
158.060039852 	 0.94
159.0678648841 	 2.5
160.0756899162 	 8.17
162.0913399804 	 1.17
172.0756899162 	 3
173.0835149483 	 12.88
175.0502034472 	 0.9
175.0753555652 	 1.62
188.0706045383 	 1.54
189.1022390177 	 100
203.0702701873 	 11.8
217.0971536398 	 1.28
231.0651848094 	 2.75
232.1206287361 	 4.59
264.1104579803 	 1.13
403.165233205 	 0.6
421.1757978913 	 43.28
END IONS

BEGIN IONS
PEPMASS=430.223
CHARGE=1
MSLEVEL=2
RT=0
SOURCE_INSTRUMENT=qTOF
FILENAME=CCMSLIB00000079557.ms
IONMODE=Positive
ORGANISM=Natural
NAME=MLS001140967-01!4-[[[2-(4-butyl-8-methyl-2-oxochromen-7-yl)oxyacetyl]amino]methyl]cyclohexane-1-carboxylic acid
PI=GNPS
DATACOLLECTOR=GNPS
SMILES=CCCCc1cc(=O)oc2c(C)c(ccc12)OCC(=NC[C@H]1CC[C@@H](CC1)C(=O)O)O
INCHI=InChI=1S/C24H31NO6/c1-3-4-5-18-12-22(27)31-23-15(2)20(11-10-19(18)23)30-14-21(26)25-13-16-6-8-17(9-7-16)24(28)29/h10-12,16-17H,3-9,13-14H2,1-2H3,(H,25,26)(H,28,29)/t16-,17-
FORMULA=C24H31NO6
PUBMED=N/A
SUBMITUSER=BIOADREM
LIBRARYQUALITY=0
SPECTRUMID=CCMSLIB00000079557
SCANS=1769
ID=CCMSLIB00000079557
95.085526321 	 8.18
105.0698762568 	 1.5
110.060039852 	 1.52
112.1120754225 	 2.26
115.0542261926 	 1.04
121.0647908789 	 1.97
123.0440554368 	 2.59
131.085526321 	 0.98
133.0647908789 	 1.72
137.059705501 	 1.17
140.1069900446 	 0.93
145.0647908789 	 3.13
145.1011763852 	 1.32
147.0804409431 	 1.55
149.059705501 	 1.33
159.0804409431 	 1.3
159.1168264494 	 1.85
162.0675305331 	 4.27
163.0753555652 	 2.76
175.0753555652 	 2.1
187.1117410715 	 4.77
189.1273911357 	 2.18
190.0624451552 	 6.79
191.0702701873 	 2.51
191.1066556936 	 1.2
199.1117410715 	 1.01
217.1223057578 	 13.91
233.1172203799 	 100
245.1172203799 	 51.63
273.112135002 	 12.71
290.1386841035 	 33.15
384.2169344245 	 12.85
430.2224137329 	 0
END IONS

BEGIN IONS
PEPMASS=470.1381
CHARGE=1
MSLEVEL=2
RT=0
SOURCE_INSTRUMENT=qTOF
FILENAME=CCMSLIB00000079558.ms
IONMODE=Positive
ORGANISM=Natural
NAME=MLS001141247-01!3-(4-chlorophenyl)-2-[[2-[(4-methyl-6-oxo-7,8,9,10-tetrahydrobenzo[c]chromen-3-yl)oxy]acetyl]amino]propanoic acid
PI=GNPS
DATACOLLECTOR=GNPS
SMILES=Cc1c(ccc2c3CCCCc3c(=O)oc12)OCC(=NC(Cc1ccc(cc1)Cl)C(=O)O)O
INCHI=InChI=1S/C25H24ClNO6/c1-14-21(11-10-18-17-4-2-3-5-19(17)25(31)33-23(14)18)32-13-22(28)27-20(24(29)30)12-15-6-8-16(26)9-7-15/h6-11,20H,2-5,12-13H2,1H3,(H,27,28)(H,29,30)
FORMULA=C25H24ClNO6
PUBMED=N/A
SUBMITUSER=BIOADREM
LIBRARYQUALITY=0
SPECTRUMID=CCMSLIB00000079558
SCANS=1770
ID=CCMSLIB00000079558
103.0542261926 	 4.28
115.0542261926 	 1.97
117.0698762568 	 4.81
118.0651252299 	 2.03
119.0491408147 	 6.77
119.072950262 	 3.5
123.0445426262 	 2.42
125.0152538705 	 5.82
129.0698762568 	 6.3
130.0651252299 	 16.26
131.072950262 	 20.27
139.0309039347 	 14.19
142.0777012889 	 7.66
145.0647908789 	 2.25
149.0601926904 	 66.06
151.0309039347 	 4.93
154.041802972 	 14.65
157.1011763852 	 6.82
159.0809281325 	 3
166.041802972 	 66
172.0887531646 	 3
174.0680177225 	 3.77
175.1117410715 	 2.74
184.0523676583 	 3.13
185.0965781967 	 34.57
187.0758427546 	 2.73
187.1122282609 	 5.82
201.0914928188 	 3.55
202.0629323446 	 2.26
202.0993178509 	 2.97
203.107142883 	 5.61
213.0914928188 	 2.57
215.107142883 	 100
229.0864074409 	 9.61
230.094232473 	 32.33
231.1020575051 	 64.8
243.1020575051 	 83.59
271.0969721272 	 3.01
289.1075368135 	 2.44
424.1310119098 	 3.06
470.1364912182 	 2.4
END IONS

BEGIN IONS
PEPMASS=339.1706
CHARGE=1
MSLEVEL=2
RT=0
SOURCE_INSTRUMENT=qTOF
FILENAME=CCMSLIB00000079559.ms
IONMODE=Positive
ORGANISM=Natural
NAME=MLS001075527-01!
PI=GNPS
DATACOLLECTOR=GNPS
SMILES=c1cc2[C@H]3C[C@H](CN(C3)C(=O)CCc3ccc(cc3)O)Cn2c(=O)c1
INCHI=InChI=1S/C20H22N2O3/c23-17-7-4-14(5-8-17)6-9-19(24)21-11-15-10-16(13-21)18-2-1-3-20(25)22(18)12-15/h1-5,7-8,15-16,23H,6,9-13H2/t15-,16+/m1/s1
FORMULA=C20H22N2O3
PUBMED=N/A
SUBMITUSER=BIOADREM
LIBRARYQUALITY=0
SPECTRUMID=CCMSLIB00000079559
SCANS=1771
ID=CCMSLIB00000079559
103.0542261926 	 1.59
105.0698762568 	 1.32
107.0491408147 	 51.63
121.0647908789 	 4.33
133.0522148199 	 2.04
134.060039852 	 1.75
146.060039852 	 1.92
148.0756899162 	 88.2
160.0756899162 	 5.42
162.0913399804 	 3.56
174.0913399804 	 2.07
191.1178890819 	 100
233.1284537682 	 0.79
339.1703185829 	 30.87
END IONS

BEGIN IONS
PEPMASS=402.074
CHARGE=1
MSLEVEL=2
RT=0
SOURCE_INSTRUMENT=qTOF
FILENAME=CCMSLIB00000079560.ms
IONMODE=Positive
ORGANISM=Natural
NAME=MLS001141360-01!3-(4-chlorophenyl)-2-[[2-(2-oxochromen-7-yl)oxyacetyl]amino]propanoic acid
PI=GNPS
DATACOLLECTOR=GNPS
SMILES=c1cc(ccc1CC(C(=O)O)N=C(COc1ccc2ccc(=O)oc2c1)O)Cl
INCHI=InChI=1S/C20H16ClNO6/c21-14-5-1-12(2-6-14)9-16(20(25)26)22-18(23)11-27-15-7-3-13-4-8-19(24)28-17(13)10-15/h1-8,10,16H,9,11H2,(H,22,23)(H,25,26)
FORMULA=C20H16ClNO6
PUBMED=N/A
SUBMITUSER=BIOADREM
LIBRARYQUALITY=0
SPECTRUMID=CCMSLIB00000079560
SCANS=1772
ID=CCMSLIB00000079560
103.0542261926 	 20.48
115.0542261926 	 2.73
116.0620512247 	 2.83
117.0334907505 	 17.97
118.0651252299 	 6.92
119.0491408147 	 12.4
119.072950262 	 11.25
121.0284053726 	 1.81
125.0152538705 	 9.16
130.0651252299 	 42.86
131.072950262 	 37.97
137.0152538705 	 5.34
139.0309039347 	 28.06
145.0284053726 	 41.1
147.0440554368 	 29.14
151.0309039347 	 9.69
154.041802972 	 46.81
165.0101684926 	 3.43
166.041802972 	 100
175.0389700589 	 74.08
184.0523676583 	 1.7
299.0469479294 	 2.69
402.0738909614 	 0
END IONS

BEGIN IONS
PEPMASS=414.149
CHARGE=1
MSLEVEL=2
RT=0
SOURCE_INSTRUMENT=qTOF
FILENAME=CCMSLIB00000079561.ms
IONMODE=Positive
ORGANISM=Natural
NAME=MLS001076855-01!
PI=GNPS
DATACOLLECTOR=GNPS
SMILES=COc1cccc(c1C(=NC(=S)N1C[C@H]2C[C@H](C1)c1cccc(=O)n1C2)O)OC
INCHI=InChI=1S/C21H23N3O4S/c1-27-16-6-4-7-17(28-2)19(16)20(26)22-21(29)23-10-13-9-14(12-23)15-5-3-8-18(25)24(15)11-13/h3-8,13-14H,9-12H2,1-2H3,(H,22,26,29)/t13-,14-/m1/s1
FORMULA=C21H23N3O4S
PUBMED=N/A
SUBMITUSER=BIOADREM
LIBRARYQUALITY=0
SPECTRUMID=CCMSLIB00000079561
SCANS=1773
ID=CCMSLIB00000079561
107.0127553084 	 4.24
109.0647908789 	 0.35
122.0362304047 	 3.45
137.059705501 	 0.22
150.0311450268 	 17.97
165.0546201231 	 100
414.1482029323 	 0
END IONS

BEGIN IONS
PEPMASS=499.1953
CHARGE=1
MSLEVEL=2
RT=0
SOURCE_INSTRUMENT=qTOF
FILENAME=CCMSLIB00000079563.ms
IONMODE=Positive
ORGANISM=Natural
NAME=MLS001142421-01!
PI=GNPS
DATACOLLECTOR=GNPS
SMILES=C[C@@H](C(=NCc1ccc(cc1)OC)O)N1C(=O)[C@]2(C)c3c(CCN2C1=O)c1cc(ccc1[nH]3)OC
INCHI=InChI=1S/C26H28N4O5/c1-15(23(31)27-14-16-5-7-17(34-3)8-6-16)30-24(32)26(2)22-19(11-12-29(26)25(30)33)20-13-18(35-4)9-10-21(20)28-22/h5-10,13,15,28H,11-12,14H2,1-4H3,(H,27,31)/t15-,26-/m0/s1
FORMULA=C26H28N4O5
PUBMED=N/A
SUBMITUSER=BIOADREM
LIBRARYQUALITY=0
SPECTRUMID=CCMSLIB00000079563
SCANS=1774
ID=CCMSLIB00000079563
100.0882659752 	 12.33
130.0651252299 	 8.75
146.1287881192 	 11.33
235.1103984008 	 34.59
236.1115206128 	 10.54
259.0713328198 	 9.54
270.087317235 	 8.35
271.0865889535 	 7.16
276.0641764897 	 8.35
277.0886003262 	 9.34
290.047463793 	 6.96
292.0968192888 	 6.96
302.0798265539 	 8.15
303.0916743314 	 7.95
320.1029672992 	 10.54
320.1281194172 	 7.16
361.0971536398 	 7.75
409.1506457733 	 8.75
422.1499174918 	 7.16
422.1961989824 	 7.55
448.1741208696 	 7.36
462.1897709338 	 47.91
477.2132460301 	 463.42
END IONS

BEGIN IONS
PEPMASS=283.0973
CHARGE=1
MSLEVEL=2
RT=0
SOURCE_INSTRUMENT=qTOF
FILENAME=CCMSLIB00000079564.ms
IONMODE=Positive
ORGANISM=Natural
NAME=MLS001049018-01!5,7-dimethoxy-4-phenylchromen-2-one
PI=GNPS
DATACOLLECTOR=GNPS
SMILES=COc1cc(c2c(cc(=O)oc2c1)c1ccccc1)OC
INCHI=InChI=1S/C17H14O4/c1-19-12-8-14(20-2)17-13(11-6-4-3-5-7-11)10-16(18)21-15(17)9-12/h3-10H,1-2H3
FORMULA=C17H14O4
PUBMED=N/A
SUBMITUSER=BIOADREM
LIBRARYQUALITY=0
SPECTRUMID=CCMSLIB00000079564
SCANS=1775
ID=CCMSLIB00000079564
141.0698762568 	 4.99
152.0620512247 	 4.41
153.0698762568 	 3.68
163.0542261926 	 1.79
165.0698762568 	 9.64
166.0777012889 	 2.24
168.0569658468 	 3.05
169.0647908789 	 3.21
170.072615911 	 0.74
176.0620512247 	 1.48
177.0698762568 	 1.3
178.0777012889 	 2.73
180.0569658468 	 4.15
191.0491408147 	 0.77
193.0647908789 	 0.93
194.072615911 	 1.21
195.0804409431 	 4.73
196.0518804689 	 2.87
196.0882659752 	 2.64
197.059705501 	 2.68
208.0518804689 	 5.06
209.059705501 	 3.18
211.0753555652 	 8.95
223.0753555652 	 5.83
224.046795091 	 4.84
224.0831805973 	 6.11
225.0546201231 	 23.07
239.0702701873 	 10.62
239.1066556936 	 2.75
251.0702701873 	 4.36
252.0417097131 	 9.95
267.0651848094 	 100
283.0964849378 	 45.08
END IONS

BEGIN IONS
PEPMASS=479.2703
CHARGE=1
MSLEVEL=2
RT=0
SOURCE_INSTRUMENT=qTOF
FILENAME=CCMSLIB00000079565.ms
IONMODE=Positive
ORGANISM=Natural
NAME=MLS001142928-01!1-[(2S)-2-amino-4-methylsulfanylbutanoyl]-N-[(2S)-1-[(4-methoxyphenyl)methylamino]-3-methyl-1-oxobutan-2-yl]piperidine-4-carboxamide
PI=GNPS
DATACOLLECTOR=GNPS
SMILES=CC(C)[C@@H](C(=NCc1ccc(cc1)OC)O)N=C(C1CCN(CC1)C(=O)[C@H](CCSC)N)O
INCHI=InChI=1S/C24H38N4O4S/c1-16(2)21(23(30)26-15-17-5-7-19(32-3)8-6-17)27-22(29)18-9-12-28(13-10-18)24(31)20(25)11-14-33-4/h5-8,16,18,20-21H,9-15,25H2,1-4H3,(H,26,30)(H,27,29)/t20-,21-/m0/s1
FORMULA=C24H38N4O4S
PUBMED=N/A
SUBMITUSER=BIOADREM
LIBRARYQUALITY=0
SPECTRUMID=CCMSLIB00000079565
SCANS=1776
ID=CCMSLIB00000079565
103.0542261926 	 0.44
104.0528459841 	 7.15
112.0756899162 	 57.61
114.0787639214 	 0.48
121.0647908789 	 100
129.1022390177 	 0.48
130.0862546025 	 0.51
135.0804409431 	 0.48
138.0913399804 	 0.6
139.0865889535 	 0.82
158.0997961767 	 1.58
166.0862546025 	 0.74
167.0815035756 	 0.61
167.1178890819 	 1.26
181.1335391461 	 1.38
183.1491892103 	 19.65
211.1441038324 	 19.99
212.1467463693 	 1.38
226.1550028697 	 0.76
235.1441038324 	 0.66
237.1597538966 	 5.04
240.1706529339 	 0.96
266.1863029981 	 9.25
267.188945535 	 1.62
294.1812176202 	 0.65
295.1838601571 	 0.65
297.163124715 	 0.84
312.2104092586 	 0.46
314.1896738165 	 5.08
342.1845884386 	 2.97
348.2281678128 	 12.5
431.2652816006 	 4.58
462.2421033175 	 0.48
479.268652419 	 1.3
END IONS

BEGIN IONS
PEPMASS=273.0747
CHARGE=1
MSLEVEL=2
RT=0
SOURCE_INSTRUMENT=qTOF
FILENAME=CCMSLIB00000079566.ms
IONMODE=Positive
ORGANISM=Natural
NAME=MLS000863595-01!(E)-3-(4-hydroxyphenyl)-1-(2,4,6-trihydroxyphenyl)prop-2-en-1-one
PI=GNPS
DATACOLLECTOR=GNPS
SMILES=c1cc(ccc1/C=C/C(=O)c1c(cc(cc1O)O)O)O
INCHI=InChI=1S/C15H12O5/c16-10-4-1-9(2-5-10)3-6-12(18)15-13(19)7-11(17)8-14(15)20/h1-8,16-17,19-20H/b6-3+
FORMULA=C15H12O5
PUBMED=N/A
SUBMITUSER=BIOADREM
LIBRARYQUALITY=0
SPECTRUMID=CCMSLIB00000079566
SCANS=1777
ID=CCMSLIB00000079566
97.0284053726 	 5.11
119.0491408147 	 13.68
125.0233199947 	 2.07
147.0440554368 	 22.25
153.0182346168 	 100
273.0757494957 	 4.67
END IONS

BEGIN IONS
PEPMASS=286.1429
CHARGE=1
MSLEVEL=2
RT=0
SOURCE_INSTRUMENT=qTOF
FILENAME=CCMSLIB00000079567.ms
IONMODE=Positive
ORGANISM=Natural
NAME=MLS002153830-01!
PI=GNPS
DATACOLLECTOR=GNPS
SMILES=C1CCN(CC1)C(=O)/C=C/C=C/c1ccc2c(c1)OCO2
INCHI=InChI=1S/C17H19NO3/c19-17(18-10-4-1-5-11-18)7-3-2-6-14-8-9-15-16(12-14)21-13-20-15/h2-3,6-9,12H,1,4-5,10-11,13H2/b6-2+,7-3+
FORMULA=C17H19NO3
PUBMED=N/A
SUBMITUSER=BIOADREM
LIBRARYQUALITY=0
SPECTRUMID=CCMSLIB00000079567
SCANS=1778
ID=CCMSLIB00000079567
103.0542261926 	 1.49
105.0334907505 	 2.39
115.0416501336 	 38.16
115.0542261926 	 100
117.0698762568 	 3.04
122.0964253583 	 1.7
127.0542261926 	 2.24
128.0620512247 	 0.85
131.0365647557 	 0.74
131.0491408147 	 0.82
135.0314793778 	 46.48
135.0440554368 	 46.6
143.0365647557 	 51.36
143.0491408147 	 52.67
145.0647908789 	 1.78
150.0913399804 	 2.22
159.0314793778 	 12.98
159.0440554368 	 13.08
171.0440554368 	 33.65
173.059705501 	 12.65
187.0753555652 	 0.54
201.0546201231 	 99.92
258.1488548593 	 0.87
286.1437694814 	 3.57
END IONS

BEGIN IONS
PEPMASS=469.1519
CHARGE=1
MSLEVEL=2
RT=0
SOURCE_INSTRUMENT=qTOF
FILENAME=CCMSLIB00000079568.ms
IONMODE=Positive
ORGANISM=Natural
NAME=MLS001162659-01!
PI=GNPS
DATACOLLECTOR=GNPS
SMILES=CCCc1cc(=O)oc2cc(c(cc12)Cl)OCC(=O)N1C[C@H]2C[C@@H](C1)c1cccc(=O)n1C2
INCHI=InChI=1S/C25H25ClN2O5/c1-2-4-16-8-25(31)33-21-10-22(19(26)9-18(16)21)32-14-24(30)27-11-15-7-17(13-27)20-5-3-6-23(29)28(20)12-15/h3,5-6,8-10,15,17H,2,4,7,11-14H2,1H3/t15-,17+/m1/s1
FORMULA=C25H25ClN2O5
PUBMED=N/A
SUBMITUSER=BIOADREM
LIBRARYQUALITY=0
SPECTRUMID=CCMSLIB00000079568
SCANS=1779
ID=CCMSLIB00000079568
95.072950262 	 0.55
108.0443897878 	 0.49
109.0522148199 	 3.4
122.060039852 	 3.24
123.0678648841 	 1.47
131.085526321 	 0.86
132.0443897878 	 2.08
132.0807752941 	 0.76
133.0522148199 	 2.23
134.060039852 	 5.18
135.0651848094 	 1.06
144.0780952194 	 0.75
145.0522148199 	 0.84
146.060039852 	 24.31
147.0678648841 	 16.28
148.0756899162 	 6
158.0573597773 	 0.93
160.0756899162 	 6.17
161.0808348736 	 1.56
162.0886599057 	 0.9
172.0756899162 	 4.09
173.0835149483 	 14.56
174.0886599057 	 3.2
175.0502034472 	 1.26
187.0964849378 	 0.45
188.0706045383 	 1.3
189.1022390177 	 100
190.1073839751 	 14.24
191.0815035756 	 1.83
191.1178890819 	 8.24
203.1178890819 	 1.16
214.1100640498 	 0.52
217.0971536398 	 1.41
218.1022985972 	 0.58
231.112803704 	 3.08
232.1206287361 	 3.07
469.1524756334 	 44.83
END IONS

BEGIN IONS
PEPMASS=528.298
CHARGE=1
MSLEVEL=2
RT=0
SOURCE_INSTRUMENT=qTOF
FILENAME=CCMSLIB00000079569.ms
IONMODE=Positive
ORGANISM=Natural
NAME=MLS001140956-01!
PI=GNPS
DATACOLLECTOR=GNPS
SMILES=CC(C)[C@@H](C(=NC1CCN(CC1)Cc1ccccc1)O)N1C(=O)[C@]2(C)c3c(CCN2C1=O)c1ccccc1[nH]3
INCHI=InChI=1S/C31H37N5O3/c1-20(2)26(28(37)32-22-13-16-34(17-14-22)19-21-9-5-4-6-10-21)36-29(38)31(3)27-24(15-18-35(31)30(36)39)23-11-7-8-12-25(23)33-27/h4-12,20,22,26,33H,13-19H2,1-3H3,(H,32,37)/t26-,31-/m0/s1
FORMULA=C31H37N5O3
PUBMED=N/A
SUBMITUSER=BIOADREM
LIBRARYQUALITY=0
SPECTRUMID=CCMSLIB00000079569
SCANS=1780
ID=CCMSLIB00000079569
117.0698762568 	 1.24
120.0807752941 	 1.51
130.0651252299 	 0.99
144.0807752941 	 39.58
146.0964253583 	 1.22
168.0807752941 	 1.59
172.1120754225 	 4.03
174.1277254867 	 97.9
183.0916743314 	 1.09
185.1073243956 	 40.35
191.1542745882 	 1.37
198.1277254867 	 1.19
211.0865889535 	 4.39
213.1022390177 	 3.11
234.1277254867 	 18.4
239.0815035756 	 2.17
240.113138055 	 1.89
241.0845775808 	 0.74
256.1080526771 	 8.99
267.1491892103 	 0.76
275.1542745882 	 5.63
282.1600882476 	 42.54
292.1444381834 	 1.13
295.1315277734 	 2.22
308.1393528055 	 3.49
310.1550028697 	 100
337.165901907 	 2
372.2070384402 	 5.21
400.2019530623 	 20.36
421.2234167859 	 2.88
513.2734409837 	 0.88
528.29691608 	 141.01
END IONS

BEGIN IONS
PEPMASS=410.154
CHARGE=1
MSLEVEL=2
RT=0
SOURCE_INSTRUMENT=qTOF
FILENAME=CCMSLIB00000079570.ms
IONMODE=Positive
ORGANISM=Natural
NAME=MLS001076860-01!
PI=GNPS
DATACOLLECTOR=GNPS
SMILES=COc1ccc(cc1)/C=C/C(=NC(=S)N1C[C@H]2C[C@H](C1)c1cccc(=O)n1C2)O
INCHI=InChI=1S/C22H23N3O3S/c1-28-18-8-5-15(6-9-18)7-10-20(26)23-22(29)24-12-16-11-17(14-24)19-3-2-4-21(27)25(19)13-16/h2-10,16-17H,11-14H2,1H3,(H,23,26,29)/b10-7+/t16-,17-/m1/s1
FORMULA=C22H23N3O3S
PUBMED=N/A
SUBMITUSER=BIOADREM
LIBRARYQUALITY=0
SPECTRUMID=CCMSLIB00000079570
SCANS=1781
ID=CCMSLIB00000079570
103.0542261926 	 1.91
105.0698762568 	 2.34
107.0491408147 	 0.37
118.0413157826 	 4.42
132.0443897878 	 0.41
133.0647908789 	 38.62
146.060039852 	 0.47
148.0756899162 	 3.15
158.060039852 	 0.51
160.0756899162 	 2.09
161.059705501 	 100
174.0913399804 	 1.3
189.1022390177 	 0.6
191.1178890819 	 7.52
233.0743097077 	 6.73
235.1077183261 	 0.42
276.0801233671 	 1.28
410.1532883102 	 0
END IONS

BEGIN IONS
PEPMASS=440.2187
CHARGE=1
MSLEVEL=2
RT=0
SOURCE_INSTRUMENT=qTOF
FILENAME=CCMSLIB00000079571.ms
IONMODE=Positive
ORGANISM=Natural
NAME=MLS001075524-01!
PI=GNPS
DATACOLLECTOR=GNPS
SMILES=COc1cccc(CN=C(CCC(=O)N2C[C@H]3C[C@H](C2)c2cccc(=O)n2C3)O)c1OC
INCHI=InChI=1S/C24H29N3O5/c1-31-20-7-3-5-17(24(20)32-2)12-25-21(28)9-10-22(29)26-13-16-11-18(15-26)19-6-4-8-23(30)27(19)14-16/h3-8,16,18H,9-15H2,1-2H3,(H,25,28)/t16-,18-/m1/s1
FORMULA=C24H29N3O5
PUBMED=N/A
SUBMITUSER=BIOADREM
LIBRARYQUALITY=0
SPECTRUMID=CCMSLIB00000079571
SCANS=1782
ID=CCMSLIB00000079571
121.0647908789 	 0.68
123.0804409431 	 1.09
135.0440554368 	 5.83
136.0518804689 	 45.53
142.0651252299 	 0.38
146.060039852 	 1.28
148.0756899162 	 3.64
151.0753555652 	 26.66
160.0756899162 	 4.85
172.0756899162 	 0.63
189.1022390177 	 1.62
191.1178890819 	 20.35
227.1178890819 	 1.66
245.1284537682 	 75.17
273.1233683903 	 100
397.2121833976 	 0.35
423.1914479555 	 2.79
440.217997057 	 0.34
END IONS

BEGIN IONS
PEPMASS=405.181
CHARGE=1
MSLEVEL=2
RT=0
SOURCE_INSTRUMENT=qTOF
FILENAME=CCMSLIB00000079572.ms
IONMODE=Positive
ORGANISM=Natural
NAME=MLS001159078-01!2-(3,4-dimethyl-2-oxochromen-7-yl)oxy-N-[2-(1H-indol-3-yl)ethyl]propanamide
PI=GNPS
DATACOLLECTOR=GNPS
SMILES=Cc1c(C)c(=O)oc2cc(ccc12)OC(C)C(=NCCc1c[nH]c2ccccc12)O
INCHI=InChI=1S/C24H24N2O4/c1-14-15(2)24(28)30-22-12-18(8-9-19(14)22)29-16(3)23(27)25-11-10-17-13-26-21-7-5-4-6-20(17)21/h4-9,12-13,16,26H,10-11H2,1-3H3,(H,25,27)
FORMULA=C24H24N2O4
PUBMED=N/A
SUBMITUSER=BIOADREM
LIBRARYQUALITY=0
SPECTRUMID=CCMSLIB00000079572
SCANS=1783
ID=CCMSLIB00000079572
102.0464011605 	 0.37
103.0542261926 	 0.98
107.0491408147 	 0.66
115.0542261926 	 2.87
117.0698762568 	 6.2
121.0647908789 	 0.33
127.0542261926 	 1.65
130.0651252299 	 1.68
132.0807752941 	 0.89
133.1011763852 	 0.3
135.0804409431 	 0.68
142.0651252299 	 1.43
143.072950262 	 16.26
144.0807752941 	 100
147.0804409431 	 0.35
153.0698762568 	 0.37
158.0964253583 	 4.07
161.0960910073 	 0.99
168.0807752941 	 0.4
170.0964253583 	 3.79
191.0702701873 	 8.09
199.0991650125 	 0.49
217.0859202515 	 4.21
405.1808832692 	 0
END IONS

BEGIN IONS
PEPMASS=409.1742
CHARGE=1
MSLEVEL=2
RT=0
SOURCE_INSTRUMENT=qTOF
FILENAME=CCMSLIB00000079573.ms
IONMODE=Positive
ORGANISM=Natural
NAME=MLS001141220-01!N-(pyridin-3-ylmethyl)-2-[(4,8,8-trimethyl-2-oxo-9,10-dihydropyrano[2,3-h]chromen-5-yl)oxy]acetamide
PI=GNPS
DATACOLLECTOR=GNPS
SMILES=Cc1cc(=O)oc2c3CCC(C)(C)Oc3cc(c12)OCC(=NCc1cccnc1)O
INCHI=InChI=1S/C23H24N2O5/c1-14-9-20(27)29-22-16-6-7-23(2,3)30-17(16)10-18(21(14)22)28-13-19(26)25-12-15-5-4-8-24-11-15/h4-5,8-11H,6-7,12-13H2,1-3H3,(H,25,26)
FORMULA=C23H24N2O5
PUBMED=N/A
SUBMITUSER=BIOADREM
LIBRARYQUALITY=0
SPECTRUMID=CCMSLIB00000079573
SCANS=1784
ID=CCMSLIB00000079573
96.0443897878 	 5.18
107.060374203 	 26.22
108.0443897878 	 10.49
119.060374203 	 35.71
120.0443897878 	 17.39
121.0760242672 	 32.93
149.0709388893 	 44.7
159.0440554368 	 0.26
161.059705501 	 1.09
163.0389700589 	 0.35
177.0546201231 	 1.44
189.0546201231 	 3.6
205.0495347452 	 15.11
217.0495347452 	 19.9
231.0651848094 	 0.24
261.112135002 	 1.44
353.1131976345 	 100
409.1757978913 	 7.06
END IONS

BEGIN IONS
PEPMASS=446.16
CHARGE=1
MSLEVEL=2
RT=0
SOURCE_INSTRUMENT=qTOF
FILENAME=CCMSLIB00000079574.ms
IONMODE=Positive
ORGANISM=Natural
NAME=MLS001158243-01!N-(2-hydroxy-2-phenylethyl)-2-[4-(4-methoxyphenyl)-2-oxochromen-7-yl]oxyacetamide
PI=GNPS
DATACOLLECTOR=GNPS
SMILES=COc1ccc(cc1)c1cc(=O)oc2cc(ccc12)OCC(=NCC(c1ccccc1)O)O
INCHI=InChI=1S/C26H23NO6/c1-31-19-9-7-17(8-10-19)22-14-26(30)33-24-13-20(11-12-21(22)24)32-16-25(29)27-15-23(28)18-5-3-2-4-6-18/h2-14,23,28H,15-16H2,1H3,(H,27,29)
FORMULA=C26H23NO6
PUBMED=N/A
SUBMITUSER=BIOADREM
LIBRARYQUALITY=0
SPECTRUMID=CCMSLIB00000079574
SCANS=1785
ID=CCMSLIB00000079574
103.0542261926 	 7.06
105.0698762568 	 28.19
115.0542261926 	 8.69
116.0620512247 	 1.87
118.0777012889 	 5.16
119.072950262 	 2.88
120.0807752941 	 17.46
130.0651252299 	 14.97
132.0807752941 	 72.29
135.0440554368 	 6.43
152.0620512247 	 4.53
161.0835149483 	 2.07
165.0698762568 	 5.17
177.0698762568 	 1.79
180.0569658468 	 6.89
194.072615911 	 3.78
195.0804409431 	 100
197.0960910073 	 5.19
198.0675305331 	 2.3
208.0518804689 	 6.41
210.0675305331 	 3.44
211.0753555652 	 5.67
213.0910056294 	 13.65
223.0753555652 	 24.66
225.0910056294 	 10.09
227.0702701873 	 8.86
236.046795091 	 4.96
239.0702701873 	 4.17
251.0702701873 	 47.27
253.0859202515 	 21.94
254.0573597773 	 3.42
269.0808348736 	 41.25
281.0808348736 	 36.84
309.0757494957 	 4.24
371.1277850662 	 4.55
428.1492487898 	 4.63
446.1598134761 	 0
END IONS

BEGIN IONS
PEPMASS=353.065
CHARGE=1
MSLEVEL=2
RT=0
SOURCE_INSTRUMENT=qTOF
FILENAME=CCMSLIB00000079575.ms
IONMODE=Positive
ORGANISM=Natural
NAME=MLS001048954-01!
PI=GNPS
DATACOLLECTOR=GNPS
SMILES=COc1cc2cc(c(=O)oc2cc1O)Oc1ccc2ccc(=O)oc2c1
INCHI=InChI=1S/C19H12O7/c1-23-16-6-11-7-17(19(22)26-15(11)9-13(16)20)24-12-4-2-10-3-5-18(21)25-14(10)8-12/h2-9,20H,1H3
FORMULA=C19H12O7
PUBMED=N/A
SUBMITUSER=BIOADREM
LIBRARYQUALITY=0
SPECTRUMID=CCMSLIB00000079575
SCANS=1786
ID=CCMSLIB00000079575
108.0205803405 	 3.4
118.0413157826 	 9.03
121.0284053726 	 6.69
134.0362304047 	 7.54
135.0440554368 	 13.24
136.0154949626 	 7.5
137.0233199947 	 8.04
145.0284053726 	 3.93
146.0362304047 	 62.23
149.0233199947 	 5.35
150.0311450268 	 7.19
151.0389700589 	 20.57
152.046795091 	 4.04
162.0311450268 	 7.96
163.0389700589 	 3.68
164.0104095847 	 26.55
165.0182346168 	 44.42
177.0182346168 	 11.79
178.0260596489 	 92.11
179.033884681 	 100
191.033884681 	 11.54
192.0417097131 	 11.72
193.0131492389 	 20.35
208.0366243352 	 15.61
210.0675305331 	 3.96
236.046795091 	 3.19
238.0624451552 	 5.35
253.0495347452 	 12.46
281.0444493673 	 14.62
282.0522743994 	 10.65
294.0522743994 	 6.55
309.0393639894 	 5.66
309.0757494957 	 10.12
310.0471890215 	 39.93
337.0342786115 	 16.18
338.0421036436 	 79.82
353.0655787399 	 74.76
END IONS

BEGIN IONS
PEPMASS=220.12
CHARGE=1
MSLEVEL=2
RT=0
SOURCE_INSTRUMENT=qTOF
FILENAME=CCMSLIB00000079576.ms
IONMODE=Positive
ORGANISM=Natural
NAME=MLS001074742-01!
PI=GNPS
DATACOLLECTOR=GNPS
SMILES=C/C(=C\CNc1c2c(ncn2)[nH]cn1)/CO
INCHI=InChI=1S/C10H13N5O/c1-7(4-16)2-3-11-9-8-10(13-5-12-8)15-6-14-9/h2,5-6,16H,3-4H2,1H3,(H2,11,12,13,14,15)/b7-2+
FORMULA=C10H13N5O
PUBMED=N/A
SUBMITUSER=BIOADREM
LIBRARYQUALITY=0
SPECTRUMID=CCMSLIB00000079576
SCANS=1787
ID=CCMSLIB00000079576
119.035222085 	 46.41
134.060039852 	 2.95
136.0617711865 	 100
160.0756899162 	 11.39
220.1192860654 	 0
END IONS

BEGIN IONS
PEPMASS=333.097
CHARGE=1
MSLEVEL=2
RT=0
SOURCE_INSTRUMENT=qTOF
FILENAME=CCMSLIB00000079577.ms
IONMODE=Positive
ORGANISM=Natural
NAME=MLS000877019-01!methyl 2-(2,6-dihydroxy-4-methylbenzoyl)-3-hydroxy-5-methoxybenzoate
PI=GNPS
DATACOLLECTOR=GNPS
SMILES=Cc1cc(c(c(c1)O)C(=O)c1c(cc(cc1O)OC)C(=O)OC)O
INCHI=InChI=1S/C17H16O7/c1-8-4-11(18)15(12(19)5-8)16(21)14-10(17(22)24-3)6-9(23-2)7-13(14)20/h4-7,18-20H,1-3H3
FORMULA=C17H16O7
PUBMED=N/A
SUBMITUSER=BIOADREM
LIBRARYQUALITY=0
SPECTRUMID=CCMSLIB00000079577
SCANS=1788
ID=CCMSLIB00000079577
125.059705501 	 5.09
135.0440554368 	 4.58
149.0233199947 	 37.13
151.0389700589 	 15.77
177.0182346168 	 16.38
179.033884681 	 14.55
181.0495347452 	 19.63
209.0444493673 	 100
333.0968788683 	 0
END IONS

BEGIN IONS
PEPMASS=414.228
CHARGE=1
MSLEVEL=2
RT=0
SOURCE_INSTRUMENT=qTOF
FILENAME=CCMSLIB00000079578.ms
IONMODE=Positive
ORGANISM=Natural
NAME=MLS001142945-01!7-[1-[(4aS,8aS)-4a-hydroxy-1,3,4,5,6,7,8,8a-octahydroisoquinolin-2-yl]-1-oxopropan-2-yl]oxy-4-ethyl-8-methylchromen-2-one
PI=GNPS
DATACOLLECTOR=GNPS
SMILES=CCc1cc(=O)oc2c(C)c(ccc12)OC(C)C(=O)N1CC[C@]2(CCCC[C@H]2C1)O
INCHI=InChI=1S/C24H31NO5/c1-4-17-13-21(26)30-22-15(2)20(9-8-19(17)22)29-16(3)23(27)25-12-11-24(28)10-6-5-7-18(24)14-25/h8-9,13,16,18,28H,4-7,10-12,14H2,1-3H3/t16?,18-,24-/m0/s1
FORMULA=C24H31NO5
PUBMED=N/A
SUBMITUSER=BIOADREM
LIBRARYQUALITY=0
SPECTRUMID=CCMSLIB00000079578
SCANS=1789
ID=CCMSLIB00000079578
95.085526321 	 3.5
105.0698762568 	 2.25
108.0807752941 	 11.87
109.1011763852 	 12.11
110.0964253583 	 2.36
116.0620512247 	 2.23
119.085526321 	 4.68
120.0933513531 	 2.44
121.1011763852 	 5.57
122.0964253583 	 10.87
129.0698762568 	 3.01
131.085526321 	 2.13
136.1120754225 	 44.17
137.1199004546 	 66.29
138.1277254867 	 100
147.0804409431 	 3.11
150.1277254867 	 3.3
151.0991650125 	 1.85
154.1226401088 	 16.11
157.1011763852 	 1.96
159.0804409431 	 23.08
162.0675305331 	 2.27
164.1433755509 	 29.65
165.151200583 	 10.21
173.0960910073 	 3.59
175.0753555652 	 13.49
175.1117410715 	 2.98
178.1226401088 	 9.95
182.1539402372 	 9.89
188.0831805973 	 2.93
193.1461152051 	 64.28
203.0702701873 	 19.49
203.1066556936 	 16.19
205.0859202515 	 16.1
211.1566798914 	 4.69
218.0937452836 	 6.84
219.1015703157 	 32.02
231.1015703157 	 65.71
259.0964849378 	 8.54
276.1230340393 	 11.8
370.2012843603 	 6.35
396.2169344245 	 3.88
414.2274991108 	 0
END IONS

BEGIN IONS
PEPMASS=407.16
CHARGE=1
MSLEVEL=2
RT=0
SOURCE_INSTRUMENT=qTOF
FILENAME=CCMSLIB00000079579.ms
IONMODE=Positive
ORGANISM=Natural
NAME=MLS001158171-01!
PI=GNPS
DATACOLLECTOR=GNPS
SMILES=Cc1cc(=O)oc2cc(ccc12)OCC(=O)N1C[C@H]2C[C@@H](C1)c1cccc(=O)n1C2
INCHI=InChI=1S/C23H22N2O5/c1-14-7-23(28)30-20-9-17(5-6-18(14)20)29-13-22(27)24-10-15-8-16(12-24)19-3-2-4-21(26)25(19)11-15/h2-7,9,15-16H,8,10-13H2,1H3/t15-,16+/m1/s1
FORMULA=C23H22N2O5
PUBMED=N/A
SUBMITUSER=BIOADREM
LIBRARYQUALITY=0
SPECTRUMID=CCMSLIB00000079579
SCANS=1790
ID=CCMSLIB00000079579
103.0542261926 	 1.55
118.0624451552 	 0.58
121.0647908789 	 0.83
122.060039852 	 3.14
131.0491408147 	 2.57
132.0443897878 	 3.5
132.0807752941 	 1.4
133.0522148199 	 2.39
134.060039852 	 5.86
146.060039852 	 22.48
147.0678648841 	 13.07
148.0756899162 	 9.3
159.0440554368 	 5.28
159.0678648841 	 1.96
160.0756899162 	 21.45
162.0886599057 	 2.3
163.0964849378 	 0.69
172.0756899162 	 3.31
173.0835149483 	 15.31
174.0913399804 	 3.62
175.0475233725 	 1.28
188.0706045383 	 2.72
189.1022390177 	 100
190.1073839751 	 16.17
203.0788235009 	 0.7
203.1152090072 	 3.39
217.0971536398 	 2.12
231.1101236293 	 4.14
232.1206287361 	 3.49
407.1601478271 	 104.24
END IONS

BEGIN IONS
PEPMASS=464.207
CHARGE=1
MSLEVEL=2
RT=0
SOURCE_INSTRUMENT=qTOF
FILENAME=CCMSLIB00000079580.ms
IONMODE=Positive
ORGANISM=Natural
NAME=MLS001140987-01!4-[[[2-(3-benzyl-4-methyl-2-oxochromen-7-yl)oxyacetyl]amino]methyl]cyclohexane-1-carboxylic acid
PI=GNPS
DATACOLLECTOR=GNPS
SMILES=Cc1c2ccc(cc2oc(=O)c1Cc1ccccc1)OCC(=NC[C@H]1CC[C@@H](CC1)C(=O)O)O
INCHI=InChI=1S/C27H29NO6/c1-17-22-12-11-21(14-24(22)34-27(32)23(17)13-18-5-3-2-4-6-18)33-16-25(29)28-15-19-7-9-20(10-8-19)26(30)31/h2-6,11-12,14,19-20H,7-10,13,15-16H2,1H3,(H,28,29)(H,30,31)/t19-,20-
FORMULA=C27H29NO6
PUBMED=N/A
SUBMITUSER=BIOADREM
LIBRARYQUALITY=0
SPECTRUMID=CCMSLIB00000079580
SCANS=1791
ID=CCMSLIB00000079580
95.085526321 	 8.86
107.085526321 	 1.33
108.0807752941 	 1.62
110.0964253583 	 4.71
112.1120754225 	 1.49
124.1120754225 	 3.49
140.1069900446 	 3.33
145.0647908789 	 1.31
152.1069900446 	 9.11
161.059705501 	 2.44
170.1175547309 	 5.18
178.0777012889 	 7.31
180.1019046667 	 2.63
189.0546201231 	 100
193.1011763852 	 3.81
198.112469353 	 4.55
201.0546201231 	 4.69
221.0960910073 	 13.65
223.0753555652 	 1.55
223.1117410715 	 2.79
229.0495347452 	 19.13
246.0760838467 	 45.71
249.0910056294 	 6.79
251.1066556936 	 11.77
267.1015703157 	 21.45
279.1015703157 	 44.87
281.0808348736 	 4.54
307.0964849378 	 13.79
324.1230340393 	 39.55
340.1543341677 	 28.16
418.2012843603 	 34.58
464.2067636687 	 0
END IONS

BEGIN IONS
PEPMASS=370.1649
CHARGE=1
MSLEVEL=2
RT=0
SOURCE_INSTRUMENT=qTOF
FILENAME=CCMSLIB00000079581.ms
IONMODE=Positive
ORGANISM=Natural
NAME=MLS001032231-01!2-[(5-hydroxy-2,2-dimethyl-4-oxo-3H-chromen-7-yl)oxy]-N-[(4-methylphenyl)methyl]acetamide
PI=GNPS
DATACOLLECTOR=GNPS
SMILES=Cc1ccc(cc1)CN=C(COc1cc(c2C(=O)CC(C)(C)Oc2c1)O)O
INCHI=InChI=1S/C21H23NO5/c1-13-4-6-14(7-5-13)11-22-19(25)12-26-15-8-16(23)20-17(24)10-21(2,3)27-18(20)9-15/h4-9,23H,10-12H2,1-3H3,(H,22,25)
FORMULA=C21H23NO5
PUBMED=N/A
SUBMITUSER=BIOADREM
LIBRARYQUALITY=0
SPECTRUMID=CCMSLIB00000079581
SCANS=1792
ID=CCMSLIB00000079581
97.0284053726 	 0.35
103.0542261926 	 6.18
105.0698762568 	 100
109.0647908789 	 0.36
121.0647908789 	 3.48
123.0440554368 	 0.94
135.0804409431 	 0.55
148.0518804689 	 0.31
149.059705501 	 0.32
151.0389700589 	 1.65
153.0182346168 	 56.43
163.0753555652 	 0.71
165.0182346168 	 4.22
176.046795091 	 0.87
179.033884681 	 0.45
191.0702701873 	 10.58
193.0131492389 	 1.77
209.0808348736 	 55.03
278.1022985972 	 1.62
370.164898854 	 0.92
END IONS

BEGIN IONS
PEPMASS=421.176
CHARGE=1
MSLEVEL=2
RT=0
SOURCE_INSTRUMENT=qTOF
FILENAME=CCMSLIB00000079582.ms
IONMODE=Positive
ORGANISM=Natural
NAME=MLS001159967-01!2-(4,7-dimethyl-2-oxochromen-5-yl)oxy-N-[2-(5-methoxy-1H-indol-3-yl)ethyl]acetamide
PI=GNPS
DATACOLLECTOR=GNPS
SMILES=Cc1cc(c2c(C)cc(=O)oc2c1)OCC(=NCCc1c[nH]c2ccc(cc12)OC)O
INCHI=InChI=1S/C24H24N2O5/c1-14-8-20(24-15(2)10-23(28)31-21(24)9-14)30-13-22(27)25-7-6-16-12-26-19-5-4-17(29-3)11-18(16)19/h4-5,8-12,26H,6-7,13H2,1-3H3,(H,25,27)
FORMULA=C24H24N2O5
PUBMED=N/A
SUBMITUSER=BIOADREM
LIBRARYQUALITY=0
SPECTRUMID=CCMSLIB00000079582
SCANS=1793
ID=CCMSLIB00000079582
103.0542261926 	 0.42
104.0620512247 	 0.43
115.0542261926 	 1.51
116.0620512247 	 0.54
118.0651252299 	 0.61
119.085526321 	 0.72
130.0651252299 	 4.84
131.072950262 	 9.4
132.0569658468 	 0.67
142.0651252299 	 2.18
143.072950262 	 13.33
144.0807752941 	 3.68
146.060039852 	 0.52
146.0964253583 	 0.36
147.0804409431 	 1.37
148.0756899162 	 0.38
156.0807752941 	 0.34
159.0678648841 	 37.02
161.0835149483 	 1.62
170.060039852 	 0.39
174.0913399804 	 100
200.0706045383 	 0.62
215.0940796346 	 1.15
421.1757978913 	 0
END IONS

BEGIN IONS
PEPMASS=416.207
CHARGE=1
MSLEVEL=2
RT=0
SOURCE_INSTRUMENT=qTOF
FILENAME=CCMSLIB00000079583.ms
IONMODE=Positive
ORGANISM=Natural
NAME=MLS001140944-01!4-[[[2-(3-ethyl-4,8-dimethyl-2-oxochromen-7-yl)oxyacetyl]amino]methyl]cyclohexane-1-carboxylic acid
PI=GNPS
DATACOLLECTOR=GNPS
SMILES=CCc1c(C)c2ccc(c(C)c2oc1=O)OCC(=NCC1CCC(CC1)C(=O)O)O
INCHI=InChI=1S/C23H29NO6/c1-4-17-13(2)18-9-10-19(14(3)21(18)30-23(17)28)29-12-20(25)24-11-15-5-7-16(8-6-15)22(26)27/h9-10,15-16H,4-8,11-12H2,1-3H3,(H,24,25)(H,26,27)
FORMULA=C23H29NO6
PUBMED=N/A
SUBMITUSER=BIOADREM
LIBRARYQUALITY=0
SPECTRUMID=CCMSLIB00000079583
SCANS=1794
ID=CCMSLIB00000079583
95.085526321 	 11.32
105.0698762568 	 3.62
117.0698762568 	 3.21
119.085526321 	 4.46
122.0964253583 	 4.01
124.1120754225 	 5.21
131.085526321 	 8.39
136.1120754225 	 16.83
137.1199004546 	 21.35
138.1277254867 	 18.76
145.1011763852 	 6.88
147.0804409431 	 3.76
152.1069900446 	 3.51
158.072615911 	 2.93
159.0804409431 	 5.07
164.1433755509 	 11.85
173.0960910073 	 17.84
175.0753555652 	 11.59
175.1117410715 	 9.2
178.1226401088 	 3.21
185.0960910073 	 2.81
190.0988306615 	 8.17
191.0702701873 	 6.8
203.0702701873 	 38.96
203.1066556936 	 22.6
205.0859202515 	 3.26
218.0937452836 	 18.17
219.1015703157 	 97.63
231.1015703157 	 100
259.0964849378 	 14.66
276.1230340393 	 32.08
370.2012843603 	 14.33
416.2067636687 	 0
END IONS

BEGIN IONS
PEPMASS=444.121
CHARGE=1
MSLEVEL=2
RT=0
SOURCE_INSTRUMENT=qTOF
FILENAME=CCMSLIB00000079584.ms
IONMODE=Positive
ORGANISM=Natural
NAME=MLS001141242-01!3-(4-chlorophenyl)-2-[[2-(2-oxo-4-propylchromen-7-yl)oxyacetyl]amino]propanoic acid
PI=GNPS
DATACOLLECTOR=GNPS
SMILES=CCCc1cc(=O)oc2cc(ccc12)OCC(=NC(Cc1ccc(cc1)Cl)C(=O)O)O
INCHI=InChI=1S/C23H22ClNO6/c1-2-3-15-11-22(27)31-20-12-17(8-9-18(15)20)30-13-21(26)25-19(23(28)29)10-14-4-6-16(24)7-5-14/h4-9,11-12,19H,2-3,10,13H2,1H3,(H,25,26)(H,28,29)
FORMULA=C23H22ClNO6
PUBMED=N/A
SUBMITUSER=BIOADREM
LIBRARYQUALITY=0
SPECTRUMID=CCMSLIB00000079584
SCANS=1795
ID=CCMSLIB00000079584
103.0542261926 	 9.6
105.0698762568 	 3.51
107.0491408147 	 2.11
115.0542261926 	 4.01
116.0620512247 	 5.45
118.0651252299 	 3.88
119.072950262 	 5.76
125.0152538705 	 6.71
128.0620512247 	 3.02
130.0651252299 	 22.4
131.085526321 	 47.3
133.0647908789 	 2.38
133.1011763852 	 2.64
137.0152538705 	 3.16
139.0309039347 	 26.13
141.0698762568 	 10.15
143.085526321 	 1.7
144.0569658468 	 2.83
147.0440554368 	 3.55
149.0960910073 	 4.71
151.0309039347 	 5.97
154.041802972 	 22.56
159.0804409431 	 16.11
161.059705501 	 5.8
161.0960910073 	 5.74
166.041802972 	 100
169.041468621 	 1.81
172.0518804689 	 2.3
175.0389700589 	 4.37
184.0523676583 	 3.7
187.0753555652 	 64.07
189.0914928188 	 16.69
205.0859202515 	 37.65
217.0864074409 	 72.47
245.081322063 	 5.5
444.120841154 	 0
END IONS

BEGIN IONS
PEPMASS=456.1198
CHARGE=1
MSLEVEL=2
RT=0
SOURCE_INSTRUMENT=qTOF
FILENAME=CCMSLIB00000079585.ms
IONMODE=Positive
ORGANISM=Natural
NAME=MLS001141250-01!3-(4-chlorophenyl)-2-[[2-[(6-methyl-4-oxo-2,3-dihydro-1H-cyclopenta[c]chromen-7-yl)oxy]acetyl]amino]propanoic acid
PI=GNPS
DATACOLLECTOR=GNPS
SMILES=Cc1c(ccc2c3CCCc3c(=O)oc12)OCC(=NC(Cc1ccc(cc1)Cl)C(=O)O)O
INCHI=InChI=1S/C24H22ClNO6/c1-13-20(10-9-17-16-3-2-4-18(16)24(30)32-22(13)17)31-12-21(27)26-19(23(28)29)11-14-5-7-15(25)8-6-14/h5-10,19H,2-4,11-12H2,1H3,(H,26,27)(H,28,29)
FORMULA=C24H22ClNO6
PUBMED=N/A
SUBMITUSER=BIOADREM
LIBRARYQUALITY=0
SPECTRUMID=CCMSLIB00000079585
SCANS=1796
ID=CCMSLIB00000079585
103.0542261926 	 6.64
107.0491408147 	 4.11
115.0542261926 	 7.81
118.0651252299 	 5.89
125.0152538705 	 8.36
127.0542261926 	 5.55
128.0620512247 	 31.64
130.0651252299 	 25.27
131.072950262 	 22.4
139.0309039347 	 14.52
143.085526321 	 11.03
145.0647908789 	 9.86
147.0809281325 	 6.92
151.0309039347 	 14.45
153.0698762568 	 6.37
154.041802972 	 20.34
159.0809281325 	 3.84
161.059705501 	 5.89
166.041802972 	 66.3
171.0804409431 	 29.38
173.0965781967 	 8.63
185.0965781967 	 4.66
186.0680177225 	 4.18
188.0836677867 	 7.12
189.0910056294 	 4.04
201.0914928188 	 100
216.0785824088 	 26.3
217.0859202515 	 39.59
229.0864074409 	 55.96
257.081322063 	 4.45
410.1153618456 	 7.12
456.120841154 	 3.15
END IONS

BEGIN IONS
PEPMASS=450.192
CHARGE=1
MSLEVEL=2
RT=0
SOURCE_INSTRUMENT=qTOF
FILENAME=CCMSLIB00000079586.ms
IONMODE=Positive
ORGANISM=Natural
NAME=MLS001075745-01!4-[[2-(2-oxo-4-phenylchromen-7-yl)oxypropanoylamino]methyl]cyclohexane-1-carboxylic acid
PI=GNPS
DATACOLLECTOR=GNPS
SMILES=CC(C(=NCC1CCC(CC1)C(=O)O)O)Oc1ccc2c(cc(=O)oc2c1)c1ccccc1
INCHI=InChI=1S/C26H27NO6/c1-16(25(29)27-15-17-7-9-19(10-8-17)26(30)31)32-20-11-12-21-22(18-5-3-2-4-6-18)14-24(28)33-23(21)13-20/h2-6,11-14,16-17,19H,7-10,15H2,1H3,(H,27,29)(H,30,31)
FORMULA=C26H27NO6
PUBMED=N/A
SUBMITUSER=BIOADREM
LIBRARYQUALITY=0
SPECTRUMID=CCMSLIB00000079586
SCANS=1797
ID=CCMSLIB00000079586
105.0698762568 	 0.89
138.1403015457 	 1.82
140.1559516099 	 26.03
165.1273911357 	 4.23
166.1352161678 	 2.09
167.1430411999 	 1.55
169.1223057578 	 1.85
191.1515945135 	 1.24
210.1403015457 	 1.41
221.1410298272 	 2.86
221.1747352588 	 1.62
223.1539998167 	 1.57
237.1723299556 	 7.78
238.177474913 	 1.48
240.1567394709 	 14.63
265.1798206367 	 50.82
293.1832885724 	 2.53
310.216540494 	 10.2
450.1911136045 	 0
END IONS

BEGIN IONS
PEPMASS=287.092
CHARGE=1
MSLEVEL=2
RT=0
SOURCE_INSTRUMENT=qTOF
FILENAME=CCMSLIB00000079587.ms
IONMODE=Positive
ORGANISM=Natural
NAME=MLS000863585-01!5,7-dihydroxy-4-(4-methoxyphenyl)-3,4-dihydrochromen-2-one
PI=GNPS
DATACOLLECTOR=GNPS
SMILES=COc1ccc(cc1)C1CC(=O)Oc2cc(cc(c12)O)O
INCHI=InChI=1S/C16H14O5/c1-20-11-4-2-9(3-5-11)12-8-15(19)21-14-7-10(17)6-13(18)16(12)14/h2-7,12,17-18H,8H2,1H3
FORMULA=C16H14O5
PUBMED=N/A
SUBMITUSER=BIOADREM
LIBRARYQUALITY=0
SPECTRUMID=CCMSLIB00000079587
SCANS=1798
ID=CCMSLIB00000079587
95.0491408147 	 7.69
107.0491408147 	 15.61
117.0334907505 	 2.26
123.0440554368 	 60.01
135.0440554368 	 45.7
151.0389700589 	 7.81
153.0182346168 	 2.94
179.033884681 	 100
287.0913995599 	 0
END IONS

BEGIN IONS
PEPMASS=417.174
CHARGE=1
MSLEVEL=2
RT=0
SOURCE_INSTRUMENT=qTOF
FILENAME=CCMSLIB00000079588.ms
IONMODE=Positive
ORGANISM=Natural
NAME=MLS001142706-01!
PI=GNPS
DATACOLLECTOR=GNPS
SMILES=C[C@@H](C(=Nc1ccc(c(c1)F)F)O)N=C(N1C[C@H]2C[C@@H](C1)c1cccc(=O)n1C2)O
INCHI=InChI=1S/C21H22F2N4O3/c1-12(20(29)25-15-5-6-16(22)17(23)8-15)24-21(30)26-9-13-7-14(11-26)18-3-2-4-19(28)27(18)10-13/h2-6,8,12-14H,7,9-11H2,1H3,(H,24,30)(H,25,29)/t12-,13+,14-/m0/s1
FORMULA=C21H22F2N4O3
PUBMED=N/A
SUBMITUSER=BIOADREM
LIBRARYQUALITY=0
SPECTRUMID=CCMSLIB00000079588
SCANS=1799
ID=CCMSLIB00000079588
105.0573001978 	 0.27
106.0651252299 	 0.28
108.0443897878 	 0.43
116.0494751657 	 0.26
117.0573001978 	 0.5
127.0553690468 	 0.24
130.0651252299 	 1.14
132.0443897878 	 1.83
133.0522148199 	 1.44
134.060039852 	 1.53
141.0532774524 	 0.41
142.0651252299 	 0.24
144.0807752941 	 0.55
146.060039852 	 9.71
147.0615972789 	 1.03
148.0756899162 	 3.14
158.060039852 	 2.18
159.0638421387 	 1.09
160.0756899162 	 24.77
162.0913399804 	 0.52
172.0756899162 	 3.53
173.0772473431 	 1.04
174.0913399804 	 13.43
189.1022390177 	 17.46
190.1037964446 	 2.86
191.1178890819 	 4.74
199.0865889535 	 0.25
217.0971536398 	 100
218.0987110667 	 11.52
219.100227645 	 0.69
235.1077183261 	 15.91
236.109275753 	 1.69
237.1107923313 	 0.39
260.1393528055 	 52.67
288.1342674276 	 1.03
417.1732729933 	 0
END IONS

BEGIN IONS
PEPMASS=435.1911
CHARGE=1
MSLEVEL=2
RT=0
SOURCE_INSTRUMENT=qTOF
FILENAME=CCMSLIB00000079589.ms
IONMODE=Positive
ORGANISM=Natural
NAME=MLS001158173-01!
PI=GNPS
DATACOLLECTOR=GNPS
SMILES=CCc1cc(=O)oc2c(C)c(ccc12)OCC(=O)N1C[C@H]2C[C@@H](C1)c1cccc(=O)n1C2
INCHI=InChI=1S/C25H26N2O5/c1-3-17-10-24(30)32-25-15(2)21(8-7-19(17)25)31-14-23(29)26-11-16-9-18(13-26)20-5-4-6-22(28)27(20)12-16/h4-8,10,16,18H,3,9,11-14H2,1-2H3/t16-,18+/m1/s1
FORMULA=C25H26N2O5
PUBMED=N/A
SUBMITUSER=BIOADREM
LIBRARYQUALITY=0
SPECTRUMID=CCMSLIB00000079589
SCANS=1800
ID=CCMSLIB00000079589
105.0698762568 	 0.6
109.0522148199 	 2.05
110.060039852 	 0.78
117.0573001978 	 0.92
121.0396387609 	 0.45
121.0760242672 	 0.45
122.060039852 	 2.83
131.085526321 	 0.71
132.0443897878 	 2.06
133.0522148199 	 2.54
134.060039852 	 6.26
135.0651848094 	 1.07
144.0807752941 	 0.45
145.0859202515 	 0.57
146.060039852 	 28.49
147.0651848094 	 13.39
148.0756899162 	 5.76
158.0573597773 	 1.08
160.0756899162 	 6.71
162.0913399804 	 1.26
172.0756899162 	 4.22
173.0808348736 	 17.21
174.0886599057 	 2.14
175.0502034472 	 1.03
175.0865889535 	 0.99
188.0706045383 	 1.51
189.1022390177 	 100
190.1073839751 	 14.65
191.1152090072 	 5.05
203.1178890819 	 1.47
214.1073839751 	 0.46
231.112803704 	 2.73
232.1179486614 	 6.13
435.1914479555 	 44.99
END IONS

BEGIN IONS
PEPMASS=295.118
CHARGE=1
MSLEVEL=2
RT=0
SOURCE_INSTRUMENT=qTOF
FILENAME=CCMSLIB00000079590.ms
IONMODE=Positive
ORGANISM=Natural
NAME=MLS000876947-01!7-(2,3-dihydroxy-3-methylbutoxy)-6-methoxychromen-2-one
PI=GNPS
DATACOLLECTOR=GNPS
SMILES=CC(C)(C(COc1cc2c(ccc(=O)o2)cc1OC)O)O
INCHI=InChI=1S/C15H18O6/c1-15(2,18)13(16)8-20-12-7-10-9(6-11(12)19-3)4-5-14(17)21-10/h4-7,13,16,18H,8H2,1-3H3
FORMULA=C15H18O6
PUBMED=N/A
SUBMITUSER=BIOADREM
LIBRARYQUALITY=0
SPECTRUMID=CCMSLIB00000079590
SCANS=1801
ID=CCMSLIB00000079590
105.0334907505 	 6.68
117.0334907505 	 3.26
121.0284053726 	 1.95
122.0362304047 	 10.93
133.0284053726 	 56.08
137.059705501 	 14.51
149.0233199947 	 1.83
150.0311450268 	 15.54
161.0233199947 	 2.07
165.0546201231 	 7.43
178.0260596489 	 67.61
193.0495347452 	 100
295.1176143104 	 0
END IONS

BEGIN IONS
PEPMASS=422.05
CHARGE=1
MSLEVEL=2
RT=0
SOURCE_INSTRUMENT=qTOF
FILENAME=CCMSLIB00000079591.ms
IONMODE=Positive
ORGANISM=Natural
NAME=MLS001076851-01!
PI=GNPS
DATACOLLECTOR=GNPS
SMILES=c1cc2[C@@H]3C[C@H](CN(C3)C(=S)N=C(c3ccc(cc3Cl)Cl)O)Cn2c(=O)c1
INCHI=InChI=1S/C19H17Cl2N3O2S/c20-13-4-5-14(15(21)7-13)18(26)22-19(27)23-8-11-6-12(10-23)16-2-1-3-17(25)24(16)9-11/h1-5,7,11-12H,6,8-10H2,(H,22,26,27)/t11-,12-/m1/s1
FORMULA=C19H17Cl2N3O2S
PUBMED=N/A
SUBMITUSER=BIOADREM
LIBRARYQUALITY=0
SPECTRUMID=CCMSLIB00000079591
SCANS=1802
ID=CCMSLIB00000079591
104.0494751657 	 0.57
106.0651252299 	 0.96
108.9839537421 	 0.35
109.0522148199 	 0.59
112.0215458557 	 0.78
112.9788683642 	 0.48
117.0573001978 	 0.84
118.0651252299 	 0.31
120.0807752941 	 0.4
120.9606314842 	 0.3
122.060039852 	 0.41
130.0651252299 	 0.76
131.072950262 	 0.49
132.0443897878 	 2.21
132.0807752941 	 0.64
133.0522148199 	 3.31
134.060039852 	 2.17
142.0651252299 	 0.46
144.0807752941 	 0.36
144.9606314842 	 1.17
145.0522148199 	 0.65
146.060039852 	 5.08
146.0964253583 	 1.3
147.0678648841 	 0.62
148.0756899162 	 43.92
156.0807752941 	 1.08
158.060039852 	 2.81
159.0678648841 	 1.67
160.0756899162 	 26.41
162.0913399804 	 1.47
172.0756899162 	 3.68
172.9555461063 	 42.78
174.0913399804 	 20.43
187.0865889535 	 2.12
188.9327021742 	 0.88
189.1022390177 	 0.35
191.1178890819 	 100
199.0865889535 	 1.02
204.0477606062 	 0.8
216.113138055 	 1.55
231.9385158336 	 0.31
233.0743097077 	 28.98
422.0491289155 	 0
END IONS

BEGIN IONS
PEPMASS=464.23
CHARGE=1
MSLEVEL=2
RT=0
SOURCE_INSTRUMENT=qTOF
FILENAME=CCMSLIB00000079592.ms
IONMODE=Positive
ORGANISM=Natural
NAME=MLS001158282-01!(2S)-2-[[(2S)-2-(1,2-dihydroimidazo[1,2-a]benzimidazole-3-carbonylamino)-4-methylpentanoyl]amino]-3-phenylpropanoic acid
PI=GNPS
DATACOLLECTOR=GNPS
SMILES=CC(C)C[C@@H](C(=N[C@@H](Cc1ccccc1)C(=O)O)O)N=C(N1CCn2c3ccccc3nc12)O
INCHI=InChI=1S/C25H29N5O4/c1-16(2)14-19(22(31)26-20(23(32)33)15-17-8-4-3-5-9-17)28-25(34)30-13-12-29-21-11-7-6-10-18(21)27-24(29)30/h3-11,16,19-20H,12-15H2,1-2H3,(H,26,31)(H,28,34)(H,32,33)/t19-,20-/m0/s1
FORMULA=C25H29N5O4
PUBMED=N/A
SUBMITUSER=BIOADREM
LIBRARYQUALITY=0
SPECTRUMID=CCMSLIB00000079592
SCANS=1803
ID=CCMSLIB00000079592
128.0944139856 	 0.58
131.1066556936 	 0.36
132.1019046667 	 1.07
133.1223057578 	 1.13
134.1175547309 	 0.35
160.1444381834 	 100
162.1488548593 	 0.83
172.1457808541 	 1.03
228.2308478875 	 3.66
229.191054025 	 0.27
231.2305135365 	 2.16
259.2366615469 	 6.92
464.2292304453 	 0
END IONS

BEGIN IONS
PEPMASS=388.0645
CHARGE=1
MSLEVEL=2
RT=0
SOURCE_INSTRUMENT=qTOF
FILENAME=CCMSLIB00000079593.ms
IONMODE=Positive
ORGANISM=Natural
NAME=MLS001142565-01!
PI=GNPS
DATACOLLECTOR=GNPS
SMILES=c1cc2[C@H]3C[C@H](CN(C3)C(=O)Nc3ccc(cc3)Br)Cn2c(=O)c1
INCHI=InChI=1S/C18H18BrN3O2/c19-14-4-6-15(7-5-14)20-18(24)21-9-12-8-13(11-21)16-2-1-3-17(23)22(16)10-12/h1-7,12-13H,8-11H2,(H,20,24)/t12-,13+/m1/s1
FORMULA=C18H18BrN3O2
PUBMED=N/A
SUBMITUSER=BIOADREM
LIBRARYQUALITY=0
SPECTRUMID=CCMSLIB00000079593
SCANS=1804
ID=CCMSLIB00000079593
103.0542261926 	 0.67
104.0494751657 	 1.78
105.0573001978 	 0.92
106.0651252299 	 1.16
108.0443897878 	 2.65
115.0542261926 	 1.45
117.0573001978 	 3.88
118.0651252299 	 4.55
120.0807752941 	 1.23
122.060039852 	 1.14
129.0698762568 	 1.23
130.0651252299 	 4.2
131.072950262 	 3.64
132.0443897878 	 9.93
132.0807752941 	 3.5
133.0522148199 	 13.12
134.060039852 	 6.91
142.0651252299 	 1.76
144.0807752941 	 2.23
145.0522148199 	 2.24
146.060039852 	 45.73
148.0756899162 	 21.53
156.0807752941 	 5.04
158.060039852 	 12.63
159.0678648841 	 6.74
160.0756899162 	 95.11
172.0756899162 	 16.25
174.0913399804 	 46.64
188.0706045383 	 5.17
189.1022390177 	 36.99
217.0971536398 	 100
388.0655154376 	 3.25
END IONS

BEGIN IONS
PEPMASS=435.156
CHARGE=1
MSLEVEL=2
RT=0
SOURCE_INSTRUMENT=qTOF
FILENAME=CCMSLIB00000079594.ms
IONMODE=Positive
ORGANISM=Natural
NAME=MLS001076813-01!(2S)-2-[[2-(3,4-dimethyl-2-oxochromen-7-yl)oxyacetyl]amino]-3-(1H-indol-3-yl)propanoic acid
PI=GNPS
DATACOLLECTOR=GNPS
SMILES=Cc1c(C)c(=O)oc2cc(ccc12)OCC(=N[C@@H](Cc1c[nH]c2ccccc12)C(=O)O)O
INCHI=InChI=1S/C24H22N2O6/c1-13-14(2)24(30)32-21-10-16(7-8-17(13)21)31-12-22(27)26-20(23(28)29)9-15-11-25-19-6-4-3-5-18(15)19/h3-8,10-11,20,25H,9,12H2,1-2H3,(H,26,27)(H,28,29)/t20-/m0/s1
FORMULA=C24H22N2O6
PUBMED=N/A
SUBMITUSER=BIOADREM
LIBRARYQUALITY=0
SPECTRUMID=CCMSLIB00000079594
SCANS=1805
ID=CCMSLIB00000079594
103.0542261926 	 4.3
115.0542261926 	 6.64
117.0698762568 	 10.95
118.0651252299 	 14.52
128.0620512247 	 1.86
129.0698762568 	 2.96
130.0651252299 	 100
132.0807752941 	 11.38
135.0804409431 	 2.94
142.0651252299 	 22.21
143.072950262 	 20.09
144.0807752941 	 55.7
145.0647908789 	 10.4
146.060039852 	 24.5
147.0804409431 	 2.32
154.0651252299 	 11.4
157.0760242672 	 6.67
158.0838492993 	 39.2
170.060039852 	 42.69
171.0916743314 	 39.27
173.059705501 	 6.96
173.0835149483 	 2.3
175.0753555652 	 9.31
181.0760242672 	 5.28
184.0756899162 	 8.3
185.0709388893 	 10.67
188.0706045383 	 28.1
191.0702701873 	 24.3
199.0865889535 	 10.44
200.0944139856 	 10.62
203.0702701873 	 14.54
230.0811692246 	 2.78
248.0917339109 	 2.12
332.1281194172 	 3.14
389.1495831408 	 15.68
435.1550624492 	 0
END IONS

BEGIN IONS
PEPMASS=416.15
CHARGE=1
MSLEVEL=2
RT=0
SOURCE_INSTRUMENT=qTOF
FILENAME=CCMSLIB00000079595.ms
IONMODE=Positive
ORGANISM=Natural
NAME=MLS001158240-01!N-(2-hydroxy-2-phenylethyl)-2-(2-oxo-4-phenylchromen-7-yl)oxyacetamide
PI=GNPS
DATACOLLECTOR=GNPS
SMILES=c1ccc(cc1)c1cc(=O)oc2cc(ccc12)OCC(=NCC(c1ccccc1)O)O
INCHI=InChI=1S/C25H21NO5/c27-22(18-9-5-2-6-10-18)15-26-24(28)16-30-19-11-12-20-21(17-7-3-1-4-8-17)14-25(29)31-23(20)13-19/h1-14,22,27H,15-16H2,(H,26,28)
FORMULA=C25H21NO5
PUBMED=N/A
SUBMITUSER=BIOADREM
LIBRARYQUALITY=0
SPECTRUMID=CCMSLIB00000079595
SCANS=1806
ID=CCMSLIB00000079595
103.0542261926 	 10.15
105.0698762568 	 26.37
115.0542261926 	 8.94
116.0620512247 	 2.91
120.0807752941 	 19.89
132.0807752941 	 73.85
141.0698762568 	 2.56
152.0620512247 	 4.71
153.0698762568 	 3.54
165.0698762568 	 100
167.085526321 	 11.23
169.0647908789 	 3.89
177.0698762568 	 3.97
178.0777012889 	 5.61
179.085526321 	 4.42
180.1019046667 	 1.55
183.0804409431 	 10.56
193.0647908789 	 26.08
195.0804409431 	 12.09
197.059705501 	 7.41
207.0804409431 	 4.4
221.059705501 	 51.64
223.0753555652 	 25.63
239.0702701873 	 44.95
251.0702701873 	 53.23
296.0917339109 	 3.27
416.1492487898 	 0
END IONS

BEGIN IONS
PEPMASS=450.192
CHARGE=1
MSLEVEL=2
RT=0
SOURCE_INSTRUMENT=qTOF
FILENAME=CCMSLIB00000079596.ms
IONMODE=Positive
ORGANISM=Natural
NAME=MLS001140931-01!4-[[2-(2-oxo-4-phenylchromen-7-yl)oxypropanoylamino]methyl]cyclohexane-1-carboxylic acid
PI=GNPS
DATACOLLECTOR=GNPS
SMILES=CC(C(=NC[C@H]1CC[C@@H](CC1)C(=O)O)O)Oc1ccc2c(cc(=O)oc2c1)c1ccccc1
INCHI=InChI=1S/C26H27NO6/c1-16(25(29)27-15-17-7-9-19(10-8-17)26(30)31)32-20-11-12-21-22(18-5-3-2-4-6-18)14-24(28)33-23(21)13-20/h2-6,11-14,16-17,19H,7-10,15H2,1H3,(H,27,29)(H,30,31)/t16?,17-,19-
FORMULA=C26H27NO6
PUBMED=N/A
SUBMITUSER=BIOADREM
LIBRARYQUALITY=0
SPECTRUMID=CCMSLIB00000079596
SCANS=1807
ID=CCMSLIB00000079596
169.1825007114 	 1.82
181.1950767704 	 0.91
183.2107268346 	 3.08
221.2138008398 	 1.63
222.2216258719 	 0.94
450.1911136045 	 0
END IONS

BEGIN IONS
PEPMASS=400.212
CHARGE=1
MSLEVEL=2
RT=0
SOURCE_INSTRUMENT=qTOF
FILENAME=CCMSLIB00000079598.ms
IONMODE=Positive
ORGANISM=Natural
NAME=MLS001142750-01!7-[1-[(4aS,8aS)-4a-hydroxy-1,3,4,5,6,7,8,8a-octahydroisoquinolin-2-yl]-1-oxopropan-2-yl]oxy-4,8-dimethylchromen-2-one
PI=GNPS
DATACOLLECTOR=GNPS
SMILES=Cc1cc(=O)oc2c(C)c(ccc12)OC(C)C(=O)N1CC[C@]2(CCCC[C@H]2C1)O
INCHI=InChI=1S/C23H29NO5/c1-14-12-20(25)29-21-15(2)19(8-7-18(14)21)28-16(3)22(26)24-11-10-23(27)9-5-4-6-17(23)13-24/h7-8,12,16-17,27H,4-6,9-11,13H2,1-3H3/t16?,17-,23-/m0/s1
FORMULA=C23H29NO5
PUBMED=N/A
SUBMITUSER=BIOADREM
LIBRARYQUALITY=0
SPECTRUMID=CCMSLIB00000079598
SCANS=1809
ID=CCMSLIB00000079598
95.072950262 	 2.96
105.0698762568 	 5.29
108.0807752941 	 18.3
115.0542261926 	 7.26
116.0620512247 	 2.21
117.0698762568 	 7.64
119.085526321 	 3.1
121.1011763852 	 5.22
122.0964253583 	 19.38
131.085526321 	 2.12
133.0647908789 	 3.17
133.1011763852 	 3.86
136.1120754225 	 54.87
137.1199004546 	 93.11
138.1277254867 	 100
143.085526321 	 1.93
145.0647908789 	 44.57
150.1277254867 	 7.41
154.1226401088 	 12.92
161.059705501 	 7.03
161.0960910073 	 7.1
164.1433755509 	 39.08
173.059705501 	 3.52
174.0675305331 	 1.89
178.1226401088 	 7.27
182.1539402372 	 9.87
189.0546201231 	 14.32
189.0910056294 	 18.75
191.0702701873 	 15.35
193.1461152051 	 54.52
211.1566798914 	 3.33
217.0859202515 	 49.23
400.2118490466 	 0
END IONS

BEGIN IONS
PEPMASS=425.2199
CHARGE=1
MSLEVEL=2
RT=0
SOURCE_INSTRUMENT=qTOF
FILENAME=CCMSLIB00000079599.ms
IONMODE=Positive
ORGANISM=Natural
NAME=MLS001142927-01!
PI=GNPS
DATACOLLECTOR=GNPS
SMILES=CCOc1ccc(cc1)NC(=O)CCN=C(N1C[C@H]2C[C@@H](C1)c1cccc(=O)n1C2)O
INCHI=InChI=1S/C23H28N4O4/c1-2-31-19-8-6-18(7-9-19)25-21(28)10-11-24-23(30)26-13-16-12-17(15-26)20-4-3-5-22(29)27(20)14-16/h3-9,16-17H,2,10-15H2,1H3,(H,24,30)(H,25,28)/t16-,17+/m1/s1
FORMULA=C23H28N4O4
PUBMED=N/A
SUBMITUSER=BIOADREM
LIBRARYQUALITY=0
SPECTRUMID=CCMSLIB00000079599
SCANS=1810
ID=CCMSLIB00000079599
108.0443897878 	 2.27
110.060039852 	 1.82
132.0443897878 	 0.99
133.0522148199 	 2.19
134.060039852 	 1.27
136.0756899162 	 4.01
138.0913399804 	 34.34
146.060039852 	 11.11
148.0756899162 	 25.71
159.0678648841 	 1.1
160.0756899162 	 14.29
162.0913399804 	 5.54
174.0913399804 	 17.77
189.1022390177 	 13.53
191.1178890819 	 59.5
217.0971536398 	 100
234.1237027413 	 63.76
235.1077183261 	 27.84
246.1237027413 	 43.45
288.1342674276 	 31.58
425.218331408 	 0.52
END IONS

BEGIN IONS
PEPMASS=375.144
CHARGE=1
MSLEVEL=2
RT=0
SOURCE_INSTRUMENT=qTOF
FILENAME=CCMSLIB00000079600.ms
IONMODE=Positive
ORGANISM=Natural
NAME=MLS001049104-01!4-(2,4-dimethoxy-3,6-dimethylbenzoyl)oxy-2-hydroxy-3,6-dimethylbenzoic acid
PI=GNPS
DATACOLLECTOR=GNPS
SMILES=Cc1cc(c(C)c(c1C(=O)O)O)OC(=O)c1c(C)cc(c(C)c1OC)OC
INCHI=InChI=1S/C20H22O7/c1-9-8-14(11(3)17(21)15(9)19(22)23)27-20(24)16-10(2)7-13(25-5)12(4)18(16)26-6/h7-8,21H,1-6H3,(H,22,23)
FORMULA=C20H22O7
PUBMED=N/A
SUBMITUSER=BIOADREM
LIBRARYQUALITY=0
SPECTRUMID=CCMSLIB00000079600
SCANS=1811
ID=CCMSLIB00000079600
103.0542261926 	 0.6
105.0698762568 	 1.96
107.0491408147 	 2.35
109.0647908789 	 0.67
119.0491408147 	 0.45
121.0647908789 	 1.37
122.072615911 	 1.48
123.0804409431 	 0.53
132.0569658468 	 0.55
135.0440554368 	 1.17
135.0804409431 	 0.82
137.059705501 	 8.06
147.0440554368 	 0.58
148.0518804689 	 1.82
149.059705501 	 6.03
150.0675305331 	 9.84
160.0518804689 	 1.31
163.0389700589 	 0.89
163.0753555652 	 2.19
165.0546201231 	 0.58
165.0910056294 	 0.97
178.0624451552 	 6.01
193.0859202515 	 100
375.1438290609 	 0
END IONS

BEGIN IONS
PEPMASS=393.1443
CHARGE=1
MSLEVEL=2
RT=0
SOURCE_INSTRUMENT=qTOF
FILENAME=CCMSLIB00000079601.ms
IONMODE=Positive
ORGANISM=Natural
NAME=MLS001032259-01!
PI=GNPS
DATACOLLECTOR=GNPS
SMILES=c1cc2[C@H]3C[C@H](CN(C3)C(=O)COc3ccc4ccc(=O)oc4c3)Cn2c(=O)c1
INCHI=InChI=1S/C22H20N2O5/c25-20-3-1-2-18-16-8-14(11-24(18)20)10-23(12-16)21(26)13-28-17-6-4-15-5-7-22(27)29-19(15)9-17/h1-7,9,14,16H,8,10-13H2/t14-,16+/m1/s1
FORMULA=C22H20N2O5
PUBMED=N/A
SUBMITUSER=BIOADREM
LIBRARYQUALITY=0
SPECTRUMID=CCMSLIB00000079601
SCANS=1812
ID=CCMSLIB00000079601
109.0522148199 	 2.67
117.0334907505 	 1.25
117.0573001978 	 1.01
120.0780952194 	 0.47
122.0573597773 	 2.3
130.0624451552 	 0.81
132.0443897878 	 1.86
132.0807752941 	 1.14
134.0573597773 	 4.41
135.0678648841 	 0.49
142.0624451552 	 0.79
144.0780952194 	 0.54
145.0284053726 	 2.36
145.0495347452 	 1.12
146.060039852 	 20.15
147.0651848094 	 13.18
148.0730098415 	 5.74
154.0651252299 	 0.59
159.0651848094 	 1.41
160.0730098415 	 15.13
162.0886599057 	 2.63
172.0756899162 	 2.74
173.0835149483 	 13.13
174.0886599057 	 3.32
175.0389700589 	 14.29
189.1022390177 	 100
191.0815035756 	 1.58
217.0971536398 	 1.3
231.1101236293 	 1.9
232.1206287361 	 2.8
264.1104579803 	 0.51
375.1339330766 	 0.47
393.1444977629 	 78.96
END IONS

BEGIN IONS
PEPMASS=437.182
CHARGE=1
MSLEVEL=2
RT=0
SOURCE_INSTRUMENT=qTOF
FILENAME=CCMSLIB00000079602.ms
IONMODE=Positive
ORGANISM=Natural
NAME=MLS001142420-01!
PI=GNPS
DATACOLLECTOR=GNPS
SMILES=C[C@@H](C(=NCc1ccco1)O)N1C(=O)[C@]2(C)c3c(CCN2C1=O)c1cc(ccc1[nH]3)OC
INCHI=InChI=1S/C23H24N4O5/c1-13(20(28)24-12-15-5-4-10-32-15)27-21(29)23(2)19-16(8-9-26(23)22(27)30)17-11-14(31-3)6-7-18(17)25-19/h4-7,10-11,13,25H,8-9,12H2,1-3H3,(H,24,28)/t13-,23-/m0/s1
FORMULA=C23H24N4O5
PUBMED=N/A
SUBMITUSER=BIOADREM
LIBRARYQUALITY=0
SPECTRUMID=CCMSLIB00000079602
SCANS=1813
ID=CCMSLIB00000079602
143.047798144 	 1.54
153.0658535114 	 2.1
159.0651848094 	 3.18
160.0756899162 	 2.47
170.0811692246 	 1.81
172.0730098415 	 5.15
174.0886599057 	 13.19
186.0913399804 	 4.54
198.087317235 	 11.65
200.1043099699 	 5.03
210.1039160394 	 1.61
211.0825662081 	 1.91
213.1022390177 	 31.92
214.1073839751 	 8.11
215.1178890819 	 38.2
227.1152090072 	 2.93
241.0971536398 	 32.56
242.1022985972 	 7.35
243.1087809586 	 5.01
252.1019046667 	 3.98
254.1135319855 	 3.88
267.112803704 	 2.08
268.1444381834 	 1.86
269.1244310228 	 2.1
270.087317235 	 2.86
279.112803704 	 2.69
282.1237027413 	 8.92
283.1229744598 	 6.25
284.1393528055 	 100
285.138624524 	 18.15
286.1424268107 	 5.59
293.1284537682 	 3
295.1315277734 	 1.98
296.1393528055 	 1.64
298.1186173634 	 1.59
310.1186173634 	 10.16
311.1349957091 	 2.61
312.1342674276 	 29.53
321.1233683903 	 3.79
341.1284537682 	 7.67
343.140081087 	 1.86
364.165567556 	 9.21
392.1604821781 	 3.59
437.1819459017 	 0
END IONS

BEGIN IONS
PEPMASS=521.24
CHARGE=1
MSLEVEL=2
RT=0
SOURCE_INSTRUMENT=qTOF
FILENAME=CCMSLIB00000079603.ms
IONMODE=Positive
ORGANISM=Natural
NAME=MLS001140698-01!(2S)-1-[(2S)-2-[[(2S)-2-(2,4-dioxo-1H-quinazolin-3-yl)-3-phenylpropanoyl]amino]-4-methylpentanoyl]pyrrolidine-2-carboxylic acid
PI=GNPS
DATACOLLECTOR=GNPS
SMILES=CC(C)C[C@@H](C(=O)N1CCC[C@H]1C(=O)O)N=C([C@H](Cc1ccccc1)n1c(=O)c2ccccc2nc1O)O
INCHI=InChI=1S/C28H32N4O6/c1-17(2)15-21(26(35)31-14-8-13-22(31)27(36)37)29-24(33)23(16-18-9-4-3-5-10-18)32-25(34)19-11-6-7-12-20(19)30-28(32)38/h3-7,9-12,17,21-23H,8,13-16H2,1-2H3,(H,29,33)(H,30,38)(H,36,37)/t21-,22-,23-/m0/s1
FORMULA=C28H32N4O6
PUBMED=N/A
SUBMITUSER=BIOADREM
LIBRARYQUALITY=0
SPECTRUMID=CCMSLIB00000079603
SCANS=1814
ID=CCMSLIB00000079603
103.0542261926 	 3.25
105.0334907505 	 0.4
116.0706045383 	 5.5
120.0443897878 	 0.72
131.0491408147 	 0.44
146.0236543457 	 14.3
163.0502034472 	 4.61
194.0937452836 	 0.49
222.0886599057 	 0.56
223.0951422671 	 0.7
247.0839088788 	 1.31
248.0903912402 	 0.65
265.0944735651 	 100
266.1009559265 	 15.24
275.0788235009 	 1.51
293.0893881872 	 11.54
521.2394607806 	 0
END IONS

BEGIN IONS
PEPMASS=468.202
CHARGE=1
MSLEVEL=2
RT=0
SOURCE_INSTRUMENT=qTOF
FILENAME=CCMSLIB00000079604.ms
IONMODE=Positive
ORGANISM=Natural
NAME=MLS001140954-01!4-[[2-(8-methoxy-4-methyl-6-oxobenzo[c]chromen-3-yl)oxypropanoylamino]methyl]cyclohexane-1-carboxylic acid
PI=GNPS
DATACOLLECTOR=GNPS
SMILES=Cc1c(ccc2c3ccc(cc3c(=O)oc12)OC)OC(C)C(=NCC1CCC(CC1)C(=O)O)O
INCHI=InChI=1S/C26H29NO7/c1-14-22(33-15(2)24(28)27-13-16-4-6-17(7-5-16)25(29)30)11-10-20-19-9-8-18(32-3)12-21(19)26(31)34-23(14)20/h8-12,15-17H,4-7,13H2,1-3H3,(H,27,28)(H,29,30)
FORMULA=C26H29NO7
PUBMED=N/A
SUBMITUSER=BIOADREM
LIBRARYQUALITY=0
SPECTRUMID=CCMSLIB00000079604
SCANS=1815
ID=CCMSLIB00000079604
95.085526321 	 3.66
112.1120754225 	 3.04
138.0913399804 	 3.32
138.1277254867 	 4.66
140.1069900446 	 9.28
153.0698762568 	 1.49
166.0862546025 	 1.9
166.1226401088 	 4.15
170.072615911 	 1.74
181.0647908789 	 1.35
185.059705501 	 1.88
194.1175547309 	 6.63
195.0804409431 	 2.13
196.0882659752 	 2.31
209.0960910073 	 2.05
211.0753555652 	 10.35
213.0546201231 	 4.35
213.0910056294 	 4.66
224.0831805973 	 3.14
227.1066556936 	 4.08
237.0910056294 	 1.88
239.0702701873 	 1.29
240.0780952194 	 3.73
241.0495347452 	 41.26
255.1015703157 	 7.37
256.0730098415 	 100
257.0808348736 	 29.84
265.0859202515 	 3.14
283.0964849378 	 42.29
311.0913995599 	 7.32
423.2040240145 	 1.8
468.2016782908 	 0
END IONS

BEGIN IONS
PEPMASS=454.223
CHARGE=1
MSLEVEL=2
RT=0
SOURCE_INSTRUMENT=qTOF
FILENAME=CCMSLIB00000079605.ms
IONMODE=Positive
ORGANISM=Natural
NAME=MLS001160031-01!1-[2-(6-methyl-8-oxospiro[3,4-dihydropyrano[3,2-g]chromene-2,1'-cyclohexane]-7-yl)acetyl]piperidine-4-carboxylic acid
PI=GNPS
DATACOLLECTOR=GNPS
SMILES=Cc1c2cc3CCC4(CCCCC4)Oc3cc2oc(=O)c1CC(=O)N1CCC(CC1)C(=O)O
INCHI=InChI=1S/C26H31NO6/c1-16-19-13-18-5-10-26(8-3-2-4-9-26)33-21(18)15-22(19)32-25(31)20(16)14-23(28)27-11-6-17(7-12-27)24(29)30/h13,15,17H,2-12,14H2,1H3,(H,29,30)
FORMULA=C26H31NO6
PUBMED=N/A
SUBMITUSER=BIOADREM
LIBRARYQUALITY=0
SPECTRUMID=CCMSLIB00000079605
SCANS=1816
ID=CCMSLIB00000079605
107.085526321 	 0.59
133.0647908789 	 0.29
145.0647908789 	 0.36
173.059705501 	 0.47
175.0753555652 	 0.59
185.059705501 	 0.55
191.0702701873 	 0.25
201.0546201231 	 5.64
203.0702701873 	 18.77
213.0910056294 	 0.41
215.0702701873 	 5.4
219.0651848094 	 0.32
229.0859202515 	 1.63
241.0859202515 	 0.41
251.1430411999 	 0.31
255.1015703157 	 0.21
264.1144807257 	 0.31
279.137955822 	 4.36
297.1485205083 	 100
325.1434351304 	 3.58
454.2224137329 	 0
END IONS

BEGIN IONS
PEPMASS=436.176
CHARGE=1
MSLEVEL=2
RT=0
SOURCE_INSTRUMENT=qTOF
FILENAME=CCMSLIB00000079606.ms
IONMODE=Positive
ORGANISM=Natural
NAME=MLS001140969-01!4-[[[2-(2-oxo-4-phenylchromen-7-yl)oxyacetyl]amino]methyl]cyclohexane-1-carboxylic acid
PI=GNPS
DATACOLLECTOR=GNPS
SMILES=c1ccc(cc1)c1cc(=O)oc2cc(ccc12)OCC(=NC[C@H]1CC[C@@H](CC1)C(=O)O)O
INCHI=InChI=1S/C25H25NO6/c27-23(26-14-16-6-8-18(9-7-16)25(29)30)15-31-19-10-11-20-21(17-4-2-1-3-5-17)13-24(28)32-22(20)12-19/h1-5,10-13,16,18H,6-9,14-15H2,(H,26,27)(H,29,30)/t16-,18-
FORMULA=C25H25NO6
PUBMED=N/A
SUBMITUSER=BIOADREM
LIBRARYQUALITY=0
SPECTRUMID=CCMSLIB00000079606
SCANS=1817
ID=CCMSLIB00000079606
95.085526321 	 11.16
110.060039852 	 0.91
110.0964253583 	 0.69
124.1120754225 	 0.83
138.0913399804 	 0.77
152.1069900446 	 1.78
165.0698762568 	 11.46
167.085526321 	 3.44
169.0647908789 	 1.79
177.0698762568 	 2.77
179.085526321 	 1.89
180.1019046667 	 2.56
181.0647908789 	 1.74
183.0804409431 	 3.44
193.0647908789 	 4.21
195.0804409431 	 4.06
197.059705501 	 1.84
207.0804409431 	 1.52
221.059705501 	 15.65
223.0753555652 	 9.5
233.059705501 	 0.57
239.0702701873 	 100
251.0702701873 	 43.27
279.0651848094 	 14
296.0917339109 	 48.92
390.1699842319 	 16.16
436.1754635403 	 0
END IONS

BEGIN IONS
PEPMASS=355.1175
CHARGE=1
MSLEVEL=2
RT=0
SOURCE_INSTRUMENT=qTOF
FILENAME=CCMSLIB00000079607.ms
IONMODE=Positive
ORGANISM=Natural
NAME=MLS000697735-01!
PI=GNPS
DATACOLLECTOR=GNPS
SMILES=CC(=CCc1cc(ccc1O)c1c(c(=O)c2c(cc(cc2o1)O)O)O)C
INCHI=InChI=1S/C20H18O6/c1-10(2)3-4-11-7-12(5-6-14(11)22)20-19(25)18(24)17-15(23)8-13(21)9-16(17)26-20/h3,5-9,21-23,25H,4H2,1-2H3
FORMULA=C20H18O6
PUBMED=N/A
SUBMITUSER=BIOADREM
LIBRARYQUALITY=0
SPECTRUMID=CCMSLIB00000079607
SCANS=1818
ID=CCMSLIB00000079607
105.0334907505 	 3.93
141.0698762568 	 4.38
153.0182346168 	 19.24
155.0491408147 	 2.86
157.0647908789 	 5.41
169.0647908789 	 2.56
187.0389700589 	 7.23
197.059705501 	 8.05
213.0546201231 	 3.19
215.0702701873 	 10.72
225.0546201231 	 2.63
229.0495347452 	 13.13
242.0573597773 	 3.3
243.0651848094 	 32.67
253.0495347452 	 3.3
256.0366243352 	 3.89
269.0444493673 	 4.49
271.0600994315 	 45.98
287.0550140536 	 85.8
299.0550140536 	 100
355.1176143104 	 19.91
END IONS

BEGIN IONS
PEPMASS=275.092
CHARGE=1
MSLEVEL=2
RT=0
SOURCE_INSTRUMENT=qTOF
FILENAME=CCMSLIB00000079608.ms
IONMODE=Positive
ORGANISM=Natural
NAME=MLS000863635-01!6-[2-(1,3-benzodioxol-5-yl)ethyl]-4-methoxypyran-2-one
PI=GNPS
DATACOLLECTOR=GNPS
SMILES=COc1cc(CCc2ccc3c(c2)OCO3)oc(=O)c1
INCHI=InChI=1S/C15H14O5/c1-17-12-7-11(20-15(16)8-12)4-2-10-3-5-13-14(6-10)19-9-18-13/h3,5-8H,2,4,9H2,1H3
FORMULA=C15H14O5
PUBMED=N/A
SUBMITUSER=BIOADREM
LIBRARYQUALITY=0
SPECTRUMID=CCMSLIB00000079608
SCANS=1819
ID=CCMSLIB00000079608
105.0334907505 	 3.91
121.0647908789 	 0.5
131.0491408147 	 0.76
135.0440554368 	 100
149.059705501 	 0.47
190.0988306615 	 0.58
275.0913995599 	 0
END IONS

BEGIN IONS
PEPMASS=449.2071
CHARGE=1
MSLEVEL=2
RT=0
SOURCE_INSTRUMENT=qTOF
FILENAME=CCMSLIB00000079609.ms
IONMODE=Positive
ORGANISM=Natural
NAME=MLS001162660-01!
PI=GNPS
DATACOLLECTOR=GNPS
SMILES=CCCCc1cc(=O)oc2cc(ccc12)OCC(=O)N1C[C@H]2C[C@@H](C1)c1cccc(=O)n1C2
INCHI=InChI=1S/C26H28N2O5/c1-2-3-5-18-11-26(31)33-23-12-20(8-9-21(18)23)32-16-25(30)27-13-17-10-19(15-27)22-6-4-7-24(29)28(22)14-17/h4,6-9,11-12,17,19H,2-3,5,10,13-16H2,1H3/t17-,19+/m1/s1
FORMULA=C26H28N2O5
PUBMED=N/A
SUBMITUSER=BIOADREM
LIBRARYQUALITY=0
SPECTRUMID=CCMSLIB00000079609
SCANS=1820
ID=CCMSLIB00000079609
145.1586912641 	 0.75
159.1743413283 	 2.26
160.1821663604 	 14.72
449.2070980197 	 0.18
END IONS

BEGIN IONS
PEPMASS=384.1376
CHARGE=1
MSLEVEL=2
RT=0
SOURCE_INSTRUMENT=qTOF
FILENAME=CCMSLIB00000079610.ms
IONMODE=Positive
ORGANISM=Natural
NAME=MLS001076852-01!
PI=GNPS
DATACOLLECTOR=GNPS
SMILES=COc1ccc(cc1)C(=NC(=S)N1C[C@H]2C[C@H](C1)c1cccc(=O)n1C2)O
INCHI=InChI=1S/C20H21N3O3S/c1-26-16-7-5-14(6-8-16)19(25)21-20(27)22-10-13-9-15(12-22)17-3-2-4-18(24)23(17)11-13/h2-8,13,15H,9-12H2,1H3,(H,21,25,27)/t13-,15-/m1/s1
FORMULA=C20H21N3O3S
PUBMED=N/A
SUBMITUSER=BIOADREM
LIBRARYQUALITY=0
SPECTRUMID=CCMSLIB00000079610
SCANS=1821
ID=CCMSLIB00000079610
107.0491408147 	 2.08
108.0205803405 	 0.36
118.0777012889 	 0.37
133.0522148199 	 0.89
135.0440554368 	 100
146.060039852 	 1.1
148.0756899162 	 20.45
150.0675305331 	 0.42
158.060039852 	 0.86
159.0678648841 	 0.39
160.0756899162 	 4.28
161.0835149483 	 1.33
174.0913399804 	 3.43
176.0944139856 	 0.39
191.1178890819 	 45.98
367.1110891445 	 0.85
384.137638246 	 0.39
END IONS

BEGIN IONS
PEPMASS=423.24
CHARGE=1
MSLEVEL=2
RT=0
SOURCE_INSTRUMENT=qTOF
FILENAME=CCMSLIB00000079611.ms
IONMODE=Positive
ORGANISM=Natural
NAME=MLS001142926-01!
PI=GNPS
DATACOLLECTOR=GNPS
SMILES=CC(C)c1ccc(cc1)NC(=O)CCN=C(N1C[C@H]2C[C@@H](C1)c1cccc(=O)n1C2)O
INCHI=InChI=1S/C24H30N4O3/c1-16(2)18-6-8-20(9-7-18)26-22(29)10-11-25-24(31)27-13-17-12-19(15-27)21-4-3-5-23(30)28(21)14-17/h3-9,16-17,19H,10-15H2,1-2H3,(H,25,31)(H,26,29)/t17-,19+/m1/s1
FORMULA=C24H30N4O3
PUBMED=N/A
SUBMITUSER=BIOADREM
LIBRARYQUALITY=0
SPECTRUMID=CCMSLIB00000079611
SCANS=1822
ID=CCMSLIB00000079611
106.0651252299 	 0.58
115.0542261926 	 0.46
120.0443897878 	 0.48
122.060039852 	 0.39
131.072950262 	 0.53
132.0443897878 	 1.2
132.0807752941 	 0.48
133.0522148199 	 1.08
134.060039852 	 0.98
134.0964253583 	 0.87
136.1120754225 	 20.83
144.0807752941 	 0.63
145.0522148199 	 0.42
146.060039852 	 8.59
148.0756899162 	 19.46
156.0807752941 	 0.32
158.060039852 	 2.72
159.0678648841 	 0.58
160.0756899162 	 19
160.1120754225 	 4.3
162.0913399804 	 1.51
172.0756899162 	 3.3
172.1120754225 	 7.88
174.0913399804 	 8.81
189.1022390177 	 16.17
191.1178890819 	 56.79
215.1178890819 	 0.38
216.113138055 	 0.35
217.0971536398 	 100
233.1284537682 	 6.06
234.1237027413 	 78.84
246.1237027413 	 58.12
260.1393528055 	 1.01
288.1342674276 	 42.11
423.2390668501 	 0
END IONS

BEGIN IONS
PEPMASS=444.239
CHARGE=1
MSLEVEL=2
RT=0
SOURCE_INSTRUMENT=qTOF
FILENAME=CCMSLIB00000079612.ms
IONMODE=Positive
ORGANISM=Natural
NAME=MLS001140848-01!4-[[2-(4-butyl-7-methyl-2-oxochromen-5-yl)oxypropanoylamino]methyl]cyclohexane-1-carboxylic acid
PI=GNPS
DATACOLLECTOR=GNPS
SMILES=CCCCc1cc(=O)oc2cc(C)cc(c12)OC(C)C(=NC[C@H]1CC[C@@H](CC1)C(=O)O)O
INCHI=InChI=1S/C25H33NO6/c1-4-5-6-19-13-22(27)32-21-12-15(2)11-20(23(19)21)31-16(3)24(28)26-14-17-7-9-18(10-8-17)25(29)30/h11-13,16-18H,4-10,14H2,1-3H3,(H,26,28)(H,29,30)/t16?,17-,18-
FORMULA=C25H33NO6
PUBMED=N/A
SUBMITUSER=BIOADREM
LIBRARYQUALITY=0
SPECTRUMID=CCMSLIB00000079612
SCANS=1823
ID=CCMSLIB00000079612
95.085526321 	 4.4
112.1120754225 	 1.53
121.0647908789 	 1.15
124.0756899162 	 1.17
132.0569658468 	 0.99
133.0647908789 	 1.48
135.0804409431 	 1.01
137.059705501 	 1.63
138.1277254867 	 9.11
140.1069900446 	 8.53
147.0804409431 	 0.89
151.0389700589 	 1.04
151.0753555652 	 1.07
152.1069900446 	 1.43
159.0804409431 	 0.81
161.0960910073 	 0.77
163.0753555652 	 1.18
166.1226401088 	 4.59
167.1304651409 	 12.5
175.0753555652 	 1.9
177.0546201231 	 12.93
179.0702701873 	 1.11
184.1332047951 	 7.12
189.0546201231 	 0.79
189.0910056294 	 1.11
190.0624451552 	 4.81
191.0702701873 	 1.97
203.0702701873 	 8.77
205.0859202515 	 0.84
213.0910056294 	 1.04
217.0859202515 	 2.24
231.1015703157 	 15.7
233.1172203799 	 100
259.1328704441 	 13.86
287.1277850662 	 7.05
304.1543341677 	 5.49
398.2325844887 	 11.56
444.2380637971 	 0
END IONS

BEGIN IONS
PEPMASS=420.169
CHARGE=1
MSLEVEL=2
RT=0
SOURCE_INSTRUMENT=qTOF
FILENAME=CCMSLIB00000079613.ms
IONMODE=Positive
ORGANISM=Natural
NAME=MLS001141232-01!(2S)-1-[(2S)-2-[(5-chloro-1-methylindole-2-carbonyl)amino]-3-methylpentanoyl]pyrrolidine-2-carboxylic acid
PI=GNPS
DATACOLLECTOR=GNPS
SMILES=CCC(C)[C@@H](C(=O)N1CCC[C@H]1C(=O)O)N=C(c1cc2cc(ccc2n1C)Cl)O
INCHI=InChI=1S/C21H26ClN3O4/c1-4-12(2)18(20(27)25-9-5-6-16(25)21(28)29)23-19(26)17-11-13-10-14(22)7-8-15(13)24(17)3/h7-8,10-12,16,18H,4-6,9H2,1-3H3,(H,23,26)(H,28,29)/t12?,16-,18-/m0/s1
FORMULA=C21H26ClN3O4
PUBMED=N/A
SUBMITUSER=BIOADREM
LIBRARYQUALITY=0
SPECTRUMID=CCMSLIB00000079613
SCANS=1824
ID=CCMSLIB00000079613
104.0494751657 	 0.46
105.0546201231 	 0.35
122.9996038063 	 4.93
124.0029189036 	 0.34
128.0494751657 	 0.53
129.0573001978 	 0.44
140.0234728331 	 0.52
150.0078227689 	 0.96
164.0261529078 	 1.53
166.0247169782 	 0.56
166.0391228973 	 0.78
178.041802972 	 1.58
192.0210675299 	 100
193.0243826272 	 14.02
194.0196316003 	 37.68
234.1044032288 	 1.96
277.1102168882 	 1.98
278.1135319855 	 1.25
420.1684600486 	 0
END IONS

BEGIN IONS
PEPMASS=503.23
CHARGE=1
MSLEVEL=2
RT=0
SOURCE_INSTRUMENT=qTOF
FILENAME=CCMSLIB00000079614.ms
IONMODE=Positive
ORGANISM=Natural
NAME=MLS001141007-01!
PI=GNPS
DATACOLLECTOR=GNPS
SMILES=CC(C)[C@@H](C(=N[C@@H](Cc1ccccc1)C(=O)O)O)N1C(=O)[C@]2(C)c3c(CCN2C1=O)c1ccccc1[nH]3
INCHI=InChI=1S/C28H30N4O5/c1-16(2)22(24(33)30-21(25(34)35)15-17-9-5-4-6-10-17)32-26(36)28(3)23-19(13-14-31(28)27(32)37)18-11-7-8-12-20(18)29-23/h4-12,16,21-22,29H,13-15H2,1-3H3,(H,30,33)(H,34,35)/t21-,22-,28-/m0/s1
FORMULA=C28H30N4O5
PUBMED=N/A
SUBMITUSER=BIOADREM
LIBRARYQUALITY=0
SPECTRUMID=CCMSLIB00000079614
SCANS=1825
ID=CCMSLIB00000079614
98.060039852 	 1.87
115.0542261926 	 0.68
117.0698762568 	 0.9
120.0807752941 	 0.82
124.0756899162 	 1.12
144.0807752941 	 65.85
156.0807752941 	 0.71
168.0807752941 	 5.17
171.0916743314 	 0.66
183.0916743314 	 1.69
185.1073243956 	 83.25
195.0916743314 	 1.01
198.1277254867 	 1.08
210.1025733687 	 0.61
211.0865889535 	 12.98
213.1022390177 	 7.9
238.0974879908 	 0.43
239.0815035756 	 2.55
239.1542745882 	 1.77
240.0767525487 	 1.62
240.113138055 	 2.82
241.0845775808 	 2.77
256.1080526771 	 10.01
267.1491892103 	 1.08
277.1209630871 	 0.57
282.1600882476 	 58.73
292.1444381834 	 1.87
295.1315277734 	 0.87
310.1550028697 	 100
503.2288960943 	 0.22
END IONS

BEGIN IONS
PEPMASS=388.176
CHARGE=1
MSLEVEL=2
RT=0
SOURCE_INSTRUMENT=qTOF
FILENAME=CCMSLIB00000079615.ms
IONMODE=Positive
ORGANISM=Natural
NAME=MLS001140843-01!4-[[[2-(4,7-dimethyl-2-oxochromen-5-yl)oxyacetyl]amino]methyl]cyclohexane-1-carboxylic acid
PI=GNPS
DATACOLLECTOR=GNPS
SMILES=Cc1cc(c2c(C)cc(=O)oc2c1)OCC(=NC[C@H]1CC[C@@H](CC1)C(=O)O)O
INCHI=InChI=1S/C21H25NO6/c1-12-7-16(20-13(2)9-19(24)28-17(20)8-12)27-11-18(23)22-10-14-3-5-15(6-4-14)21(25)26/h7-9,14-15H,3-6,10-11H2,1-2H3,(H,22,23)(H,25,26)/t14-,15-
FORMULA=C21H25NO6
PUBMED=N/A
SUBMITUSER=BIOADREM
LIBRARYQUALITY=0
SPECTRUMID=CCMSLIB00000079615
SCANS=1826
ID=CCMSLIB00000079615
95.085526321 	 6.45
110.0964253583 	 4.82
112.1120754225 	 1.89
115.0542261926 	 1.63
117.0698762568 	 3.34
119.085526321 	 5.63
121.0647908789 	 2.02
129.0698762568 	 4.14
130.0777012889 	 2.73
131.085526321 	 2
132.0569658468 	 3.61
135.0804409431 	 8.01
140.1069900446 	 3.15
145.0647908789 	 14.59
147.0804409431 	 10.23
159.0804409431 	 3.52
162.0675305331 	 10.39
163.0753555652 	 4.31
173.059705501 	 6.53
175.0753555652 	 27.77
185.059705501 	 2.66
190.0624451552 	 40.46
191.0702701873 	 100
203.0702701873 	 67.3
231.0651848094 	 48.8
248.0917339109 	 42.57
342.1699842319 	 24.03
388.1754635403 	 0
END IONS

BEGIN IONS
PEPMASS=468.2961
CHARGE=1
MSLEVEL=2
RT=0
SOURCE_INSTRUMENT=qTOF
FILENAME=CCMSLIB00000079616.ms
IONMODE=Positive
ORGANISM=Natural
NAME=MLS000728669-01!
PI=GNPS
DATACOLLECTOR=GNPS
SMILES=CCN1C[C@@]2(CC[C@@H]([C@@]34C5C[C@@H]6[C@@H](C[C@@](C5[C@H]6OC)([C@@](C(C23)OC)([C@@H]14)O)O)OC)OC)CO
INCHI=InChI=1S/C25H41NO7/c1-6-26-11-22(12-27)8-7-16(31-3)24-14-9-13-15(30-2)10-23(28,17(14)18(13)32-4)25(29,21(24)26)20(33-5)19(22)24/h13-21,27-29H,6-12H2,1-5H3/t13-,14?,15-,16+,17?,18+,19?,20?,21+,22+,23-,24+,25-/m1/s1
FORMULA=C25H41NO7
PUBMED=N/A
SUBMITUSER=BIOADREM
LIBRARYQUALITY=0
SPECTRUMID=CCMSLIB00000079616
SCANS=1827
ID=CCMSLIB00000079616
96.0807752941 	 12.55
108.0807752941 	 32.09
110.0964253583 	 7.06
122.0964253583 	 8.31
126.0913399804 	 41.36
129.0698762568 	 7.09
131.085526321 	 6.16
138.0913399804 	 18.9
140.1069900446 	 37.54
141.0698762568 	 6.56
143.085526321 	 5.56
145.0647908789 	 5.49
159.0804409431 	 5.67
173.0960910073 	 5.8
190.1226401088 	 6.97
219.1168264494 	 10.11
237.1273911357 	 7.22
310.1801549877 	 5.62
312.1958050519 	 5.65
322.1801549877 	 5.71
324.1958050519 	 10.95
326.2114551161 	 19.23
336.1958050519 	 5.52
340.190719674 	 11.43
342.2063697382 	 11.74
344.2220198024 	 27.79
354.2063697382 	 25.21
355.2141947703 	 6.54
356.2193397277 	 8.88
358.2376698666 	 40.29
372.2169344245 	 59.76
374.229904414 	 18.45
375.2404095208 	 7.07
376.2482345529 	 23.28
386.2325844887 	 44.82
390.2638846171 	 22.4
404.243149175 	 100
418.2587992392 	 22.39
436.2693639255 	 83.25
468.295578676 	 608.75
END IONS

BEGIN IONS
PEPMASS=445.223
CHARGE=1
MSLEVEL=2
RT=0
SOURCE_INSTRUMENT=qTOF
FILENAME=CCMSLIB00000079617.ms
IONMODE=Positive
ORGANISM=Natural
NAME=MLS000876824-01!
PI=GNPS
DATACOLLECTOR=GNPS
SMILES=Cc1c2COC(=O)c2c(c2C[C@@H]3[C@@]4(C)CCC(=O)OC(C)(C)[C@@]4(CC[C@]3(C)Oc12)O)OC
INCHI=InChI=1S/C25H32O7/c1-13-15-12-30-21(27)18(15)20(29-6)14-11-16-23(4)8-7-17(26)31-22(2,3)25(23,28)10-9-24(16,5)32-19(13)14/h16,28H,7-12H2,1-6H3/t16-,23-,24+,25-/m1/s1
FORMULA=C25H32O7
PUBMED=N/A
SUBMITUSER=BIOADREM
LIBRARYQUALITY=0
SPECTRUMID=CCMSLIB00000079617
SCANS=1828
ID=CCMSLIB00000079617
95.085526321 	 1.99
107.085526321 	 2.06
109.1011763852 	 2.47
119.085526321 	 4.6
121.0647908789 	 3.47
121.1011763852 	 2.68
135.0804409431 	 15.26
135.1168264494 	 2.99
143.085526321 	 2.54
149.059705501 	 17.84
151.0753555652 	 2.71
177.0546201231 	 32.2
189.0910056294 	 5.95
195.0651848094 	 2.58
207.0651848094 	 100
221.0808348736 	 2.82
227.0702701873 	 4.47
230.0573597773 	 2.96
245.0808348736 	 10.65
261.112135002 	 2.82
287.1277850662 	 1.79
445.2220793819 	 0
END IONS

BEGIN IONS
PEPMASS=188.082
CHARGE=1
MSLEVEL=2
RT=0
SOURCE_INSTRUMENT=qTOF
FILENAME=CCMSLIB00000079618.ms
IONMODE=Positive
ORGANISM=Natural
NAME=MLS000737410-01!4-methylquinazoline-2-carboxamide
PI=GNPS
DATACOLLECTOR=GNPS
SMILES=Cc1c2ccccc2nc(C(=O)N)n1
INCHI=InChI=1S/C10H9N3O/c1-6-7-4-2-3-5-8(7)13-10(12-6)9(11)14/h2-5H,1H3,(H2,11,14)
FORMULA=C10H9N3O
PUBMED=N/A
SUBMITUSER=BIOADREM
LIBRARYQUALITY=0
SPECTRUMID=CCMSLIB00000079618
SCANS=1829
ID=CCMSLIB00000079618
116.0494751657 	 21.6
128.0368991067 	 1.7
134.060039852 	 1.28
143.060374203 	 100
161.0709388893 	 26.55
188.0818379266 	 0
END IONS

BEGIN IONS
PEPMASS=511.223
CHARGE=1
MSLEVEL=2
RT=0
SOURCE_INSTRUMENT=qTOF
FILENAME=CCMSLIB00000079619.ms
IONMODE=Positive
ORGANISM=Natural
NAME=MLS001142948-01!(2S)-5-amino-2-[[1-[(2S)-3-methyl-2-[(4-methylphenyl)sulfonylamino]butanoyl]piperidine-4-carbonyl]amino]-5-oxopentanoic acid
PI=GNPS
DATACOLLECTOR=GNPS
SMILES=CC(C)[C@@H](C(=O)N1CCC(CC1)C(=N[C@@H](CCC(=N)O)C(=O)O)O)NS(=O)(=O)c1ccc(C)cc1
INCHI=InChI=1S/C23H34N4O7S/c1-14(2)20(26-35(33,34)17-6-4-15(3)5-7-17)22(30)27-12-10-16(11-13-27)21(29)25-18(23(31)32)8-9-19(24)28/h4-7,14,16,18,20,26H,8-13H2,1-3H3,(H2,24,28)(H,25,29)(H,31,32)/t18-,20-/m0/s1
FORMULA=C23H34N4O7S
PUBMED=N/A
SUBMITUSER=BIOADREM
LIBRARYQUALITY=0
SPECTRUMID=CCMSLIB00000079619
SCANS=1830
ID=CCMSLIB00000079619
101.0709388893 	 2.35
102.0549544741 	 1.24
112.0756899162 	 100
114.0787639214 	 1.39
129.0658535114 	 4.03
129.1022390177 	 8.93
130.0498690962 	 8.36
130.0862546025 	 2.94
147.0764181977 	 16.99
148.0790607346 	 2.87
155.0161261268 	 67.27
157.0971536398 	 1.35
160.1120754225 	 1.05
170.0924026129 	 1.09
210.0947107988 	 1.74
212.1433755509 	 2.66
213.1233683903 	 6.18
226.0896254209 	 54.83
227.0900568892 	 5.47
240.1342674276 	 4.33
241.1182830124 	 4.51
242.1209255493 	 1.42
258.1436723641 	 24.65
259.1474746508 	 3.13
268.1291820497 	 1.46
336.1740237523 	 1.66
365.1529539592 	 3.2
382.1795030607 	 7.25
420.1951531249 	 2.33
466.2006324333 	 1.98
511.2220961569 	 0
END IONS

BEGIN IONS
PEPMASS=445.1752
CHARGE=1
MSLEVEL=2
RT=0
SOURCE_INSTRUMENT=qTOF
FILENAME=CCMSLIB00000079620.ms
IONMODE=Positive
ORGANISM=Natural
NAME=MLS001158168-01!
PI=GNPS
DATACOLLECTOR=GNPS
SMILES=Cc1coc2cc3c(cc12)c(C)c(CC(=O)N1C[C@H]2C[C@@H](C1)c1cccc(=O)n1C2)c(=O)o3
INCHI=InChI=1S/C26H24N2O5/c1-14-13-32-22-9-23-19(7-18(14)22)15(2)20(26(31)33-23)8-25(30)27-10-16-6-17(12-27)21-4-3-5-24(29)28(21)11-16/h3-5,7,9,13,16-17H,6,8,10-12H2,1-2H3/t16-,17+/m1/s1
FORMULA=C26H24N2O5
PUBMED=N/A
SUBMITUSER=BIOADREM
LIBRARYQUALITY=0
SPECTRUMID=CCMSLIB00000079620
SCANS=1831
ID=CCMSLIB00000079620
115.0542261926 	 0.23
128.0620512247 	 1.43
129.0698762568 	 0.51
143.085526321 	 2.03
148.0756899162 	 3.67
152.0580284793 	 0.32
153.0698762568 	 0.85
154.0777012889 	 0.36
155.0815035756 	 0.74
168.0569658468 	 0.31
171.0804409431 	 2.06
183.0804409431 	 0.2
199.0753555652 	 9.38
200.0791578519 	 0.98
227.0702701873 	 100
228.074072474 	 20.08
255.0651848094 	 6.63
445.1757978913 	 1.78
END IONS

BEGIN IONS
PEPMASS=439.2246
CHARGE=1
MSLEVEL=2
RT=0
SOURCE_INSTRUMENT=qTOF
FILENAME=CCMSLIB00000079621.ms
IONMODE=Positive
ORGANISM=Natural
NAME=MLS001158080-01!N-[3-(2-oxopyrrolidin-1-yl)propyl]-3-(2,3,5,9-tetramethyl-7-oxofuro[3,2-g]chromen-6-yl)propanamide
PI=GNPS
DATACOLLECTOR=GNPS
SMILES=Cc1c(C)oc2c(C)c3c(cc12)c(C)c(CCC(=NCCCN1CCCC1=O)O)c(=O)o3
INCHI=InChI=1S/C25H30N2O5/c1-14-17(4)31-23-16(3)24-20(13-19(14)23)15(2)18(25(30)32-24)8-9-21(28)26-10-6-12-27-11-5-7-22(27)29/h13H,5-12H2,1-4H3,(H,26,28)
FORMULA=C25H30N2O5
PUBMED=N/A
SUBMITUSER=BIOADREM
LIBRARYQUALITY=0
SPECTRUMID=CCMSLIB00000079621
SCANS=1832
ID=CCMSLIB00000079621
141.0658535114 	 0.23
142.0736785435 	 0.24
143.0815035756 	 0.51
156.0893286077 	 0.22
168.0893286077 	 0.31
171.112803704 	 0.53
184.0842432298 	 0.51
185.0920682619 	 0.24
196.0842432298 	 0.45
198.099893294 	 0.5
199.1077183261 	 0.96
210.099893294 	 0.34
211.0713328198 	 0.23
211.1077183261 	 0.51
212.0791578519 	 1.04
226.0948079161 	 0.79
227.1066556936 	 18.13
241.1223057578 	 1.23
255.1015703157 	 100
256.1053726024 	 25.78
269.1172203799 	 16.48
297.112135002 	 24.26
439.2227480839 	 0.04
END IONS

BEGIN IONS
PEPMASS=412.169
CHARGE=1
MSLEVEL=2
RT=0
SOURCE_INSTRUMENT=qTOF
FILENAME=CCMSLIB00000079622.ms
IONMODE=Positive
ORGANISM=Natural
NAME=MLS001076856-01!
PI=GNPS
DATACOLLECTOR=GNPS
SMILES=CCCOc1ccc(cc1)C(=NC(=S)N1C[C@H]2C[C@H](C1)c1cccc(=O)n1C2)O
INCHI=InChI=1S/C22H25N3O3S/c1-2-10-28-18-8-6-16(7-9-18)21(27)23-22(29)24-12-15-11-17(14-24)19-4-3-5-20(26)25(19)13-15/h3-9,15,17H,2,10-14H2,1H3,(H,23,27,29)/t15-,17-/m1/s1
FORMULA=C22H25N3O3S
PUBMED=N/A
SUBMITUSER=BIOADREM
LIBRARYQUALITY=0
SPECTRUMID=CCMSLIB00000079622
SCANS=1833
ID=CCMSLIB00000079622
110.047463793 	 0.37
117.0573001978 	 0.45
121.0284053726 	 100
131.072950262 	 0.6
132.0443897878 	 0.51
133.0522148199 	 0.49
146.060039852 	 1.26
147.0678648841 	 0.76
148.0756899162 	 15.34
154.0651252299 	 0.37
158.060039852 	 0.43
160.0756899162 	 4.79
162.0913399804 	 0.58
163.0753555652 	 54.07
172.0756899162 	 0.7
174.0913399804 	 3.34
187.0865889535 	 1.19
191.1178890819 	 39.32
233.0743097077 	 8.53
412.1689383744 	 0
END IONS

BEGIN IONS
PEPMASS=510.26
CHARGE=1
MSLEVEL=2
RT=0
SOURCE_INSTRUMENT=qTOF
FILENAME=CCMSLIB00000079623.ms
IONMODE=Positive
ORGANISM=Natural
NAME=MLS001140509-01!(2R)-2-[[(2S)-2-[[1-[(2-methylpropan-2-yl)oxycarbonyl]-4-phenylpiperidine-4-carbonyl]amino]propanoyl]amino]-2-phenylacetic acid
PI=GNPS
DATACOLLECTOR=GNPS
SMILES=C[C@@H](C(=N[C@H](c1ccccc1)C(=O)O)O)N=C(C1(CCN(CC1)C(=O)OC(C)(C)C)c1ccccc1)O
INCHI=InChI=1S/C28H35N3O6/c1-19(23(32)30-22(24(33)34)20-11-7-5-8-12-20)29-25(35)28(21-13-9-6-10-14-21)15-17-31(18-16-28)26(36)37-27(2,3)4/h5-14,19,22H,15-18H2,1-4H3,(H,29,35)(H,30,32)(H,33,34)/t19-,22+/m0/s1
FORMULA=C28H35N3O6
PUBMED=N/A
SUBMITUSER=BIOADREM
LIBRARYQUALITY=0
SPECTRUMID=CCMSLIB00000079623
SCANS=1834
ID=CCMSLIB00000079623
100.0393044099 	 0.91
105.0698762568 	 0.85
106.0651252299 	 5.25
107.0491408147 	 0.63
115.0542261926 	 0.49
117.0698762568 	 2.14
126.0549544741 	 0.55
128.0620512247 	 0.72
131.085526321 	 4.77
133.1011763852 	 0.75
135.0440554368 	 7.38
143.085526321 	 2.47
152.0706045383 	 3.73
159.0804409431 	 0.35
160.1120754225 	 100
170.0964253583 	 0.57
186.0913399804 	 0.72
187.1229744598 	 0.35
188.1069900446 	 38.33
204.1019046667 	 21.06
216.1019046667 	 1.09
231.1491892103 	 1.01
259.1441038324 	 11.52
410.2074323707 	 1.26
510.2598618717 	 0
END IONS

BEGIN IONS
PEPMASS=418.129
CHARGE=1
MSLEVEL=2
RT=0
SOURCE_INSTRUMENT=qTOF
FILENAME=CCMSLIB00000079624.ms
IONMODE=Positive
ORGANISM=Natural
NAME=MLS001141251-01!(2S)-2-[[2-(6-oxobenzo[c]chromen-3-yl)oxyacetyl]amino]-3-phenylpropanoic acid
PI=GNPS
DATACOLLECTOR=GNPS
SMILES=c1ccc(cc1)C[C@@H](C(=O)O)N=C(COc1ccc2c3ccccc3c(=O)oc2c1)O
INCHI=InChI=1S/C24H19NO6/c26-22(25-20(23(27)28)12-15-6-2-1-3-7-15)14-30-16-10-11-18-17-8-4-5-9-19(17)24(29)31-21(18)13-16/h1-11,13,20H,12,14H2,(H,25,26)(H,27,28)/t20-/m0/s1
FORMULA=C24H19NO6
PUBMED=N/A
SUBMITUSER=BIOADREM
LIBRARYQUALITY=0
SPECTRUMID=CCMSLIB00000079624
SCANS=1835
ID=CCMSLIB00000079624
103.0542261926 	 5.77
104.0494751657 	 1.38
105.0698762568 	 30.23
115.0542261926 	 9.07
117.0573001978 	 17.71
119.072950262 	 1.22
120.0807752941 	 27.78
131.0491408147 	 1.23
132.0807752941 	 84.29
139.0542261926 	 28.06
141.0698762568 	 9.07
150.0913399804 	 1.23
152.0620512247 	 4.89
153.0698762568 	 21.49
157.0647908789 	 3.74
167.0491408147 	 100
169.0647908789 	 12.01
171.0440554368 	 2.55
178.0862546025 	 1.06
184.0518804689 	 1.42
195.0440554368 	 32.85
197.059705501 	 37.22
199.0389700589 	 1.88
212.046795091 	 3.99
213.0546201231 	 4.73
225.0546201231 	 49.69
252.0655191604 	 1.28
280.0604337825 	 0.99
372.1230340393 	 1.36
418.1285133477 	 0
END IONS

BEGIN IONS
PEPMASS=416.207
CHARGE=1
MSLEVEL=2
RT=0
SOURCE_INSTRUMENT=qTOF
FILENAME=CCMSLIB00000079625.ms
IONMODE=Positive
ORGANISM=Natural
NAME=MLS001140901-01!4-[[2-(3,4,7-trimethyl-2-oxochromen-5-yl)oxypropanoylamino]methyl]cyclohexane-1-carboxylic acid
PI=GNPS
DATACOLLECTOR=GNPS
SMILES=Cc1cc(c2c(C)c(C)c(=O)oc2c1)OC(C)C(=NC[C@H]1CC[C@@H](CC1)C(=O)O)O
INCHI=InChI=1S/C23H29NO6/c1-12-9-18(20-13(2)14(3)23(28)30-19(20)10-12)29-15(4)21(25)24-11-16-5-7-17(8-6-16)22(26)27/h9-10,15-17H,5-8,11H2,1-4H3,(H,24,25)(H,26,27)/t15?,16-,17-
FORMULA=C23H29NO6
PUBMED=N/A
SUBMITUSER=BIOADREM
LIBRARYQUALITY=0
SPECTRUMID=CCMSLIB00000079625
SCANS=1836
ID=CCMSLIB00000079625
95.085526321 	 2.74
110.0964253583 	 1.49
111.1042503904 	 2.37
112.1120754225 	 1.21
121.0647908789 	 4.89
131.085526321 	 1.63
133.1011763852 	 1.35
135.0804409431 	 1.04
138.1277254867 	 5.64
139.1355505188 	 0.84
140.1069900446 	 12.52
144.0569658468 	 0.76
144.0933513531 	 0.77
146.072615911 	 1.27
147.1168264494 	 1.37
149.0960910073 	 4.25
152.1069900446 	 1.12
157.1011763852 	 0.87
159.0804409431 	 3.38
161.059705501 	 3.38
161.0960910073 	 1.49
166.1226401088 	 2.55
167.1304651409 	 11.15
172.0882659752 	 0.9
175.1117410715 	 2.11
184.1332047951 	 5.81
185.0960910073 	 0.81
187.0753555652 	 0.79
187.1117410715 	 0.74
203.1066556936 	 8.05
205.0859202515 	 100
231.1015703157 	 26.76
259.0964849378 	 8.87
276.1230340393 	 3.76
370.2012843603 	 10.56
416.2067636687 	 0
END IONS

BEGIN IONS
PEPMASS=493.3159
CHARGE=1
MSLEVEL=2
RT=0
SOURCE_INSTRUMENT=qTOF
FILENAME=CCMSLIB00000079626.ms
IONMODE=Positive
ORGANISM=Natural
NAME=MLS001142582-01!1-[(2S)-2-amino-4-methylpentanoyl]-N-[(2S)-1-(4-ethylanilino)-1-oxo-3-phenylpropan-2-yl]piperidine-4-carboxamide
PI=GNPS
DATACOLLECTOR=GNPS
SMILES=CCc1ccc(cc1)NC(=O)[C@H](Cc1ccccc1)N=C(C1CCN(CC1)C(=O)[C@H](CC(C)C)N)O
INCHI=InChI=1S/C29H40N4O3/c1-4-21-10-12-24(13-11-21)31-28(35)26(19-22-8-6-5-7-9-22)32-27(34)23-14-16-33(17-15-23)29(36)25(30)18-20(2)3/h5-13,20,23,25-26H,4,14-19,30H2,1-3H3,(H,31,35)(H,32,34)/t25-,26-/m0/s1
FORMULA=C29H40N4O3
PUBMED=N/A
SUBMITUSER=BIOADREM
LIBRARYQUALITY=0
SPECTRUMID=CCMSLIB00000079626
SCANS=1837
ID=CCMSLIB00000079626
97.0647908789 	 0.31
103.0542261926 	 0.84
105.0698762568 	 0.6
112.0756899162 	 100
118.0651252299 	 0.34
120.0807752941 	 39.98
122.0964253583 	 1.09
132.0807752941 	 0.78
140.0706045383 	 0.28
160.0756899162 	 0.37
166.0862546025 	 0.31
188.1433755509 	 5.48
231.1491892103 	 21.93
252.138290173 	 0.34
259.1441038324 	 36.51
269.1648392745 	 11.09
285.1597538966 	 0.43
327.2067040892 	 1.59
344.2332531907 	 8.34
362.2226885044 	 0.36
372.2281678128 	 3.27
380.2332531907 	 14.58
476.2907680696 	 0.3
493.3173171711 	 2.13
END IONS

BEGIN IONS
PEPMASS=483.24
CHARGE=1
MSLEVEL=2
RT=0
SOURCE_INSTRUMENT=qTOF
FILENAME=CCMSLIB00000079627.ms
IONMODE=Positive
ORGANISM=Natural
NAME=MLS001158986-01!(3S)-N-[(2S)-3-(1H-indol-3-yl)-1-[(2-methoxyphenyl)methylamino]-1-oxopropan-2-yl]-1,2,3,4-tetrahydroisoquinoline-3-carboxamide
PI=GNPS
DATACOLLECTOR=GNPS
SMILES=COc1ccccc1CN=C([C@H](Cc1c[nH]c2ccccc12)N=C([C@@H]1Cc2ccccc2CN1)O)O
INCHI=InChI=1S/C29H30N4O3/c1-36-27-13-7-4-10-21(27)17-32-28(34)26(15-22-18-30-24-12-6-5-11-23(22)24)33-29(35)25-14-19-8-2-3-9-20(19)16-31-25/h2-13,18,25-26,30-31H,14-17H2,1H3,(H,32,34)(H,33,35)/t25-,26-/m0/s1
FORMULA=C29H30N4O3
PUBMED=N/A
SUBMITUSER=BIOADREM
LIBRARYQUALITY=0
SPECTRUMID=CCMSLIB00000079627
SCANS=1838
ID=CCMSLIB00000079627
103.0542261926 	 0.9
115.0542261926 	 3.78
117.0573001978 	 5.55
121.0647908789 	 44.02
123.0678648841 	 0.34
130.0651252299 	 47.03
132.0807752941 	 100
138.0913399804 	 0.82
142.0651252299 	 1.24
144.0807752941 	 5.11
156.0807752941 	 1
159.0916743314 	 47.35
169.0760242672 	 1.34
170.060039852 	 4.13
187.0865889535 	 44.78
236.1069900446 	 2.85
250.1226401088 	 20.46
262.1226401088 	 2.55
278.1175547309 	 1.88
279.1491892103 	 1.58
290.1175547309 	 0.58
307.1441038324 	 5.31
318.1600882476 	 2.38
346.1550028697 	 0.5
483.2390668501 	 0
END IONS

BEGIN IONS
PEPMASS=409.2231
CHARGE=1
MSLEVEL=2
RT=0
SOURCE_INSTRUMENT=qTOF
FILENAME=CCMSLIB00000079628.ms
IONMODE=Positive
ORGANISM=Natural
NAME=MLS001142923-01!
PI=GNPS
DATACOLLECTOR=GNPS
SMILES=Cc1ccc(C)c(c1)N=C(CCN=C(N1C[C@H]2C[C@@H](C1)c1cccc(=O)n1C2)O)O
INCHI=InChI=1S/C23H28N4O3/c1-15-6-7-16(2)19(10-15)25-21(28)8-9-24-23(30)26-12-17-11-18(14-26)20-4-3-5-22(29)27(20)13-17/h3-7,10,17-18H,8-9,11-14H2,1-2H3,(H,24,30)(H,25,28)/t17-,18+/m1/s1
FORMULA=C23H28N4O3
PUBMED=N/A
SUBMITUSER=BIOADREM
LIBRARYQUALITY=0
SPECTRUMID=CCMSLIB00000079628
SCANS=1839
ID=CCMSLIB00000079628
105.0698762568 	 1.86
107.072950262 	 2.49
122.0964253583 	 20.95
131.072950262 	 1.38
133.0522148199 	 2.01
134.060039852 	 1.43
143.072950262 	 1.17
146.060039852 	 8.28
146.0964253583 	 5.58
148.0756899162 	 25.83
158.0964253583 	 7.57
159.0678648841 	 1.12
160.0756899162 	 18.87
172.0756899162 	 2.3
174.0913399804 	 9.96
176.1069900446 	 3.92
189.1022390177 	 17.51
191.1178890819 	 61.63
199.0865889535 	 0.62
217.0971536398 	 100
219.112803704 	 12.64
234.1237027413 	 72.21
246.1237027413 	 50.75
260.1393528055 	 1.22
288.1342674276 	 46.42
391.2128520996 	 0.85
409.2234167859 	 1.09
END IONS

BEGIN IONS
PEPMASS=521.2377
CHARGE=1
MSLEVEL=2
RT=0
SOURCE_INSTRUMENT=qTOF
FILENAME=CCMSLIB00000079629.ms
IONMODE=Positive
ORGANISM=Natural
NAME=MLS001140695-01!(2R)-1-[(2S)-2-[[(2S)-2-(2,4-dioxo-1H-quinazolin-3-yl)-3-phenylpropanoyl]amino]-3-methylpentanoyl]pyrrolidine-2-carboxylic acid
PI=GNPS
DATACOLLECTOR=GNPS
SMILES=CCC(C)[C@@H](C(=O)N1CCC[C@@H]1C(=O)O)N=C([C@H](Cc1ccccc1)n1c(=O)c2ccccc2nc1O)O
INCHI=InChI=1S/C28H32N4O6/c1-3-17(2)23(26(35)31-15-9-14-21(31)27(36)37)30-24(33)22(16-18-10-5-4-6-11-18)32-25(34)19-12-7-8-13-20(19)29-28(32)38/h4-8,10-13,17,21-23H,3,9,14-16H2,1-2H3,(H,29,38)(H,30,33)(H,36,37)/t17?,21-,22+,23+/m1/s1
FORMULA=C28H32N4O6
PUBMED=N/A
SUBMITUSER=BIOADREM
LIBRARYQUALITY=0
SPECTRUMID=CCMSLIB00000079629
SCANS=1840
ID=CCMSLIB00000079629
103.0542261926 	 3.79
120.0443897878 	 0.84
131.0491408147 	 0.33
145.0396387609 	 0.56
146.0236543457 	 9.4
163.0502034472 	 6.33
219.0916743314 	 0.25
222.0886599057 	 0.72
247.0865889535 	 0.94
248.0903912402 	 0.42
265.0971536398 	 100
266.1009559265 	 15.62
275.0815035756 	 1.41
293.0920682619 	 15.06
294.0958705486 	 2.94
521.2394607806 	 0.07
END IONS

BEGIN IONS
PEPMASS=434.1693
CHARGE=1
MSLEVEL=2
RT=0
SOURCE_INSTRUMENT=qTOF
FILENAME=CCMSLIB00000079630.ms
IONMODE=Positive
ORGANISM=Natural
NAME=MLS001158633-01!N-(3-imidazol-1-ylpropyl)-2-[4-(4-methoxyphenyl)-2-oxochromen-7-yl]oxyacetamide
PI=GNPS
DATACOLLECTOR=GNPS
SMILES=COc1ccc(cc1)c1cc(=O)oc2cc(ccc12)OCC(=NCCCn1ccnc1)O
INCHI=InChI=1S/C24H23N3O5/c1-30-18-5-3-17(4-6-18)21-14-24(29)32-22-13-19(7-8-20(21)22)31-15-23(28)26-9-2-11-27-12-10-25-16-27/h3-8,10,12-14,16H,2,9,11,15H2,1H3,(H,26,28)
FORMULA=C24H23N3O5
PUBMED=N/A
SUBMITUSER=BIOADREM
LIBRARYQUALITY=0
SPECTRUMID=CCMSLIB00000079630
SCANS=1841
ID=CCMSLIB00000079630
99.0678648841 	 34.45
135.0440554368 	 2.33
149.0233199947 	 0.58
152.0620512247 	 0.39
165.0698762568 	 0.7
182.072615911 	 0.45
194.0712732403 	 0.53
195.0790982724 	 3.9
197.0960910073 	 1.09
199.0753555652 	 0.66
209.0947483366 	 0.42
210.0675305331 	 0.81
211.0740128945 	 2.37
212.0818379266 	 0.62
213.0910056294 	 0.91
223.0740128945 	 1.38
225.0910056294 	 3.28
227.0702701873 	 6.64
228.074072474 	 0.94
235.0753555652 	 2.02
237.0896629587 	 0.75
238.0624451552 	 0.45
239.0689275166 	 3.9
240.0767525487 	 2.42
251.0689275166 	 4.61
253.0859202515 	 7.8
254.0897225382 	 1.15
263.0702701873 	 0.54
265.0845775808 	 0.47
268.0716671708 	 2.48
269.0794922029 	 1.71
280.0968192888 	 0.44
281.0808348736 	 100
283.0839088788 	 2.42
291.0651848094 	 0.7
292.0968192888 	 0.44
293.0808348736 	 1.19
308.0917339109 	 16.4
309.0757494957 	 23.81
310.0822318571 	 5.29
311.0788235009 	 0.93
320.0917339109 	 0.6
322.1073839751 	 0.79
338.1022985972 	 2.01
348.1230340393 	 0.94
366.1335987256 	 73.57
368.1366727308 	 2.68
434.1710468644 	 4.85
END IONS

BEGIN IONS
PEPMASS=270.1486
CHARGE=1
MSLEVEL=2
RT=0
SOURCE_INSTRUMENT=qTOF
FILENAME=CCMSLIB00000079631.ms
IONMODE=Positive
ORGANISM=Natural
NAME=MLS001048977-01!
PI=GNPS
DATACOLLECTOR=GNPS
SMILES=CN1CCc2ccccc2c2c(ccc(c2O)OC)C1
INCHI=InChI=1S/C17H19NO2/c1-18-10-9-12-5-3-4-6-14(12)16-13(11-18)7-8-15(20-2)17(16)19/h3-8,19H,9-11H2,1-2H3
FORMULA=C17H19NO2
PUBMED=N/A
SUBMITUSER=BIOADREM
LIBRARYQUALITY=0
SPECTRUMID=CCMSLIB00000079631
SCANS=1842
ID=CCMSLIB00000079631
141.0698762568 	 1.73
152.0620512247 	 3.98
153.0698762568 	 5.91
165.0698762568 	 12.9
166.0777012889 	 11.4
167.085526321 	 5.03
168.0933513531 	 3.23
176.0620512247 	 1.06
177.0698762568 	 2.41
178.0777012889 	 44.67
179.085526321 	 100
181.0647908789 	 26.9
181.1011763852 	 6.04
183.1168264494 	 1.69
189.0698762568 	 2.72
191.085526321 	 3.88
192.0569658468 	 2.02
194.072615911 	 6.77
194.0964253583 	 2.76
195.0804409431 	 16.43
196.0882659752 	 21.39
198.0675305331 	 1.45
204.0807752941 	 1.35
205.0647908789 	 2.09
206.072615911 	 2.09
207.0804409431 	 17.61
209.059705501 	 4.61
209.0960910073 	 9.49
211.1117410715 	 8.92
213.0910056294 	 1.2
220.1120754225 	 3.27
222.0913399804 	 6.62
223.0991650125 	 3.65
224.0831805973 	 10.94
237.1148150767 	 3.92
238.1226401088 	 2.69
239.1066556936 	 6.03
255.125379763 	 2.06
270.1488548593 	 3.71
END IONS

BEGIN IONS
PEPMASS=349.092
CHARGE=1
MSLEVEL=2
RT=0
SOURCE_INSTRUMENT=qTOF
FILENAME=CCMSLIB00000079632.ms
IONMODE=Positive
ORGANISM=Natural
NAME=MLS000863583-01!2-hydroxy-6-(4-hydroxy-2-methoxy-6-methoxycarbonylphenoxy)-4-methylbenzoic acid
PI=GNPS
DATACOLLECTOR=GNPS
SMILES=Cc1cc(c(c(c1)Oc1c(cc(cc1OC)O)C(=O)OC)C(=O)O)O
INCHI=InChI=1S/C17H16O8/c1-8-4-11(19)14(16(20)21)12(5-8)25-15-10(17(22)24-3)6-9(18)7-13(15)23-2/h4-7,18-19H,1-3H3,(H,20,21)
FORMULA=C17H16O8
PUBMED=N/A
SUBMITUSER=BIOADREM
LIBRARYQUALITY=0
SPECTRUMID=CCMSLIB00000079632
SCANS=1843
ID=CCMSLIB00000079632
135.0076699305 	 2.73
145.0647908789 	 4.68
200.046795091 	 8.63
201.0546201231 	 21.77
227.0702701873 	 9.12
228.0417097131 	 16.18
229.0495347452 	 34.52
255.0651848094 	 5.28
256.0730098415 	 12.58
257.0444493673 	 41.58
271.0600994315 	 13.63
272.0679244636 	 100
284.0315389573 	 13
287.0913995599 	 24
299.0550140536 	 46.68
349.0917934904 	 0
END IONS

BEGIN IONS
PEPMASS=253.18
CHARGE=1
MSLEVEL=2
RT=0
SOURCE_INSTRUMENT=qTOF
FILENAME=CCMSLIB00000079633.ms
IONMODE=Positive
ORGANISM=Natural
NAME=MLS000876786-01!(4R,4aS,8aS)-4-hydroxy-4-(hydroxymethyl)-3,4a,8,8-tetramethyl-5,6,7,8a-tetrahydronaphthalen-1-one
PI=GNPS
DATACOLLECTOR=GNPS
SMILES=CC1=CC(=O)[C@H]2C(C)(C)CCC[C@]2(C)[C@]1(CO)O
INCHI=InChI=1S/C15H24O3/c1-10-8-11(17)12-13(2,3)6-5-7-14(12,4)15(10,18)9-16/h8,12,16,18H,5-7,9H2,1-4H3/t12-,14-,15+/m0/s1
FORMULA=C15H24O3
PUBMED=N/A
SUBMITUSER=BIOADREM
LIBRARYQUALITY=0
SPECTRUMID=CCMSLIB00000079633
SCANS=1844
ID=CCMSLIB00000079633
103.0542261926 	 5.14
105.0698762568 	 8.87
107.085526321 	 6.04
109.0647908789 	 2.13
115.0542261926 	 6.43
117.0698762568 	 5.68
119.085526321 	 5.42
128.0620512247 	 6.2
131.0491408147 	 6.12
131.085526321 	 7.21
133.1011763852 	 20.31
135.0804409431 	 100
141.0698762568 	 2.39
143.085526321 	 8.4
145.0647908789 	 11.44
145.1011763852 	 17.04
146.072615911 	 29.42
149.0960910073 	 20.52
157.1011763852 	 5.65
159.0804409431 	 5.21
160.0882659752 	 7
161.0960910073 	 65.63
175.1117410715 	 5.99
253.1798206367 	 0
END IONS

BEGIN IONS
PEPMASS=341.139
CHARGE=1
MSLEVEL=2
RT=0
SOURCE_INSTRUMENT=qTOF
FILENAME=CCMSLIB00000079634.ms
IONMODE=Positive
ORGANISM=Natural
NAME=MLS001360619-01!
PI=GNPS
DATACOLLECTOR=GNPS
SMILES=CC(=CCc1c(cc(c2C(=O)CC(c3ccc(cc3)O)Oc12)O)O)C
INCHI=InChI=1S/C20H20O5/c1-11(2)3-8-14-15(22)9-16(23)19-17(24)10-18(25-20(14)19)12-4-6-13(21)7-5-12/h3-7,9,18,21-23H,8,10H2,1-2H3
FORMULA=C20H20O5
PUBMED=N/A
SUBMITUSER=BIOADREM
LIBRARYQUALITY=0
SPECTRUMID=CCMSLIB00000079634
SCANS=1845
ID=CCMSLIB00000079634
97.0284053726 	 0.54
109.0284053726 	 1.57
111.0076699305 	 0.68
115.0542261926 	 0.27
119.0491408147 	 0.63
123.0076699305 	 5.89
137.0233199947 	 5.09
141.0182346168 	 0.8
141.0698762568 	 0.75
147.0076699305 	 0.48
147.0440554368 	 1.84
157.0647908789 	 0.77
165.0182346168 	 100
169.0647908789 	 0.74
171.0440554368 	 0.33
185.059705501 	 0.48
191.033884681 	 1.57
197.059705501 	 0.52
243.0651848094 	 0.59
285.0757494957 	 1.37
341.1383497525 	 0
END IONS

BEGIN IONS
PEPMASS=203.082
CHARGE=1
MSLEVEL=2
RT=0
SOURCE_INSTRUMENT=qTOF
FILENAME=CCMSLIB00000079635.ms
IONMODE=Positive
ORGANISM=Natural
NAME=MLS000728643-01!spiro[1H-indole-3,3'-pyrrolidine]-2,2'-dione
PI=GNPS
DATACOLLECTOR=GNPS
SMILES=c1ccc2c(c1)C1(CCN=C1O)C(=N2)O
INCHI=InChI=1S/C11H10N2O2/c14-9-11(5-6-12-9)7-3-1-2-4-8(7)13-10(11)15/h1-4H,5-6H2,(H,12,14)(H,13,15)
FORMULA=C11H10N2O2
PUBMED=N/A
SUBMITUSER=BIOADREM
LIBRARYQUALITY=0
SPECTRUMID=CCMSLIB00000079635
SCANS=1846
ID=CCMSLIB00000079635
103.0545368041 	 18.88
105.0701868683 	 14.24
112.0994993635 	 6.72
115.0545368041 	 48.96
117.0576108093 	 88.32
118.0654358414 	 22.72
128.0497857772 	 24.64
130.0654358414 	 74.08
132.0447003993 	 100
132.0810859056 	 91.04
140.0497857772 	 32.32
142.0654358414 	 28.8
142.0974879908 	 6.4
146.0603504635 	 14.08
158.0603504635 	 19.04
160.0760005277 	 42.56
203.0818141871 	 6.56
END IONS

BEGIN IONS
PEPMASS=408.196
CHARGE=1
MSLEVEL=2
RT=0
SOURCE_INSTRUMENT=qTOF
FILENAME=CCMSLIB00000079636.ms
IONMODE=Positive
ORGANISM=Natural
NAME=MLS001140851-01!4-[[[(2S)-2-amino-4-methylsulfanylbutanoyl]amino]methyl]-N-(1,3-benzodioxol-5-yl)cyclohexane-1-carboxamide
PI=GNPS
DATACOLLECTOR=GNPS
SMILES=CSCC[C@@H](C(=NC[C@H]1CC[C@@H](CC1)C(=Nc1ccc2c(c1)OCO2)O)O)N
INCHI=InChI=1S/C20H29N3O4S/c1-28-9-8-16(21)20(25)22-11-13-2-4-14(5-3-13)19(24)23-15-6-7-17-18(10-15)27-12-26-17/h6-7,10,13-14,16H,2-5,8-9,11-12,21H2,1H3,(H,22,25)(H,23,24)/t13-,14-,16-/m0/s1
FORMULA=C20H29N3O4S
PUBMED=N/A
SUBMITUSER=BIOADREM
LIBRARYQUALITY=0
SPECTRUMID=CCMSLIB00000079636
SCANS=1847
ID=CCMSLIB00000079636
95.085526321 	 22.11
104.0528459841 	 29.56
108.0443897878 	 10.45
110.0964253583 	 5.81
112.1120754225 	 15.87
122.0964253583 	 7.38
132.0841461125 	 2.1
136.0393044099 	 87.13
137.0419469468 	 6.13
138.0549544741 	 66.58
139.057597011 	 6.35
164.034219032 	 23.61
167.1178890819 	 7.67
174.0549544741 	 4.32
192.0655191604 	 13.66
195.1491892103 	 34.34
202.1226401088 	 2.64
223.1441038324 	 10.52
226.1260109272 	 2.89
232.0968192888 	 2.85
242.1175547309 	 7.74
243.1201972678 	 2.39
260.1281194172 	 100
261.1307619541 	 21.43
277.1546685187 	 10.66
278.1573110556 	 3.64
360.1917823065 	 12.7
408.1951531249 	 0
END IONS

BEGIN IONS
PEPMASS=242.129
CHARGE=1
MSLEVEL=2
RT=0
SOURCE_INSTRUMENT=qTOF
FILENAME=CCMSLIB00000079637.ms
IONMODE=Positive
ORGANISM=Natural
NAME=MLS001048919-01!(E)-N-[2-(1H-imidazol-5-yl)ethyl]-3-phenylprop-2-enamide
PI=GNPS
DATACOLLECTOR=GNPS
SMILES=c1ccc(cc1)/C=C/C(=NCCc1cnc[nH]1)O
INCHI=InChI=1S/C14H15N3O/c18-14(7-6-12-4-2-1-3-5-12)16-9-8-13-10-15-11-17-13/h1-7,10-11H,8-9H2,(H,15,17)(H,16,18)/b7-6+
FORMULA=C14H15N3O
PUBMED=N/A
SUBMITUSER=BIOADREM
LIBRARYQUALITY=0
SPECTRUMID=CCMSLIB00000079637
SCANS=1848
ID=CCMSLIB00000079637
95.060374203 	 13.69
102.0464011605 	 3.14
103.0542261926 	 100
112.0869233045 	 5.64
131.0491408147 	 79.24
242.1287881192 	 0
END IONS

BEGIN IONS
PEPMASS=449.171
CHARGE=1
MSLEVEL=2
RT=0
SOURCE_INSTRUMENT=qTOF
FILENAME=CCMSLIB00000079638.ms
IONMODE=Positive
ORGANISM=Natural
NAME=MLS001147804-01!(2S)-3-(1H-indol-3-yl)-2-[[2-(3,4,7-trimethyl-2-oxochromen-5-yl)oxyacetyl]amino]propanoic acid
PI=GNPS
DATACOLLECTOR=GNPS
SMILES=Cc1cc(c2c(C)c(C)c(=O)oc2c1)OCC(=N[C@@H](Cc1c[nH]c2ccccc12)C(=O)O)O
INCHI=InChI=1S/C25H24N2O6/c1-13-8-20(23-14(2)15(3)25(31)33-21(23)9-13)32-12-22(28)27-19(24(29)30)10-16-11-26-18-7-5-4-6-17(16)18/h4-9,11,19,26H,10,12H2,1-3H3,(H,27,28)(H,29,30)/t19-/m0/s1
FORMULA=C25H24N2O6
PUBMED=N/A
SUBMITUSER=BIOADREM
LIBRARYQUALITY=0
SPECTRUMID=CCMSLIB00000079638
SCANS=1849
ID=CCMSLIB00000079638
103.0542261926 	 3.22
105.0698762568 	 3.17
115.0542261926 	 5.1
118.0651252299 	 12.94
121.0647908789 	 3.21
128.0620512247 	 3.84
129.0698762568 	 5.71
130.0651252299 	 100
132.0807752941 	 14.8
141.0573001978 	 3.27
142.0651252299 	 16.79
143.072950262 	 23.18
144.0807752941 	 49.78
146.060039852 	 34.66
148.0518804689 	 2.46
149.0960910073 	 2.4
154.0651252299 	 9.65
156.0807752941 	 9.03
157.0760242672 	 10.75
158.0838492993 	 29.08
161.059705501 	 7.53
161.0960910073 	 9.63
170.060039852 	 52.42
171.0916743314 	 33.38
174.0675305331 	 3.74
176.0831805973 	 19.01
181.0760242672 	 2.85
182.0838492993 	 3.45
184.0756899162 	 3.55
185.0709388893 	 5.54
187.0753555652 	 2.99
188.0706045383 	 44.23
189.0910056294 	 43.03
199.0865889535 	 6.96
200.0944139856 	 13.55
204.0780952194 	 8.43
205.0859202515 	 20.45
217.0859202515 	 27.59
262.1073839751 	 4.14
403.165233205 	 9.66
449.1707125134 	 0
END IONS

BEGIN IONS
PEPMASS=281.1278
CHARGE=1
MSLEVEL=2
RT=0
SOURCE_INSTRUMENT=qTOF
FILENAME=CCMSLIB00000079639.ms
IONMODE=Positive
ORGANISM=Natural
NAME=MLS000876825-01!3-benzyl-4-methyl-1,3-dihydro-1,4-benzodiazepine-2,5-dione
PI=GNPS
DATACOLLECTOR=GNPS
SMILES=CN1C(Cc2ccccc2)C(=Nc2ccccc2C1=O)O
INCHI=InChI=1S/C17H16N2O2/c1-19-15(11-12-7-3-2-4-8-12)16(20)18-14-10-6-5-9-13(14)17(19)21/h2-10,15H,11H2,1H3,(H,18,20)
FORMULA=C17H16N2O2
PUBMED=N/A
SUBMITUSER=BIOADREM
LIBRARYQUALITY=0
SPECTRUMID=CCMSLIB00000079639
SCANS=1850
ID=CCMSLIB00000079639
103.0542261926 	 24.48
105.0698762568 	 16.57
118.0651252299 	 21.1
119.072950262 	 65.87
120.0443897878 	 73.54
132.0443897878 	 21.43
133.0522148199 	 7.25
134.0964253583 	 100
146.0236543457 	 66.69
147.0678648841 	 31.08
148.0393044099 	 49.55
161.047129442 	 33.47
167.085526321 	 9.56
177.0698762568 	 5.85
194.0964253583 	 6.51
222.0913399804 	 12.45
250.0862546025 	 7.09
281.1284537682 	 11.05
END IONS

BEGIN IONS
PEPMASS=190.0487
CHARGE=1
MSLEVEL=2
RT=0
SOURCE_INSTRUMENT=qTOF
FILENAME=CCMSLIB00000079640.ms
IONMODE=Positive
ORGANISM=Natural
NAME=MLS002694822-01!2-oxo-1H-quinoline-4-carboxylic acid
PI=GNPS
DATACOLLECTOR=GNPS
SMILES=c1ccc2c(c1)c(cc(n2)O)C(=O)O
INCHI=InChI=1S/C10H7NO3/c12-9-5-7(10(13)14)6-3-1-2-4-8(6)11-9/h1-5H,(H,11,12)(H,13,14)
FORMULA=C10H7NO3
PUBMED=N/A
SUBMITUSER=BIOADREM
LIBRARYQUALITY=0
SPECTRUMID=CCMSLIB00000079640
SCANS=1851
ID=CCMSLIB00000079640
100.0181750373 	 27.38
101.0385761284 	 48.21
102.0338251015 	 24.4
116.0494751657 	 100
119.0491408147 	 18.45
128.0494751657 	 67.86
129.0573001978 	 12.5
144.0443897878 	 30.95
146.060039852 	 29.17
154.0287397236 	 28.57
172.0393044099 	 71.43
190.0498690962 	 150
END IONS

BEGIN IONS
PEPMASS=329.175
CHARGE=1
MSLEVEL=2
RT=0
SOURCE_INSTRUMENT=qTOF
FILENAME=CCMSLIB00000079641.ms
IONMODE=Positive
ORGANISM=Natural
NAME=MLS000876942-01!5-hydroxy-7-(4-hydroxy-3-methoxyphenyl)-1-phenylheptan-3-one
PI=GNPS
DATACOLLECTOR=GNPS
SMILES=COc1cc(CCC(CC(=O)CCc2ccccc2)O)ccc1O
INCHI=InChI=1S/C20H24O4/c1-24-20-13-16(9-12-19(20)23)8-11-18(22)14-17(21)10-7-15-5-3-2-4-6-15/h2-6,9,12-13,18,22-23H,7-8,10-11,14H2,1H3
FORMULA=C20H24O4
PUBMED=N/A
SUBMITUSER=BIOADREM
LIBRARYQUALITY=0
SPECTRUMID=CCMSLIB00000079641
SCANS=1852
ID=CCMSLIB00000079641
103.0542261926 	 36.7
105.0698762568 	 38.72
117.0698762568 	 2.69
122.0362304047 	 8.69
131.0491408147 	 100
137.059705501 	 86.37
163.0753555652 	 16.83
329.1747352588 	 0
END IONS

BEGIN IONS
PEPMASS=470.1448
CHARGE=1
MSLEVEL=2
RT=0
SOURCE_INSTRUMENT=qTOF
FILENAME=CCMSLIB00000079642.ms
IONMODE=Positive
ORGANISM=Natural
NAME=MLS001141256-01!
PI=GNPS
DATACOLLECTOR=GNPS
SMILES=COc1ccc(c(c1)/C=C\1/C(=O)c2ccc(cc2O1)OCC(=O)N1CC(C[C@H]1C(=O)O)O)OC
INCHI=InChI=1S/C24H23NO9/c1-31-15-4-6-19(32-2)13(7-15)8-21-23(28)17-5-3-16(10-20(17)34-21)33-12-22(27)25-11-14(26)9-18(25)24(29)30/h3-8,10,14,18,26H,9,11-12H2,1-2H3,(H,29,30)/b21-8-/t14?,18-/m0/s1
FORMULA=C24H23NO9
PUBMED=N/A
SUBMITUSER=BIOADREM
LIBRARYQUALITY=0
SPECTRUMID=CCMSLIB00000079642
SCANS=1853
ID=CCMSLIB00000079642
110.060039852 	 3.49
114.0549544741 	 7.64
116.0706045383 	 19.78
128.0706045383 	 3.88
133.0284053726 	 2.76
137.0233199947 	 9.3
144.0655191604 	 32.69
148.0518804689 	 34.84
149.0233199947 	 2.64
163.0389700589 	 10.79
172.0604337825 	 5.4
175.0389700589 	 6.4
176.046795091 	 2.73
197.059705501 	 3.78
241.0495347452 	 6.4
253.0495347452 	 4.15
267.0651848094 	 34.03
269.0444493673 	 86.11
270.0886599057 	 4.3
279.0651848094 	 26.98
280.0730098415 	 4.96
282.0522743994 	 5.81
282.0886599057 	 3.05
284.0679244636 	 63.28
285.0757494957 	 8.98
297.0757494957 	 3.2
298.0835745278 	 3.83
299.0913995599 	 100
301.0944735651 	 4.49
310.0835745278 	 10.3
311.0913995599 	 15.75
313.0706641178 	 2.61
325.1070496241 	 4.71
339.086314182 	 4.88
357.0968788683 	 5.98
378.1335987256 	 2.98
396.1441634119 	 4.3
440.0976071498 	 7.62
455.1210822461 	 9.3
470.1445573424 	 34.69
END IONS

BEGIN IONS
PEPMASS=430.223
CHARGE=1
MSLEVEL=2
RT=0
SOURCE_INSTRUMENT=qTOF
FILENAME=CCMSLIB00000079643.ms
IONMODE=Positive
ORGANISM=Natural
NAME=MLS001140850-01!4-[[2-(4-butyl-2-oxochromen-7-yl)oxypropanoylamino]methyl]cyclohexane-1-carboxylic acid
PI=GNPS
DATACOLLECTOR=GNPS
SMILES=CCCCc1cc(=O)oc2cc(ccc12)OC(C)C(=NC[C@H]1CC[C@@H](CC1)C(=O)O)O
INCHI=InChI=1S/C24H31NO6/c1-3-4-5-18-12-22(26)31-21-13-19(10-11-20(18)21)30-15(2)23(27)25-14-16-6-8-17(9-7-16)24(28)29/h10-13,15-17H,3-9,14H2,1-2H3,(H,25,27)(H,28,29)/t15?,16-,17-
FORMULA=C24H31NO6
PUBMED=N/A
SUBMITUSER=BIOADREM
LIBRARYQUALITY=0
SPECTRUMID=CCMSLIB00000079643
SCANS=1854
ID=CCMSLIB00000079643
95.085526321 	 3.8
105.0698762568 	 0.55
107.0491408147 	 0.98
110.0964253583 	 0.55
112.1120754225 	 3.02
121.0647908789 	 0.63
133.0647908789 	 0.83
135.0440554368 	 0.65
138.0913399804 	 1.44
138.1277254867 	 5
140.1069900446 	 17.22
147.0804409431 	 1.6
149.059705501 	 1.52
152.1069900446 	 1.11
161.059705501 	 1.35
163.0389700589 	 4.04
166.1226401088 	 2.21
167.1304651409 	 6.15
173.0960910073 	 0.62
175.0753555652 	 2.03
177.0546201231 	 1.17
184.1332047951 	 0.93
189.0546201231 	 11.25
189.1273911357 	 1.95
201.0910056294 	 1.78
203.0702701873 	 0.81
217.1223057578 	 6.03
219.1015703157 	 100
245.1172203799 	 37
273.112135002 	 2.33
290.1386841035 	 11.06
384.2169344245 	 9.81
430.2224137329 	 0
END IONS

BEGIN IONS
PEPMASS=421.1761
CHARGE=1
MSLEVEL=2
RT=0
SOURCE_INSTRUMENT=qTOF
FILENAME=CCMSLIB00000079644.ms
IONMODE=Positive
ORGANISM=Natural
NAME=MLS001032408-01!
PI=GNPS
DATACOLLECTOR=GNPS
SMILES=CCc1cc(=O)oc2cc(ccc12)OCC(=O)N1C[C@H]2C[C@@H](C1)c1cccc(=O)n1C2
INCHI=InChI=1S/C24H24N2O5/c1-2-16-9-24(29)31-21-10-18(6-7-19(16)21)30-14-23(28)25-11-15-8-17(13-25)20-4-3-5-22(27)26(20)12-15/h3-7,9-10,15,17H,2,8,11-14H2,1H3/t15-,17+/m1/s1
FORMULA=C24H24N2O5
PUBMED=N/A
SUBMITUSER=BIOADREM
LIBRARYQUALITY=0
SPECTRUMID=CCMSLIB00000079644
SCANS=1855
ID=CCMSLIB00000079644
104.0494751657 	 0.59
115.0542261926 	 1.02
117.0698762568 	 2.22
118.0651252299 	 0.61
119.085526321 	 0.59
122.060039852 	 2.2
130.0651252299 	 0.61
132.0807752941 	 1.03
133.0522148199 	 2.32
134.060039852 	 3.81
142.0651252299 	 0.8
145.0647908789 	 2.31
146.060039852 	 26.06
147.0678648841 	 10.83
148.0756899162 	 6.17
158.060039852 	 0.59
160.0756899162 	 18.69
172.0756899162 	 2.98
173.059705501 	 5.87
173.0835149483 	 11.87
175.0502034472 	 1.28
175.0753555652 	 2.82
188.0706045383 	 2.06
189.1022390177 	 100
191.0815035756 	 1.55
201.0658535114 	 0.99
203.0702701873 	 11.7
217.0971536398 	 1.84
232.1206287361 	 2.94
256.0968192888 	 1.22
403.165233205 	 0.71
421.1757978913 	 113.59
END IONS

BEGIN IONS
PEPMASS=449.138
CHARGE=1
MSLEVEL=2
RT=0
SOURCE_INSTRUMENT=qTOF
FILENAME=CCMSLIB00000079645.ms
IONMODE=Positive
ORGANISM=Natural
NAME=MLS001032339-01!2-[(5-hydroxy-2,2-dimethyl-4-oxo-3H-chromen-7-yl)oxy]-N-[2-(4-sulfamoylphenyl)ethyl]acetamide
PI=GNPS
DATACOLLECTOR=GNPS
SMILES=CC1(C)CC(=O)c2c(cc(cc2O1)OCC(=NCCc1ccc(cc1)S(=O)(=O)N)O)O
INCHI=InChI=1S/C21H24N2O7S/c1-21(2)11-17(25)20-16(24)9-14(10-18(20)30-21)29-12-19(26)23-8-7-13-3-5-15(6-4-13)31(22,27)28/h3-6,9-10,24H,7-8,11-12H2,1-2H3,(H,23,26)(H2,22,27,28)
FORMULA=C21H24N2O7S
PUBMED=N/A
SUBMITUSER=BIOADREM
LIBRARYQUALITY=0
SPECTRUMID=CCMSLIB00000079645
SCANS=1856
ID=CCMSLIB00000079645
103.0542261926 	 9.23
105.0698762568 	 2.83
107.0491408147 	 2.64
115.057597011 	 3.52
116.0620512247 	 3.92
117.0698762568 	 4.34
119.072950262 	 2.86
121.0647908789 	 4.63
123.0262968826 	 3.28
132.0807752941 	 3.33
134.0964253583 	 2.55
136.0756899162 	 3.68
139.0237139252 	 2.9
145.0647908789 	 4.84
150.0396983404 	 5.29
151.0212115047 	 10.48
153.0182346168 	 32.47
158.072615911 	 5.05
159.0804409431 	 3.94
162.0913399804 	 3.97
165.0182346168 	 3.31
166.0287397236 	 5.17
167.0186285473 	 4.46
178.032110542 	 4.84
184.0426752283 	 7.46
185.0266908131 	 5.34
191.072950262 	 6.38
192.0443897878 	 2.83
194.0295275846 	 8.45
196.0426752283 	 3.07
209.0835149483 	 14.24
213.0579909415 	 7.6
221.0808348736 	 14
225.0546201231 	 2.6
238.0532399146 	 2.67
241.0529055636 	 2.62
249.0420440641 	 4.39
249.0757494957 	 3.54
253.0495347452 	 3.52
255.0651848094 	 35.96
264.0655191604 	 3.12
267.0651848094 	 10.74
268.0730098415 	 3.64
282.0760838467 	 5.24
284.0917339109 	 3.94
311.1277850662 	 6.54
312.086648533 	 8.93
346.0379837809 	 21.37
347.045808813 	 5.45
368.1492487898 	 6.68
376.0485484672 	 100
377.0563734993 	 28.93
432.111148724 	 2.95
449.1376978255 	 0
END IONS

BEGIN IONS
PEPMASS=416.171
CHARGE=1
MSLEVEL=2
RT=0
SOURCE_INSTRUMENT=qTOF
FILENAME=CCMSLIB00000079646.ms
IONMODE=Positive
ORGANISM=Natural
NAME=MLS001160253-01!N-[(2,4-dimethoxyphenyl)methyl]-2-[(5-hydroxy-2,2-dimethyl-4-oxo-3H-chromen-7-yl)oxy]acetamide
PI=GNPS
DATACOLLECTOR=GNPS
SMILES=CC1(C)CC(=O)c2c(cc(cc2O1)OCC(=NCc1ccc(cc1OC)OC)O)O
INCHI=InChI=1S/C22H25NO7/c1-22(2)10-17(25)21-16(24)7-15(9-19(21)30-22)29-12-20(26)23-11-13-5-6-14(27-3)8-18(13)28-4/h5-9,24H,10-12H2,1-4H3,(H,23,26)
FORMULA=C22H25NO7
PUBMED=N/A
SUBMITUSER=BIOADREM
LIBRARYQUALITY=0
SPECTRUMID=CCMSLIB00000079646
SCANS=1857
ID=CCMSLIB00000079646
103.0542261926 	 0.26
106.0413157826 	 0.82
107.085526321 	 0.98
117.0698762568 	 0.4
119.085526321 	 4.08
121.0647908789 	 40.61
136.0518804689 	 0.87
139.0753555652 	 1.52
151.0753555652 	 100
209.0808348736 	 0.44
416.1703781624 	 0
END IONS

BEGIN IONS
PEPMASS=399.1906
CHARGE=1
MSLEVEL=2
RT=0
SOURCE_INSTRUMENT=qTOF
FILENAME=CCMSLIB00000079647.ms
IONMODE=Positive
ORGANISM=Natural
NAME=MLS001140568-01!1-[2-[(3-methyl-6-oxo-7,8,9,10-tetrahydrobenzo[c]chromen-1-yl)oxy]acetyl]piperidine-4-carboxamide
PI=GNPS
DATACOLLECTOR=GNPS
SMILES=Cc1cc(c2c3CCCCc3c(=O)oc2c1)OCC(=O)N1CCC(CC1)C(=N)O
INCHI=InChI=1S/C22H26N2O5/c1-13-10-17(28-12-19(25)24-8-6-14(7-9-24)21(23)26)20-15-4-2-3-5-16(15)22(27)29-18(20)11-13/h10-11,14H,2-9,12H2,1H3,(H2,23,26)
FORMULA=C22H26N2O5
PUBMED=N/A
SUBMITUSER=BIOADREM
LIBRARYQUALITY=0
SPECTRUMID=CCMSLIB00000079647
SCANS=1858
ID=CCMSLIB00000079647
96.0807752941 	 5.2
98.060039852 	 4.05
105.0698762568 	 2.23
110.060039852 	 4.72
112.0756899162 	 14.94
121.0647908789 	 2.56
124.0756899162 	 3.91
126.0913399804 	 5.62
127.0865889535 	 51.3
128.0620512247 	 2.88
129.1022390177 	 5.2
137.059705501 	 9.23
141.1022390177 	 40.08
149.059705501 	 12.57
156.0933513531 	 3.13
159.0804409431 	 3.27
161.059705501 	 3.94
165.0546201231 	 4.9
169.0971536398 	 8.55
172.0882659752 	 4.05
173.059705501 	 3.35
173.0960910073 	 3.42
177.0546201231 	 4.5
182.072615911 	 2.52
183.0804409431 	 3.48
184.0882659752 	 6.08
187.0753555652 	 2.87
187.1117410715 	 6.01
201.0910056294 	 4.81
202.0988306615 	 4.78
215.0702701873 	 27.86
215.1066556936 	 31.43
216.074072474 	 4.04
216.1104579803 	 5.31
228.0780952194 	 4.97
229.0859202515 	 10.52
230.0937452836 	 11.32
243.1015703157 	 100
244.1053726024 	 14.93
248.1281194172 	 7.59
271.0964849378 	 26.75
276.1230340393 	 4
293.1495831408 	 9.04
354.1699842319 	 10.63
371.1965333334 	 2.61
399.1914479555 	 6.98
END IONS

BEGIN IONS
PEPMASS=224.0707
CHARGE=1
MSLEVEL=2
RT=0
SOURCE_INSTRUMENT=qTOF
FILENAME=CCMSLIB00000079648.ms
IONMODE=Positive
ORGANISM=Natural
NAME=MLS002637643-01!
PI=GNPS
DATACOLLECTOR=GNPS
SMILES=c1ccc(cc1)N1C(=O)c2ccccc2C1=O
INCHI=InChI=1S/C14H9NO2/c16-13-11-8-4-5-9-12(11)14(17)15(13)10-6-2-1-3-7-10/h1-9H
FORMULA=C14H9NO2
PUBMED=N/A
SUBMITUSER=BIOADREM
LIBRARYQUALITY=0
SPECTRUMID=CCMSLIB00000079648
SCANS=1859
ID=CCMSLIB00000079648
102.0338251015 	 32.59
120.0443897878 	 11.48
130.0287397236 	 100
139.0542261926 	 7.96
141.0698762568 	 6.85
146.0236543457 	 24.07
151.0542261926 	 8.7
166.0651252299 	 5.93
168.0807752941 	 6.48
169.0647908789 	 5.74
193.0522148199 	 9.07
224.0706045383 	 80
END IONS

BEGIN IONS
PEPMASS=492.225
CHARGE=1
MSLEVEL=2
RT=0
SOURCE_INSTRUMENT=qTOF
FILENAME=CCMSLIB00000079649.ms
IONMODE=Positive
ORGANISM=Natural
NAME=MLS001158944-01!(2S)-3-(1H-indol-3-yl)-2-[[(2S)-4-methyl-2-[(3-oxo-2,4-dihydroquinoxaline-1-carbonyl)amino]pentanoyl]amino]propanoic acid
PI=GNPS
DATACOLLECTOR=GNPS
SMILES=CC(C)C[C@@H](C(=N[C@@H](Cc1c[nH]c2ccccc12)C(=O)O)O)N=C(N1CC(=Nc2ccccc12)O)O
INCHI=InChI=1S/C26H29N5O5/c1-15(2)11-20(30-26(36)31-14-23(32)28-19-9-5-6-10-22(19)31)24(33)29-21(25(34)35)12-16-13-27-18-8-4-3-7-17(16)18/h3-10,13,15,20-21,27H,11-12,14H2,1-2H3,(H,28,32)(H,29,33)(H,30,36)(H,34,35)/t20-,21-/m0/s1
FORMULA=C26H29N5O5
PUBMED=N/A
SUBMITUSER=BIOADREM
LIBRARYQUALITY=0
SPECTRUMID=CCMSLIB00000079649
SCANS=1860
ID=CCMSLIB00000079649
115.0542261926 	 0.88
118.0651252299 	 0.73
119.060374203 	 8.88
121.0760242672 	 10.84
130.0651252299 	 8.68
132.0807752941 	 1.4
142.0651252299 	 1.26
146.060039852 	 5.2
147.0552888251 	 100
149.0709388893 	 3.45
175.0502034472 	 61.86
177.0532774524 	 1.13
188.0706045383 	 9.63
192.0767525487 	 0.9
201.0658535114 	 0.78
204.0767525487 	 12.57
217.1335391461 	 3.77
232.1444381834 	 4.28
260.1393528055 	 52.42
288.1342674276 	 0.99
298.1550028697 	 8.1
344.1604821781 	 0.96
492.2241450674 	 0
END IONS

BEGIN IONS
PEPMASS=435.1914
CHARGE=1
MSLEVEL=2
RT=0
SOURCE_INSTRUMENT=qTOF
FILENAME=CCMSLIB00000079650.ms
IONMODE=Positive
ORGANISM=Natural
NAME=MLS001032412-01!N-[2-(5-methoxy-1H-indol-3-yl)ethyl]-2-(2-oxo-4-propylchromen-7-yl)oxyacetamide
PI=GNPS
DATACOLLECTOR=GNPS
SMILES=CCCc1cc(=O)oc2cc(ccc12)OCC(=NCCc1c[nH]c2ccc(cc12)OC)O
INCHI=InChI=1S/C25H26N2O5/c1-3-4-16-11-25(29)32-23-13-19(5-7-20(16)23)31-15-24(28)26-10-9-17-14-27-22-8-6-18(30-2)12-21(17)22/h5-8,11-14,27H,3-4,9-10,15H2,1-2H3,(H,26,28)
FORMULA=C25H26N2O5
PUBMED=N/A
SUBMITUSER=BIOADREM
LIBRARYQUALITY=0
SPECTRUMID=CCMSLIB00000079650
SCANS=1861
ID=CCMSLIB00000079650
103.0542261926 	 0.34
115.0542261926 	 1.27
117.0698762568 	 0.65
118.0651252299 	 0.57
119.085526321 	 0.21
120.0807752941 	 0.22
129.0698762568 	 0.22
130.0651252299 	 4.45
131.072950262 	 8.43
132.0569658468 	 0.35
140.0494751657 	 0.23
142.0651252299 	 1.71
143.072950262 	 9.1
144.0780952194 	 3.8
146.060039852 	 0.37
147.0804409431 	 1.09
148.0756899162 	 0.35
156.0807752941 	 0.28
158.060039852 	 1.05
159.0678648841 	 34.38
160.0730098415 	 3.24
173.0835149483 	 1.47
174.0913399804 	 100
185.0835149483 	 0.59
187.0839088788 	 0.31
205.0859202515 	 1.57
216.1019046667 	 0.35
244.0968192888 	 0.23
262.1073839751 	 0.38
288.1230340393 	 0.33
435.1914479555 	 0.24
END IONS

BEGIN IONS
PEPMASS=380.143
CHARGE=1
MSLEVEL=2
RT=0
SOURCE_INSTRUMENT=qTOF
FILENAME=CCMSLIB00000079651.ms
IONMODE=Positive
ORGANISM=Natural
NAME=MLS001076858-01!
PI=GNPS
DATACOLLECTOR=GNPS
SMILES=c1ccc(cc1)/C=C/C(=NC(=S)N1C[C@H]2C[C@H](C1)c1cccc(=O)n1C2)O
INCHI=InChI=1S/C21H21N3O2S/c25-19(10-9-15-5-2-1-3-6-15)22-21(27)23-12-16-11-17(14-23)18-7-4-8-20(26)24(18)13-16/h1-10,16-17H,11-14H2,(H,22,25,27)/b10-9+/t16-,17-/m1/s1
FORMULA=C21H21N3O2S
PUBMED=N/A
SUBMITUSER=BIOADREM
LIBRARYQUALITY=0
SPECTRUMID=CCMSLIB00000079651
SCANS=1862
ID=CCMSLIB00000079651
103.0542261926 	 50.79
130.0651252299 	 3.63
131.0491408147 	 96.23
133.0522148199 	 9.46
146.060039852 	 9.25
148.0756899162 	 33.58
156.0807752941 	 6.17
159.0678648841 	 4.52
174.0913399804 	 18.51
380.1452260444 	 1.37
END IONS

BEGIN IONS
PEPMASS=280.0976
CHARGE=1
MSLEVEL=2
RT=0
SOURCE_INSTRUMENT=qTOF
FILENAME=CCMSLIB00000079652.ms
IONMODE=Positive
ORGANISM=Natural
NAME=MLS001048950-01!2-(1,3-benzodioxol-5-yl)-1-methylquinolin-4-one
PI=GNPS
DATACOLLECTOR=GNPS
SMILES=Cn1c2ccccc2c(=O)cc1c1ccc2c(c1)OCO2
INCHI=InChI=1S/C17H13NO3/c1-18-13-5-3-2-4-12(13)15(19)9-14(18)11-6-7-16-17(8-11)21-10-20-16/h2-9H,10H2,1H3
FORMULA=C17H13NO3
PUBMED=N/A
SUBMITUSER=BIOADREM
LIBRARYQUALITY=0
SPECTRUMID=CCMSLIB00000079652
SCANS=1863
ID=CCMSLIB00000079652
105.0334907505 	 5.72
106.0651252299 	 6.81
116.0494751657 	 13.41
130.0651252299 	 8.62
134.060039852 	 7.09
144.0443897878 	 12.27
152.0620512247 	 5.78
154.0651252299 	 10.93
155.072950262 	 4.02
158.060039852 	 4.22
162.0549544741 	 10.18
178.0651252299 	 11.65
179.072950262 	 11.67
180.0807752941 	 11.05
182.060039852 	 4.59
183.0678648841 	 81.41
184.0756899162 	 62.24
191.072950262 	 4.02
192.0807752941 	 5.28
193.0886003262 	 10.36
194.0964253583 	 21.53
196.0756899162 	 18.28
204.0807752941 	 27.68
206.060039852 	 4.93
207.0678648841 	 54.88
208.0756899162 	 16.29
209.0835149483 	 31.73
220.0756899162 	 39.71
222.0913399804 	 83.51
224.1069900446 	 19.56
234.0913399804 	 13.72
235.0627795062 	 23.36
236.0706045383 	 25.87
237.0784295704 	 24.96
248.0706045383 	 17.65
250.0862546025 	 100
252.1019046667 	 59.36
264.0655191604 	 60.95
265.0733441925 	 98.78
280.0968192888 	 573.93
END IONS

BEGIN IONS
PEPMASS=536.215
CHARGE=1
MSLEVEL=2
RT=0
SOURCE_INSTRUMENT=qTOF
FILENAME=CCMSLIB00000079653.ms
IONMODE=Positive
ORGANISM=Natural
NAME=MLS001140785-01!(2S)-1-[(2S)-5-amino-2-[[(2S)-2-(2,4-dioxo-1H-quinazolin-3-yl)-3-phenylpropanoyl]amino]-5-oxopentanoyl]pyrrolidine-2-carboxylic acid
PI=GNPS
DATACOLLECTOR=GNPS
SMILES=c1ccc(cc1)C[C@@H](C(=N[C@@H](CCC(=N)O)C(=O)N1CCC[C@H]1C(=O)O)O)n1c(=O)c2ccccc2nc1O
INCHI=InChI=1S/C27H29N5O7/c28-22(33)13-12-19(25(36)31-14-6-11-20(31)26(37)38)29-23(34)21(15-16-7-2-1-3-8-16)32-24(35)17-9-4-5-10-18(17)30-27(32)39/h1-5,7-10,19-21H,6,11-15H2,(H2,28,33)(H,29,34)(H,30,39)(H,37,38)/t19-,20-,21-/m0/s1
FORMULA=C27H29N5O7
PUBMED=N/A
SUBMITUSER=BIOADREM
LIBRARYQUALITY=0
SPECTRUMID=CCMSLIB00000079653
SCANS=1864
ID=CCMSLIB00000079653
103.0542261926 	 1.99
146.0236543457 	 10.21
163.0502034472 	 6.13
180.113138055 	 0.86
222.0899973097 	 0.81
234.0635077877 	 0.49
247.0852462828 	 1.13
248.0903912402 	 0.66
265.0958109691 	 100
266.1009559265 	 13.95
275.0801609049 	 0.96
293.0907255912 	 11.04
294.0958705486 	 2.38
482.2034096253 	 0.46
536.2139743116 	 0
END IONS

BEGIN IONS
PEPMASS=507.224
CHARGE=1
MSLEVEL=2
RT=0
SOURCE_INSTRUMENT=qTOF
FILENAME=CCMSLIB00000079654.ms
IONMODE=Positive
ORGANISM=Natural
NAME=MLS001140686-01!(2S)-1-[(2S)-2-[[(2S)-2-(2,4-dioxo-1H-quinazolin-3-yl)-3-phenylpropanoyl]amino]-3-methylbutanoyl]pyrrolidine-2-carboxylic acid
PI=GNPS
DATACOLLECTOR=GNPS
SMILES=CC(C)[C@@H](C(=O)N1CCC[C@H]1C(=O)O)N=C([C@H](Cc1ccccc1)n1c(=O)c2ccccc2nc1O)O
INCHI=InChI=1S/C27H30N4O6/c1-16(2)22(25(34)30-14-8-13-20(30)26(35)36)29-23(32)21(15-17-9-4-3-5-10-17)31-24(33)18-11-6-7-12-19(18)28-27(31)37/h3-7,9-12,16,20-22H,8,13-15H2,1-2H3,(H,28,37)(H,29,32)(H,35,36)/t20-,21-,22-/m0/s1
FORMULA=C27H30N4O6
PUBMED=N/A
SUBMITUSER=BIOADREM
LIBRARYQUALITY=0
SPECTRUMID=CCMSLIB00000079654
SCANS=1865
ID=CCMSLIB00000079654
103.0542261926 	 3.44
120.0443897878 	 0.62
131.0491408147 	 0.72
146.0236543457 	 10.04
163.0502034472 	 5.97
180.0767525487 	 0.49
222.0913399804 	 0.56
237.1022390177 	 0.6
247.0865889535 	 1.87
248.0944139856 	 0.36
265.0971536398 	 100
266.1009559265 	 19.72
275.0815035756 	 1.66
276.0893286077 	 0.47
293.0920682619 	 15.36
294.0958705486 	 3.59
507.2238107164 	 0
END IONS

BEGIN IONS
PEPMASS=564.2605
CHARGE=1
MSLEVEL=2
RT=0
SOURCE_INSTRUMENT=qTOF
FILENAME=CCMSLIB00000079655.ms
IONMODE=Positive
ORGANISM=Natural
NAME=MLS001140882-01!
PI=GNPS
DATACOLLECTOR=GNPS
SMILES=Cc1ccc(cc1)C1c2c(C[C@H]3C(=O)N(c4ccccc4C(=NCCN4CCOCC4)O)C(=O)N13)c1ccccc1[nH]2
INCHI=InChI=1S/C33H33N5O4/c1-21-10-12-22(13-11-21)30-29-25(23-6-2-4-8-26(23)35-29)20-28-32(40)38(33(41)37(28)30)27-9-5-3-7-24(27)31(39)34-14-15-36-16-18-42-19-17-36/h2-13,28,30,35H,14-20H2,1H3,(H,34,39)/t28-,30?/m0/s1
FORMULA=C33H33N5O4
PUBMED=N/A
SUBMITUSER=BIOADREM
LIBRARYQUALITY=0
SPECTRUMID=CCMSLIB00000079655
SCANS=1866
ID=CCMSLIB00000079655
120.0443897878 	 1.47
130.0651252299 	 2.56
144.0807752941 	 2.22
145.0396387609 	 1.5
146.0236543457 	 41.37
173.0709388893 	 2.75
189.0658535114 	 88.83
200.0818379266 	 1.94
217.0886003262 	 3.81
218.0964253583 	 100
219.100227645 	 19.58
222.0913399804 	 44.11
223.0951422671 	 6.44
228.0767525487 	 1.63
230.0964253583 	 1.76
232.1120754225 	 48.85
233.1199004546 	 44.98
234.1277254867 	 32.96
244.0716671708 	 19.67
244.1120754225 	 37.18
245.1158777092 	 8.59
246.087317235 	 2.12
250.0862546025 	 47.02
251.0900568892 	 7.68
259.1229744598 	 1.51
261.138624524 	 6.64
272.1069900446 	 40.39
273.1107923313 	 7.36
287.1178890819 	 10.78
315.112803704 	 1.29
331.140081087 	 5.34
363.1491892103 	 3.98
373.1335391461 	 3.15
391.1441038324 	 48.87
392.1479061191 	 14.02
406.1550028697 	 9.01
434.1499174918 	 82.82
477.1921166575 	 61.51
564.2605305737 	 12.87
END IONS

BEGIN IONS
PEPMASS=440.2174
CHARGE=1
MSLEVEL=2
RT=0
SOURCE_INSTRUMENT=qTOF
FILENAME=CCMSLIB00000079656.ms
IONMODE=Positive
ORGANISM=Natural
NAME=MLS001159034-01!2-[(4-ethyl-8,8-dimethyl-2-oxo-9,10-dihydropyrano[2,3-h]chromen-5-yl)oxy]-N-(3-imidazol-1-ylpropyl)acetamide
PI=GNPS
DATACOLLECTOR=GNPS
SMILES=CCc1cc(=O)oc2c3CCC(C)(C)Oc3cc(c12)OCC(=NCCCn1ccnc1)O
INCHI=InChI=1S/C24H29N3O5/c1-4-16-12-21(29)31-23-17-6-7-24(2,3)32-18(17)13-19(22(16)23)30-14-20(28)26-8-5-10-27-11-9-25-15-27/h9,11-13,15H,4-8,10,14H2,1-3H3,(H,26,28)
FORMULA=C24H29N3O5
PUBMED=N/A
SUBMITUSER=BIOADREM
LIBRARYQUALITY=0
SPECTRUMID=CCMSLIB00000079656
SCANS=1867
ID=CCMSLIB00000079656
95.060374203 	 2.76
98.060039852 	 0.68
99.0678648841 	 31.32
135.0790982724 	 0.69
147.0804409431 	 0.85
161.059705501 	 1.42
163.0389700589 	 0.68
167.1053130229 	 1.76
175.0753555652 	 2.52
185.059705501 	 0.79
189.0546201231 	 2.71
203.0702701873 	 12.59
204.074072474 	 2.48
213.0505973777 	 0.73
215.0662474419 	 0.88
217.0495347452 	 1.89
219.0651848094 	 4.23
220.0927965434 	 0.88
230.0811692246 	 2.64
231.0651848094 	 54.43
242.0771464792 	 0.88
244.0927965434 	 0.81
247.0600994315 	 0.91
258.0760838467 	 5.47
259.0600994315 	 18.72
270.1084466076 	 0.76
272.0917339109 	 0.9
273.099558943 	 0.79
274.1073839751 	 1.96
287.1277850662 	 18.07
298.1073839751 	 2.22
304.1179486614 	 3.6
315.1226996883 	 2.09
316.1179486614 	 100
318.1210226666 	 2.45
354.1699842319 	 0.83
372.1805489182 	 49.94
374.1836229234 	 1.73
384.1553968002 	 11.01
440.217997057 	 10.28
END IONS

BEGIN IONS
PEPMASS=436.1961
CHARGE=1
MSLEVEL=2
RT=0
SOURCE_INSTRUMENT=qTOF
FILENAME=CCMSLIB00000079658.ms
IONMODE=Positive
ORGANISM=Natural
NAME=MLS001158085-01!(2S)-2-[[(2S)-2-(1,2-dihydroimidazo[1,2-a]benzimidazole-3-carbonylamino)-3-methylbutanoyl]amino]-2-phenylacetic acid
PI=GNPS
DATACOLLECTOR=GNPS
SMILES=CC(C)[C@@H](C(=N[C@@H](c1ccccc1)C(=O)O)O)N=C(N1CCn2c3ccccc3nc12)O
INCHI=InChI=1S/C23H25N5O4/c1-14(2)18(20(29)25-19(21(30)31)15-8-4-3-5-9-15)26-23(32)28-13-12-27-17-11-7-6-10-16(17)24-22(27)28/h3-11,14,18-19H,12-13H2,1-2H3,(H,25,29)(H,26,32)(H,30,31)/t18-,19-/m0/s1
FORMULA=C23H25N5O4
PUBMED=N/A
SUBMITUSER=BIOADREM
LIBRARYQUALITY=0
SPECTRUMID=CCMSLIB00000079658
SCANS=1868
ID=CCMSLIB00000079658
98.060039852 	 0.4
106.0651252299 	 2.02
107.0491408147 	 0.97
118.0525491709 	 0.58
119.060374203 	 4.85
132.0443897878 	 3.5
133.0760242672 	 0.82
134.0712732403 	 0.51
135.0440554368 	 2.03
143.060374203 	 0.48
158.0712732403 	 0.77
160.0869233045 	 100
162.0913399804 	 0.73
203.1178890819 	 1.06
214.1338734971 	 1.37
231.112803704 	 1.67
257.1396871565 	 25.13
436.1979303169 	 0.12
END IONS

BEGIN IONS
PEPMASS=461.2183
CHARGE=1
MSLEVEL=2
RT=0
SOURCE_INSTRUMENT=qTOF
FILENAME=CCMSLIB00000079659.ms
IONMODE=Positive
ORGANISM=Natural
NAME=MLS001142777-01!
PI=GNPS
DATACOLLECTOR=GNPS
SMILES=C[C@@H](C(=NCCc1ccc(cc1)OC)O)N1C(=O)[C@]2(C)c3c(CCN2C1=O)c1ccccc1[nH]3
INCHI=InChI=1S/C26H28N4O4/c1-16(23(31)27-14-12-17-8-10-18(34-3)11-9-17)30-24(32)26(2)22-20(13-15-29(26)25(30)33)19-6-4-5-7-21(19)28-22/h4-11,16,28H,12-15H2,1-3H3,(H,27,31)/t16-,26-/m0/s1
FORMULA=C26H28N4O4
PUBMED=N/A
SUBMITUSER=BIOADREM
LIBRARYQUALITY=0
SPECTRUMID=CCMSLIB00000079659
SCANS=1869
ID=CCMSLIB00000079659
105.0698762568 	 4.41
120.0569658468 	 1.11
128.0620512247 	 0.91
135.0804409431 	 10.13
144.0807752941 	 13.78
156.0807752941 	 1.39
168.0807752941 	 5.88
170.0964253583 	 3.48
183.0916743314 	 6.5
185.1073243956 	 19.43
211.0865889535 	 23.58
211.1229744598 	 5.33
213.1022390177 	 3.23
239.0815035756 	 2.74
254.1287881192 	 100
265.0971536398 	 0.98
282.1237027413 	 21.87
461.218331408 	 0.33
END IONS

BEGIN IONS
PEPMASS=515.266
CHARGE=1
MSLEVEL=2
RT=0
SOURCE_INSTRUMENT=qTOF
FILENAME=CCMSLIB00000079660.ms
IONMODE=Positive
ORGANISM=Natural
NAME=MLS001140329-01!
PI=GNPS
DATACOLLECTOR=GNPS
SMILES=CC(C)C[C@@H](C(=NCC1CCCO1)O)N=C([C@@H]1Cc2c3ccccc3[nH]c2C2c3ccccc3C(=O)N12)O
INCHI=InChI=1S/C30H34N4O4/c1-17(2)14-24(28(35)31-16-18-8-7-13-38-18)33-29(36)25-15-22-19-9-5-6-12-23(19)32-26(22)27-20-10-3-4-11-21(20)30(37)34(25)27/h3-6,9-12,17-18,24-25,27,32H,7-8,13-16H2,1-2H3,(H,31,35)(H,33,36)/t18?,24-,25-,27?/m0/s1
FORMULA=C30H34N4O4
PUBMED=N/A
SUBMITUSER=BIOADREM
LIBRARYQUALITY=0
SPECTRUMID=CCMSLIB00000079660
SCANS=1870
ID=CCMSLIB00000079660
232.0716671708 	 0.25
244.0756899162 	 0.2
245.1073243956 	 2.29
247.0951422671 	 0.22
255.0916743314 	 1.68
256.0954766181 	 1.63
271.0865889535 	 6.38
272.0903912402 	 2.66
273.1022390177 	 100
274.1060413044 	 19.53
275.1053130229 	 3.74
301.0971536398 	 2.39
302.1009559265 	 0.92
358.191388376 	 0.24
368.1757383118 	 0.3
386.1863029981 	 3.2
515.2652816006 	 0
END IONS

BEGIN IONS
PEPMASS=449.2917
CHARGE=1
MSLEVEL=2
RT=0
SOURCE_INSTRUMENT=qTOF
FILENAME=CCMSLIB00000079661.ms
IONMODE=Positive
ORGANISM=Natural
NAME=MLS001141053-01!1-[(2S)-2-amino-4-methylpentanoyl]-N-[(2S)-1-[(4-fluorophenyl)methylamino]-3-methyl-1-oxobutan-2-yl]piperidine-4-carboxamide
PI=GNPS
DATACOLLECTOR=GNPS
SMILES=CC(C)C[C@@H](C(=O)N1CCC(CC1)C(=N[C@@H](C(C)C)C(=NCc1ccc(cc1)F)O)O)N
INCHI=InChI=1S/C24H37FN4O3/c1-15(2)13-20(26)24(32)29-11-9-18(10-12-29)22(30)28-21(16(3)4)23(31)27-14-17-5-7-19(25)8-6-17/h5-8,15-16,18,20-21H,9-14,26H2,1-4H3,(H,27,31)(H,28,30)/t20-,21-/m0/s1
FORMULA=C24H37FN4O3
PUBMED=N/A
SUBMITUSER=BIOADREM
LIBRARYQUALITY=0
SPECTRUMID=CCMSLIB00000079661
SCANS=1871
ID=CCMSLIB00000079661
109.0448043605 	 8.04
112.0756899162 	 100
138.0913399804 	 0.4
140.1433755509 	 2.07
166.0862546025 	 0.39
180.1183036546 	 1.69
183.1491892103 	 18.64
185.1574288151 	 0.38
211.1441038324 	 18.75
225.1397673782 	 12.29
240.1632424745 	 0.39
279.2067040892 	 1.9
296.2332531907 	 4.6
324.2281678128 	 1.92
336.2081812944 	 33.55
449.2922452748 	 1.99
END IONS

BEGIN IONS
PEPMASS=468.148
CHARGE=1
MSLEVEL=2
RT=0
SOURCE_INSTRUMENT=qTOF
FILENAME=CCMSLIB00000079662.ms
IONMODE=Positive
ORGANISM=Natural
NAME=MLS001141240-01!(2R)-3-benzylsulfanyl-2-[[2-[(6-methyl-4-oxo-2,3-dihydro-1H-cyclopenta[c]chromen-7-yl)oxy]acetyl]amino]propanoic acid
PI=GNPS
DATACOLLECTOR=GNPS
SMILES=Cc1c(ccc2c3CCCc3c(=O)oc12)OCC(=N[C@@H](CSCc1ccccc1)C(=O)O)O
INCHI=InChI=1S/C25H25NO6S/c1-15-21(11-10-18-17-8-5-9-19(17)25(30)32-23(15)18)31-12-22(27)26-20(24(28)29)14-33-13-16-6-3-2-4-7-16/h2-4,6-7,10-11,20H,5,8-9,12-14H2,1H3,(H,26,27)(H,28,29)/t20-/m0/s1
FORMULA=C25H25NO6S
PUBMED=N/A
SUBMITUSER=BIOADREM
LIBRARYQUALITY=0
SPECTRUMID=CCMSLIB00000079662
SCANS=1872
ID=CCMSLIB00000079662
115.0542261926 	 29.23
116.0620512247 	 9.91
120.0807752941 	 7.11
129.0368615689 	 9.01
131.085526321 	 7.91
141.0732470752 	 8.51
143.0888971394 	 5.31
145.0647908789 	 11.91
147.0262968826 	 5.41
149.0419469468 	 51.45
155.0888971394 	 5.51
161.059705501 	 9.31
171.0804409431 	 22.22
187.0753555652 	 37.94
188.0831805973 	 7.61
199.0753555652 	 7.61
200.0917339109 	 5.71
201.0943764478 	 57.26
215.0736410057 	 55.56
216.0814660378 	 97.8
217.0859202515 	 100
218.0937452836 	 27.13
229.0892910699 	 53.55
230.097116102 	 19.02
257.084205692 	 12.11
274.1107547935 	 7.41
300.1264048577 	 11.01
344.1162341019 	 8.11
376.0975100325 	 6.41
468.1475342303 	 0
END IONS

BEGIN IONS
PEPMASS=450.2129
CHARGE=1
MSLEVEL=2
RT=0
SOURCE_INSTRUMENT=qTOF
FILENAME=CCMSLIB00000079663.ms
IONMODE=Positive
ORGANISM=Natural
NAME=MLS001160378-01!(2R)-2-[[(2S)-2-(1,2-dihydroimidazo[1,2-a]benzimidazole-3-carbonylamino)-3-methylbutanoyl]amino]-3-phenylpropanoic acid
PI=GNPS
DATACOLLECTOR=GNPS
SMILES=CC(C)[C@@H](C(=N[C@H](Cc1ccccc1)C(=O)O)O)N=C(N1CCn2c3ccccc3nc12)O
INCHI=InChI=1S/C24H27N5O4/c1-15(2)20(21(30)25-18(22(31)32)14-16-8-4-3-5-9-16)27-24(33)29-13-12-28-19-11-7-6-10-17(19)26-23(28)29/h3-11,15,18,20H,12-14H2,1-2H3,(H,25,30)(H,27,33)(H,31,32)/t18-,20+/m1/s1
FORMULA=C24H27N5O4
PUBMED=N/A
SUBMITUSER=BIOADREM
LIBRARYQUALITY=0
SPECTRUMID=CCMSLIB00000079663
SCANS=1873
ID=CCMSLIB00000079663
98.0586971813 	 0.57
103.0542261926 	 0.4
105.0447241388 	 0.33
118.0525491709 	 0.31
119.060374203 	 5.95
120.0807752941 	 7.33
128.0494751657 	 0.43
132.0556231761 	 1.11
133.0760242672 	 1.2
134.0712732403 	 0.51
143.060374203 	 0.65
146.060039852 	 1.65
158.0712732403 	 0.69
159.0790982724 	 0.53
160.0869233045 	 100
161.0920682619 	 24.18
162.0913399804 	 1.11
174.1277254867 	 0.58
214.1338734971 	 2.2
217.1335391461 	 2.31
218.1373414328 	 0.51
245.1284537682 	 6.44
246.1322560549 	 0.91
257.1396871565 	 43.24
259.1441038324 	 0.52
285.1346017786 	 0.37
291.1339330766 	 0.27
450.2135803811 	 0.37
END IONS

BEGIN IONS
PEPMASS=181.0762
CHARGE=1
MSLEVEL=2
RT=0
SOURCE_INSTRUMENT=qTOF
FILENAME=CCMSLIB00000079664.ms
IONMODE=Positive
ORGANISM=Natural
NAME=MLS000584128-01!
PI=GNPS
DATACOLLECTOR=GNPS
SMILES=c1ccc2c(c1)nc1ccccc1n2
INCHI=InChI=1S/C12H8N2/c1-2-6-10-9(5-1)13-11-7-3-4-8-12(11)14-10/h1-8H
FORMULA=C12H8N2
PUBMED=N/A
SUBMITUSER=BIOADREM
LIBRARYQUALITY=0
SPECTRUMID=CCMSLIB00000079664
SCANS=1874
ID=CCMSLIB00000079664
101.0385761284 	 3.53
102.0338251015 	 24.31
103.0542261926 	 13.67
125.0385761284 	 5.72
126.0464011605 	 7.24
127.0542261926 	 26.63
128.0494751657 	 10.77
129.0447241388 	 28.02
152.0494751657 	 13.67
153.0573001978 	 21.31
154.0651252299 	 79.36
155.060374203 	 22.03
166.0525491709 	 3.8
179.060374203 	 58.98
180.0681992351 	 100
181.0760242672 	 1120.15
END IONS

BEGIN IONS
PEPMASS=435.1914
CHARGE=1
MSLEVEL=2
RT=0
SOURCE_INSTRUMENT=qTOF
FILENAME=CCMSLIB00000079665.ms
IONMODE=Positive
ORGANISM=Natural
NAME=MLS001140563-01!1-[2-(3-benzyl-4-methyl-2-oxochromen-7-yl)oxyacetyl]piperidine-4-carboxamide
PI=GNPS
DATACOLLECTOR=GNPS
SMILES=Cc1c2ccc(cc2oc(=O)c1Cc1ccccc1)OCC(=O)N1CCC(CC1)C(=N)O
INCHI=InChI=1S/C25H26N2O5/c1-16-20-8-7-19(31-15-23(28)27-11-9-18(10-12-27)24(26)29)14-22(20)32-25(30)21(16)13-17-5-3-2-4-6-17/h2-8,14,18H,9-13,15H2,1H3,(H2,26,29)
FORMULA=C25H26N2O5
PUBMED=N/A
SUBMITUSER=BIOADREM
LIBRARYQUALITY=0
SPECTRUMID=CCMSLIB00000079665
SCANS=1875
ID=CCMSLIB00000079665
96.0807752941 	 19.77
97.0886003262 	 4.36
98.060039852 	 5.84
107.0491408147 	 5.91
110.060039852 	 8.44
112.0756899162 	 15.76
124.0756899162 	 28.56
125.0835149483 	 13.85
126.0913399804 	 4.28
127.0865889535 	 55.91
129.0698762568 	 5.14
129.1022390177 	 5.45
133.0647908789 	 4.28
141.1022390177 	 37.2
169.0971536398 	 8.13
178.0777012889 	 25.41
179.0815035756 	 8.4
181.0971536398 	 4.63
192.0893286077 	 5.49
193.1011763852 	 26.15
201.0546201231 	 16.26
205.1011763852 	 4.44
209.0960910073 	 5.64
221.0960910073 	 43.62
223.0753555652 	 7.2
223.1077183261 	 3.93
229.0495347452 	 20.12
233.0920682619 	 5.37
249.0910056294 	 19.38
250.0988306615 	 10.23
251.1026329482 	 29.42
279.0975475703 	 100
281.0808348736 	 10
307.0964849378 	 8.48
348.1230340393 	 11.67
362.1750696098 	 30.31
390.1699842319 	 55.1
418.164898854 	 11.67
419.1601478271 	 6.96
435.1914479555 	 14.51
END IONS

BEGIN IONS
PEPMASS=385.1752
CHARGE=1
MSLEVEL=2
RT=0
SOURCE_INSTRUMENT=qTOF
FILENAME=CCMSLIB00000079666.ms
IONMODE=Positive
ORGANISM=Natural
NAME=MLS001140567-01!1-[2-[(6-oxo-7,8,9,10-tetrahydrobenzo[c]chromen-3-yl)oxy]acetyl]piperidine-4-carboxamide
PI=GNPS
DATACOLLECTOR=GNPS
SMILES=C1CCc2c(C1)c1ccc(cc1oc2=O)OCC(=O)N1CCC(CC1)C(=N)O
INCHI=InChI=1S/C21H24N2O5/c22-20(25)13-7-9-23(10-8-13)19(24)12-27-14-5-6-16-15-3-1-2-4-17(15)21(26)28-18(16)11-14/h5-6,11,13H,1-4,7-10,12H2,(H2,22,25)
FORMULA=C21H24N2O5
PUBMED=N/A
SUBMITUSER=BIOADREM
LIBRARYQUALITY=0
SPECTRUMID=CCMSLIB00000079666
SCANS=1876
ID=CCMSLIB00000079666
96.0807752941 	 9.77
98.060039852 	 6.71
99.0678648841 	 4.61
107.0491408147 	 3.55
110.060039852 	 4.95
112.0756899162 	 18.67
115.0542261926 	 4.85
124.0756899162 	 8.66
125.0835149483 	 11.59
127.0865889535 	 51.72
128.0620512247 	 5.9
131.0491408147 	 2.91
135.0440554368 	 3.89
141.1022390177 	 24.54
143.085526321 	 25.69
145.0647908789 	 6.52
145.1011763852 	 4.27
159.0440554368 	 3.62
159.0804409431 	 4.11
171.0804409431 	 37.59
172.0842432298 	 3.31
173.0960910073 	 6.96
183.0804409431 	 9.49
187.0753555652 	 3.93
188.0831805973 	 6.49
199.0753555652 	 14.47
201.0910056294 	 58.58
202.0948079161 	 7.51
216.0780952194 	 9.34
229.0859202515 	 100
230.0897225382 	 11.62
241.0859202515 	 3.52
257.0808348736 	 15.58
269.1172203799 	 3.99
270.112469353 	 19.04
297.112135002 	 3.46
298.1073839751 	 11.47
312.1594195456 	 27.26
340.1543341677 	 65.47
368.1492487898 	 17.47
385.1757978913 	 11.31
END IONS

BEGIN IONS
PEPMASS=438.1897
CHARGE=1
MSLEVEL=2
RT=0
SOURCE_INSTRUMENT=qTOF
FILENAME=CCMSLIB00000079667.ms
IONMODE=Positive
ORGANISM=Natural
NAME=MLS001157730-01!N-[4-(2-hydroxyethyl)phenyl]-2-[(4,8,8-trimethyl-2-oxo-9,10-dihydropyrano[2,3-h]chromen-5-yl)oxy]acetamide
PI=GNPS
DATACOLLECTOR=GNPS
SMILES=Cc1cc(=O)oc2c3CCC(C)(C)Oc3cc(c12)OCC(=O)Nc1ccc(cc1)CCO
INCHI=InChI=1S/C25H27NO6/c1-15-12-22(29)31-24-18-8-10-25(2,3)32-19(18)13-20(23(15)24)30-14-21(28)26-17-6-4-16(5-7-17)9-11-27/h4-7,12-13,27H,8-11,14H2,1-3H3,(H,26,28)
FORMULA=C25H27NO6
PUBMED=N/A
SUBMITUSER=BIOADREM
LIBRARYQUALITY=0
SPECTRUMID=CCMSLIB00000079667
SCANS=1877
ID=CCMSLIB00000079667
103.0542261926 	 1.22
105.0698762568 	 6.86
115.0542261926 	 5.69
117.0573001978 	 10.14
118.0651252299 	 1.85
119.072950262 	 2.34
120.0807752941 	 1.89
121.0647908789 	 0.85
130.0651252299 	 2.13
131.072950262 	 3.07
132.0807752941 	 87.4
142.0651252299 	 0.98
148.0756899162 	 2.67
149.059705501 	 1.53
149.0835149483 	 1.28
150.0913399804 	 36.53
160.0756899162 	 100
177.0546201231 	 3.28
179.0940796346 	 0.57
189.0546201231 	 2.03
204.0417097131 	 0.61
205.0495347452 	 34.89
217.0495347452 	 8.68
219.0651848094 	 2.04
245.0444493673 	 5.56
306.112469353 	 0.5
352.1179486614 	 0.56
364.1179486614 	 3.52
370.1285133477 	 0.59
382.1285133477 	 23.41
420.1805489182 	 5.76
438.1911136045 	 18.1
END IONS

BEGIN IONS
PEPMASS=408.145
CHARGE=1
MSLEVEL=2
RT=0
SOURCE_INSTRUMENT=qTOF
FILENAME=CCMSLIB00000079668.ms
IONMODE=Positive
ORGANISM=Natural
NAME=MLS001158690-01!1-[2-(2-oxochromen-7-yl)oxyacetyl]-4-phenylpiperidine-4-carboxylic acid
PI=GNPS
DATACOLLECTOR=GNPS
SMILES=c1ccc(cc1)C1(CCN(CC1)C(=O)COc1ccc2ccc(=O)oc2c1)C(=O)O
INCHI=InChI=1S/C23H21NO6/c25-20(15-29-18-8-6-16-7-9-21(26)30-19(16)14-18)24-12-10-23(11-13-24,22(27)28)17-4-2-1-3-5-17/h1-9,14H,10-13,15H2,(H,27,28)
FORMULA=C23H21NO6
PUBMED=N/A
SUBMITUSER=BIOADREM
LIBRARYQUALITY=0
SPECTRUMID=CCMSLIB00000079668
SCANS=1878
ID=CCMSLIB00000079668
103.0542261926 	 7.2
110.060039852 	 1.45
115.0542261926 	 4.57
116.0620512247 	 1.71
117.0334907505 	 4.77
119.0491408147 	 4.14
120.0807752941 	 1.21
128.0620512247 	 17.44
132.0807752941 	 1.78
141.0698762568 	 2.25
142.0777012889 	 6.81
143.085526321 	 38.6
144.0569658468 	 9.07
144.0807752941 	 17.6
145.0284053726 	 7.56
145.0886003262 	 3.28
147.0440554368 	 6.53
158.0964253583 	 33.04
159.1042503904 	 25.31
160.1120754225 	 10.6
163.0389700589 	 1.44
172.1120754225 	 8.88
173.1199004546 	 2.75
175.0389700589 	 29.16
186.0913399804 	 7.81
187.0991650125 	 100
200.1069900446 	 3.3
201.1148150767 	 11.07
203.033884681 	 14.26
218.1175547309 	 10.97
220.0604337825 	 1.38
246.112469353 	 2.43
334.1437694814 	 1.28
362.1386841035 	 15.89
408.1441634119 	 0
END IONS

BEGIN IONS
PEPMASS=360.1446
CHARGE=1
MSLEVEL=2
RT=0
SOURCE_INSTRUMENT=qTOF
FILENAME=CCMSLIB00000079669.ms
IONMODE=Positive
ORGANISM=Natural
NAME=MLS001141359-01!1-[2-(4-ethyl-2-oxochromen-7-yl)oxyacetyl]piperidine-4-carboxylic acid
PI=GNPS
DATACOLLECTOR=GNPS
SMILES=CCc1cc(=O)oc2cc(ccc12)OCC(=O)N1CCC(CC1)C(=O)O
INCHI=InChI=1S/C19H21NO6/c1-2-12-9-18(22)26-16-10-14(3-4-15(12)16)25-11-17(21)20-7-5-13(6-8-20)19(23)24/h3-4,9-10,13H,2,5-8,11H2,1H3,(H,23,24)
FORMULA=C19H21NO6
PUBMED=N/A
SUBMITUSER=BIOADREM
LIBRARYQUALITY=0
SPECTRUMID=CCMSLIB00000079669
SCANS=1879
ID=CCMSLIB00000079669
96.0807752941 	 13.62
99.0440554368 	 14.03
105.0698762568 	 4.18
110.060039852 	 2.72
112.0756899162 	 9.63
114.0549544741 	 16.72
115.0542261926 	 9.91
116.0620512247 	 2.76
117.0698762568 	 24.04
119.085526321 	 8.27
124.0756899162 	 7.48
126.0913399804 	 33.1
128.0706045383 	 100
131.085526321 	 3.39
142.0862546025 	 93.79
145.0647908789 	 18.85
147.0440554368 	 7.79
147.0804409431 	 7.79
156.0655191604 	 5.67
170.0811692246 	 3.26
173.059705501 	 40.26
175.0753555652 	 28.82
203.0702701873 	 80.36
243.1015703157 	 3.29
244.0968192888 	 6.56
271.0964849378 	 3.67
286.1437694814 	 21.38
314.1386841035 	 29.08
360.1441634119 	 9.63
END IONS

BEGIN IONS
PEPMASS=410.2077
CHARGE=1
MSLEVEL=2
RT=0
SOURCE_INSTRUMENT=qTOF
FILENAME=CCMSLIB00000079670.ms
IONMODE=Positive
ORGANISM=Natural
NAME=MLS001075540-01!
PI=GNPS
DATACOLLECTOR=GNPS
SMILES=COc1ccccc1CN=C(CCC(=O)N1C[C@H]2C[C@@H](C1)c1cccc(=O)n1C2)O
INCHI=InChI=1S/C23H27N3O4/c1-30-20-7-3-2-5-17(20)12-24-21(27)9-10-22(28)25-13-16-11-18(15-25)19-6-4-8-23(29)26(19)14-16/h2-8,16,18H,9-15H2,1H3,(H,24,27)/t16-,18+/m1/s1
FORMULA=C23H27N3O4
PUBMED=N/A
SUBMITUSER=BIOADREM
LIBRARYQUALITY=0
SPECTRUMID=CCMSLIB00000079670
SCANS=1880
ID=CCMSLIB00000079670
121.0647908789 	 30.34
132.0443897878 	 0.65
132.0807752941 	 0.76
146.060039852 	 1.62
146.0964253583 	 0.44
148.0756899162 	 5.51
160.0756899162 	 7.58
174.0913399804 	 2.29
189.1022390177 	 3.15
191.1178890819 	 33.82
217.0971536398 	 1.19
227.1178890819 	 2.74
245.1284537682 	 100
255.112803704 	 0.72
273.1233683903 	 76.89
365.1859686471 	 0.88
393.1808832692 	 1.76
410.2074323707 	 0.43
END IONS

BEGIN IONS
PEPMASS=168.066
CHARGE=1
MSLEVEL=2
RT=0
SOURCE_INSTRUMENT=qTOF
FILENAME=CCMSLIB00000079671.ms
IONMODE=Positive
ORGANISM=Natural
NAME=MLS001048921-01!6-ethoxypyridine-3-carboxylic acid
PI=GNPS
DATACOLLECTOR=GNPS
SMILES=CCOc1ccc(cn1)C(=O)O
INCHI=InChI=1S/C8H9NO3/c1-2-12-7-4-3-6(5-9-7)8(10)11/h3-5H,2H2,1H3,(H,10,11)
FORMULA=C8H9NO3
PUBMED=N/A
SUBMITUSER=BIOADREM
LIBRARYQUALITY=0
SPECTRUMID=CCMSLIB00000079671
SCANS=1881
ID=CCMSLIB00000079671
95.0127553084 	 2.32
112.0393044099 	 2.53
122.0236543457 	 20.05
140.034219032 	 100
168.0655191604 	 0
END IONS

BEGIN IONS
PEPMASS=406.142
CHARGE=1
MSLEVEL=2
RT=0
SOURCE_INSTRUMENT=qTOF
FILENAME=CCMSLIB00000079672.ms
IONMODE=Positive
ORGANISM=Natural
NAME=MLS001142740-01!7-[2-[(4aS,8aS)-4a-hydroxy-1,3,4,5,6,7,8,8a-octahydroisoquinolin-2-yl]-2-oxoethoxy]-6-chloro-4-methylchromen-2-one
PI=GNPS
DATACOLLECTOR=GNPS
SMILES=Cc1cc(=O)oc2cc(c(cc12)Cl)OCC(=O)N1CC[C@]2(CCCC[C@H]2C1)O
INCHI=InChI=1S/C21H24ClNO5/c1-13-8-20(25)28-17-10-18(16(22)9-15(13)17)27-12-19(24)23-7-6-21(26)5-3-2-4-14(21)11-23/h8-10,14,26H,2-7,11-12H2,1H3/t14-,21-/m0/s1
FORMULA=C21H24ClNO5
PUBMED=N/A
SUBMITUSER=BIOADREM
LIBRARYQUALITY=0
SPECTRUMID=CCMSLIB00000079672
SCANS=1882
ID=CCMSLIB00000079672
95.072950262 	 7.26
97.0886003262 	 6.96
105.0698762568 	 19.56
108.0807752941 	 46.81
109.0886003262 	 22.07
122.0964253583 	 40.59
131.0491408147 	 6.22
136.1120754225 	 52
137.1199004546 	 100
150.0913399804 	 23.7
150.1277254867 	 34.96
151.1355505188 	 17.48
154.1226401088 	 6.52
164.1069900446 	 13.63
167.0258185568 	 9.63
178.1226401088 	 7.85
179.1304651409 	 86.81
213.0187218062 	 6.07
251.0105624231 	 22.07
268.0371115246 	 9.19
309.0888127441 	 8.44
406.1415765961 	 0
END IONS

BEGIN IONS
PEPMASS=178.062
CHARGE=1
MSLEVEL=2
RT=0
SOURCE_INSTRUMENT=qTOF
FILENAME=CCMSLIB00000079673.ms
IONMODE=Positive
ORGANISM=Natural
NAME=MLS001048861-01!3-amino-1H-quinazoline-2,4-dione
PI=GNPS
DATACOLLECTOR=GNPS
SMILES=c1ccc2c(c1)c(=O)n(c(n2)O)N
INCHI=InChI=1S/C8H7N3O2/c9-11-7(12)5-3-1-2-4-6(5)10-8(11)13/h1-4H,9H2,(H,10,13)
FORMULA=C8H7N3O2
PUBMED=N/A
SUBMITUSER=BIOADREM
LIBRARYQUALITY=0
SPECTRUMID=CCMSLIB00000079673
SCANS=1883
ID=CCMSLIB00000079673
104.0256657184 	 18.68
118.0287397236 	 15.02
119.0365647557 	 19.41
132.0556231761 	 34.8
146.0236543457 	 100
148.0631138572 	 4.76
162.0423784151 	 10.62
178.0611024845 	 0
END IONS

BEGIN IONS
PEPMASS=467.245
CHARGE=1
MSLEVEL=2
RT=0
SOURCE_INSTRUMENT=qTOF
FILENAME=CCMSLIB00000079674.ms
IONMODE=Positive
ORGANISM=Natural
NAME=MLS001158594-01!(3S)-N-[(2S)-1-(2,4-dimethylanilino)-3-(1H-indol-3-yl)-1-oxopropan-2-yl]-1,2,3,4-tetrahydroisoquinoline-3-carboxamide
PI=GNPS
DATACOLLECTOR=GNPS
SMILES=Cc1ccc(c(C)c1)N=C([C@H](Cc1c[nH]c2ccccc12)N=C([C@@H]1Cc2ccccc2CN1)O)O
INCHI=InChI=1S/C29H30N4O2/c1-18-11-12-24(19(2)13-18)32-29(35)27(15-22-17-30-25-10-6-5-9-23(22)25)33-28(34)26-14-20-7-3-4-8-21(20)16-31-26/h3-13,17,26-27,30-31H,14-16H2,1-2H3,(H,32,35)(H,33,34)/t26-,27-/m0/s1
FORMULA=C29H30N4O2
PUBMED=N/A
SUBMITUSER=BIOADREM
LIBRARYQUALITY=0
SPECTRUMID=CCMSLIB00000079674
SCANS=1884
ID=CCMSLIB00000079674
103.0542261926 	 1.53
105.0698762568 	 2.23
115.0542261926 	 4.86
117.0573001978 	 5.39
130.0651252299 	 43.02
132.0807752941 	 100
142.0651252299 	 2.11
144.0807752941 	 1.08
146.0964253583 	 2.92
156.0807752941 	 0.94
159.0916743314 	 66.87
169.0760242672 	 2.09
170.060039852 	 3.33
174.0913399804 	 0.73
187.0865889535 	 53.42
263.1542745882 	 0.89
273.138624524 	 2.84
291.1491892103 	 2.27
318.1600882476 	 1.97
346.1550028697 	 0.6
467.244152228 	 0
END IONS

BEGIN IONS
PEPMASS=471.2012
CHARGE=1
MSLEVEL=2
RT=0
SOURCE_INSTRUMENT=qTOF
FILENAME=CCMSLIB00000079675.ms
IONMODE=Positive
ORGANISM=Natural
NAME=MLS001158422-01!
PI=GNPS
DATACOLLECTOR=GNPS
SMILES=CC(C(=NCCN1CCOCC1)O)Oc1ccc2c(c1)c1ccnc3c4ccccc4c(=O)n2c13
INCHI=InChI=1S/C27H26N4O4/c1-17(26(32)29-10-11-30-12-14-34-15-13-30)35-18-6-7-23-22(16-18)20-8-9-28-24-19-4-2-3-5-21(19)27(33)31(23)25(20)24/h2-9,16-17H,10-15H2,1H3,(H,29,32)
FORMULA=C27H26N4O4
PUBMED=N/A
SUBMITUSER=BIOADREM
LIBRARYQUALITY=0
SPECTRUMID=CCMSLIB00000079675
SCANS=1885
ID=CCMSLIB00000079675
98.060039852 	 41.88
99.0678648841 	 36.76
100.0756899162 	 43.19
113.0835149483 	 5.93
114.0913399804 	 7.76
128.1069900446 	 0.74
130.0651252299 	 1.93
132.0807752941 	 2.27
157.0971536398 	 0.77
159.0916743314 	 0.81
185.1284537682 	 2.46
187.0865889535 	 0.75
230.0838492993 	 0.81
258.0787639214 	 4.24
269.0709388893 	 2.56
285.0658535114 	 7.08
285.1022390177 	 7.15
286.0736785435 	 8.95
287.0815035756 	 14.69
288.0853058623 	 5.08
295.0865889535 	 4.09
296.0903912402 	 1.39
301.0607681335 	 0.92
312.0893286077 	 1.4
313.0971536398 	 100
314.1009559265 	 21.79
315.100227645 	 2.85
323.0815035756 	 1.39
338.1287881192 	 3.34
341.0920682619 	 4.19
342.099893294 	 0.99
351.100227645 	 0.7
356.1393528055 	 1.04
366.1237027413 	 1.9
369.1107923313 	 2.27
384.1342674276 	 66.44
471.2026813438 	 8.25
END IONS

BEGIN IONS
PEPMASS=491.229
CHARGE=1
MSLEVEL=2
RT=0
SOURCE_INSTRUMENT=qTOF
FILENAME=CCMSLIB00000079676.ms
IONMODE=Positive
ORGANISM=Natural
NAME=MLS001142737-01!
PI=GNPS
DATACOLLECTOR=GNPS
SMILES=C[C@@H](C(=NCCc1ccc(c(c1)OC)OC)O)N1C(=O)[C@]2(C)c3c(CCN2C1=O)c1ccccc1[nH]3
INCHI=InChI=1S/C27H30N4O5/c1-16(24(32)28-13-11-17-9-10-21(35-3)22(15-17)36-4)31-25(33)27(2)23-19(12-14-30(27)26(31)34)18-7-5-6-8-20(18)29-23/h5-10,15-16,29H,11-14H2,1-4H3,(H,28,32)/t16-,27-/m0/s1
FORMULA=C27H30N4O5
PUBMED=N/A
SUBMITUSER=BIOADREM
LIBRARYQUALITY=0
SPECTRUMID=CCMSLIB00000079676
SCANS=1886
ID=CCMSLIB00000079676
102.0464011605 	 0.26
105.0698762568 	 0.75
115.0542261926 	 0.29
117.0698762568 	 0.83
118.0413157826 	 0.31
119.0491408147 	 0.36
133.0647908789 	 0.65
134.072615911 	 0.74
135.0440554368 	 0.79
144.0807752941 	 9.78
150.0675305331 	 5.08
156.0807752941 	 0.62
165.0910056294 	 11.3
168.0807752941 	 3.88
169.0760242672 	 0.5
183.0916743314 	 2.43
185.1073243956 	 14.02
187.0865889535 	 0.48
211.0865889535 	 16.32
237.1022390177 	 0.26
239.1178890819 	 0.71
254.1287881192 	 100
282.1237027413 	 29.03
473.218331408 	 0.32
491.2288960943 	 0
END IONS

BEGIN IONS
PEPMASS=450.192
CHARGE=1
MSLEVEL=2
RT=0
SOURCE_INSTRUMENT=qTOF
FILENAME=CCMSLIB00000079677.ms
IONMODE=Positive
ORGANISM=Natural
NAME=MLS001141235-01!1-[2-(3-benzyl-4,8-dimethyl-2-oxochromen-7-yl)oxyacetyl]piperidine-4-carboxylic acid
PI=GNPS
DATACOLLECTOR=GNPS
SMILES=Cc1c2ccc(c(C)c2oc(=O)c1Cc1ccccc1)OCC(=O)N1CCC(CC1)C(=O)O
INCHI=InChI=1S/C26H27NO6/c1-16-20-8-9-22(32-15-23(28)27-12-10-19(11-13-27)25(29)30)17(2)24(20)33-26(31)21(16)14-18-6-4-3-5-7-18/h3-9,19H,10-15H2,1-2H3,(H,29,30)
FORMULA=C26H27NO6
PUBMED=N/A
SUBMITUSER=BIOADREM
LIBRARYQUALITY=0
SPECTRUMID=CCMSLIB00000079677
SCANS=1887
ID=CCMSLIB00000079677
142.1352161678 	 98.63
161.1172203799 	 1.76
174.1277254867 	 3.54
203.1430411999 	 4.17
265.1798206367 	 4.3
279.1981507756 	 3.73
280.2059758077 	 7.77
281.2138008398 	 1.86
294.2216258719 	 7.79
450.1911136045 	 0
END IONS

BEGIN IONS
PEPMASS=365.1125
CHARGE=1
MSLEVEL=2
RT=0
SOURCE_INSTRUMENT=qTOF
FILENAME=CCMSLIB00000079679.ms
IONMODE=Positive
ORGANISM=Natural
NAME=MLS002695962-01!
PI=GNPS
DATACOLLECTOR=GNPS
SMILES=CCC1(c2cc3c4c(cc5cc(ccc5n4)O)Cn3c(=O)c2COC1=O)O
INCHI=InChI=1S/C20H16N2O5/c1-2-20(26)14-7-16-17-11(5-10-6-12(23)3-4-15(10)21-17)8-22(16)18(24)13(14)9-27-19(20)25/h3-7,23,26H,2,8-9H2,1H3
FORMULA=C20H16N2O5
PUBMED=N/A
SUBMITUSER=BIOADREM
LIBRARYQUALITY=0
SPECTRUMID=CCMSLIB00000079679
SCANS=1889
ID=CCMSLIB00000079679
184.0631138572 	 14.16
197.0709388893 	 6.21
220.0756899162 	 3.54
221.0709388893 	 9.1
223.0865889535 	 3.13
233.0808348736 	 1.6
234.0787639214 	 2.85
235.0865889535 	 37.36
236.0944139856 	 37.7
237.1022390177 	 28.19
248.0944139856 	 1.62
249.1022390177 	 1.84
250.1073839751 	 2.2
251.0815035756 	 4.81
260.0917339109 	 3.16
262.0709984688 	 1.4
263.0788235009 	 6.75
263.1178890819 	 1.41
264.0893286077 	 14.16
265.0971536398 	 32.78
275.1178890819 	 5.43
277.0971536398 	 3.53
278.1022985972 	 4.62
291.0764181977 	 3.3
291.112803704 	 3.44
293.1284537682 	 12.89
303.112803704 	 2.93
319.1077183261 	 3.17
321.1233683903 	 100
347.1026329482 	 1.93
365.1131976345 	 26
END IONS

BEGIN IONS
PEPMASS=394.2125
CHARGE=1
MSLEVEL=2
RT=0
SOURCE_INSTRUMENT=qTOF
FILENAME=CCMSLIB00000079681.ms
IONMODE=Positive
ORGANISM=Natural
NAME=MLS001075464-01!
PI=GNPS
DATACOLLECTOR=GNPS
SMILES=c1ccc(cc1)CCN=C(CCC(=O)N1C[C@@H]2CC(C1)c1cccc(=O)n1C2)O
INCHI=InChI=1S/C23H27N3O3/c27-21(24-12-11-17-5-2-1-3-6-17)9-10-22(28)25-14-18-13-19(16-25)20-7-4-8-23(29)26(20)15-18/h1-8,18-19H,9-16H2,(H,24,27)/t18-,19?/m0/s1
FORMULA=C23H27N3O3
PUBMED=N/A
SUBMITUSER=BIOADREM
LIBRARYQUALITY=0
SPECTRUMID=CCMSLIB00000079681
SCANS=1890
ID=CCMSLIB00000079681
103.0542261926 	 1.55
105.0698762568 	 16.9
122.060039852 	 0.28
133.0522148199 	 0.38
134.060039852 	 0.27
146.060039852 	 1.21
148.0756899162 	 6.31
160.0756899162 	 7.22
174.0913399804 	 1.53
186.0913399804 	 0.27
191.1178890819 	 36.05
204.1019046667 	 9.23
227.1178890819 	 1.45
245.1284537682 	 94
273.1233683903 	 100
394.2125177486 	 0.26
END IONS

BEGIN IONS
PEPMASS=433.2595
CHARGE=1
MSLEVEL=2
RT=0
SOURCE_INSTRUMENT=qTOF
FILENAME=CCMSLIB00000079682.ms
IONMODE=Positive
ORGANISM=Natural
NAME=MLS001141094-01!N-[(2S)-1-[(4-fluorophenyl)methylamino]-3-methyl-1-oxobutan-2-yl]-1-[(2S)-pyrrolidine-2-carbonyl]piperidine-4-carboxamide
PI=GNPS
DATACOLLECTOR=GNPS
SMILES=CC(C)[C@@H](C(=NCc1ccc(cc1)F)O)N=C(C1CCN(CC1)C(=O)[C@@H]1CCCN1)O
INCHI=InChI=1S/C23H33FN4O3/c1-15(2)20(22(30)26-14-16-5-7-18(24)8-6-16)27-21(29)17-9-12-28(13-10-17)23(31)19-4-3-11-25-19/h5-8,15,17,19-20,25H,3-4,9-14H2,1-2H3,(H,26,30)(H,27,29)/t19-,20-/m0/s1
FORMULA=C23H33FN4O3
PUBMED=N/A
SUBMITUSER=BIOADREM
LIBRARYQUALITY=0
SPECTRUMID=CCMSLIB00000079682
SCANS=1891
ID=CCMSLIB00000079682
109.0448043605 	 5.89
112.0756899162 	 100
140.0706045383 	 0.57
180.1183036546 	 1.15
183.1491892103 	 19.62
211.1441038324 	 21.96
225.1397673782 	 11.37
280.2019530623 	 3.36
281.202367635 	 0.75
308.1968676844 	 2.27
318.1976166081 	 0.4
336.2081812944 	 36.41
433.2609451464 	 9.77
END IONS

BEGIN IONS
PEPMASS=347.224
CHARGE=1
MSLEVEL=2
RT=0
SOURCE_INSTRUMENT=qTOF
FILENAME=CCMSLIB00000079683.ms
IONMODE=Positive
ORGANISM=Natural
NAME=MLS000728645-01!
PI=GNPS
DATACOLLECTOR=GNPS
SMILES=CN1CC[C@]2(c3ccccc3NC12)[C@]12CCN(C)C2Nc2ccccc12
INCHI=InChI=1S/C22H26N4/c1-25-13-11-21(15-7-3-5-9-17(15)23-19(21)25)22-12-14-26(2)20(22)24-18-10-6-4-8-16(18)22/h3-10,19-20,23-24H,11-14H2,1-2H3/t19?,20?,21-,22-/m1/s1
FORMULA=C22H26N4
PUBMED=N/A
SUBMITUSER=BIOADREM
LIBRARYQUALITY=0
SPECTRUMID=CCMSLIB00000079683
SCANS=1892
ID=CCMSLIB00000079683
106.0651252299 	 5.5
117.0573001978 	 10.09
119.072950262 	 6.42
128.0494751657 	 11.01
130.0651252299 	 49.08
131.060374203 	 6.42
132.0807752941 	 22.48
143.072950262 	 3.9
144.0807752941 	 11.81
156.0807752941 	 5.39
158.0838492993 	 15.37
171.0916743314 	 7.8
173.1073243956 	 100
180.0807752941 	 5.85
247.1229744598 	 6.77
347.2230228554 	 0
END IONS

BEGIN IONS
PEPMASS=340.155
CHARGE=1
MSLEVEL=2
RT=0
SOURCE_INSTRUMENT=qTOF
FILENAME=CCMSLIB00000079684.ms
IONMODE=Positive
ORGANISM=Natural
NAME=MLS001158271-01!N-cyclopropyl-3-(2,3,5-trimethyl-7-oxofuro[3,2-g]chromen-6-yl)propanamide
PI=GNPS
DATACOLLECTOR=GNPS
SMILES=Cc1c(C)oc2cc3c(cc12)c(C)c(CCC(=NC1CC1)O)c(=O)o3
INCHI=InChI=1S/C20H21NO4/c1-10-12(3)24-17-9-18-16(8-15(10)17)11(2)14(20(23)25-18)6-7-19(22)21-13-4-5-13/h8-9,13H,4-7H2,1-3H3,(H,21,22)
FORMULA=C20H21NO4
PUBMED=N/A
SUBMITUSER=BIOADREM
LIBRARYQUALITY=0
SPECTRUMID=CCMSLIB00000079684
SCANS=1893
ID=CCMSLIB00000079684
115.0542261926 	 0.45
128.0620512247 	 1.01
129.0698762568 	 3.05
141.0698762568 	 2.04
142.0777012889 	 1.7
143.085526321 	 1.03
144.0569658468 	 0.33
154.0777012889 	 1.04
156.0933513531 	 0.46
157.0647908789 	 1.47
157.1011763852 	 3.38
167.085526321 	 0.8
169.0647908789 	 0.66
170.072615911 	 1.24
171.0804409431 	 0.66
171.1168264494 	 0.36
179.085526321 	 0.24
182.072615911 	 1.7
184.0882659752 	 0.6
185.0960910073 	 4.85
197.059705501 	 1
197.0960910073 	 1.11
198.0675305331 	 4.41
199.1117410715 	 0.98
212.0831805973 	 1.42
213.0910056294 	 31.77
227.1066556936 	 2.73
241.0859202515 	 100
255.1015703157 	 20.43
283.0964849378 	 4.53
340.1543341677 	 0
END IONS

BEGIN IONS
PEPMASS=326.1598
CHARGE=1
MSLEVEL=2
RT=0
SOURCE_INSTRUMENT=qTOF
FILENAME=CCMSLIB00000079685.ms
IONMODE=Positive
ORGANISM=Natural
NAME=MLS002639247-01!
PI=GNPS
DATACOLLECTOR=GNPS
SMILES=CC1C(=O)OC2CCN3CC=C(COC(=O)C(C)(C1(C)O)O)C23
INCHI=InChI=1S/C16H23NO6/c1-9-13(18)23-11-5-7-17-6-4-10(12(11)17)8-22-14(19)16(3,21)15(9,2)20/h4,9,11-12,20-21H,5-8H2,1-3H3
FORMULA=C16H23NO6
PUBMED=N/A
SUBMITUSER=BIOADREM
LIBRARYQUALITY=0
SPECTRUMID=CCMSLIB00000079685
SCANS=1894
ID=CCMSLIB00000079685
112.0756899162 	 100
118.0862546025 	 11.02
208.1457808541 	 7.01
237.1485205083 	 9.22
326.1598134761 	 4.21
END IONS

BEGIN IONS
PEPMASS=568.2341
CHARGE=1
MSLEVEL=2
RT=0
SOURCE_INSTRUMENT=qTOF
FILENAME=CCMSLIB00000079686.ms
IONMODE=Positive
ORGANISM=Natural
NAME=MLS001140783-01!
PI=GNPS
DATACOLLECTOR=GNPS
SMILES=c1ccc2c(c1)c1C[C@H]3C(=O)N(c4ccccc4C(=NCCN4CCOCC4)O)C(=O)N3C(c3ccc(cc3)F)c1[nH]2
INCHI=InChI=1S/C32H30FN5O4/c33-21-11-9-20(10-12-21)29-28-24(22-5-1-3-7-25(22)35-28)19-27-31(40)38(32(41)37(27)29)26-8-4-2-6-23(26)30(39)34-13-14-36-15-17-42-18-16-36/h1-12,27,29,35H,13-19H2,(H,34,39)/t27-,29?/m0/s1
FORMULA=C32H30FN5O4
PUBMED=N/A
SUBMITUSER=BIOADREM
LIBRARYQUALITY=0
SPECTRUMID=CCMSLIB00000079686
SCANS=1895
ID=CCMSLIB00000079686
109.0448043605 	 11.87
120.0443897878 	 1.35
145.0396387609 	 2.07
146.0236543457 	 35.21
163.0502034472 	 1.44
163.0865889535 	 2.12
173.0709388893 	 2.67
184.0631138572 	 7.96
189.0658535114 	 100
198.071353462 	 4.38
217.0886003262 	 4.54
218.0924026129 	 1.85
226.0662680841 	 4.39
234.0673307166 	 1.51
236.0870035262 	 68.11
237.0948285583 	 51.36
244.0716671708 	 24.07
246.087317235 	 1.8
248.0870035262 	 39.46
249.0908058129 	 10.35
254.0611827062 	 59.68
263.0979025635 	 2.09
276.0819181483 	 42.49
277.085720435 	 7.5
291.0928171856 	 19.98
319.0877318077 	 2.37
328.0966194723 	 2.36
367.124117314 	 4.89
368.1267767465 	 1.59
377.1084672498 	 3.94
395.1190319361 	 64.45
396.1216913686 	 18.87
410.1299309734 	 9.71
411.1325904059 	 3.44
437.177215517 	 1.74
438.1248455955 	 78.86
439.127505028 	 19.76
481.1670447612 	 82.86
482.1748697933 	 27.12
568.2354586774 	 14.01
END IONS

BEGIN IONS
PEPMASS=436.176
CHARGE=1
MSLEVEL=2
RT=0
SOURCE_INSTRUMENT=qTOF
FILENAME=CCMSLIB00000079687.ms
IONMODE=Positive
ORGANISM=Natural
NAME=MLS001140958-01!4-[[[2-(2-oxo-3-phenylchromen-7-yl)oxyacetyl]amino]methyl]cyclohexane-1-carboxylic acid
PI=GNPS
DATACOLLECTOR=GNPS
SMILES=c1ccc(cc1)c1cc2ccc(cc2oc1=O)OCC(=NCC1CCC(CC1)C(=O)O)O
INCHI=InChI=1S/C25H25NO6/c27-23(26-14-16-6-8-18(9-7-16)24(28)29)15-31-20-11-10-19-12-21(17-4-2-1-3-5-17)25(30)32-22(19)13-20/h1-5,10-13,16,18H,6-9,14-15H2,(H,26,27)(H,28,29)
FORMULA=C25H25NO6
PUBMED=N/A
SUBMITUSER=BIOADREM
LIBRARYQUALITY=0
SPECTRUMID=CCMSLIB00000079687
SCANS=1896
ID=CCMSLIB00000079687
141.0698762568 	 1.25
152.0620512247 	 1.51
153.0698762568 	 0.82
155.085526321 	 0.79
165.0698762568 	 11.08
167.085526321 	 20.43
181.0647908789 	 1.55
183.0804409431 	 18
193.0647908789 	 7.47
210.0675305331 	 14.9
221.059705501 	 10.77
223.0753555652 	 15.49
238.0624451552 	 22.85
239.0702701873 	 100
251.0702701873 	 45
279.0651848094 	 17.58
296.0917339109 	 36.83
390.1699842319 	 7.51
436.1754635403 	 0
END IONS

BEGIN IONS
PEPMASS=487.151
CHARGE=1
MSLEVEL=2
RT=0
SOURCE_INSTRUMENT=qTOF
FILENAME=CCMSLIB00000079688.ms
IONMODE=Positive
ORGANISM=Natural
NAME=MLS001159066-01!3-(5-hydroxy-1H-indol-3-yl)-2-[2-(6-oxobenzo[c]chromen-3-yl)oxypropanoylamino]propanoic acid
PI=GNPS
DATACOLLECTOR=GNPS
SMILES=CC(C(=NC(Cc1c[nH]c2ccc(cc12)O)C(=O)O)O)Oc1ccc2c3ccccc3c(=O)oc2c1
INCHI=InChI=1S/C27H22N2O7/c1-14(35-17-7-8-19-18-4-2-3-5-20(18)27(34)36-24(19)12-17)25(31)29-23(26(32)33)10-15-13-28-22-9-6-16(30)11-21(15)22/h2-9,11-14,23,28,30H,10H2,1H3,(H,29,31)(H,32,33)
FORMULA=C27H22N2O7
PUBMED=N/A
SUBMITUSER=BIOADREM
LIBRARYQUALITY=0
SPECTRUMID=CCMSLIB00000079688
SCANS=1897
ID=CCMSLIB00000079688
118.0651252299 	 4.04
130.0651252299 	 5.36
131.0491408147 	 8.74
133.0522148199 	 3.33
134.0573597773 	 16.83
139.0542261926 	 8.13
146.060039852 	 100
148.0730098415 	 10.73
152.0620512247 	 8.5
153.0698762568 	 3.5
154.0651252299 	 3.03
155.0815035756 	 5.49
156.0780952194 	 3.76
158.060039852 	 26.11
160.0730098415 	 9.17
162.0522743994 	 22.32
165.0658535114 	 5.97
167.0491408147 	 10.84
167.085526321 	 9.24
170.060039852 	 3.24
171.0440554368 	 3.44
171.0764181977 	 13.3
172.0756899162 	 4.3
175.0839088788 	 37.94
183.0764181977 	 10.04
184.0730098415 	 16.27
186.0522743994 	 30.95
186.0886599057 	 15.62
197.059705501 	 3.89
201.0631734367 	 5.56
201.099558943 	 11.53
211.0713328198 	 11.79
213.0631734367 	 4.74
214.0835745278 	 9.19
215.0815035756 	 12.01
223.0475233725 	 3.29
229.0944735651 	 7.33
230.1049786719 	 14.32
239.0662474419 	 55.83
370.1073839751 	 5.47
441.1444977629 	 11.9
487.1499770713 	 0
END IONS

BEGIN IONS
PEPMASS=394.213
CHARGE=1
MSLEVEL=2
RT=0
SOURCE_INSTRUMENT=qTOF
FILENAME=CCMSLIB00000079689.ms
IONMODE=Positive
ORGANISM=Natural
NAME=MLS001075537-01!
PI=GNPS
DATACOLLECTOR=GNPS
SMILES=C[C@@H](c1ccccc1)N=C(CCC(=O)N1C[C@H]2C[C@H](C1)c1cccc(=O)n1C2)O
INCHI=InChI=1S/C23H27N3O3/c1-16(18-6-3-2-4-7-18)24-21(27)10-11-22(28)25-13-17-12-19(15-25)20-8-5-9-23(29)26(20)14-17/h2-9,16-17,19H,10-15H2,1H3,(H,24,27)/t16-,17+,19+/m0/s1
FORMULA=C23H27N3O3
PUBMED=N/A
SUBMITUSER=BIOADREM
LIBRARYQUALITY=0
SPECTRUMID=CCMSLIB00000079689
SCANS=1898
ID=CCMSLIB00000079689
103.0542261926 	 1.14
105.0698762568 	 16.8
132.0807752941 	 0.6
142.0651252299 	 0.26
148.0756899162 	 7.73
158.060039852 	 0.27
159.0678648841 	 0.26
160.0756899162 	 8.82
174.0913399804 	 1.86
191.1178890819 	 30.09
227.1178890819 	 1.12
245.1284537682 	 90.76
255.112803704 	 0.84
272.1393528055 	 1.23
273.1233683903 	 100
290.1499174918 	 0.96
394.2125177486 	 0
END IONS

BEGIN IONS
PEPMASS=499.1862
CHARGE=1
MSLEVEL=2
RT=0
SOURCE_INSTRUMENT=qTOF
FILENAME=CCMSLIB00000079690.ms
IONMODE=Positive
ORGANISM=Natural
NAME=MLS001158174-01!
PI=GNPS
DATACOLLECTOR=GNPS
SMILES=COc1ccc(cc1)c1cc(=O)oc2cc(ccc12)OCC(=O)N1C[C@H]2C[C@@H](C1)c1cccc(=O)n1C2
INCHI=InChI=1S/C29H26N2O6/c1-35-21-7-5-19(6-8-21)24-13-29(34)37-26-12-22(9-10-23(24)26)36-17-28(33)30-14-18-11-20(16-30)25-3-2-4-27(32)31(25)15-18/h2-10,12-13,18,20H,11,14-17H2,1H3/t18-,20+/m1/s1
FORMULA=C29H26N2O6
PUBMED=N/A
SUBMITUSER=BIOADREM
LIBRARYQUALITY=0
SPECTRUMID=CCMSLIB00000079690
SCANS=1899
ID=CCMSLIB00000079690
109.0522148199 	 1.53
111.0678648841 	 1.07
117.0573001978 	 0.95
122.060039852 	 1.96
123.0678648841 	 1.99
130.0651252299 	 1.1
132.0443897878 	 1.56
132.0807752941 	 2.32
133.0522148199 	 3.33
134.060039852 	 6.46
146.060039852 	 31.62
147.0678648841 	 20.26
148.0756899162 	 9.14
158.060039852 	 1.85
159.0678648841 	 3.08
160.0756899162 	 19.6
172.0756899162 	 3.86
173.0835149483 	 15.55
175.0865889535 	 1.49
188.0706045383 	 3.56
189.1022390177 	 100
195.0804409431 	 4.86
203.0815035756 	 0.69
203.1178890819 	 3.59
217.0971536398 	 1.32
223.0753555652 	 2.82
225.0910056294 	 1.92
227.0702701873 	 1.26
231.112803704 	 3.29
232.1206287361 	 3.57
251.0702701873 	 7.35
253.0859202515 	 5.25
281.0808348736 	 17.3
334.1073839751 	 0.94
481.1757978913 	 1.01
499.1863625776 	 130.91
END IONS

BEGIN IONS
PEPMASS=527.2166
CHARGE=1
MSLEVEL=2
RT=0
SOURCE_INSTRUMENT=qTOF
FILENAME=CCMSLIB00000079691.ms
IONMODE=Positive
ORGANISM=Natural
NAME=MLS001160351-01!
PI=GNPS
DATACOLLECTOR=GNPS
SMILES=Cc1c(ccc2c(cc(=O)oc12)c1ccc(cc1)OC)OC(C)C(=O)N1C[C@H]2C[C@@H](C1)c1cccc(=O)n1C2
INCHI=InChI=1S/C31H30N2O6/c1-18-27(12-11-24-25(14-29(35)39-30(18)24)21-7-9-23(37-3)10-8-21)38-19(2)31(36)32-15-20-13-22(17-32)26-5-4-6-28(34)33(26)16-20/h4-12,14,19-20,22H,13,15-17H2,1-3H3/t19?,20-,22+/m1/s1
FORMULA=C31H30N2O6
PUBMED=N/A
SUBMITUSER=BIOADREM
LIBRARYQUALITY=0
SPECTRUMID=CCMSLIB00000079691
SCANS=1900
ID=CCMSLIB00000079691
109.0522148199 	 2.81
122.060039852 	 1.16
132.0443897878 	 1.15
133.0522148199 	 2.32
134.060039852 	 4.07
135.0651848094 	 1.03
146.060039852 	 20.38
147.0678648841 	 21.01
148.0756899162 	 10.05
160.0756899162 	 7.35
161.0808348736 	 1.59
162.0913399804 	 0.63
163.0991650125 	 1.31
172.0756899162 	 2.92
173.0835149483 	 22.38
189.1022390177 	 100
190.1073839751 	 25.54
191.1178890819 	 24.98
217.0971536398 	 3.64
217.1335391461 	 1.71
218.1022985972 	 0.98
237.0910056294 	 1.77
238.0988306615 	 0.7
245.1284537682 	 34.68
253.1182830124 	 0.62
265.0859202515 	 0.5
266.0897225382 	 0.71
281.0808348736 	 1.33
281.1172203799 	 1.97
283.0964849378 	 5.44
284.1002872245 	 1.3
309.112135002 	 6.12
310.1159372887 	 1.76
337.1070496241 	 2.24
527.217662706 	 23.69
END IONS

BEGIN IONS
PEPMASS=260.0911
CHARGE=1
MSLEVEL=2
RT=0
SOURCE_INSTRUMENT=qTOF
FILENAME=CCMSLIB00000079692.ms
IONMODE=Positive
ORGANISM=Natural
NAME=MLS001049147-01!4,7,8-trimethoxyfuro[2,3-b]quinoline
PI=GNPS
DATACOLLECTOR=GNPS
SMILES=COc1ccc2c(c1OC)nc1c(cco1)c2OC
INCHI=InChI=1S/C14H13NO4/c1-16-10-5-4-8-11(13(10)18-3)15-14-9(6-7-19-14)12(8)17-2/h4-7H,1-3H3
FORMULA=C14H13NO4
PUBMED=N/A
SUBMITUSER=BIOADREM
LIBRARYQUALITY=0
SPECTRUMID=CCMSLIB00000079692
SCANS=1901
ID=CCMSLIB00000079692
101.0385761284 	 0.67
117.0573001978 	 0.76
118.0651252299 	 0.48
128.0494751657 	 11.16
130.0287397236 	 0.63
140.0494751657 	 0.52
142.0651252299 	 1.49
144.0443897878 	 1.49
145.0522148199 	 1.46
146.060039852 	 2.01
156.0443897878 	 24.51
158.060039852 	 0.75
159.0314793778 	 1.28
160.0393044099 	 1.31
169.0522148199 	 2.3
170.060039852 	 4.18
172.0393044099 	 3.63
174.0549544741 	 4.26
184.0393044099 	 47.27
187.0263939999 	 7.74
198.0549544741 	 4.4
199.0627795062 	 52.4
200.034219032 	 5.99
201.0420440641 	 17.52
202.0498690962 	 33.66
212.034219032 	 6.36
214.0498690962 	 3.4
216.0655191604 	 29.74
226.0498690962 	 2.65
227.0576941283 	 100
228.0291336541 	 4.47
229.0369586862 	 5.2
230.0447837183 	 22.32
244.0604337825 	 14.31
245.0682588146 	 15.89
260.0917339109 	 6.91
END IONS

BEGIN IONS
PEPMASS=481.26
CHARGE=1
MSLEVEL=2
RT=0
SOURCE_INSTRUMENT=qTOF
FILENAME=CCMSLIB00000079693.ms
IONMODE=Positive
ORGANISM=Natural
NAME=MLS001158564-01!(3S)-N-[(2S)-3-(1H-indol-3-yl)-1-oxo-1-(4-propan-2-ylanilino)propan-2-yl]-1,2,3,4-tetrahydroisoquinoline-3-carboxamide
PI=GNPS
DATACOLLECTOR=GNPS
SMILES=CC(C)c1ccc(cc1)NC(=O)[C@H](Cc1c[nH]c2ccccc12)N=C([C@@H]1Cc2ccccc2CN1)O
INCHI=InChI=1S/C30H32N4O2/c1-19(2)20-11-13-24(14-12-20)33-30(36)28(16-23-18-31-26-10-6-5-9-25(23)26)34-29(35)27-15-21-7-3-4-8-22(21)17-32-27/h3-14,18-19,27-28,31-32H,15-17H2,1-2H3,(H,33,36)(H,34,35)/t27-,28-/m0/s1
FORMULA=C30H32N4O2
PUBMED=N/A
SUBMITUSER=BIOADREM
LIBRARYQUALITY=0
SPECTRUMID=CCMSLIB00000079693
SCANS=1902
ID=CCMSLIB00000079693
103.0542261926 	 1.32
105.0698762568 	 2.22
115.0542261926 	 4.74
117.0573001978 	 5.74
118.0651252299 	 2.55
128.0494751657 	 0.31
130.0651252299 	 48.07
132.0807752941 	 100
142.0651252299 	 2.65
146.060039852 	 0.31
158.060039852 	 0.33
159.0916743314 	 66.85
169.0760242672 	 1.44
170.060039852 	 3.95
187.0865889535 	 61.04
215.0815035756 	 0.23
318.1600882476 	 2.81
346.1550028697 	 0.73
481.2598022922 	 0
END IONS

BEGIN IONS
PEPMASS=539.0969
CHARGE=1
MSLEVEL=2
RT=0
SOURCE_INSTRUMENT=qTOF
FILENAME=CCMSLIB00000079694.ms
IONMODE=Positive
ORGANISM=Natural
NAME=MLS000877033-01!3-[5,7-dihydroxy-2-(4-hydroxyphenyl)-4-oxochromen-8-yl]-5,7-dihydroxy-2-(4-hydroxyphenyl)chromen-4-one
PI=GNPS
DATACOLLECTOR=GNPS
SMILES=c1cc(ccc1c1cc(=O)c2c(cc(c(c3c(=O)c4c(cc(cc4oc3c3ccc(cc3)O)O)O)c2o1)O)O)O
INCHI=InChI=1S/C30H18O10/c31-15-5-1-13(2-6-15)22-12-21(37)24-19(35)11-20(36)26(30(24)39-22)27-28(38)25-18(34)9-17(33)10-23(25)40-29(27)14-3-7-16(32)8-4-14/h1-12,31-36H
FORMULA=C30H18O10
PUBMED=N/A
SUBMITUSER=BIOADREM
LIBRARYQUALITY=0
SPECTRUMID=CCMSLIB00000079694
SCANS=1903
ID=CCMSLIB00000079694
241.0495347452 	 6.06
269.0444493673 	 4.95
279.0651848094 	 5.17
281.0444493673 	 6.61
291.0651848094 	 3.88
295.0237139252 	 3.95
305.0385761284 	 4.73
307.0600994315 	 27.75
308.0620512247 	 4.58
311.0491408147 	 4.92
319.0600994315 	 12.23
320.0679244636 	 8.31
321.0698762568 	 4.14
331.0600994315 	 8.68
333.0393639894 	 5.25
335.0550140536 	 20.73
336.0569658468 	 5.69
347.0550140536 	 17.52
348.0569658468 	 6.84
359.0550140536 	 6.76
359.0913995599 	 6.36
360.0569658468 	 4.62
371.0550140536 	 3.36
375.0499286757 	 10.38
377.0655787399 	 100
378.0675305331 	 25.68
387.086314182 	 33.63
388.0882659752 	 11.42
401.0655787399 	 11.57
403.0448432978 	 52.96
404.0526683299 	 11.09
419.0761434262 	 34.18
420.0780952194 	 6.5
421.0554079841 	 10.27
441.0968788683 	 6.06
445.0554079841 	 4.1
497.0867081125 	 14.6
539.0972727988 	 136.59
END IONS

BEGIN IONS
PEPMASS=434.2071
CHARGE=1
MSLEVEL=2
RT=0
SOURCE_INSTRUMENT=qTOF
FILENAME=CCMSLIB00000079695.ms
IONMODE=Positive
ORGANISM=Natural
NAME=MLS001157827-01!N-(3-imidazol-1-ylpropyl)-3-(4-methyl-2-oxo-6,7,8,9-tetrahydro-[1]benzofuro[3,2-g]chromen-3-yl)propanamide
PI=GNPS
DATACOLLECTOR=GNPS
SMILES=Cc1c(CCC(=NCCCn2ccnc2)O)c(=O)oc2cc3c(cc12)c1CCCCc1o3
INCHI=InChI=1S/C25H27N3O4/c1-16-17(7-8-24(29)27-9-4-11-28-12-10-26-15-28)25(30)32-22-14-23-20(13-19(16)22)18-5-2-3-6-21(18)31-23/h10,12-15H,2-9,11H2,1H3,(H,27,29)
FORMULA=C25H27N3O4
PUBMED=N/A
SUBMITUSER=BIOADREM
LIBRARYQUALITY=0
SPECTRUMID=CCMSLIB00000079695
SCANS=1904
ID=CCMSLIB00000079695
211.1117410715 	 0.3
239.1066556936 	 4.76
267.1015703157 	 100
280.1332047951 	 0.84
281.1172203799 	 11.42
308.1281194172 	 18.82
309.112135002 	 28.54
348.1594195456 	 0.43
366.1699842319 	 66.15
434.2074323707 	 1.12
END IONS

BEGIN IONS
PEPMASS=266.1391
CHARGE=1
MSLEVEL=2
RT=0
SOURCE_INSTRUMENT=qTOF
FILENAME=CCMSLIB00000079696.ms
IONMODE=Positive
ORGANISM=Natural
NAME=MLS002702945-01!
PI=GNPS
DATACOLLECTOR=GNPS
SMILES=CC(=O)OC1C(Cc2ccc(cc2)OC)NCC1O
INCHI=InChI=1S/C14H19NO4/c1-9(16)19-14-12(15-8-13(14)17)7-10-3-5-11(18-2)6-4-10/h3-6,12-15,17H,7-8H2,1-2H3
FORMULA=C14H19NO4
PUBMED=N/A
SUBMITUSER=BIOADREM
LIBRARYQUALITY=0
SPECTRUMID=CCMSLIB00000079696
SCANS=1905
ID=CCMSLIB00000079696
103.0542261926 	 1.57
105.0698762568 	 0.91
106.0413157826 	 2.08
107.0491408147 	 1.25
115.0542261926 	 2.57
116.0620512247 	 1.42
118.0413157826 	 0.66
118.0651252299 	 0.92
119.072950262 	 1.01
121.0647908789 	 100
128.0620512247 	 1.79
130.0651252299 	 1.74
132.0807752941 	 1
133.0647908789 	 0.99
134.060039852 	 0.94
144.0569658468 	 9.39
145.0886003262 	 1.91
148.0756899162 	 0.88
156.0807752941 	 1.43
158.060039852 	 1.11
159.0804409431 	 3
160.0756899162 	 2.14
174.0913399804 	 0.73
175.0991650125 	 0.65
188.1069900446 	 4.03
190.0862546025 	 0.67
206.1175547309 	 6.64
266.1386841035 	 0.97
END IONS

BEGIN IONS
PEPMASS=558.151
CHARGE=1
MSLEVEL=2
RT=0
SOURCE_INSTRUMENT=qTOF
FILENAME=CCMSLIB00000079697.ms
IONMODE=Positive
ORGANISM=Natural
NAME=MLS001075272-01![3,4-dibenzoyloxy-5-(3,5-dioxo-1,2,4-triazin-2-yl)oxolan-2-yl]methyl benzoate
PI=GNPS
DATACOLLECTOR=GNPS
SMILES=c1ccc(cc1)C(=O)OCC1C(C(C(n2c(=O)nc(cn2)O)O1)OC(=O)c1ccccc1)OC(=O)c1ccccc1
INCHI=InChI=1S/C29H23N3O9/c33-22-16-30-32(29(37)31-22)25-24(41-28(36)20-14-8-3-9-15-20)23(40-27(35)19-12-6-2-7-13-19)21(39-25)17-38-26(34)18-10-4-1-5-11-18/h1-16,21,23-25H,17H2,(H,31,33,37)
FORMULA=C29H23N3O9
PUBMED=N/A
SUBMITUSER=BIOADREM
LIBRARYQUALITY=0
SPECTRUMID=CCMSLIB00000079697
SCANS=1906
ID=CCMSLIB00000079697
96.0291336541 	 0.27
97.007276 	 0.32
98.0322076593 	 0.27
105.0334907505 	 100
121.0396387609 	 0.87
149.0385761284 	 0.59
192.0376869677 	 2.07
193.0369586862 	 0.79
201.0532774524 	 13.31
203.060374203 	 0.33
324.0978819213 	 0.27
341.0615559945 	 0.26
558.1507053528 	 0
END IONS

BEGIN IONS
PEPMASS=424.176
CHARGE=1
MSLEVEL=2
RT=0
SOURCE_INSTRUMENT=qTOF
FILENAME=CCMSLIB00000079698.ms
IONMODE=Positive
ORGANISM=Natural
NAME=MLS001141071-01!(2S)-1-[3-(4-methyl-2-oxo-6,7,8,9-tetrahydro-[1]benzofuro[3,2-g]chromen-3-yl)propanoyl]pyrrolidine-2-carboxylic acid
PI=GNPS
DATACOLLECTOR=GNPS
SMILES=Cc1c(CCC(=O)N2CCC[C@H]2C(=O)O)c(=O)oc2cc3c(cc12)c1CCCCc1o3
INCHI=InChI=1S/C24H25NO6/c1-13-14(8-9-22(26)25-10-4-6-18(25)23(27)28)24(29)31-20-12-21-17(11-16(13)20)15-5-2-3-7-19(15)30-21/h11-12,18H,2-10H2,1H3,(H,27,28)/t18-/m0/s1
FORMULA=C24H25NO6
PUBMED=N/A
SUBMITUSER=BIOADREM
LIBRARYQUALITY=0
SPECTRUMID=CCMSLIB00000079698
SCANS=1907
ID=CCMSLIB00000079698
239.1066556936 	 7.57
253.1223057578 	 0.77
267.1015703157 	 100
281.1172203799 	 13.54
309.112135002 	 16.32
424.1754635403 	 0
END IONS

BEGIN IONS
PEPMASS=550.2455
CHARGE=1
MSLEVEL=2
RT=0
SOURCE_INSTRUMENT=qTOF
FILENAME=CCMSLIB00000079699.ms
IONMODE=Positive
ORGANISM=Natural
NAME=MLS001140706-01!
PI=GNPS
DATACOLLECTOR=GNPS
SMILES=c1ccc(cc1)C1c2c(C[C@H]3C(=O)N(c4ccccc4C(=NCCN4CCOCC4)O)C(=O)N13)c1ccccc1[nH]2
INCHI=InChI=1S/C32H31N5O4/c38-30(33-14-15-35-16-18-41-19-17-35)23-11-5-7-13-26(23)37-31(39)27-20-24-22-10-4-6-12-25(22)34-28(24)29(36(27)32(37)40)21-8-2-1-3-9-21/h1-13,27,29,34H,14-20H2,(H,33,38)/t27-,29?/m0/s1
FORMULA=C32H31N5O4
PUBMED=N/A
SUBMITUSER=BIOADREM
LIBRARYQUALITY=0
SPECTRUMID=CCMSLIB00000079699
SCANS=1908
ID=CCMSLIB00000079699
130.0651252299 	 1.61
144.0807752941 	 1.92
145.0396387609 	 1.9
146.0236543457 	 44.62
156.0681992351 	 1.65
173.0709388893 	 2.96
184.0631138572 	 7.09
189.0658535114 	 95.32
200.0818379266 	 1.86
204.0807752941 	 1.99
208.0756899162 	 45.2
209.0794922029 	 7.76
217.0886003262 	 7.57
218.0964253583 	 87.45
219.1042503904 	 63.98
220.1120754225 	 20.73
230.0964253583 	 51.17
231.100227645 	 9.31
236.0706045383 	 30.31
244.0716671708 	 20.99
245.0709388893 	 3.12
245.1073243956 	 2.34
246.087317235 	 2.62
247.1229744598 	 8.56
258.0913399804 	 40.69
259.0951422671 	 8.38
260.0944139856 	 2.21
273.1022390177 	 23.39
275.1138663365 	 1.43
301.0971536398 	 4.93
349.1335391461 	 5.27
359.1178890819 	 4.49
360.1216913686 	 1.73
377.1284537682 	 58.48
378.1322560549 	 15.17
379.1315277734 	 2.4
392.1393528055 	 13.23
402.1237027413 	 2.15
420.1342674276 	 100
422.1373414328 	 3.6
463.1764665933 	 83.27
550.2448805095 	 14.07
END IONS

BEGIN IONS
PEPMASS=440.2173
CHARGE=1
MSLEVEL=2
RT=0
SOURCE_INSTRUMENT=qTOF
FILENAME=CCMSLIB00000079700.ms
IONMODE=Positive
ORGANISM=Natural
NAME=MLS001075556-01!
PI=GNPS
DATACOLLECTOR=GNPS
SMILES=COc1ccc(cc1OC)CN=C(CCC(=O)N1C[C@H]2C[C@H](C1)c1cccc(=O)n1C2)O
INCHI=InChI=1S/C24H29N3O5/c1-31-20-7-6-16(11-21(20)32-2)12-25-22(28)8-9-23(29)26-13-17-10-18(15-26)19-4-3-5-24(30)27(19)14-17/h3-7,11,17-18H,8-10,12-15H2,1-2H3,(H,25,28)/t17-,18-/m1/s1
FORMULA=C24H29N3O5
PUBMED=N/A
SUBMITUSER=BIOADREM
LIBRARYQUALITY=0
SPECTRUMID=CCMSLIB00000079700
SCANS=1909
ID=CCMSLIB00000079700
107.0491408147 	 5.24
108.0569658468 	 1.02
135.0440554368 	 3.8
136.0518804689 	 2.49
146.060039852 	 0.84
148.0756899162 	 2.1
151.0753555652 	 100
160.0756899162 	 2.39
174.0913399804 	 0.97
191.1178890819 	 9.34
245.1284537682 	 22.85
255.112803704 	 1.02
273.1233683903 	 30.21
423.1914479555 	 0.74
440.217997057 	 0.18
END IONS

BEGIN IONS
PEPMASS=489.214
CHARGE=1
MSLEVEL=2
RT=0
SOURCE_INSTRUMENT=qTOF
FILENAME=CCMSLIB00000079701.ms
IONMODE=Positive
ORGANISM=Natural
NAME=MLS001141032-01!
PI=GNPS
DATACOLLECTOR=GNPS
SMILES=CC(C)[C@@H](C(=N[C@H](c1ccccc1)C(=O)O)O)N1C(=O)[C@]2(C)c3c(CCN2C1=O)c1ccccc1[nH]3
INCHI=InChI=1S/C27H28N4O5/c1-15(2)21(23(32)29-20(24(33)34)16-9-5-4-6-10-16)31-25(35)27(3)22-18(13-14-30(27)26(31)36)17-11-7-8-12-19(17)28-22/h4-12,15,20-21,28H,13-14H2,1-3H3,(H,29,32)(H,33,34)/t20-,21+,27+/m1/s1
FORMULA=C27H28N4O5
PUBMED=N/A
SUBMITUSER=BIOADREM
LIBRARYQUALITY=0
SPECTRUMID=CCMSLIB00000079701
SCANS=1910
ID=CCMSLIB00000079701
98.060039852 	 2.27
104.0620512247 	 0.69
117.0698762568 	 1.55
124.0756899162 	 0.88
143.072950262 	 0.98
144.0807752941 	 65.46
156.0807752941 	 0.77
158.0964253583 	 0.74
168.0807752941 	 4.38
170.0838492993 	 1.78
171.0916743314 	 1.08
183.0916743314 	 1.49
185.1073243956 	 81.98
196.0756899162 	 0.83
210.1025733687 	 0.62
211.0865889535 	 14.07
213.1022390177 	 7.2
228.113138055 	 1.2
239.0815035756 	 3.1
239.1542745882 	 0.64
240.0767525487 	 1.42
240.113138055 	 3.74
241.0845775808 	 1.84
256.1080526771 	 9.73
265.1335391461 	 1.06
266.1651736255 	 0.69
267.1491892103 	 0.97
277.1209630871 	 0.61
282.1600882476 	 55.03
292.1444381834 	 1.42
310.1550028697 	 100
489.2132460301 	 0
END IONS

BEGIN IONS
PEPMASS=450.152
CHARGE=1
MSLEVEL=2
RT=0
SOURCE_INSTRUMENT=qTOF
FILENAME=CCMSLIB00000079702.ms
IONMODE=Positive
ORGANISM=Natural
NAME=MLS001158199-01!(3R)-N-[(2S)-1-[(2S)-2-(hydroxymethyl)pyrrolidin-1-yl]-4-methylsulfanyl-1-oxobutan-2-yl]-5-oxo-3,9b-dihydro-2H-[1,3]thiazolo[2,3-a]isoindole-3-carboxamide
PI=GNPS
DATACOLLECTOR=GNPS
SMILES=CSCC[C@@H](C(=O)N1CCC[C@H]1CO)N=C([C@@H]1CSC2c3ccccc3C(=O)N12)O
INCHI=InChI=1S/C21H27N3O4S2/c1-29-10-8-16(20(28)23-9-4-5-13(23)11-25)22-18(26)17-12-30-21-15-7-3-2-6-14(15)19(27)24(17)21/h2-3,6-7,13,16-17,21,25H,4-5,8-12H2,1H3,(H,22,26)/t13-,16-,17-,21?/m0/s1
FORMULA=C21H27N3O4S2
PUBMED=N/A
SUBMITUSER=BIOADREM
LIBRARYQUALITY=0
SPECTRUMID=CCMSLIB00000079702
SCANS=1911
ID=CCMSLIB00000079702
104.0368991067 	 0.7
135.0011447646 	 0.43
155.072950262 	 0.41
158.0362304047 	 0.92
159.0348501962 	 0.59
162.0133864726 	 2.31
162.9960593867 	 1.26
163.9960218489 	 0.52
164.991270822 	 0.43
166.0161636646 	 0.44
186.9670674442 	 0.45
187.9913083598 	 0.55
190.0049302763 	 100
191.0069208862 	 11.99
191.9987990409 	 4.96
193.006624073 	 0.44
212.0706045383 	 0.46
217.9966905509 	 12.66
218.9932821947 	 1.63
245.034553383 	 0.44
273.0294680051 	 2.15
275.0181542745 	 0.73
321.0236335829 	 0.71
450.1515737507 	 0
END IONS

BEGIN IONS
PEPMASS=395.208
CHARGE=1
MSLEVEL=2
RT=0
SOURCE_INSTRUMENT=qTOF
FILENAME=CCMSLIB00000079703.ms
IONMODE=Positive
ORGANISM=Natural
NAME=MLS001142707-01!
PI=GNPS
DATACOLLECTOR=GNPS
SMILES=C[C@@H](C(=NC1CCCC1)O)N1C(=O)[C@]2(C)c3c(CCN2C1=O)c1ccccc1[nH]3
INCHI=InChI=1S/C22H26N4O3/c1-13(19(27)23-14-7-3-4-8-14)26-20(28)22(2)18-16(11-12-25(22)21(26)29)15-9-5-6-10-17(15)24-18/h5-6,9-10,13-14,24H,3-4,7-8,11-12H2,1-2H3,(H,23,27)/t13-,22-/m0/s1
FORMULA=C22H26N4O3
PUBMED=N/A
SUBMITUSER=BIOADREM
LIBRARYQUALITY=0
SPECTRUMID=CCMSLIB00000079703
SCANS=1912
ID=CCMSLIB00000079703
142.0651252299 	 0.26
144.0807752941 	 11.75
168.0807752941 	 4.76
170.060039852 	 0.35
170.0964253583 	 0.95
183.0916743314 	 3.67
185.1073243956 	 19.79
195.0916743314 	 0.38
196.0756899162 	 0.43
211.0865889535 	 19.03
213.1022390177 	 2.39
237.1022390177 	 0.28
239.0815035756 	 1.61
239.1178890819 	 0.36
254.1287881192 	 100
265.0971536398 	 0.31
282.1237027413 	 27.02
310.1186173634 	 0.38
395.2077667217 	 0
END IONS

BEGIN IONS
PEPMASS=479.182
CHARGE=1
MSLEVEL=2
RT=0
SOURCE_INSTRUMENT=qTOF
FILENAME=CCMSLIB00000079704.ms
IONMODE=Positive
ORGANISM=Natural
NAME=MLS001158025-01!2-[2-(4-ethyl-7-methyl-2-oxochromen-5-yl)oxypropanoylamino]-3-(5-hydroxy-1H-indol-3-yl)propanoic acid
PI=GNPS
DATACOLLECTOR=GNPS
SMILES=CCc1cc(=O)oc2cc(C)cc(c12)OC(C)C(=NC(Cc1c[nH]c2ccc(cc12)O)C(=O)O)O
INCHI=InChI=1S/C26H26N2O7/c1-4-15-10-23(30)35-22-8-13(2)7-21(24(15)22)34-14(3)25(31)28-20(26(32)33)9-16-12-27-19-6-5-17(29)11-18(16)19/h5-8,10-12,14,20,27,29H,4,9H2,1-3H3,(H,28,31)(H,32,33)
FORMULA=C26H26N2O7
PUBMED=N/A
SUBMITUSER=BIOADREM
LIBRARYQUALITY=0
SPECTRUMID=CCMSLIB00000079704
SCANS=1913
ID=CCMSLIB00000079704
117.0573001978 	 3.35
119.085526321 	 3.46
123.0440554368 	 4.55
129.0698762568 	 6.41
131.0491408147 	 6.19
132.0807752941 	 3.53
134.060039852 	 14.61
146.060039852 	 100
147.1168264494 	 6.05
148.0756899162 	 8.63
156.0807752941 	 3.39
158.060039852 	 15.3
158.0964253583 	 6.41
159.0678648841 	 10.13
161.059705501 	 4.95
161.0960910073 	 8.01
162.0549544741 	 22.59
163.0753555652 	 3.35
168.0807752941 	 4.59
170.060039852 	 7.72
171.0678648841 	 9.44
172.0756899162 	 3.86
175.0865889535 	 25.5
175.1117410715 	 20.11
184.0756899162 	 27.36
186.0549544741 	 30.09
186.0913399804 	 14.83
187.0753555652 	 4.85
189.0910056294 	 4.55
201.1022390177 	 11.15
203.0702701873 	 12.09
203.1066556936 	 28.63
204.0655191604 	 36.14
205.0859202515 	 56.72
229.0971536398 	 8.49
231.1015703157 	 56.14
247.1077183261 	 4.44
433.1757978913 	 5.97
479.1812771997 	 0
END IONS

BEGIN IONS
PEPMASS=463.2222
CHARGE=1
MSLEVEL=2
RT=0
SOURCE_INSTRUMENT=qTOF
FILENAME=CCMSLIB00000079705.ms
IONMODE=Positive
ORGANISM=Natural
NAME=MLS001160039-01!
PI=GNPS
DATACOLLECTOR=GNPS
SMILES=CCCCc1cc(=O)oc2cc(C)cc(c12)OCC(=O)N1C[C@H]2C[C@@H](C1)c1cccc(=O)n1C2
INCHI=InChI=1S/C27H30N2O5/c1-3-4-6-19-12-26(32)34-23-10-17(2)9-22(27(19)23)33-16-25(31)28-13-18-11-20(15-28)21-7-5-8-24(30)29(21)14-18/h5,7-10,12,18,20H,3-4,6,11,13-16H2,1-2H3/t18-,20+/m1/s1
FORMULA=C27H30N2O5
PUBMED=N/A
SUBMITUSER=BIOADREM
LIBRARYQUALITY=0
SPECTRUMID=CCMSLIB00000079705
SCANS=1914
ID=CCMSLIB00000079705
104.0494751657 	 0.84
109.0522148199 	 2.04
122.060039852 	 2.5
132.0443897878 	 1.45
132.0807752941 	 1.25
133.0522148199 	 2.35
134.060039852 	 5.46
137.059705501 	 1.8
146.060039852 	 34.11
147.0678648841 	 21.75
148.0756899162 	 11.5
151.0753555652 	 1.51
159.0678648841 	 2.08
160.0756899162 	 17.09
162.0675305331 	 1.31
162.0913399804 	 2.07
165.0546201231 	 1.06
172.0756899162 	 4.76
173.0835149483 	 14.71
174.0886599057 	 2.72
175.0753555652 	 5.72
177.0546201231 	 0.98
187.0839088788 	 1.37
187.1117410715 	 1.25
188.0706045383 	 3.69
189.1022390177 	 100
190.1073839751 	 18.68
191.1178890819 	 15.86
201.1022390177 	 1.27
203.0702701873 	 2.99
203.1152090072 	 3.5
204.1144807257 	 1.6
217.1011763852 	 2.8
217.1223057578 	 3.23
231.1101236293 	 5.52
232.1206287361 	 4.31
233.1284537682 	 1.15
245.1172203799 	 6.21
273.112135002 	 1.28
355.165233205 	 20.25
357.1723299556 	 1.01
367.165233205 	 2.83
381.1808832692 	 1.32
407.1601478271 	 5.22
421.2121833976 	 4.96
422.2200084297 	 1.04
435.2278334618 	 4.6
445.2121833976 	 1.43
463.2227480839 	 39.46
END IONS

BEGIN IONS
PEPMASS=382.177
CHARGE=1
MSLEVEL=2
RT=0
SOURCE_INSTRUMENT=qTOF
FILENAME=CCMSLIB00000079706.ms
IONMODE=Positive
ORGANISM=Natural
NAME=MLS001075336-01!
PI=GNPS
DATACOLLECTOR=GNPS
SMILES=CCOC(=O)c1ccc(cc1)NC(=O)N1C[C@@H]2C[C@@H](C1)c1cccc(=O)n1C2
INCHI=InChI=1S/C21H23N3O4/c1-2-28-20(26)15-6-8-17(9-7-15)22-21(27)23-11-14-10-16(13-23)18-4-3-5-19(25)24(18)12-14/h3-9,14,16H,2,10-13H2,1H3,(H,22,27)/t14-,16-/m0/s1
FORMULA=C21H23N3O4
PUBMED=N/A
SUBMITUSER=BIOADREM
LIBRARYQUALITY=0
SPECTRUMID=CCMSLIB00000079706
SCANS=1915
ID=CCMSLIB00000079706
128.0620512247 	 18.72
133.0522148199 	 23.4
146.0236543457 	 79.57
146.060039852 	 22.98
146.0838492993 	 19.15
148.0730098415 	 18.72
154.0624451552 	 14.89
156.0780952194 	 17.45
158.060039852 	 20
159.0678648841 	 24.26
160.0730098415 	 100
172.0756899162 	 16.17
174.0886599057 	 45.53
188.0706045383 	 13.62
189.099558943 	 53.19
217.1011763852 	 71.91
239.0900568892 	 14.47
265.0971536398 	 11.91
336.1342674276 	 19.15
382.1761322423 	 0
END IONS

BEGIN IONS
PEPMASS=579.224
CHARGE=1
MSLEVEL=2
RT=0
SOURCE_INSTRUMENT=qTOF
FILENAME=CCMSLIB00000079707.ms
IONMODE=Positive
ORGANISM=Natural
NAME=MLS001140674-01!
PI=GNPS
DATACOLLECTOR=GNPS
SMILES=COc1cccc(c1)C1c2c(C[C@H]3C(=O)N(c4ccccc4C(=O)N4CCC(CC4)C(=O)O)C(=O)N13)c1ccccc1[nH]2
INCHI=InChI=1S/C33H30N4O6/c1-43-21-8-6-7-20(17-21)29-28-24(22-9-2-4-11-25(22)34-28)18-27-31(39)37(33(42)36(27)29)26-12-5-3-10-23(26)30(38)35-15-13-19(14-16-35)32(40)41/h2-12,17,19,27,29,34H,13-16,18H2,1H3,(H,40,41)/t27-,29?/m0/s1
FORMULA=C33H30N4O6
PUBMED=N/A
SUBMITUSER=BIOADREM
LIBRARYQUALITY=0
SPECTRUMID=CCMSLIB00000079707
SCANS=1916
ID=CCMSLIB00000079707
120.0443897878 	 2.88
121.0647908789 	 7.7
146.0236543457 	 14.82
163.0502034472 	 1.6
204.0780952194 	 1.32
206.0964253583 	 5.16
217.0886003262 	 9.07
218.0964253583 	 70.98
219.1015703157 	 10.74
232.0730098415 	 1.81
233.0821722776 	 4.17
234.0913399804 	 12.78
238.0862546025 	 49.7
245.0821722776 	 1.37
246.0913399804 	 1.75
247.0964849378 	 19.68
248.1069900446 	 100
249.113472406 	 65.46
260.1056473739 	 71.35
261.1107923313 	 11.06
262.0862546025 	 6.31
266.0811692246 	 48.3
271.0865889535 	 1.33
273.0770868997 	 1.61
274.0862546025 	 2.07
275.1178890819 	 1.58
288.100561996 	 12.53
289.1057069534 	 3.7
290.0811692246 	 7.45
303.112803704 	 22.43
304.1166059907 	 4.82
333.086982884 	 2.46
372.1216913686 	 1.35
374.1049786719 	 1.98
375.112803704 	 3.05
376.1166059907 	 1.33
379.1441038324 	 3.27
380.1479061191 	 1.41
389.1284537682 	 6.31
390.1322560549 	 3.24
392.1155433582 	 3.08
407.1390184545 	 44.43
408.1428207412 	 11.78
422.1499174918 	 16.26
432.1342674276 	 1.43
450.1448321139 	 79.88
579.2238107164 	 0
END IONS

BEGIN IONS
PEPMASS=439.234
CHARGE=1
MSLEVEL=2
RT=0
SOURCE_INSTRUMENT=qTOF
FILENAME=CCMSLIB00000079710.ms
IONMODE=Positive
ORGANISM=Natural
NAME=MLS001141188-01!
PI=GNPS
DATACOLLECTOR=GNPS
SMILES=CC(C)[C@@H](C(=Nc1cccc(c1)OC)O)N=C(N1C[C@H]2C[C@@H](C1)c1cccc(=O)n1C2)O
INCHI=InChI=1S/C24H30N4O4/c1-15(2)22(23(30)25-18-6-4-7-19(11-18)32-3)26-24(31)27-12-16-10-17(14-27)20-8-5-9-21(29)28(20)13-16/h4-9,11,15-17,22H,10,12-14H2,1-3H3,(H,25,30)(H,26,31)/t16-,17+,22+/m1/s1
FORMULA=C24H30N4O4
PUBMED=N/A
SUBMITUSER=BIOADREM
LIBRARYQUALITY=0
SPECTRUMID=CCMSLIB00000079710
SCANS=1918
ID=CCMSLIB00000079710
122.060039852 	 0.24
130.0651252299 	 0.4
132.0443897878 	 1.28
133.0522148199 	 1.3
146.060039852 	 9.85
148.0756899162 	 4.38
154.0651252299 	 0.29
158.060039852 	 3.98
160.0756899162 	 20.69
171.0916743314 	 0.27
172.0756899162 	 3.77
174.0913399804 	 9.49
189.1022390177 	 19.14
191.1178890819 	 9.35
199.0865889535 	 0.65
200.0706045383 	 0.26
217.0971536398 	 100
235.1077183261 	 13.63
288.1706529339 	 89.05
316.165567556 	 0.77
439.2339814722 	 0.11
END IONS

BEGIN IONS
PEPMASS=450.2136
CHARGE=1
MSLEVEL=2
RT=0
SOURCE_INSTRUMENT=qTOF
FILENAME=CCMSLIB00000079711.ms
IONMODE=Positive
ORGANISM=Natural
NAME=MLS001158092-01!(2S)-2-[6-(1,2-dihydroimidazo[1,2-a]benzimidazole-3-carbonylamino)hexanoylamino]-2-phenylacetic acid
PI=GNPS
DATACOLLECTOR=GNPS
SMILES=c1ccc(cc1)[C@@H](C(=O)O)N=C(CCCCCN=C(N1CCn2c3ccccc3nc12)O)O
INCHI=InChI=1S/C24H27N5O4/c30-20(27-21(22(31)32)17-9-3-1-4-10-17)13-5-2-8-14-25-24(33)29-16-15-28-19-12-7-6-11-18(19)26-23(28)29/h1,3-4,6-7,9-12,21H,2,5,8,13-16H2,(H,25,33)(H,27,30)(H,31,32)/t21-/m0/s1
FORMULA=C24H27N5O4
PUBMED=N/A
SUBMITUSER=BIOADREM
LIBRARYQUALITY=0
SPECTRUMID=CCMSLIB00000079711
SCANS=1919
ID=CCMSLIB00000079711
96.0807752941 	 0.59
105.0447241388 	 0.37
106.0651252299 	 2.97
107.0491408147 	 0.84
118.0525491709 	 0.63
119.060374203 	 5.81
132.0556231761 	 1.16
133.0760242672 	 1.24
134.0712732403 	 0.46
135.0440554368 	 5.29
143.060374203 	 0.37
152.0706045383 	 2.95
160.0869233045 	 100
245.1284537682 	 0.75
299.1502518428 	 0.24
317.1608165291 	 0.59
450.2135803811 	 0.94
END IONS

BEGIN IONS
PEPMASS=381.145
CHARGE=1
MSLEVEL=2
RT=0
SOURCE_INSTRUMENT=qTOF
FILENAME=CCMSLIB00000079712.ms
IONMODE=Positive
ORGANISM=Natural
NAME=MLS001142441-01!(2S)-N-(4-ethoxyphenyl)-5-oxo-1-(3-oxo-1H-2-benzofuran-1-yl)pyrrolidine-2-carboxamide
PI=GNPS
DATACOLLECTOR=GNPS
SMILES=CCOc1ccc(cc1)NC(=O)[C@@H]1CCC(=O)N1C1c2ccccc2C(=O)O1
INCHI=InChI=1S/C21H20N2O5/c1-2-27-14-9-7-13(8-10-14)22-19(25)17-11-12-18(24)23(17)20-15-5-3-4-6-16(15)21(26)28-20/h3-10,17,20H,2,11-12H2,1H3,(H,22,25)/t17-,20?/m0/s1
FORMULA=C21H20N2O5
PUBMED=N/A
SUBMITUSER=BIOADREM
LIBRARYQUALITY=0
SPECTRUMID=CCMSLIB00000079712
SCANS=1920
ID=CCMSLIB00000079712
105.0334907505 	 17.41
133.0284053726 	 100
170.060039852 	 2.53
178.0651252299 	 0.39
196.0756899162 	 0.4
198.0549544741 	 1.49
224.0706045383 	 3.45
252.1019046667 	 7.24
381.1444977629 	 0
END IONS

BEGIN IONS
PEPMASS=414.218
CHARGE=1
MSLEVEL=2
RT=0
SOURCE_INSTRUMENT=qTOF
FILENAME=CCMSLIB00000079713.ms
IONMODE=Positive
ORGANISM=Natural
NAME=MLS001157793-01!(3S)-N-[(1R)-2-oxo-1-phenyl-2-(1-phenylethylamino)ethyl]-1,2,3,4-tetrahydroisoquinoline-3-carboxamide
PI=GNPS
DATACOLLECTOR=GNPS
SMILES=CC(c1ccccc1)N=C([C@@H](c1ccccc1)N=C([C@@H]1Cc2ccccc2CN1)O)O
INCHI=InChI=1S/C26H27N3O2/c1-18(19-10-4-2-5-11-19)28-26(31)24(20-12-6-3-7-13-20)29-25(30)23-16-21-14-8-9-15-22(21)17-27-23/h2-15,18,23-24,27H,16-17H2,1H3,(H,28,31)(H,29,30)/t18?,23-,24+/m0/s1
FORMULA=C26H27N3O2
PUBMED=N/A
SUBMITUSER=BIOADREM
LIBRARYQUALITY=0
SPECTRUMID=CCMSLIB00000079713
SCANS=1921
ID=CCMSLIB00000079713
103.0542261926 	 2.48
105.0698762568 	 16.65
106.0651252299 	 10.89
115.0542261926 	 3.34
117.0573001978 	 5.49
130.0651252299 	 41.83
132.0807752941 	 100
134.060039852 	 4.44
152.0620512247 	 0.58
160.0756899162 	 0.25
167.085526321 	 3.54
210.1277254867 	 2.54
220.1120754225 	 0.29
238.1226401088 	 1.06
265.1335391461 	 1.03
414.2176031265 	 0
END IONS

BEGIN IONS
PEPMASS=423.24
CHARGE=1
MSLEVEL=2
RT=0
SOURCE_INSTRUMENT=qTOF
FILENAME=CCMSLIB00000079714.ms
IONMODE=Positive
ORGANISM=Natural
NAME=MLS001141189-01!
PI=GNPS
DATACOLLECTOR=GNPS
SMILES=CC(C)[C@@H](C(=O)Nc1ccc(C)cc1)N=C(N1C[C@H]2C[C@@H](C1)c1cccc(=O)n1C2)O
INCHI=InChI=1S/C24H30N4O3/c1-15(2)22(23(30)25-19-9-7-16(3)8-10-19)26-24(31)27-12-17-11-18(14-27)20-5-4-6-21(29)28(20)13-17/h4-10,15,17-18,22H,11-14H2,1-3H3,(H,25,30)(H,26,31)/t17-,18+,22+/m1/s1
FORMULA=C24H30N4O3
PUBMED=N/A
SUBMITUSER=BIOADREM
LIBRARYQUALITY=0
SPECTRUMID=CCMSLIB00000079714
SCANS=1922
ID=CCMSLIB00000079714
117.0573001978 	 0.3
122.060039852 	 0.34
130.0651252299 	 0.35
131.072950262 	 0.31
132.0443897878 	 0.97
133.0522148199 	 1.03
134.060039852 	 1.12
144.0807752941 	 0.37
146.060039852 	 8.55
148.0756899162 	 5.11
156.0807752941 	 0.48
158.060039852 	 2.27
159.0678648841 	 0.93
160.0756899162 	 20.93
172.0756899162 	 3.09
174.0913399804 	 8.62
188.0706045383 	 1.78
189.1022390177 	 18.1
191.1178890819 	 8.51
199.0865889535 	 0.48
217.0971536398 	 100
235.1077183261 	 12.9
288.1706529339 	 84.53
316.165567556 	 0.46
423.2390668501 	 0
END IONS

BEGIN IONS
PEPMASS=500.266
CHARGE=1
MSLEVEL=2
RT=0
SOURCE_INSTRUMENT=qTOF
FILENAME=CCMSLIB00000079715.ms
IONMODE=Positive
ORGANISM=Natural
NAME=MLS001142727-01!
PI=GNPS
DATACOLLECTOR=GNPS
SMILES=C[C@@H](C(=NC1CCN(CC1)Cc1ccccc1)O)N1C(=O)[C@]2(C)c3c(CCN2C1=O)c1ccccc1[nH]3
INCHI=InChI=1S/C29H33N5O3/c1-19(26(35)30-21-12-15-32(16-13-21)18-20-8-4-3-5-9-20)34-27(36)29(2)25-23(14-17-33(29)28(34)37)22-10-6-7-11-24(22)31-25/h3-11,19,21,31H,12-18H2,1-2H3,(H,30,35)/t19-,29-/m0/s1
FORMULA=C29H33N5O3
PUBMED=N/A
SUBMITUSER=BIOADREM
LIBRARYQUALITY=0
SPECTRUMID=CCMSLIB00000079715
SCANS=1923
ID=CCMSLIB00000079715
120.0443897878 	 0.47
143.0365647557 	 0.5
144.0403670424 	 3.71
145.0607681335 	 1.12
146.0560171066 	 1.01
169.0396387609 	 0.79
172.0631138572 	 3.98
174.0787639214 	 86.51
175.0825662081 	 9.21
183.0427127661 	 1.24
191.1012902775 	 0.75
211.0290740746 	 4.93
213.0420440641 	 0.87
219.0427127661 	 0.47
234.0661878624 	 5.82
235.0614368355 	 0.49
239.0127553084 	 1.32
252.0443897878 	 1
254.0586971813 	 45.03
255.0638421387 	 7.08
256.0393044099 	 2.37
257.0385761284 	 1.04
267.0301367071 	 1.26
268.0267283509 	 0.52
273.0573001978 	 0.52
275.0801609049 	 1.66
280.0307510963 	 1.96
282.0464011605 	 19.98
283.0502034472 	 2.68
284.0494751657 	 0.65
288.0933513531 	 0.72
289.0958109691 	 0.43
294.0410357444 	 0.58
301.0522148199 	 1.01
303.0665222134 	 0.68
307.0416501336 	 0.46
310.0372930372 	 0.81
329.0385761284 	 0.53
344.0831805973 	 11.75
345.0856402133 	 3.93
372.0681992351 	 13.11
373.0760242672 	 3.4
393.0856402133 	 1.53
408.0893286077 	 0.49
500.2656159516 	 0
END IONS

BEGIN IONS
PEPMASS=465.166
CHARGE=1
MSLEVEL=2
RT=0
SOURCE_INSTRUMENT=qTOF
FILENAME=CCMSLIB00000079716.ms
IONMODE=Positive
ORGANISM=Natural
NAME=MLS001158024-01!2-[2-(4,7-dimethyl-2-oxochromen-5-yl)oxypropanoylamino]-3-(5-hydroxy-1H-indol-3-yl)propanoic acid
PI=GNPS
DATACOLLECTOR=GNPS
SMILES=Cc1cc(c2c(C)cc(=O)oc2c1)OC(C)C(=NC(Cc1c[nH]c2ccc(cc12)O)C(=O)O)O
INCHI=InChI=1S/C25H24N2O7/c1-12-6-20(23-13(2)8-22(29)34-21(23)7-12)33-14(3)24(30)27-19(25(31)32)9-15-11-26-18-5-4-16(28)10-17(15)18/h4-8,10-11,14,19,26,28H,9H2,1-3H3,(H,27,30)(H,31,32)
FORMULA=C25H24N2O7
PUBMED=N/A
SUBMITUSER=BIOADREM
LIBRARYQUALITY=0
SPECTRUMID=CCMSLIB00000079716
SCANS=1924
ID=CCMSLIB00000079716
118.1226401088 	 10.28
133.1011763852 	 16.55
145.0647908789 	 9.06
146.060039852 	 100
148.0756899162 	 8.54
156.0807752941 	 14.63
158.060039852 	 17.94
159.0651848094 	 8.71
160.0756899162 	 23.52
161.0960910073 	 30.31
173.0808348736 	 8.71
175.0839088788 	 33.1
176.0917339109 	 14.63
184.0756899162 	 31.01
185.0808348736 	 15.51
186.0522743994 	 28.57
186.0913399804 	 14.98
189.0910056294 	 30.66
191.0702701873 	 60.45
192.074072474 	 24.56
204.0655191604 	 70.38
212.0679244636 	 13.07
217.0859202515 	 82.23
218.0897225382 	 20.56
230.1022985972 	 18.99
245.0808348736 	 16.03
272.0917339109 	 8.36
332.1002872245 	 8.54
348.1230340393 	 16.38
419.1601478271 	 15.16
465.1656271355 	 0
END IONS

BEGIN IONS
PEPMASS=474.2145
CHARGE=1
MSLEVEL=2
RT=0
SOURCE_INSTRUMENT=qTOF
FILENAME=CCMSLIB00000079717.ms
IONMODE=Positive
ORGANISM=Natural
NAME=MLS001139335-01!2-imino-N-[2-(4-methoxyphenyl)ethyl]-5-oxo-1-(oxolan-2-ylmethyl)dipyrido[1,2-d:3',4'-f]pyrimidine-3-carboxamide
PI=GNPS
DATACOLLECTOR=GNPS
SMILES=COc1ccc(cc1)CCN=C(c1cc2c(nc3ccccn3c2=O)n(CC2CCCO2)c1=N)O
INCHI=InChI=1S/C26H27N5O4/c1-34-18-9-7-17(8-10-18)11-12-28-25(32)20-15-21-24(29-22-6-2-3-13-30(22)26(21)33)31(23(20)27)16-19-5-4-14-35-19/h2-3,6-10,13,15,19,27H,4-5,11-12,14,16H2,1H3,(H,28,32)
FORMULA=C26H27N5O4
PUBMED=N/A
SUBMITUSER=BIOADREM
LIBRARYQUALITY=0
SPECTRUMID=CCMSLIB00000079717
SCANS=1925
ID=CCMSLIB00000079717
103.0542261926 	 0.76
105.0698762568 	 2.72
120.0569658468 	 1.92
135.0804409431 	 14.86
183.0665222134 	 0.36
184.0505377982 	 3.57
196.0505377982 	 2.17
211.0614368355 	 5
221.0457867713 	 1.51
224.0454524203 	 0.35
237.0770868997 	 1.36
239.0563514576 	 100
249.0770868997 	 0.43
251.0563514576 	 3.05
253.0720015218 	 0.59
265.0720015218 	 0.39
277.0720015218 	 1.12
281.0669161439 	 0.45
293.1033016502 	 0.61
305.1033016502 	 2.45
323.1138663365 	 63.9
372.1455008159 	 0.84
390.1560655022 	 26.08
456.2030156948 	 0.93
474.2135803811 	 56.13
END IONS

BEGIN IONS
PEPMASS=422.172
CHARGE=1
MSLEVEL=2
RT=0
SOURCE_INSTRUMENT=qTOF
FILENAME=CCMSLIB00000079718.ms
IONMODE=Positive
ORGANISM=Natural
NAME=MLS001141386-01!(2S)-2-[3-[(10aS)-1,3-dioxo-10,10a-dihydro-5H-imidazo[1,5-b]isoquinolin-2-yl]propanoylamino]-3-phenylpropanoic acid
PI=GNPS
DATACOLLECTOR=GNPS
SMILES=c1ccc(cc1)C[C@@H](C(=O)O)N=C(CCN1C(=O)[C@@H]2Cc3ccccc3CN2C1=O)O
INCHI=InChI=1S/C23H23N3O5/c27-20(24-18(22(29)30)12-15-6-2-1-3-7-15)10-11-25-21(28)19-13-16-8-4-5-9-17(16)14-26(19)23(25)31/h1-9,18-19H,10-14H2,(H,24,27)(H,29,30)/t18-,19-/m0/s1
FORMULA=C23H23N3O5
PUBMED=N/A
SUBMITUSER=BIOADREM
LIBRARYQUALITY=0
SPECTRUMID=CCMSLIB00000079718
SCANS=1926
ID=CCMSLIB00000079718
103.0542261926 	 2.15
115.0542261926 	 1.21
117.0698762568 	 0.71
119.0491408147 	 0.83
120.0807752941 	 6.67
130.0651252299 	 47.21
132.0807752941 	 28.91
144.0807752941 	 4.89
146.060039852 	 0.84
158.060039852 	 24.08
160.0756899162 	 1.28
175.0865889535 	 10.3
185.0709388893 	 1.8
186.0913399804 	 1.63
187.0865889535 	 100
203.0815035756 	 78.9
215.0815035756 	 18.44
229.0971536398 	 3.84
257.0920682619 	 47.12
422.1710468644 	 0
END IONS

BEGIN IONS
PEPMASS=372.1195
CHARGE=1
MSLEVEL=2
RT=0
SOURCE_INSTRUMENT=qTOF
FILENAME=CCMSLIB00000079719.ms
IONMODE=Positive
ORGANISM=Natural
NAME=MLS001075905-01!
PI=GNPS
DATACOLLECTOR=GNPS
SMILES=c1cc2[C@@H]3C[C@H](CN(C3)C(=S)N=C(c3ccc(cc3)F)O)Cn2c(=O)c1
INCHI=InChI=1S/C19H18FN3O2S/c20-15-6-4-13(5-7-15)18(25)21-19(26)22-9-12-8-14(11-22)16-2-1-3-17(24)23(16)10-12/h1-7,12,14H,8-11H2,(H,21,25,26)/t12-,14-/m1/s1
FORMULA=C19H18FN3O2S
PUBMED=N/A
SUBMITUSER=BIOADREM
LIBRARYQUALITY=0
SPECTRUMID=CCMSLIB00000079719
SCANS=1927
ID=CCMSLIB00000079719
95.0291542963 	 2.8
113.0397189826 	 1.17
114.0475440147 	 0.49
120.0819181483 	 0.8
123.0229260642 	 23.21
129.071019111 	 0.6
130.0662680841 	 0.8
131.0740931162 	 0.54
132.045532642 	 1.73
133.0533576741 	 3.87
134.056000211 	 2.31
144.0807752941 	 0.54
145.0533576741 	 0.47
146.060039852 	 3.52
146.0975682125 	 0.87
148.0768327704 	 43.28
149.0794753073 	 4.05
154.0651252299 	 0.42
158.0611827062 	 2.4
159.0690077383 	 1.16
160.0768327704 	 13.24
172.0756899162 	 1.22
174.0924828346 	 9.4
175.0951253715 	 1.66
191.1190319361 	 100
192.121674473 	 9.5
235.0751557487 	 0.6
372.1176517276 	 0.32
END IONS

BEGIN IONS
PEPMASS=425.208
CHARGE=1
MSLEVEL=2
RT=0
SOURCE_INSTRUMENT=qTOF
FILENAME=CCMSLIB00000079721.ms
IONMODE=Positive
ORGANISM=Natural
NAME=MLS001158544-01!N-[3-(2-oxopyrrolidin-1-yl)propyl]-3-(3,5,9-trimethyl-7-oxofuro[3,2-g]chromen-6-yl)propanamide
PI=GNPS
DATACOLLECTOR=GNPS
SMILES=Cc1coc2c(C)c3c(cc12)c(C)c(CCC(=NCCCN1CCCC1=O)O)c(=O)o3
INCHI=InChI=1S/C24H28N2O5/c1-14-13-30-22-16(3)23-19(12-18(14)22)15(2)17(24(29)31-23)7-8-20(27)25-9-5-11-26-10-4-6-21(26)28/h12-13H,4-11H2,1-3H3,(H,25,27)
FORMULA=C24H28N2O5
PUBMED=N/A
SUBMITUSER=BIOADREM
LIBRARYQUALITY=0
SPECTRUMID=CCMSLIB00000079721
SCANS=1928
ID=CCMSLIB00000079721
98.060039852 	 0.57
126.0913399804 	 3.08
129.0698762568 	 0.37
141.0698762568 	 0.5
142.0777012889 	 0.64
143.085526321 	 0.35
153.0698762568 	 0.31
154.0777012889 	 1.63
155.085526321 	 0.34
157.1011763852 	 0.7
167.085526321 	 0.35
168.0933513531 	 0.21
169.0647908789 	 0.29
169.1011763852 	 0.29
182.072615911 	 0.72
183.0804409431 	 0.26
184.0882659752 	 0.33
185.0960910073 	 1.47
186.099893294 	 0.37
196.0882659752 	 0.37
197.0960910073 	 0.47
198.0675305331 	 0.48
199.1117410715 	 0.31
213.0910056294 	 10.46
214.0948079161 	 1.54
227.1066556936 	 1.13
241.0859202515 	 100
242.0897225382 	 18.69
255.1015703157 	 19.07
283.0964849378 	 20.66
425.2070980197 	 0
END IONS

BEGIN IONS
PEPMASS=368.161
CHARGE=1
MSLEVEL=2
RT=0
SOURCE_INSTRUMENT=qTOF
FILENAME=CCMSLIB00000079722.ms
IONMODE=Positive
ORGANISM=Natural
NAME=MLS001146603-01!
PI=GNPS
DATACOLLECTOR=GNPS
SMILES=COC(=O)c1ccccc1N=C(N1C[C@@H]2C[C@@H](C1)c1cccc(=O)n1C2)O
INCHI=InChI=1S/C20H21N3O4/c1-27-19(25)15-5-2-3-6-16(15)21-20(26)22-10-13-9-14(12-22)17-7-4-8-18(24)23(17)11-13/h2-8,13-14H,9-12H2,1H3,(H,21,26)/t13-,14-/m0/s1
FORMULA=C20H21N3O4
PUBMED=N/A
SUBMITUSER=BIOADREM
LIBRARYQUALITY=0
SPECTRUMID=CCMSLIB00000079722
SCANS=1929
ID=CCMSLIB00000079722
103.0542261926 	 0.48
104.0494751657 	 0.56
105.0573001978 	 0.7
106.0651252299 	 1.48
108.0443897878 	 1.36
117.0573001978 	 2.56
118.0287397236 	 0.54
118.0651252299 	 1.83
120.0807752941 	 0.45
122.060039852 	 0.55
129.0698762568 	 1.82
130.0651252299 	 2.29
131.072950262 	 2.85
132.0443897878 	 7.56
132.0807752941 	 2.02
133.0522148199 	 9.62
134.060039852 	 4.06
141.0573001978 	 0.68
142.0651252299 	 1.97
144.0807752941 	 2.04
145.0522148199 	 1.74
146.0236543457 	 100
146.060039852 	 29.57
148.0756899162 	 12.93
154.0651252299 	 1.14
156.0807752941 	 2.73
158.060039852 	 8.66
159.0678648841 	 6.21
160.0756899162 	 86.48
171.0916743314 	 0.88
172.0756899162 	 11.3
174.0913399804 	 38.54
188.0706045383 	 4.45
189.1022390177 	 24.36
191.1178890819 	 12.72
199.0865889535 	 1.43
217.0971536398 	 76.74
235.1077183261 	 2.23
336.1342674276 	 50.59
368.1604821781 	 0
END IONS

BEGIN IONS
PEPMASS=482.1851
CHARGE=1
MSLEVEL=2
RT=0
SOURCE_INSTRUMENT=qTOF
FILENAME=CCMSLIB00000079723.ms
IONMODE=Positive
ORGANISM=Natural
NAME=MLS001160388-01!(2R)-2-[[(2S)-2-(1,2-dihydroimidazo[1,2-a]benzimidazole-3-carbonylamino)-4-methylsulfanylbutanoyl]amino]-3-phenylpropanoic acid
PI=GNPS
DATACOLLECTOR=GNPS
SMILES=CSCC[C@@H](C(=N[C@H](Cc1ccccc1)C(=O)O)O)N=C(N1CCn2c3ccccc3nc12)O
INCHI=InChI=1S/C24H27N5O4S/c1-34-14-11-18(21(30)25-19(22(31)32)15-16-7-3-2-4-8-16)27-24(33)29-13-12-28-20-10-6-5-9-17(20)26-23(28)29/h2-10,18-19H,11-15H2,1H3,(H,25,30)(H,27,33)(H,31,32)/t18-,19+/m0/s1
FORMULA=C24H27N5O4S
PUBMED=N/A
SUBMITUSER=BIOADREM
LIBRARYQUALITY=0
SPECTRUMID=CCMSLIB00000079723
SCANS=1930
ID=CCMSLIB00000079723
103.0542261926 	 0.42
105.0447241388 	 0.32
107.060374203 	 0.24
118.0525491709 	 0.58
119.060374203 	 5.41
130.032110542 	 1
130.0651252299 	 0.49
131.060374203 	 0.54
132.0556231761 	 0.64
133.0760242672 	 1.33
134.0712732403 	 0.28
143.060374203 	 0.35
147.0552888251 	 0.27
156.0807752941 	 0.28
158.0270251641 	 2.56
158.0712732403 	 2.3
159.0804409431 	 7.87
160.0869233045 	 100
172.0869233045 	 0.72
186.0913399804 	 0.34
198.1025733687 	 12.67
201.0658535114 	 0.21
229.0971536398 	 4.67
241.1083870281 	 37.43
243.112803704 	 0.5
277.1005244582 	 0.57
289.1117578465 	 17.54
317.1066724686 	 0.3
335.1172371549 	 0.41
482.1856510711 	 0.6
END IONS

BEGIN IONS
PEPMASS=441.13
CHARGE=1
MSLEVEL=2
RT=0
SOURCE_INSTRUMENT=qTOF
FILENAME=CCMSLIB00000079724.ms
IONMODE=Positive
ORGANISM=Natural
NAME=MLS001140265-01!(2S)-N-(1,3-benzodioxol-5-yl)-1-(4,5-dimethoxy-3-oxo-1H-2-benzofuran-1-yl)-5-oxopyrrolidine-2-carboxamide
PI=GNPS
DATACOLLECTOR=GNPS
SMILES=COc1ccc2c(c1OC)C(=O)OC2N1[C@@H](CCC1=O)C(=Nc1ccc2c(c1)OCO2)O
INCHI=InChI=1S/C22H20N2O8/c1-28-15-7-4-12-18(19(15)29-2)22(27)32-21(12)24-13(5-8-17(24)25)20(26)23-11-3-6-14-16(9-11)31-10-30-14/h3-4,6-7,9,13,21H,5,8,10H2,1-2H3,(H,23,26)/t13-,21?/m0/s1
FORMULA=C22H20N2O8
PUBMED=N/A
SUBMITUSER=BIOADREM
LIBRARYQUALITY=0
SPECTRUMID=CCMSLIB00000079724
SCANS=1931
ID=CCMSLIB00000079724
109.0284053726 	 1.51
121.0284053726 	 1.91
122.0362304047 	 2.58
123.0440554368 	 0.56
135.0440554368 	 3.97
137.0233199947 	 1.54
149.0233199947 	 2.69
150.0311450268 	 4.59
151.0389700589 	 0.86
163.0389700589 	 12.32
165.0546201231 	 0.53
177.0182346168 	 0.53
178.0260596489 	 2.38
193.0495347452 	 100
312.086648533 	 0.78
441.1292416292 	 0
END IONS

BEGIN IONS
PEPMASS=479.1813
CHARGE=1
MSLEVEL=2
RT=0
SOURCE_INSTRUMENT=qTOF
FILENAME=CCMSLIB00000079725.ms
IONMODE=Positive
ORGANISM=Natural
NAME=MLS001158392-01!3-(5-hydroxy-1H-indol-3-yl)-2-[[2-(7-methyl-2-oxo-4-propylchromen-5-yl)oxyacetyl]amino]propanoic acid
PI=GNPS
DATACOLLECTOR=GNPS
SMILES=CCCc1cc(=O)oc2cc(C)cc(c12)OCC(=NC(Cc1c[nH]c2ccc(cc12)O)C(=O)O)O
INCHI=InChI=1S/C26H26N2O7/c1-3-4-15-10-24(31)35-22-8-14(2)7-21(25(15)22)34-13-23(30)28-20(26(32)33)9-16-12-27-19-6-5-17(29)11-18(16)19/h5-8,10-12,20,27,29H,3-4,9,13H2,1-2H3,(H,28,30)(H,32,33)
FORMULA=C26H26N2O7
PUBMED=N/A
SUBMITUSER=BIOADREM
LIBRARYQUALITY=0
SPECTRUMID=CCMSLIB00000079725
SCANS=1932
ID=CCMSLIB00000079725
115.0542261926 	 2.22
118.0651252299 	 3.6
129.0698762568 	 2.06
131.0491408147 	 5.27
132.0807752941 	 2.97
134.060039852 	 11.67
146.060039852 	 100
148.0756899162 	 6.29
155.060374203 	 2.36
158.060039852 	 19.91
159.0678648841 	 10.96
160.0756899162 	 36.68
161.059705501 	 5.44
162.0549544741 	 23.37
170.060039852 	 6.39
172.0756899162 	 7.85
173.0709388893 	 6.68
174.0787639214 	 21.12
177.0546201231 	 5.11
186.0549544741 	 29.77
187.0865889535 	 16.66
189.0546201231 	 2.37
189.0910056294 	 6.4
198.0760838467 	 2.91
199.0627795062 	 5.33
199.0865889535 	 7.17
203.0702701873 	 13.53
203.1066556936 	 7.57
204.0655191604 	 31.52
216.0893286077 	 10.07
219.1015703157 	 14.64
231.1015703157 	 15.27
233.0920682619 	 3.08
276.1230340393 	 2.8
433.1757978913 	 11.28
479.1812771997 	 1.18
END IONS

BEGIN IONS
PEPMASS=430.1864
CHARGE=1
MSLEVEL=2
RT=0
SOURCE_INSTRUMENT=qTOF
FILENAME=CCMSLIB00000079726.ms
IONMODE=Positive
ORGANISM=Natural
NAME=MLS001032361-01!N-[2-(3,4-dimethoxyphenyl)ethyl]-2-[(5-hydroxy-2,2-dimethyl-4-oxo-3H-chromen-7-yl)oxy]acetamide
PI=GNPS
DATACOLLECTOR=GNPS
SMILES=CC1(C)CC(=O)c2c(cc(cc2O1)OCC(=NCCc1ccc(c(c1)OC)OC)O)O
INCHI=InChI=1S/C23H27NO7/c1-23(2)12-17(26)22-16(25)10-15(11-20(22)31-23)30-13-21(27)24-8-7-14-5-6-18(28-3)19(9-14)29-4/h5-6,9-11,25H,7-8,12-13H2,1-4H3,(H,24,27)
FORMULA=C23H27NO7
PUBMED=N/A
SUBMITUSER=BIOADREM
LIBRARYQUALITY=0
SPECTRUMID=CCMSLIB00000079726
SCANS=1933
ID=CCMSLIB00000079726
103.0542261926 	 1.54
105.0698762568 	 4.67
107.0491408147 	 2.54
118.0413157826 	 0.8
119.0491408147 	 0.98
120.0569658468 	 1.46
121.0647908789 	 2.32
122.072615911 	 0.62
130.0651252299 	 0.85
131.0491408147 	 1.35
131.072950262 	 1.08
133.0647908789 	 4.95
134.072615911 	 6.07
135.0440554368 	 5.02
135.0804409431 	 4.71
137.059705501 	 0.74
139.0389700589 	 0.64
146.072615911 	 2.21
147.0678648841 	 3.33
148.0756899162 	 2.09
149.059705501 	 1.41
150.0675305331 	 29.96
153.0182346168 	 15.53
162.0913399804 	 4.61
163.0753555652 	 1.46
163.0991650125 	 1.75
165.0910056294 	 100
167.033884681 	 1.09
177.0910056294 	 4.55
179.0940796346 	 2.19
180.1019046667 	 1.22
190.0624451552 	 0.84
191.0702701873 	 3.55
193.0859202515 	 0.82
194.1175547309 	 7.73
205.0859202515 	 0.81
209.0808348736 	 7.35
222.112469353 	 1.23
223.0964849378 	 0.71
374.1234279698 	 9.99
430.1860282266 	 1.02
END IONS

BEGIN IONS
PEPMASS=287.0903
CHARGE=1
MSLEVEL=2
RT=0
SOURCE_INSTRUMENT=qTOF
FILENAME=CCMSLIB00000079727.ms
IONMODE=Positive
ORGANISM=Natural
NAME=MLS000876793-01!5-hydroxy-2-(4-hydroxyphenyl)-7-methoxy-2,3-dihydrochromen-4-one
PI=GNPS
DATACOLLECTOR=GNPS
SMILES=COc1cc(c2C(=O)CC(c3ccc(cc3)O)Oc2c1)O
INCHI=InChI=1S/C16H14O5/c1-20-11-6-12(18)16-13(19)8-14(21-15(16)7-11)9-2-4-10(17)5-3-9/h2-7,14,17-18H,8H2,1H3
FORMULA=C16H14O5
PUBMED=N/A
SUBMITUSER=BIOADREM
LIBRARYQUALITY=0
SPECTRUMID=CCMSLIB00000079727
SCANS=1934
ID=CCMSLIB00000079727
95.0491408147 	 1.48
111.0440554368 	 6.65
119.0491408147 	 16.1
120.0569658468 	 1.48
123.0440554368 	 1.55
147.0440554368 	 34.83
148.0518804689 	 2.09
152.0104095847 	 3.17
165.0546201231 	 1.82
167.033884681 	 100
287.0913995599 	 5.37
END IONS

BEGIN IONS
PEPMASS=479.269
CHARGE=1
MSLEVEL=2
RT=0
SOURCE_INSTRUMENT=qTOF
FILENAME=CCMSLIB00000079728.ms
IONMODE=Positive
ORGANISM=Natural
NAME=MLS001141097-01!1-[(2S)-2-amino-4-methylsulfanylbutanoyl]-N-[(2R)-1-[(4-methoxyphenyl)methylamino]-3-methyl-1-oxobutan-2-yl]piperidine-4-carboxamide
PI=GNPS
DATACOLLECTOR=GNPS
SMILES=CC(C)[C@H](C(=NCc1ccc(cc1)OC)O)N=C(C1CCN(CC1)C(=O)[C@H](CCSC)N)O
INCHI=InChI=1S/C24H38N4O4S/c1-16(2)21(23(30)26-15-17-5-7-19(32-3)8-6-17)27-22(29)18-9-12-28(13-10-18)24(31)20(25)11-14-33-4/h5-8,16,18,20-21H,9-15,25H2,1-4H3,(H,26,30)(H,27,29)/t20-,21+/m0/s1
FORMULA=C24H38N4O4S
PUBMED=N/A
SUBMITUSER=BIOADREM
LIBRARYQUALITY=0
SPECTRUMID=CCMSLIB00000079728
SCANS=1935
ID=CCMSLIB00000079728
104.0528459841 	 4.77
106.0413157826 	 0.65
110.0964253583 	 1
112.0756899162 	 55.73
121.0647908789 	 100
138.0913399804 	 0.79
139.0865889535 	 0.93
158.0997961767 	 1.46
165.138624524 	 0.66
166.0862546025 	 0.56
167.0815035756 	 0.75
181.1335391461 	 0.8
183.1491892103 	 14.54
211.1441038324 	 15.64
226.1498203745 	 0.93
237.1597538966 	 5.45
238.1550028697 	 1.54
240.1706529339 	 0.69
266.1863029981 	 6.4
267.188945535 	 1.58
294.1812176202 	 0.86
298.1583736881 	 0.47
314.1896738165 	 4.79
315.1941280302 	 1.02
330.2176031265 	 0.48
342.1845884386 	 2.52
348.2281678128 	 9.79
431.2652816006 	 5.17
462.2421033175 	 0.63
479.268652419 	 0
END IONS

BEGIN IONS
PEPMASS=465.2255
CHARGE=1
MSLEVEL=2
RT=0
SOURCE_INSTRUMENT=qTOF
FILENAME=CCMSLIB00000079729.ms
IONMODE=Positive
ORGANISM=Natural
NAME=MLS000863599-01!2,3,6,8-tetrahydroxy-1,4,7-tris(3-methylbut-2-enyl)xanthen-9-one
PI=GNPS
DATACOLLECTOR=GNPS
SMILES=CC(=CCc1c(cc2c(c1O)c(=O)c1c(CC=C(C)C)c(c(c(CC=C(C)C)c1o2)O)O)O)C
INCHI=InChI=1S/C28H32O6/c1-14(2)7-10-17-20(29)13-21-23(24(17)30)27(33)22-18(11-8-15(3)4)25(31)26(32)19(28(22)34-21)12-9-16(5)6/h7-9,13,29-32H,10-12H2,1-6H3
FORMULA=C28H32O6
PUBMED=N/A
SUBMITUSER=BIOADREM
LIBRARYQUALITY=0
SPECTRUMID=CCMSLIB00000079729
SCANS=1936
ID=CCMSLIB00000079729
187.0389700589 	 0.75
213.0546201231 	 2.93
227.033884681 	 1.11
241.0495347452 	 5.55
242.0573597773 	 1.07
243.0287993031 	 0.98
255.0651848094 	 1.21
257.0444493673 	 1.33
258.0464011605 	 0.65
259.0542261926 	 0.64
267.0651848094 	 0.8
269.0444493673 	 15.21
270.0522743994 	 2.33
271.0600994315 	 2.57
283.0600994315 	 4.24
283.0964849378 	 1.28
284.0620512247 	 0.93
285.0393639894 	 6.07
287.0550140536 	 1.09
295.0600994315 	 0.85
296.0679244636 	 0.64
297.0393639894 	 100
298.0413157826 	 19.7
300.0569658468 	 1.42
307.0964849378 	 2.75
310.0835745278 	 1.28
311.0550140536 	 11.54
312.0569658468 	 1.96
313.0647908789 	 0.66
320.0679244636 	 0.68
324.0628390857 	 1.51
325.0706641178 	 2.65
325.1070496241 	 6.19
326.072615911 	 0.98
326.1090014173 	 1.54
336.099224592 	 0.65
337.1070496241 	 0.76
338.0784891499 	 1.39
339.086314182 	 1.28
351.086314182 	 0.89
353.1019642462 	 77.68
354.1039160394 	 21.45
365.1019642462 	 0.98
381.1332643746 	 0.89
409.164564503 	 22.6
465.2271647598 	 0.69
END IONS

BEGIN IONS
PEPMASS=430.1056
CHARGE=1
MSLEVEL=2
RT=0
SOURCE_INSTRUMENT=qTOF
FILENAME=CCMSLIB00000079730.ms
IONMODE=Positive
ORGANISM=Natural
NAME=MLS001141370-01!3-(4-chlorophenyl)-2-[[2-(4,7-dimethyl-2-oxochromen-5-yl)oxyacetyl]amino]propanoic acid
PI=GNPS
DATACOLLECTOR=GNPS
SMILES=Cc1cc(c2c(C)cc(=O)oc2c1)OCC(=NC(Cc1ccc(cc1)Cl)C(=O)O)O
INCHI=InChI=1S/C22H20ClNO6/c1-12-7-17(21-13(2)9-20(26)30-18(21)8-12)29-11-19(25)24-16(22(27)28)10-14-3-5-15(23)6-4-14/h3-9,16H,10-11H2,1-2H3,(H,24,25)(H,27,28)
FORMULA=C22H20ClNO6
PUBMED=N/A
SUBMITUSER=BIOADREM
LIBRARYQUALITY=0
SPECTRUMID=CCMSLIB00000079730
SCANS=1937
ID=CCMSLIB00000079730
103.0542261926 	 4.91
115.0542261926 	 6.73
116.0620512247 	 3.14
117.0698762568 	 7.06
118.0651252299 	 7.5
128.0620512247 	 8.78
129.0698762568 	 14.37
130.0651252299 	 14.83
131.072950262 	 20.21
132.0569658468 	 2.57
133.0647908789 	 4.73
134.072615911 	 2.41
135.0804409431 	 4.78
137.0152538705 	 3.47
139.0309039347 	 8.66
141.0698762568 	 2.11
144.0569658468 	 2.11
145.0647908789 	 43.76
147.0440554368 	 3.18
147.0804409431 	 13
154.041802972 	 34.32
159.0804409431 	 2.53
161.059705501 	 9.63
162.0675305331 	 16.3
163.0753555652 	 2.08
166.041802972 	 48.24
173.059705501 	 9.7
175.0753555652 	 58.16
184.0523676583 	 2.75
189.0546201231 	 6.64
190.0624451552 	 45.98
191.0702701873 	 77.2
203.0702701873 	 100
231.0651848094 	 12.06
249.0757494957 	 3.78
384.0997117814 	 3.86
430.1051910898 	 4.1
END IONS

BEGIN IONS
PEPMASS=433.113
CHARGE=1
MSLEVEL=2
RT=0
SOURCE_INSTRUMENT=qTOF
FILENAME=CCMSLIB00000079731.ms
IONMODE=Positive
ORGANISM=Natural
NAME=MLS000563041-01!5,7-dihydroxy-2-(4-hydroxyphenyl)-6-[(2S,3R,4R,5S,6R)-3,4,5-trihydroxy-6-(hydroxymethyl)oxan-2-yl]chromen-4-one
PI=GNPS
DATACOLLECTOR=GNPS
SMILES=c1cc(ccc1c1cc(=O)c2c(cc(c(c2O)[C@H]2[C@@H]([C@H]([C@@H]([C@@H](CO)O2)O)O)O)O)o1)O
INCHI=InChI=1S/C21H20O10/c22-7-14-17(26)19(28)20(29)21(31-14)16-11(25)6-13-15(18(16)27)10(24)5-12(30-13)8-1-3-9(23)4-2-8/h1-6,14,17,19-23,25-29H,7H2/t14-,17-,19+,20-,21+/m1/s1
FORMULA=C21H20O10
PUBMED=N/A
SUBMITUSER=BIOADREM
LIBRARYQUALITY=0
SPECTRUMID=CCMSLIB00000079731
SCANS=1938
ID=CCMSLIB00000079731
137.0233199947 	 4.6078992558672
149.0233199947 	 6.8689181453921
153.0182346168 	 4.6078992558672
165.0182346168 	 14.9971379507728
166.0260596489 	 6.41099026903263
215.033884681 	 12.0110665903454
243.0076699305 	 0.343445907269605
261.0182346168 	 0.562869681358519
271.0237139252 	 4.78916237359283
278.0784891499 	 5.87674107994657
283.0600994315 	 95.4016409082236
294.0522743994 	 4.78916237359283
297.0757494957 	 6.04846403358138
307.0600994315 	 9.39706162946003
309.0393639894 	 7.23144438084335
309.0757494957 	 13.909559244419
313.0706641178 	 68.7464224384659
320.0679244636 	 5.96260255676398
321.0757494957 	 6.9547796222095
323.0913995599 	 26.0160274756726
337.0706641178 	 33.3333333333333
338.0784891499 	 9.48292310627743
343.0448432978 	 29.2501431024614
351.0499286757 	 6.80213699675634
351.0710580483 	 7.05018126311773
361.0342786115 	 11.1906124785346
379.0448432978 	 19.3474527761878
397.0554079841 	 32.0167906887998
415.0659726704 	 100
433.112922863 	 0
END IONS

BEGIN IONS
PEPMASS=363.138
CHARGE=1
MSLEVEL=2
RT=0
SOURCE_INSTRUMENT=qTOF
FILENAME=CCMSLIB00000079732.ms
IONMODE=Positive
ORGANISM=Natural
NAME=MLS001141253-01!(3R)-N-cyclopropyl-6,7-dimethoxy-2,2-dimethyl-5-oxo-3,9b-dihydro-[1,3]thiazolo[2,3-a]isoindole-3-carboxamide
PI=GNPS
DATACOLLECTOR=GNPS
SMILES=CC1(C)[C@@H](C(=NC2CC2)O)N2C(=O)c3c(ccc(c3OC)OC)C2S1
INCHI=InChI=1S/C18H22N2O4S/c1-18(2)14(15(21)19-9-5-6-9)20-16(22)12-10(17(20)25-18)7-8-11(23-3)13(12)24-4/h7-9,14,17H,5-6H2,1-4H3,(H,19,21)/t14-,17?/m1/s1
FORMULA=C18H22N2O4S
PUBMED=N/A
SUBMITUSER=BIOADREM
LIBRARYQUALITY=0
SPECTRUMID=CCMSLIB00000079732
SCANS=1939
ID=CCMSLIB00000079732
148.0393044099 	 3.14
149.047129442 	 2.36
150.0497719789 	 0.79
161.047129442 	 1.31
162.0549544741 	 3.17
163.0627795062 	 1.76
164.0706045383 	 3.39
165.0004760626 	 0.8
165.0546201231 	 1.37
172.0756899162 	 0.83
174.0549544741 	 4.27
174.0913399804 	 1.35
176.034219032 	 0.81
176.0706045383 	 1.74
177.0420440641 	 6.08
181.031776191 	 0.83
187.0991650125 	 1.01
188.0706045383 	 2.32
189.0606710162 	 1.28
191.0576941283 	 1.01
192.0655191604 	 73.1
194.0811692246 	 1.19
202.0862546025 	 0.79
205.0733441925 	 2.59
209.0266908131 	 3.66
213.0784295704 	 1.1
216.0655191604 	 0.98
217.0555856383 	 1.28
218.1175547309 	 1.38
220.0426752283 	 3.84
220.0968192888 	 6.05
222.0345158452 	 0.89
230.0759867294 	 0.86
232.0968192888 	 2.3
234.0583252925 	 5.58
235.0661503246 	 8.79
237.0579909415 	 1.74
245.0505002604 	 1.15
246.112469353 	 8.84
250.0896254209 	 7.62
262.0532399146 	 1.36
278.084540043 	 100
363.137303895 	 0
END IONS

BEGIN IONS
PEPMASS=331.119
CHARGE=1
MSLEVEL=2
RT=0
SOURCE_INSTRUMENT=qTOF
FILENAME=CCMSLIB00000079733.ms
IONMODE=Positive
ORGANISM=Natural
NAME=MLS000877005-01!
PI=GNPS
DATACOLLECTOR=GNPS
SMILES=c1ccc2c(c1)C(=NC1CCc3nc4ccccc4c(=O)n3C1=N2)O
INCHI=InChI=1S/C19H14N4O2/c24-18-11-5-1-3-7-13(11)21-17-15(22-18)9-10-16-20-14-8-4-2-6-12(14)19(25)23(16)17/h1-8,15H,9-10H2,(H,22,24)
FORMULA=C19H14N4O2
PUBMED=N/A
SUBMITUSER=BIOADREM
LIBRARYQUALITY=0
SPECTRUMID=CCMSLIB00000079733
SCANS=1940
ID=CCMSLIB00000079733
105.0334907505 	 11.3
130.0287397236 	 26.25
147.0314793778 	 4.98
158.0712732403 	 2.57
166.0611024845 	 3.85
168.0681992351 	 2.22
206.0798265539 	 2.57
221.0709388893 	 13.71
222.0787639214 	 3.6
223.0978223418 	 2.86
231.0552888251 	 2.22
234.0787639214 	 2.07
249.0658535114 	 100
257.1033016502 	 2.71
287.1053130229 	 2.76
331.1189517144 	 0
END IONS

BEGIN IONS
PEPMASS=512.184
CHARGE=1
MSLEVEL=2
RT=0
SOURCE_INSTRUMENT=qTOF
FILENAME=CCMSLIB00000079734.ms
IONMODE=Positive
ORGANISM=Natural
NAME=MLS001157805-01!4-[[2-(3-benzyl-6-chloro-4-methyl-2-oxochromen-7-yl)oxypropanoylamino]methyl]cyclohexane-1-carboxylic acid
PI=GNPS
DATACOLLECTOR=GNPS
SMILES=Cc1c2cc(c(cc2oc(=O)c1Cc1ccccc1)OC(C)C(=NC[C@H]1CC[C@@H](CC1)C(=O)O)O)Cl
INCHI=InChI=1S/C28H30ClNO6/c1-16-21-13-23(29)25(14-24(21)36-28(34)22(16)12-18-6-4-3-5-7-18)35-17(2)26(31)30-15-19-8-10-20(11-9-19)27(32)33/h3-7,13-14,17,19-20H,8-12,15H2,1-2H3,(H,30,31)(H,32,33)/t17?,19-,20-
FORMULA=C28H30ClNO6
PUBMED=N/A
SUBMITUSER=BIOADREM
LIBRARYQUALITY=0
SPECTRUMID=CCMSLIB00000079734
SCANS=1941
ID=CCMSLIB00000079734
95.085526321 	 7.34
105.0698762568 	 1.28
110.060039852 	 1.31
110.0964253583 	 1.66
111.1042503904 	 5.62
112.1120754225 	 4.69
124.0756899162 	 2.27
129.0698762568 	 2.17
138.0913399804 	 5.59
138.1277254867 	 9.82
140.1069900446 	 46.76
152.1069900446 	 3.73
160.0518804689 	 1.17
166.1226401088 	 7.18
167.1304651409 	 19.32
184.1332047951 	 7.07
193.041468621 	 1.49
195.0207331789 	 3.59
223.015647801 	 100
224.0189628983 	 9.21
225.0101684926 	 25.36
226.0179935247 	 4.16
249.0312978652 	 10.39
250.0391228973 	 1.13
271.0520333073 	 2.42
284.0553484046 	 2.52
285.0267879304 	 1.13
292.1093953478 	 2.59
299.0469479294 	 2.96
299.0833334357 	 3.26
300.0502630267 	 1.93
301.0625979936 	 24.47
302.0659130909 	 6.42
327.0782480578 	 38.22
328.0815631551 	 8.63
355.0731626799 	 1.36
466.1779621024 	 10.73
512.1834414108 	 0
END IONS

BEGIN IONS
PEPMASS=581.187
CHARGE=1
MSLEVEL=2
RT=0
SOURCE_INSTRUMENT=qTOF
FILENAME=CCMSLIB00000079735.ms
IONMODE=Positive
ORGANISM=Natural
NAME=MLS001143533-01!
PI=GNPS
DATACOLLECTOR=GNPS
SMILES=CC1[C@@H]([C@H]([C@H]([C@H](OCC2[C@H]([C@@H]([C@H]([C@H](Oc3cc(c4C(=O)CC(c5ccc(cc5)O)Oc4c3)O)O2)O)O)O)O1)O)O)O
INCHI=InChI=1S/C27H32O14/c1-10-20(31)22(33)24(35)26(38-10)37-9-18-21(32)23(34)25(36)27(41-18)39-13-6-14(29)19-15(30)8-16(40-17(19)7-13)11-2-4-12(28)5-3-11/h2-7,10,16,18,20-29,31-36H,8-9H2,1H3/t10?,16?,18?,20-,21+,22+,23-,24+,25+,26+,27+/m0/s1
FORMULA=C27H32O14
PUBMED=N/A
SUBMITUSER=BIOADREM
LIBRARYQUALITY=0
SPECTRUMID=CCMSLIB00000079735
SCANS=1942
ID=CCMSLIB00000079735
101.059705501 	 1.92
121.0647908789 	 1.68
129.0546201231 	 7.45
147.0440554368 	 12.89
153.0182346168 	 55.38
157.0647908789 	 1.09
165.0182346168 	 1.26
171.0287993031 	 1.23
177.0182346168 	 1.72
203.033884681 	 1.6
245.0444493673 	 4.47
255.0651848094 	 1.66
263.0550140536 	 4.21
273.0757494957 	 100
281.0655787399 	 1.78
581.1864817366 	 0
END IONS

BEGIN IONS
PEPMASS=245.096
CHARGE=1
MSLEVEL=2
RT=0
SOURCE_INSTRUMENT=qTOF
FILENAME=CCMSLIB00000079736.ms
IONMODE=Positive
ORGANISM=Natural
NAME=MLS000530211-01!
PI=GNPS
DATACOLLECTOR=GNPS
SMILES=C(CCC(=O)O)CC1C2C(CS1)N=C(N2)O
INCHI=InChI=1S/C10H16N2O3S/c13-8(14)4-2-1-3-7-9-6(5-16-7)11-10(15)12-9/h6-7,9H,1-5H2,(H,13,14)(H2,11,12,15)
FORMULA=C10H16N2O3S
PUBMED=N/A
SUBMITUSER=BIOADREM
LIBRARYQUALITY=0
SPECTRUMID=CCMSLIB00000079736
SCANS=1943
ID=CCMSLIB00000079736
97.0106468184 	 20.52
99.0137208236 	 9.72
100.0215458557 	 18.14
100.9929853815 	 11.02
102.0675305331 	 9.72
103.057597011 	 17.93
105.0698762568 	 43.2
106.044686601 	 13.39
106.0777012889 	 17.93
111.0262968826 	 15.98
112.0215458557 	 21.17
114.0371959199 	 13.61
123.0262968826 	 51.84
123.0804409431 	 9.72
133.0886003262 	 19.65
137.0293708878 	 13.82
138.0008104136 	 9.29
139.057597011 	 21.6
151.0865889535 	 23.11
164.0528459841 	 13.61
165.1022390177 	 11.02
166.0658159736 	 36.07
167.0525116331 	 28.51
184.0790607346 	 36.07
193.0555856383 	 12.96
209.0743097077 	 28.51
227.084874394 	 100
245.0954390803 	 0
END IONS

BEGIN IONS
PEPMASS=423.1911
CHARGE=1
MSLEVEL=2
RT=0
SOURCE_INSTRUMENT=qTOF
FILENAME=CCMSLIB00000079737.ms
IONMODE=Positive
ORGANISM=Natural
NAME=MLS001141226-01!N-(pyridin-3-ylmethyl)-2-[(3,4,8,8-tetramethyl-2-oxo-9,10-dihydropyrano[2,3-h]chromen-5-yl)oxy]acetamide
PI=GNPS
DATACOLLECTOR=GNPS
SMILES=Cc1c(C)c(=O)oc2c3CCC(C)(C)Oc3cc(c12)OCC(=NCc1cccnc1)O
INCHI=InChI=1S/C24H26N2O5/c1-14-15(2)23(28)30-22-17-7-8-24(3,4)31-18(17)10-19(21(14)22)29-13-20(27)26-12-16-6-5-9-25-11-16/h5-6,9-11H,7-8,12-13H2,1-4H3,(H,26,27)
FORMULA=C24H26N2O5
PUBMED=N/A
SUBMITUSER=BIOADREM
LIBRARYQUALITY=0
SPECTRUMID=CCMSLIB00000079737
SCANS=1944
ID=CCMSLIB00000079737
96.0443897878 	 4.75
106.0651252299 	 0.66
107.060374203 	 27.27
108.0443897878 	 9.66
117.0698762568 	 0.39
119.060374203 	 41.69
120.0443897878 	 19.19
121.0760242672 	 33.11
135.0552888251 	 0.71
149.0709388893 	 43.07
150.0787639214 	 9.23
163.0753555652 	 1.08
173.059705501 	 0.85
175.0753555652 	 1.39
177.0546201231 	 0.71
191.0702701873 	 4.44
203.0702701873 	 3.64
219.0651848094 	 20.25
231.0651848094 	 11.44
247.0600994315 	 0.48
259.0600994315 	 5.47
276.086648533 	 0.58
323.1390184545 	 0.64
368.1366727308 	 25.85
423.1914479555 	 7.96
END IONS

BEGIN IONS
PEPMASS=507.224
CHARGE=1
MSLEVEL=2
RT=0
SOURCE_INSTRUMENT=qTOF
FILENAME=CCMSLIB00000079738.ms
IONMODE=Positive
ORGANISM=Natural
NAME=MLS001140689-01!(2R)-1-[(2S)-2-[[(2S)-2-(2,4-dioxo-1H-quinazolin-3-yl)-3-phenylpropanoyl]amino]-3-methylbutanoyl]pyrrolidine-2-carboxylic acid
PI=GNPS
DATACOLLECTOR=GNPS
SMILES=CC(C)[C@@H](C(=O)N1CCC[C@@H]1C(=O)O)N=C([C@H](Cc1ccccc1)n1c(=O)c2ccccc2nc1O)O
INCHI=InChI=1S/C27H30N4O6/c1-16(2)22(25(34)30-14-8-13-20(30)26(35)36)29-23(32)21(15-17-9-4-3-5-10-17)31-24(33)18-11-6-7-12-19(18)28-27(31)37/h3-7,9-12,16,20-22H,8,13-15H2,1-2H3,(H,28,37)(H,29,32)(H,35,36)/t20-,21+,22+/m1/s1
FORMULA=C27H30N4O6
PUBMED=N/A
SUBMITUSER=BIOADREM
LIBRARYQUALITY=0
SPECTRUMID=CCMSLIB00000079738
SCANS=1945
ID=CCMSLIB00000079738
103.0542261926 	 3.17
116.0706045383 	 4.81
120.0443897878 	 0.64
146.0236543457 	 12.86
147.0229260642 	 1.74
163.0502034472 	 4.05
164.0494751657 	 1.55
194.0924026129 	 0.48
222.087317235 	 1.05
247.0825662081 	 1.22
265.0931308944 	 100
267.100227645 	 2.55
268.1080526771 	 0.48
275.0774808302 	 1.4
276.0853058623 	 0.55
293.0880455165 	 20.39
507.2238107164 	 0
END IONS

BEGIN IONS
PEPMASS=487.3398
CHARGE=1
MSLEVEL=2
RT=0
SOURCE_INSTRUMENT=qTOF
FILENAME=CCMSLIB00000079739.ms
IONMODE=Positive
ORGANISM=Natural
NAME=MLS000563224-01!
PI=GNPS
DATACOLLECTOR=GNPS
SMILES=CC1(C)C2CC[C@]3(C)C(CC=C4[C@@H]5C[C@@](C)(CO)[C@H](C[C@@]65C[C@H]([C@@]34C)OC6=O)O)[C@@]2(C)CC[C@@H]1O
INCHI=InChI=1S/C30H46O5/c1-25(2)19-9-12-28(5)20(27(19,4)11-10-21(25)32)8-7-17-18-13-26(3,16-31)22(33)14-30(18)15-23(29(17,28)6)35-24(30)34/h7,18-23,31-33H,8-16H2,1-6H3/t18-,19?,20?,21-,22-,23+,26-,27-,28+,29-,30-/m0/s1
FORMULA=C30H46O5
PUBMED=N/A
SUBMITUSER=BIOADREM
LIBRARYQUALITY=0
SPECTRUMID=CCMSLIB00000079739
SCANS=1946
ID=CCMSLIB00000079739
105.0698762568 	 2.9037092544024
107.085526321 	 3.64864567033258
109.1011763852 	 3.19242721442267
117.0698762568 	 1.9262557027307
119.085526321 	 5.16606792585899
121.1011763852 	 4.95118242126375
123.1168264494 	 2.86624203821656
131.085526321 	 3.92744583783307
133.1011763852 	 11.0197694664228
135.1168264494 	 6.12368589249113
143.085526321 	 5.09994930906045
145.1011763852 	 6.70112181253168
147.1168264494 	 4.43986511802173
149.1324765136 	 3.09986115090472
157.1011763852 	 4.7649483172812
159.1168264494 	 9.53099861150905
161.1324765136 	 3.87234699050096
162.0464011605 	 1.53284993277941
163.1481265778 	 3.93736363035285
169.1011763852 	 4.02111387829767
171.1168264494 	 5.94736958102836
173.1324765136 	 6.63610517267979
175.1481265778 	 6.71103960505146
177.163776642 	 2.88497564630948
183.1168264494 	 5.03493266920856
184.1246514815 	 1.69373856698918
185.1324765136 	 6.52480550106892
187.1117410715 	 2.56870826262315
187.1481265778 	 4.44868093359487
189.1273911357 	 2.01000595067551
189.163776642 	 4.337381261984
191.1430411999 	 1.61990611156415
197.1324765136 	 4.24371322151941
199.1481265778 	 5.70493465276706
201.163776642 	 4.95118242126375
203.1430411999 	 2.56870826262315
203.1794267062 	 4.40239790183589
205.1586912641 	 2.02873955876843
213.163776642 	 3.15495999823684
215.1430411999 	 1.81495603111983
217.1586912641 	 3.16487779075662
227.1794267062 	 2.00119013510237
231.1743413283 	 4.04866330196372
241.1950767704 	 2.60617547880898
243.1743413283 	 1.6474555352302
253.0859202515 	 1.36755339078306
271.2056414567 	 1.98245652700945
340.203295733 	 1.65737332774998
341.0233199947 	 1.69814647477575
365.0233199947 	 1.74002159874815
408.3386670024 	 1.77748881493399
425.3414066566 	 9.79326912480991
443.3519713429 	 11.0197694664228
444.1931249772 	 2.07171665968748
469.3312359008 	 1.69814647477575
487.3418005871 	 100
END IONS

BEGIN IONS
PEPMASS=387.1925
CHARGE=1
MSLEVEL=2
RT=0
SOURCE_INSTRUMENT=qTOF
FILENAME=CCMSLIB00000079741.ms
IONMODE=Positive
ORGANISM=Natural
NAME=MLS001140379-01!1-[2-(4-butyl-2-oxochromen-7-yl)oxyacetyl]piperidine-4-carboxamide
PI=GNPS
DATACOLLECTOR=GNPS
SMILES=CCCCc1cc(=O)oc2cc(ccc12)OCC(=O)N1CCC(CC1)C(=N)O
INCHI=InChI=1S/C21H26N2O5/c1-2-3-4-15-11-20(25)28-18-12-16(5-6-17(15)18)27-13-19(24)23-9-7-14(8-10-23)21(22)26/h5-6,11-12,14H,2-4,7-10,13H2,1H3,(H2,22,26)
FORMULA=C21H26N2O5
PUBMED=N/A
SUBMITUSER=BIOADREM
LIBRARYQUALITY=0
SPECTRUMID=CCMSLIB00000079741
SCANS=1948
ID=CCMSLIB00000079741
96.0807752941 	 16.84
97.0886003262 	 6.94
98.060039852 	 3.42
110.060039852 	 6.28
112.0756899162 	 15.87
124.0756899162 	 15.26
125.0835149483 	 18.57
127.0865889535 	 33.42
129.0698762568 	 4.34
131.0491408147 	 12.3
133.0647908789 	 5.97
141.1022390177 	 19.8
145.1011763852 	 29.29
147.0440554368 	 11.43
155.0815035756 	 12.65
157.1011763852 	 6.99
161.059705501 	 21.84
173.0920682619 	 13.01
175.0389700589 	 7.5
175.1077183261 	 14.64
189.0546201231 	 14.74
201.0910056294 	 62.19
203.1066556936 	 21.02
219.1015703157 	 5.36
231.1015703157 	 100
232.1053726024 	 12.09
259.0964849378 	 9.59
272.1281194172 	 17.7
276.1230340393 	 8.21
300.1230340393 	 15.2
314.1750696098 	 33.52
342.1699842319 	 49.8
370.164898854 	 10.66
387.1914479555 	 9.9
END IONS

BEGIN IONS
PEPMASS=522.264
CHARGE=1
MSLEVEL=2
RT=0
SOURCE_INSTRUMENT=qTOF
FILENAME=CCMSLIB00000079742.ms
IONMODE=Positive
ORGANISM=Natural
NAME=MLS001142640-01!methyl 1-[1-[(2S)-3-methyl-2-[(4-methylphenyl)sulfonylamino]pentanoyl]piperidine-4-carbonyl]piperidine-4-carboxylate
PI=GNPS
DATACOLLECTOR=GNPS
SMILES=CCC(C)[C@@H](C(=O)N1CCC(CC1)C(=O)N1CCC(CC1)C(=O)OC)NS(=O)(=O)c1ccc(C)cc1
INCHI=InChI=1S/C26H39N3O6S/c1-5-19(3)23(27-36(33,34)22-8-6-18(2)7-9-22)25(31)29-14-10-20(11-15-29)24(30)28-16-12-21(13-17-28)26(32)35-4/h6-9,19-21,23,27H,5,10-17H2,1-4H3/t19?,23-/m0/s1
FORMULA=C26H39N3O6S
PUBMED=N/A
SUBMITUSER=BIOADREM
LIBRARYQUALITY=0
SPECTRUMID=CCMSLIB00000079742
SCANS=1949
ID=CCMSLIB00000079742
98.0964253583 	 0.61
110.0573597773 	 0.68
112.0756899162 	 67.35
139.0212115047 	 1.82
142.0862546025 	 2.34
144.1019046667 	 100
145.1045472036 	 8.48
155.0161261268 	 90.34
157.0106468184 	 6.14
170.0811692246 	 0.75
172.0426752283 	 2.08
184.0426752283 	 24.76
185.0419469468 	 3.06
186.0396983404 	 1.14
198.0556452178 	 1.62
202.0532399146 	 0.64
238.1410894067 	 3.42
239.1464120183 	 0.91
240.1025954104 	 34.98
241.1070496241 	 7.03
242.1022985972 	 2.78
254.1573110556 	 0.83
255.1676385082 	 84.12
282.1522256777 	 2.11
284.1366727308 	 5.18
285.1393152677 	 1.32
312.1315873529 	 1.85
313.1427832034 	 0.64
437.1740833318 	 1.77
522.2632326901 	 0
END IONS

BEGIN IONS
PEPMASS=291.232
CHARGE=1
MSLEVEL=2
RT=0
SOURCE_INSTRUMENT=qTOF
FILENAME=CCMSLIB00000079743.ms
IONMODE=Positive
ORGANISM=Natural
NAME=MLS000563094-01!(3S,5R,8R,9S,10S,13S,14S)-3-hydroxy-10,13-dimethyl-1,2,3,4,5,6,7,8,9,11,12,14,15,16-tetradecahydrocyclopenta[a]phenanthren-17-one
PI=GNPS
DATACOLLECTOR=GNPS
SMILES=C[C@]12CC[C@@H](C[C@H]1CC[C@H]1[C@@H]3CCC(=O)[C@@]3(C)CC[C@H]21)O
INCHI=InChI=1S/C19H30O2/c1-18-9-7-13(20)11-12(18)3-4-14-15-5-6-17(21)19(15,2)10-8-16(14)18/h12-16,20H,3-11H2,1-2H3/t12-,13+,14+,15+,16+,18+,19+/m1/s1
FORMULA=C19H30O2
PUBMED=N/A
SUBMITUSER=BIOADREM
LIBRARYQUALITY=0
SPECTRUMID=CCMSLIB00000079743
SCANS=1950
ID=CCMSLIB00000079743
105.0698762568 	 76.47
107.085526321 	 26.47
119.085526321 	 17.44
121.1011763852 	 36.97
129.0698762568 	 15.13
131.085526321 	 32.98
133.1011763852 	 44.96
135.1168264494 	 45.17
143.085526321 	 38.66
145.1011763852 	 60.08
147.1168264494 	 100
155.085526321 	 9.87
157.1011763852 	 19.75
173.1324765136 	 15.55
183.1168264494 	 9.66
187.1481265778 	 10.92
255.2107268346 	 67.86
291.2318562072 	 0
END IONS

BEGIN IONS
PEPMASS=371.149
CHARGE=1
MSLEVEL=2
RT=0
SOURCE_INSTRUMENT=qTOF
FILENAME=CCMSLIB00000079744.ms
IONMODE=Positive
ORGANISM=Natural
NAME=MLS002472955-01!(E)-1-[3-(2-hydroperoxy-3-methylbut-3-enyl)-2-hydroxy-4-methoxyphenyl]-3-(4-hydroxyphenyl)prop-2-en-1-one
PI=GNPS
DATACOLLECTOR=GNPS
SMILES=C=C(C)C(Cc1c(ccc(C(=O)/C=C/c2ccc(cc2)O)c1O)OC)OO
INCHI=InChI=1S/C21H22O6/c1-13(2)20(27-25)12-17-19(26-3)11-9-16(21(17)24)18(23)10-6-14-4-7-15(22)8-5-14/h4-11,20,22,24-25H,1,12H2,2-3H3/b10-6+
FORMULA=C21H22O6
PUBMED=N/A
SUBMITUSER=BIOADREM
LIBRARYQUALITY=0
SPECTRUMID=CCMSLIB00000079744
SCANS=1951
ID=CCMSLIB00000079744
103.0542261926 	 2.14
105.0334907505 	 12.76
119.0491408147 	 39.62
128.0620512247 	 5.03
129.0698762568 	 10.75
131.0491408147 	 4.35
133.0284053726 	 27.18
135.0440554368 	 2.34
145.0647908789 	 2.48
146.072615911 	 5.86
147.0440554368 	 42.83
157.0647908789 	 7.37
158.0362304047 	 3.26
158.072615911 	 7.48
159.0440554368 	 3.3
160.0154949626 	 2.04
161.0960910073 	 10.7
163.0389700589 	 75.18
171.0804409431 	 2.26
174.0675305331 	 6.22
175.0389700589 	 14.44
185.059705501 	 18.08
187.0389700589 	 8.14
189.0546201231 	 2.38
191.0702701873 	 5.22
199.0753555652 	 5.45
202.0624451552 	 3.35
217.0859202515 	 100
295.0964849378 	 2.21
371.1489144388 	 0
END IONS

BEGIN IONS
PEPMASS=325.144
CHARGE=1
MSLEVEL=2
RT=0
SOURCE_INSTRUMENT=qTOF
FILENAME=CCMSLIB00000079745.ms
IONMODE=Positive
ORGANISM=Natural
NAME=MLS000697639-01!
PI=GNPS
DATACOLLECTOR=GNPS
SMILES=CC(=CCc1c(cc2c(C(=O)CC(c3ccccc3)O2)c1O)O)C
INCHI=InChI=1S/C20H20O4/c1-12(2)8-9-14-15(21)10-18-19(20(14)23)16(22)11-17(24-18)13-6-4-3-5-7-13/h3-8,10,17,21,23H,9,11H2,1-2H3
FORMULA=C20H20O4
PUBMED=N/A
SUBMITUSER=BIOADREM
LIBRARYQUALITY=0
SPECTRUMID=CCMSLIB00000079745
SCANS=1952
ID=CCMSLIB00000079745
109.0284053726 	 0.76
111.0076699305 	 0.44
121.0284053726 	 0.5
123.0076699305 	 6.76
137.0233199947 	 3.43
139.0389700589 	 0.32
165.0182346168 	 100
269.0808348736 	 5.95
325.1434351304 	 0
END IONS

BEGIN IONS
PEPMASS=261.1121
CHARGE=1
MSLEVEL=2
RT=0
SOURCE_INSTRUMENT=qTOF
FILENAME=CCMSLIB00000079747.ms
IONMODE=Positive
ORGANISM=Natural
NAME=MLS002701604-01!
PI=GNPS
DATACOLLECTOR=GNPS
SMILES=CC1=C2C(C3C(CC1)C(=C)C(=O)O3)C1(C)C(C2=O)O1
INCHI=InChI=1S/C15H16O4/c1-6-4-5-8-7(2)14(17)18-12(8)10-9(6)11(16)13-15(10,3)19-13/h8,10,12-13H,2,4-5H2,1,3H3
FORMULA=C15H16O4
PUBMED=N/A
SUBMITUSER=BIOADREM
LIBRARYQUALITY=0
SPECTRUMID=CCMSLIB00000079747
SCANS=1953
ID=CCMSLIB00000079747
103.0542261926 	 15.83
111.0440554368 	 22.4
115.0542261926 	 25.11
119.085526321 	 10.13
123.0804409431 	 12.55
127.0542261926 	 17.55
128.0620512247 	 24.11
129.0698762568 	 39.51
130.0777012889 	 17.55
131.085526321 	 21.54
135.0440554368 	 38.52
137.059705501 	 39.66
138.0675305331 	 29.67
142.0777012889 	 14.12
143.085526321 	 20.68
145.0647908789 	 16.26
148.0518804689 	 13.84
149.059705501 	 83.88
151.0753555652 	 100
153.0698762568 	 40.37
155.085526321 	 16.69
164.0831805973 	 14.84
169.1011763852 	 11.13
182.072615911 	 21.11
187.0753555652 	 9.99
189.0910056294 	 13.55
199.0753555652 	 16.41
200.0831805973 	 17.83
201.0910056294 	 30.96
215.1066556936 	 23.11
245.0808348736 	 9.84
246.0886599057 	 11.55
261.112135002 	 15.12
END IONS

BEGIN IONS
PEPMASS=461.219
CHARGE=1
MSLEVEL=2
RT=0
SOURCE_INSTRUMENT=qTOF
FILENAME=CCMSLIB00000079748.ms
IONMODE=Positive
ORGANISM=Natural
NAME=MLS001142430-01!
PI=GNPS
DATACOLLECTOR=GNPS
SMILES=Cc1ccc(cc1)CN=C([C@H](C)N1C(=O)[C@]2(C)c3c(CCN2C1=O)c1cc(ccc1[nH]3)OC)O
INCHI=InChI=1S/C26H28N4O4/c1-15-5-7-17(8-6-15)14-27-23(31)16(2)30-24(32)26(3)22-19(11-12-29(26)25(30)33)20-13-18(34-4)9-10-21(20)28-22/h5-10,13,16,28H,11-12,14H2,1-4H3,(H,27,31)/t16-,26-/m0/s1
FORMULA=C26H28N4O4
PUBMED=N/A
SUBMITUSER=BIOADREM
LIBRARYQUALITY=0
SPECTRUMID=CCMSLIB00000079748
SCANS=1954
ID=CCMSLIB00000079748
131.1668506472 	 1.02
170.1903257435 	 0.71
199.216874845 	 1.73
200.2246998771 	 2.2
213.2325249092 	 10.35
461.218331408 	 0
END IONS

BEGIN IONS
PEPMASS=243.15
CHARGE=1
MSLEVEL=2
RT=0
SOURCE_INSTRUMENT=qTOF
FILENAME=CCMSLIB00000079749.ms
IONMODE=Positive
ORGANISM=Natural
NAME=MLS000728593-01!(1R,12bR)-1,2,3,4,6,7,12,12b-octahydroindolo[2,3-a]quinolizin-1-ol
PI=GNPS
DATACOLLECTOR=GNPS
SMILES=c1ccc2c(c1)c1CCN3CCC[C@H]([C@H]3c1[nH]2)O
INCHI=InChI=1S/C15H18N2O/c18-13-6-3-8-17-9-7-11-10-4-1-2-5-12(10)16-14(11)15(13)17/h1-2,4-5,13,15-16,18H,3,6-9H2/t13-,15+/m1/s1
FORMULA=C15H18N2O
PUBMED=N/A
SUBMITUSER=BIOADREM
LIBRARYQUALITY=0
SPECTRUMID=CCMSLIB00000079749
SCANS=1955
ID=CCMSLIB00000079749
115.0542261926 	 10.3
117.0698762568 	 6.1
127.0542261926 	 2.09
129.0698762568 	 2.99
130.0651252299 	 4.42
142.0651252299 	 3.55
143.072950262 	 11.72
144.0807752941 	 100
154.0651252299 	 4.86
156.0807752941 	 6.44
158.0964253583 	 4.3
168.0807752941 	 7.37
170.0964253583 	 2.45
180.0807752941 	 15.18
183.0916743314 	 3.43
193.0886003262 	 2.89
194.0964253583 	 2.01
197.1073243956 	 7.93
208.1120754225 	 3.09
209.1073243956 	 5.04
211.1229744598 	 1.59
225.138624524 	 25.58
243.1491892103 	 0
END IONS

BEGIN IONS
PEPMASS=352.1187
CHARGE=1
MSLEVEL=2
RT=0
SOURCE_INSTRUMENT=qTOF
FILENAME=CCMSLIB00000079750.ms
IONMODE=Positive
ORGANISM=Natural
NAME=MLS001075340-01!N-(3-acetylphenyl)-2-(4-methyl-2-oxochromen-6-yl)oxyacetamide
PI=GNPS
DATACOLLECTOR=GNPS
SMILES=Cc1cc(=O)oc2ccc(cc12)OCC(=Nc1cccc(c1)C(=O)C)O
INCHI=InChI=1S/C20H17NO5/c1-12-8-20(24)26-18-7-6-16(10-17(12)18)25-11-19(23)21-15-5-3-4-14(9-15)13(2)22/h3-10H,11H2,1-2H3,(H,21,23)
FORMULA=C20H17NO5
PUBMED=N/A
SUBMITUSER=BIOADREM
LIBRARYQUALITY=0
SPECTRUMID=CCMSLIB00000079750
SCANS=1956
ID=CCMSLIB00000079750
97.9998448984 	 1.69
103.0542261926 	 10.07
105.0334907505 	 3.41
105.0698762568 	 6.85
106.0651252299 	 10.87
115.0542261926 	 3.33
116.0620512247 	 2.22
130.0651252299 	 1.83
131.0491408147 	 22.24
133.0647908789 	 11.01
134.060039852 	 28.45
147.0440554368 	 39.3
148.0518804689 	 35.61
148.0756899162 	 18.28
149.0835149483 	 4.66
159.0440554368 	 15.42
161.059705501 	 35.47
175.0389700589 	 2.02
176.046795091 	 15.67
189.0546201231 	 100
217.0495347452 	 8.6
352.1179486614 	 1.55
END IONS

BEGIN IONS
PEPMASS=481.245
CHARGE=1
MSLEVEL=2
RT=0
SOURCE_INSTRUMENT=qTOF
FILENAME=CCMSLIB00000079751.ms
IONMODE=Positive
ORGANISM=Natural
NAME=MLS001158450-01!(2R)-2-[[(2S)-3-methyl-2-[[(2S)-3-oxo-2-propan-2-yl-2,4-dihydroquinoxaline-1-carbonyl]amino]butanoyl]amino]-3-phenylpropanoic acid
PI=GNPS
DATACOLLECTOR=GNPS
SMILES=CC(C)[C@@H](C(=N[C@H](Cc1ccccc1)C(=O)O)O)N=C(N1c2ccccc2N=C([C@@H]1C(C)C)O)O
INCHI=InChI=1S/C26H32N4O5/c1-15(2)21(23(31)28-19(25(33)34)14-17-10-6-5-7-11-17)29-26(35)30-20-13-9-8-12-18(20)27-24(32)22(30)16(3)4/h5-13,15-16,19,21-22H,14H2,1-4H3,(H,27,32)(H,28,31)(H,29,35)(H,33,34)/t19-,21+,22+/m1/s1
FORMULA=C26H32N4O5
PUBMED=N/A
SUBMITUSER=BIOADREM
LIBRARYQUALITY=0
SPECTRUMID=CCMSLIB00000079751
SCANS=1957
ID=CCMSLIB00000079751
103.0542261926 	 1.21
106.0287397236 	 1.77
107.060374203 	 5.01
117.0447241388 	 0.92
119.060374203 	 35.48
120.0807752941 	 8.65
133.0396387609 	 25.5
135.0552888251 	 33.24
145.0760242672 	 0.61
146.0964253583 	 3.52
147.0552888251 	 99.28
161.034553383 	 28.66
163.1229744598 	 100
175.0865889535 	 14.71
179.0451180693 	 16.39
189.1022390177 	 47.98
191.1178890819 	 5.87
217.0971536398 	 77.38
245.1284537682 	 5.38
260.1757383118 	 22.21
288.1706529339 	 75.33
316.165567556 	 0.85
481.2445461585 	 0
END IONS

BEGIN IONS
PEPMASS=414.192
CHARGE=1
MSLEVEL=2
RT=0
SOURCE_INSTRUMENT=qTOF
FILENAME=CCMSLIB00000079752.ms
IONMODE=Positive
ORGANISM=Natural
NAME=MLS001140928-01!4-[[[2-[(7-methyl-4-oxo-2,3-dihydro-1H-cyclopenta[c]chromen-9-yl)oxy]acetyl]amino]methyl]cyclohexane-1-carboxylic acid
PI=GNPS
DATACOLLECTOR=GNPS
SMILES=Cc1cc(c2c3CCCc3c(=O)oc2c1)OCC(=NC[C@H]1CC[C@@H](CC1)C(=O)O)O
INCHI=InChI=1S/C23H27NO6/c1-13-9-18(21-16-3-2-4-17(16)23(28)30-19(21)10-13)29-12-20(25)24-11-14-5-7-15(8-6-14)22(26)27/h9-10,14-15H,2-8,11-12H2,1H3,(H,24,25)(H,26,27)/t14-,15-
FORMULA=C23H27NO6
PUBMED=N/A
SUBMITUSER=BIOADREM
LIBRARYQUALITY=0
SPECTRUMID=CCMSLIB00000079752
SCANS=1958
ID=CCMSLIB00000079752
95.085526321 	 6.7
117.0698762568 	 2.13
124.1120754225 	 2.79
141.0698762568 	 1.96
145.0647908789 	 8.94
145.1011763852 	 3.09
152.1069900446 	 3.84
153.1148150767 	 6.7
155.085526321 	 3.89
158.072615911 	 8.21
159.0804409431 	 2.08
161.059705501 	 3.34
170.072615911 	 3.94
173.0960910073 	 6.85
180.1019046667 	 4.82
185.0960910073 	 5.57
188.0831805973 	 6.85
189.0910056294 	 8.11
197.0682588146 	 2.41
198.112469353 	 3.24
201.0910056294 	 36.08
215.0702701873 	 44.44
216.0780952194 	 21.06
217.0859202515 	 67.41
229.0859202515 	 100
257.0808348736 	 45.72
274.1073839751 	 50.69
340.190719674 	 4.27
368.1856342961 	 41.02
386.1961989824 	 2.08
414.1911136045 	 0
END IONS

BEGIN IONS
PEPMASS=492.225
CHARGE=1
MSLEVEL=2
RT=0
SOURCE_INSTRUMENT=qTOF
FILENAME=CCMSLIB00000079753.ms
IONMODE=Positive
ORGANISM=Natural
NAME=MLS001158650-01!(2R)-3-(1H-indol-3-yl)-2-[[(2S)-4-methyl-2-[(3-oxo-2,4-dihydroquinoxaline-1-carbonyl)amino]pentanoyl]amino]propanoic acid
PI=GNPS
DATACOLLECTOR=GNPS
SMILES=CC(C)C[C@@H](C(=N[C@H](Cc1c[nH]c2ccccc12)C(=O)O)O)N=C(N1CC(=Nc2ccccc12)O)O
INCHI=InChI=1S/C26H29N5O5/c1-15(2)11-20(30-26(36)31-14-23(32)28-19-9-5-6-10-22(19)31)24(33)29-21(25(34)35)12-16-13-27-18-8-4-3-7-17(16)18/h3-10,13,15,20-21,27H,11-12,14H2,1-2H3,(H,28,32)(H,29,33)(H,30,36)(H,34,35)/t20-,21+/m0/s1
FORMULA=C26H29N5O5
PUBMED=N/A
SUBMITUSER=BIOADREM
LIBRARYQUALITY=0
SPECTRUMID=CCMSLIB00000079753
SCANS=1959
ID=CCMSLIB00000079753
112.0756899162 	 1.03
115.0542261926 	 1
118.0651252299 	 1.54
119.060374203 	 10.02
121.0760242672 	 7.08
130.0651252299 	 6.57
132.0807752941 	 3
142.0651252299 	 1.46
144.0780952194 	 1.76
146.060039852 	 5.54
147.0552888251 	 100
159.0916743314 	 6.37
160.0968192888 	 1.21
169.0733441925 	 1.13
170.060039852 	 2.9
171.0916743314 	 0.79
174.0635077877 	 0.63
175.0502034472 	 55.07
177.0505973777 	 1.81
185.0709388893 	 4.79
188.0706045383 	 11.27
189.138624524 	 1.49
192.074072474 	 1.09
215.1178890819 	 0.67
218.0897225382 	 0.63
232.1444381834 	 5.41
237.1359444493 	 1.81
260.1393528055 	 43.54
288.1342674276 	 1.05
298.152322795 	 8.49
492.2241450674 	 0
END IONS

BEGIN IONS
PEPMASS=409.1739
CHARGE=1
MSLEVEL=2
RT=0
SOURCE_INSTRUMENT=qTOF
FILENAME=CCMSLIB00000079754.ms
IONMODE=Positive
ORGANISM=Natural
NAME=MLS001141213-01!N-(pyridin-2-ylmethyl)-2-[(4,8,8-trimethyl-2-oxo-9,10-dihydropyrano[2,3-h]chromen-5-yl)oxy]acetamide
PI=GNPS
DATACOLLECTOR=GNPS
SMILES=Cc1cc(=O)oc2c3CCC(C)(C)Oc3cc(c12)OCC(=NCc1ccccn1)O
INCHI=InChI=1S/C23H24N2O5/c1-14-10-20(27)29-22-16-7-8-23(2,3)30-17(16)11-18(21(14)22)28-13-19(26)25-12-15-6-4-5-9-24-15/h4-6,9-11H,7-8,12-13H2,1-3H3,(H,25,26)
FORMULA=C23H24N2O5
PUBMED=N/A
SUBMITUSER=BIOADREM
LIBRARYQUALITY=0
SPECTRUMID=CCMSLIB00000079754
SCANS=1960
ID=CCMSLIB00000079754
105.0447241388 	 0.72
106.0651252299 	 0.79
107.060374203 	 41.19
119.0365647557 	 9.3
121.0760242672 	 5.26
131.060374203 	 3.17
132.0681992351 	 5.83
149.0709388893 	 100
161.059705501 	 1.64
163.0389700589 	 1.31
177.0546201231 	 0.9
189.0546201231 	 4
205.0495347452 	 6.65
217.0495347452 	 15.67
233.0444493673 	 0.35
245.0444493673 	 23.76
273.112135002 	 1.9
290.0811692246 	 0.51
301.1070496241 	 0.45
307.1077183261 	 0.47
318.0760838467 	 0.7
335.1026329482 	 6.21
353.1131976345 	 1.31
391.165233205 	 0.78
409.1757978913 	 2.5
END IONS

BEGIN IONS
PEPMASS=397.151
CHARGE=1
MSLEVEL=2
RT=0
SOURCE_INSTRUMENT=qTOF
FILENAME=CCMSLIB00000079755.ms
IONMODE=Positive
ORGANISM=Natural
NAME=MLS001158983-01!(2S)-2-[[2-[(3-oxo-2,4-dihydroquinoxaline-1-carbonyl)amino]acetyl]amino]-3-phenylpropanoic acid
PI=GNPS
DATACOLLECTOR=GNPS
SMILES=c1ccc(cc1)C[C@@H](C(=O)O)N=C(CN=C(N1CC(=Nc2ccccc12)O)O)O
INCHI=InChI=1S/C20H20N4O5/c25-17(23-15(19(27)28)10-13-6-2-1-3-7-13)11-21-20(29)24-12-18(26)22-14-8-4-5-9-16(14)24/h1-9,15H,10-12H2,(H,21,29)(H,22,26)(H,23,25)(H,27,28)/t15-/m0/s1
FORMULA=C20H20N4O5
PUBMED=N/A
SUBMITUSER=BIOADREM
LIBRARYQUALITY=0
SPECTRUMID=CCMSLIB00000079755
SCANS=1961
ID=CCMSLIB00000079755
103.0542261926 	 3.83
119.060374203 	 16.81
120.0807752941 	 27.15
121.0760242672 	 7.14
128.0494751657 	 3.24
129.0447241388 	 1.11
131.060374203 	 0.93
132.0443897878 	 2.04
132.0681992351 	 3.74
142.0651252299 	 3.33
146.060039852 	 6.68
147.0552888251 	 100
149.0709388893 	 19.3
161.0709388893 	 2.15
175.0502034472 	 57
176.0818379266 	 2.82
204.0767525487 	 46.47
232.0716671708 	 6.15
397.1506457733 	 0
END IONS

BEGIN IONS
PEPMASS=355.2004
CHARGE=1
MSLEVEL=2
RT=0
SOURCE_INSTRUMENT=qTOF
FILENAME=CCMSLIB00000079756.ms
IONMODE=Positive
ORGANISM=Natural
NAME=MLS000738212-01!
PI=GNPS
DATACOLLECTOR=GNPS
SMILES=CCC12CCCN3CCc4c5ccccc5n(c4C23)C(C1)(C(=O)OC)O
INCHI=InChI=1S/C21H26N2O3/c1-3-20-10-6-11-22-12-9-15-14-7-4-5-8-16(14)23(17(15)18(20)22)21(25,13-20)19(24)26-2/h4-5,7-8,18,25H,3,6,9-13H2,1-2H3
FORMULA=C21H26N2O3
PUBMED=N/A
SUBMITUSER=BIOADREM
LIBRARYQUALITY=0
SPECTRUMID=CCMSLIB00000079756
SCANS=1962
ID=CCMSLIB00000079756
103.0542261926 	 1.14
106.0651252299 	 1.3
115.0542261926 	 2.97
117.0698762568 	 9.45
120.0807752941 	 0.47
127.0542261926 	 2.18
129.0546201231 	 0.61
130.0651252299 	 2.54
132.0807752941 	 0.59
134.0964253583 	 4.54
138.0913399804 	 0.56
142.0651252299 	 0.64
143.072950262 	 11.53
144.0807752941 	 100
145.0859202515 	 15.04
156.0807752941 	 0.79
157.0886003262 	 0.73
158.0964253583 	 2.24
162.0913399804 	 3.43
168.0807752941 	 0.89
180.1019046667 	 2.43
182.0964253583 	 0.63
192.1019046667 	 0.65
194.1175547309 	 3.43
206.0964253583 	 0.69
206.1175547309 	 0.53
208.1120754225 	 0.65
209.1199004546 	 0.47
212.1281194172 	 19.62
218.0937452836 	 0.65
219.1015703157 	 0.54
220.1093953478 	 0.75
221.1172203799 	 0.46
224.1281194172 	 3.94
231.1015703157 	 0.62
232.1120754225 	 0.58
233.1199004546 	 0.55
234.125045412 	 0.78
246.125045412 	 0.46
248.1433755509 	 0.84
249.1485205083 	 0.48
260.1433755509 	 0.91
294.1488548593 	 0.61
326.1750696098 	 0.54
338.1750696098 	 0.73
355.2016187113 	 13.19
END IONS

BEGIN IONS
PEPMASS=486.2496
CHARGE=1
MSLEVEL=2
RT=0
SOURCE_INSTRUMENT=qTOF
FILENAME=CCMSLIB00000079757.ms
IONMODE=Positive
ORGANISM=Natural
NAME=MLS001160390-01!4-[[[2-[(8,8-dimethyl-2-oxo-4-propyl-9,10-dihydropyrano[2,3-h]chromen-5-yl)oxy]acetyl]amino]methyl]cyclohexane-1-carboxylic acid
PI=GNPS
DATACOLLECTOR=GNPS
SMILES=CCCc1cc(=O)oc2c3CCC(C)(C)Oc3cc(c12)OCC(=NC[C@H]1CC[C@@H](CC1)C(=O)O)O
INCHI=InChI=1S/C27H35NO7/c1-4-5-18-12-23(30)34-25-19-10-11-27(2,3)35-20(19)13-21(24(18)25)33-15-22(29)28-14-16-6-8-17(9-7-16)26(31)32/h12-13,16-17H,4-11,14-15H2,1-3H3,(H,28,29)(H,31,32)/t16-,17-
FORMULA=C27H35NO7
PUBMED=N/A
SUBMITUSER=BIOADREM
LIBRARYQUALITY=0
SPECTRUMID=CCMSLIB00000079757
SCANS=1963
ID=CCMSLIB00000079757
95.085526321 	 31.23
110.0964253583 	 19.21
111.0804409431 	 4.64
112.1120754225 	 6.64
123.0804409431 	 4.03
124.1120754225 	 7.61
138.0913399804 	 12.87
140.1069900446 	 5.13
152.1069900446 	 36.91
170.1175547309 	 70.61
180.1019046667 	 31.4
189.0546201231 	 4.03
191.0702701873 	 6.32
198.112469353 	 74.39
205.0859202515 	 23.03
215.0702701873 	 5.41
217.0495347452 	 4.72
217.0859202515 	 23.76
233.0808348736 	 99.21
245.0808348736 	 77.24
261.0757494957 	 9.15
273.0757494957 	 62.85
274.1073839751 	 6.5
278.1022985972 	 4.02
289.1434351304 	 27.97
290.1022985972 	 38.07
292.1179486614 	 44.31
301.1434351304 	 38.77
304.1179486614 	 5.16
329.1383497525 	 31.02
346.164898854 	 46.02
356.1856342961 	 4.49
358.164898854 	 8.2
372.1805489182 	 8.26
384.1805489182 	 64.56
398.1961989824 	 4.03
440.243149175 	 100
486.2486284834 	 4.61
END IONS

BEGIN IONS
PEPMASS=386.1588
CHARGE=1
MSLEVEL=2
RT=0
SOURCE_INSTRUMENT=qTOF
FILENAME=CCMSLIB00000079758.ms
IONMODE=Positive
ORGANISM=Natural
NAME=MLS001159056-01!1-[2-[(7-methyl-4-oxo-2,3-dihydro-1H-cyclopenta[c]chromen-9-yl)oxy]acetyl]piperidine-4-carboxylic acid
PI=GNPS
DATACOLLECTOR=GNPS
SMILES=Cc1cc(c2c3CCCc3c(=O)oc2c1)OCC(=O)N1CCC(CC1)C(=O)O
INCHI=InChI=1S/C21H23NO6/c1-12-9-16(19-14-3-2-4-15(14)21(26)28-17(19)10-12)27-11-18(23)22-7-5-13(6-8-22)20(24)25/h9-10,13H,2-8,11H2,1H3,(H,24,25)
FORMULA=C21H23NO6
PUBMED=N/A
SUBMITUSER=BIOADREM
LIBRARYQUALITY=0
SPECTRUMID=CCMSLIB00000079758
SCANS=1964
ID=CCMSLIB00000079758
96.0807752941 	 1.99
99.0440554368 	 5.04
110.060039852 	 1.43
112.0756899162 	 4
114.0549544741 	 6.19
115.0542261926 	 1.53
117.0698762568 	 1.42
124.0756899162 	 2.58
126.0913399804 	 9.45
128.0706045383 	 50.67
129.0698762568 	 4.81
141.0698762568 	 2.11
142.0862546025 	 83.51
145.0647908789 	 3.91
145.1011763852 	 3.71
155.085526321 	 6.43
157.0647908789 	 1.37
158.072615911 	 3.59
159.0804409431 	 3.62
161.059705501 	 3.4
169.0647908789 	 2.14
170.0811692246 	 14.47
173.059705501 	 2.51
173.0960910073 	 8.6
185.0960910073 	 6.04
187.0753555652 	 8.21
188.0831805973 	 8.02
201.0910056294 	 37.33
211.0753555652 	 1.92
214.0624451552 	 3.17
215.0702701873 	 100
216.0780952194 	 36.28
229.0859202515 	 72.65
257.0808348736 	 21.01
340.1543341677 	 3.5
358.164898854 	 6.46
368.1492487898 	 1.58
386.1598134761 	 20.44
END IONS

BEGIN IONS
PEPMASS=373.1752
CHARGE=1
MSLEVEL=2
RT=0
SOURCE_INSTRUMENT=qTOF
FILENAME=CCMSLIB00000079759.ms
IONMODE=Positive
ORGANISM=Natural
NAME=MLS001159059-01!1-[2-(2-oxo-4-propylchromen-7-yl)oxyacetyl]piperidine-4-carboxamide
PI=GNPS
DATACOLLECTOR=GNPS
SMILES=CCCc1cc(=O)oc2cc(ccc12)OCC(=O)N1CCC(CC1)C(=N)O
INCHI=InChI=1S/C20H24N2O5/c1-2-3-14-10-19(24)27-17-11-15(4-5-16(14)17)26-12-18(23)22-8-6-13(7-9-22)20(21)25/h4-5,10-11,13H,2-3,6-9,12H2,1H3,(H2,21,25)
FORMULA=C20H24N2O5
PUBMED=N/A
SUBMITUSER=BIOADREM
LIBRARYQUALITY=0
SPECTRUMID=CCMSLIB00000079759
SCANS=1965
ID=CCMSLIB00000079759
96.0807752941 	 14.69
97.0886003262 	 3.65
110.060039852 	 3.61
112.0756899162 	 19.31
119.085526321 	 6.22
124.0756899162 	 25.35
125.0835149483 	 11.41
127.0865889535 	 27.31
129.0698762568 	 2.97
131.085526321 	 35.82
132.0893286077 	 9.12
141.0698762568 	 9.58
141.1022390177 	 30.35
143.085526321 	 8.62
144.0529431014 	 4.36
147.0440554368 	 11.58
147.0804409431 	 3
148.0518804689 	 3.18
159.0804409431 	 15.7
161.059705501 	 3.9
161.0960910073 	 12.94
162.0635077877 	 3.65
163.0753555652 	 4.5
172.0518804689 	 4.08
187.0753555652 	 83.55
189.0910056294 	 32.64
190.0948079161 	 5.04
205.0859202515 	 7.08
217.0859202515 	 100
218.0897225382 	 21.06
245.0808348736 	 16.8
262.1073839751 	 6.11
286.1073839751 	 15.05
300.1594195456 	 33.32
328.1543341677 	 60.92
356.1492487898 	 17.13
357.1444977629 	 5.43
373.1757978913 	 3.29
END IONS

BEGIN IONS
PEPMASS=213.088
CHARGE=1
MSLEVEL=2
RT=0
SOURCE_INSTRUMENT=qTOF
FILENAME=CCMSLIB00000079760.ms
IONMODE=Positive
ORGANISM=Natural
NAME=MLS001049025-01!2-amino-1-(4-nitrophenyl)propane-1,3-diol
PI=GNPS
DATACOLLECTOR=GNPS
SMILES=c1cc(ccc1C(C(CO)N)O)N(=O)=O
INCHI=InChI=1S/C9H12N2O4/c10-8(5-12)9(13)6-1-3-7(4-2-6)11(14)15/h1-4,8-9,12-13H,5,10H2
FORMULA=C9H12N2O4
PUBMED=N/A
SUBMITUSER=BIOADREM
LIBRARYQUALITY=0
SPECTRUMID=CCMSLIB00000079760
SCANS=1966
ID=CCMSLIB00000079760
102.0423784151 	 53.64
103.0542261926 	 40.23
104.046795091 	 3.45
117.0334907505 	 14.94
118.0651252299 	 68.58
119.072950262 	 34.1
130.0624451552 	 100
131.0491408147 	 22.99
132.0529431014 	 30.65
133.0647908789 	 14.18
134.0362304047 	 17.24
134.060039852 	 8.81
149.034553383 	 16.86
151.0627795062 	 18.39
161.047129442 	 29.12
165.0658535114 	 22.99
166.0624451552 	 17.62
213.086982884 	 0
END IONS

BEGIN IONS
PEPMASS=175.0866
CHARGE=1
MSLEVEL=2
RT=0
SOURCE_INSTRUMENT=qTOF
FILENAME=CCMSLIB00000079761.ms
IONMODE=Positive
ORGANISM=Natural
NAME=MLS001049055-01!1-methylindole-3-carboxamide
PI=GNPS
DATACOLLECTOR=GNPS
SMILES=Cn1cc(c2ccccc12)C(=N)O
INCHI=InChI=1S/C10H10N2O/c1-12-6-8(10(11)13)7-4-2-3-5-9(7)12/h2-6H,1H3,(H2,11,13)
FORMULA=C10H10N2O
PUBMED=N/A
SUBMITUSER=BIOADREM
LIBRARYQUALITY=0
SPECTRUMID=CCMSLIB00000079761
SCANS=1967
ID=CCMSLIB00000079761
101.0385761284 	 1.55
103.0542261926 	 36.52
105.0698762568 	 3.92
116.0494751657 	 2.62
117.0573001978 	 100
128.0494751657 	 6.29
130.0651252299 	 51.69
132.0807752941 	 51.94
143.0365647557 	 1.87
158.060039852 	 70.15
175.0865889535 	 1.01
END IONS

BEGIN IONS
PEPMASS=288.1583
CHARGE=1
MSLEVEL=2
RT=0
SOURCE_INSTRUMENT=qTOF
FILENAME=CCMSLIB00000079762.ms
IONMODE=Positive
ORGANISM=Natural
NAME=MLS002473216-01!(E)-5-(1,3-benzodioxol-5-yl)-1-piperidin-1-ylpent-2-en-1-one
PI=GNPS
DATACOLLECTOR=GNPS
SMILES=C1CCN(CC1)C(=O)/C=C/CCc1ccc2c(c1)OCO2
INCHI=InChI=1S/C17H21NO3/c19-17(18-10-4-1-5-11-18)7-3-2-6-14-8-9-15-16(12-14)21-13-20-15/h3,7-9,12H,1-2,4-6,10-11,13H2/b7-3+
FORMULA=C17H21NO3
PUBMED=N/A
SUBMITUSER=BIOADREM
LIBRARYQUALITY=0
SPECTRUMID=CCMSLIB00000079762
SCANS=1968
ID=CCMSLIB00000079762
98.0964253583 	 0.36
103.0542261926 	 0.79
105.0334907505 	 3.83
107.0491408147 	 0.32
110.0964253583 	 0.63
112.0756899162 	 0.4
117.0698762568 	 0.86
120.0807752941 	 0.49
124.1120754225 	 0.58
131.0491408147 	 1.39
135.0440554368 	 100
138.0913399804 	 37.45
145.0647908789 	 0.31
152.1069900446 	 3.48
153.1148150767 	 1.86
175.0753555652 	 0.54
260.1645049235 	 0.22
288.1594195456 	 6.64
END IONS

BEGIN IONS
PEPMASS=391.1664
CHARGE=1
MSLEVEL=2
RT=0
SOURCE_INSTRUMENT=qTOF
FILENAME=CCMSLIB00000079763.ms
IONMODE=Positive
ORGANISM=Natural
NAME=MLS001140228-01!N-(pyridin-2-ylmethyl)-3-(3,5,9-trimethyl-7-oxofuro[3,2-g]chromen-6-yl)propanamide
PI=GNPS
DATACOLLECTOR=GNPS
SMILES=Cc1coc2c(C)c3c(cc12)c(C)c(CCC(=NCc1ccccn1)O)c(=O)o3
INCHI=InChI=1S/C23H22N2O4/c1-13-12-28-21-15(3)22-19(10-18(13)21)14(2)17(23(27)29-22)7-8-20(26)25-11-16-6-4-5-9-24-16/h4-6,9-10,12H,7-8,11H2,1-3H3,(H,25,26)
FORMULA=C23H22N2O4
PUBMED=N/A
SUBMITUSER=BIOADREM
LIBRARYQUALITY=0
SPECTRUMID=CCMSLIB00000079763
SCANS=1969
ID=CCMSLIB00000079763
128.0620512247 	 0.35
129.0698762568 	 0.96
141.0698762568 	 0.88
142.0777012889 	 1.5
152.0620512247 	 0.34
153.0698762568 	 0.82
154.0777012889 	 1.76
157.1011763852 	 1.24
167.085526321 	 0.43
168.0933513531 	 0.29
169.0647908789 	 0.32
169.1011763852 	 0.51
170.072615911 	 0.75
171.1168264494 	 0.21
182.072615911 	 1.35
184.0882659752 	 0.46
185.0960910073 	 2.84
195.0804409431 	 0.27
196.0882659752 	 0.51
197.0960910073 	 0.94
198.0675305331 	 0.51
199.1117410715 	 0.43
212.0831805973 	 0.79
213.0910056294 	 17.31
227.1066556936 	 1.38
241.0859202515 	 100
255.1015703157 	 20.17
283.0964849378 	 11.91
373.1546685187 	 1.78
391.165233205 	 0.03
END IONS

BEGIN IONS
PEPMASS=400.176
CHARGE=1
MSLEVEL=2
RT=0
SOURCE_INSTRUMENT=qTOF
FILENAME=CCMSLIB00000079764.ms
IONMODE=Positive
ORGANISM=Natural
NAME=MLS001032303-01!2-[(5-hydroxy-2,2-dimethyl-4-oxo-3H-chromen-7-yl)oxy]-N-[2-(4-methoxyphenyl)ethyl]acetamide
PI=GNPS
DATACOLLECTOR=GNPS
SMILES=CC1(C)CC(=O)c2c(cc(cc2O1)OCC(=NCCc1ccc(cc1)OC)O)O
INCHI=InChI=1S/C22H25NO6/c1-22(2)12-18(25)21-17(24)10-16(11-19(21)29-22)28-13-20(26)23-9-8-14-4-6-15(27-3)7-5-14/h4-7,10-11,24H,8-9,12-13H2,1-3H3,(H,23,26)
FORMULA=C22H25NO6
PUBMED=N/A
SUBMITUSER=BIOADREM
LIBRARYQUALITY=0
SPECTRUMID=CCMSLIB00000079764
SCANS=1970
ID=CCMSLIB00000079764
103.0542261926 	 6.83
105.0698762568 	 25.92
107.0491408147 	 1.7
107.085526321 	 0.81
111.0076699305 	 0.92
115.0542261926 	 2.14
117.0698762568 	 2.43
119.0491408147 	 1.05
120.0569658468 	 6.48
121.0647908789 	 11.7
132.0569658468 	 2.98
132.0807752941 	 2.9
133.0647908789 	 1.23
134.072615911 	 3.59
135.0804409431 	 100
137.0233199947 	 0.93
139.0389700589 	 0.95
147.0804409431 	 19.48
150.0913399804 	 2.03
151.0389700589 	 2.46
153.0182346168 	 55.38
160.0518804689 	 2.85
163.0753555652 	 3.3
164.1069900446 	 6.79
165.0182346168 	 8.36
174.0913399804 	 1.23
175.0753555652 	 6.15
176.046795091 	 0.65
179.033884681 	 0.83
191.0702701873 	 12.59
192.1019046667 	 4.45
193.0131492389 	 1.7
209.0808348736 	 36.01
344.1128632835 	 9.87
400.1754635403 	 0
END IONS

BEGIN IONS
PEPMASS=386.1611
CHARGE=1
MSLEVEL=2
RT=0
SOURCE_INSTRUMENT=qTOF
FILENAME=CCMSLIB00000079765.ms
IONMODE=Positive
ORGANISM=Natural
NAME=MLS001159057-01!1-[2-[(6-methyl-4-oxo-2,3-dihydro-1H-cyclopenta[c]chromen-7-yl)oxy]acetyl]piperidine-4-carboxylic acid
PI=GNPS
DATACOLLECTOR=GNPS
SMILES=Cc1c(ccc2c3CCCc3c(=O)oc12)OCC(=O)N1CCC(CC1)C(=O)O
INCHI=InChI=1S/C21H23NO6/c1-12-17(27-11-18(23)22-9-7-13(8-10-22)20(24)25)6-5-15-14-3-2-4-16(14)21(26)28-19(12)15/h5-6,13H,2-4,7-11H2,1H3,(H,24,25)
FORMULA=C21H23NO6
PUBMED=N/A
SUBMITUSER=BIOADREM
LIBRARYQUALITY=0
SPECTRUMID=CCMSLIB00000079765
SCANS=1971
ID=CCMSLIB00000079765
99.0440554368 	 8.25
101.047129442 	 1.98
112.0756899162 	 12.29
114.0549544741 	 12.97
117.0698762568 	 2.68
124.0756899162 	 2.91
126.0913399804 	 26.61
128.0706045383 	 100
141.0698762568 	 4.75
142.0862546025 	 91.1
145.0647908789 	 5.45
147.0804409431 	 3.67
156.0655191604 	 3.5
158.072615911 	 4.41
159.0804409431 	 2.71
170.0811692246 	 10.65
173.059705501 	 2.91
173.0960910073 	 6.64
183.0804409431 	 2.32
187.0753555652 	 12.97
188.0831805973 	 12.99
201.0910056294 	 71.55
203.0702701873 	 2.4
211.0753555652 	 6.13
215.0702701873 	 11.3
216.0780952194 	 34.27
229.0859202515 	 57.2
340.1543341677 	 6.78
386.1598134761 	 20.17
END IONS

BEGIN IONS
PEPMASS=209.081
CHARGE=1
MSLEVEL=2
RT=0
SOURCE_INSTRUMENT=qTOF
FILENAME=CCMSLIB00000079766.ms
IONMODE=Positive
ORGANISM=Natural
NAME=MLS000570053-01!
PI=GNPS
DATACOLLECTOR=GNPS
SMILES=COc1ccc(/C=C/C(=O)O)cc1OC
INCHI=InChI=1S/C11H12O4/c1-14-9-5-3-8(4-6-11(12)13)7-10(9)15-2/h3-7H,1-2H3,(H,12,13)/b6-4+
FORMULA=C11H12O4
PUBMED=N/A
SUBMITUSER=BIOADREM
LIBRARYQUALITY=0
SPECTRUMID=CCMSLIB00000079766
SCANS=1972
ID=CCMSLIB00000079766
95.0491408147 	 8.13
102.0464011605 	 46.31
103.0542261926 	 32.51
105.0334907505 	 37.81
106.0413157826 	 8.32
107.0491408147 	 7.18
117.0334907505 	 25.33
119.0491408147 	 100
121.0284053726 	 9.45
129.0334907505 	 7.56
130.0413157826 	 11.34
132.0569658468 	 58.6
133.0284053726 	 78.64
133.0647908789 	 26.47
147.0440554368 	 45.75
149.059705501 	 17.01
163.0753555652 	 70.7
209.0808348736 	 0
END IONS

BEGIN IONS
PEPMASS=465.1661
CHARGE=1
MSLEVEL=2
RT=0
SOURCE_INSTRUMENT=qTOF
FILENAME=CCMSLIB00000079767.ms
IONMODE=Positive
ORGANISM=Natural
NAME=MLS001158391-01!2-[[2-(4-ethyl-7-methyl-2-oxochromen-5-yl)oxyacetyl]amino]-3-(5-hydroxy-1H-indol-3-yl)propanoic acid
PI=GNPS
DATACOLLECTOR=GNPS
SMILES=CCc1cc(=O)oc2cc(C)cc(c12)OCC(=NC(Cc1c[nH]c2ccc(cc12)O)C(=O)O)O
INCHI=InChI=1S/C25H24N2O7/c1-3-14-9-23(30)34-21-7-13(2)6-20(24(14)21)33-12-22(29)27-19(25(31)32)8-15-11-26-18-5-4-16(28)10-17(15)18/h4-7,9-11,19,26,28H,3,8,12H2,1-2H3,(H,27,29)(H,31,32)
FORMULA=C25H24N2O7
PUBMED=N/A
SUBMITUSER=BIOADREM
LIBRARYQUALITY=0
SPECTRUMID=CCMSLIB00000079767
SCANS=1973
ID=CCMSLIB00000079767
105.0698762568 	 5.29
115.0542261926 	 5.61
117.0573001978 	 4.96
118.0624451552 	 2.79
121.0647908789 	 3.47
132.0780952194 	 3.08
133.0522148199 	 6.33
134.060039852 	 11.45
142.0624451552 	 2.56
144.0780952194 	 2.53
146.060039852 	 100
147.0651848094 	 8.24
148.0756899162 	 8.4
155.060374203 	 6.75
158.060039852 	 20.51
159.0651848094 	 8.63
160.0730098415 	 47.14
162.0549544741 	 24.98
170.0573597773 	 13.69
171.0651848094 	 4.45
172.0730098415 	 11.19
173.0709388893 	 7.66
174.0760838467 	 28.97
176.0831805973 	 7.33
177.0546201231 	 15.35
185.0709388893 	 3.67
186.0549544741 	 31.99
187.0600994315 	 9.54
187.0839088788 	 19.34
189.0910056294 	 10.48
197.0709388893 	 4.83
198.0522743994 	 3.18
199.0839088788 	 8.89
201.0658535114 	 4.54
202.0624451552 	 5.19
203.0702701873 	 3.34
204.0655191604 	 50.75
205.0859202515 	 24.37
215.0788235009 	 10.77
217.0859202515 	 28.33
218.0937452836 	 4.12
243.0764181977 	 4.15
245.0768121282 	 6.29
263.0913995599 	 2.76
419.1601478271 	 14.15
465.1656271355 	 2.17
END IONS

BEGIN IONS
PEPMASS=519.213
CHARGE=1
MSLEVEL=2
RT=0
SOURCE_INSTRUMENT=qTOF
FILENAME=CCMSLIB00000079768.ms
IONMODE=Positive
ORGANISM=Natural
NAME=MLS001140857-01!(2R)-2-[[(2S)-3-methyl-2-[[2-(2,3,5-trimethyl-7-oxofuro[3,2-g]chromen-6-yl)acetyl]amino]butanoyl]amino]-2-phenylacetic acid
PI=GNPS
DATACOLLECTOR=GNPS
SMILES=CC(C)[C@@H](C(=N[C@H](c1ccccc1)C(=O)O)O)N=C(Cc1c(C)c2cc3c(C)c(C)oc3cc2oc1=O)O
INCHI=InChI=1S/C29H30N2O7/c1-14(2)25(27(33)31-26(28(34)35)18-9-7-6-8-10-18)30-24(32)12-21-16(4)20-11-19-15(3)17(5)37-22(19)13-23(20)38-29(21)36/h6-11,13-14,25-26H,12H2,1-5H3,(H,30,32)(H,31,33)(H,34,35)/t25-,26+/m0/s1
FORMULA=C29H30N2O7
PUBMED=N/A
SUBMITUSER=BIOADREM
LIBRARYQUALITY=0
SPECTRUMID=CCMSLIB00000079768
SCANS=1974
ID=CCMSLIB00000079768
135.0440554368 	 0.27
141.0698762568 	 0.23
143.0815035756 	 0.24
157.1011763852 	 0.27
169.0971536398 	 0.23
185.0960910073 	 0.74
198.0675305331 	 0.65
213.0910056294 	 7.68
214.0948079161 	 1.11
241.0859202515 	 100
242.0897225382 	 23.7
243.0916743314 	 3.45
269.0808348736 	 20.87
270.0846371603 	 4.56
271.0865889535 	 0.62
519.2125773281 	 0
END IONS

BEGIN IONS
PEPMASS=475.2326
CHARGE=1
MSLEVEL=2
RT=0
SOURCE_INSTRUMENT=qTOF
FILENAME=CCMSLIB00000079769.ms
IONMODE=Positive
ORGANISM=Natural
NAME=MLS001142425-01!
PI=GNPS
DATACOLLECTOR=GNPS
SMILES=COc1ccc(c(c1)c1c2c(cc(C(=O)NCCCN3CCOCC3)[nH]1)c1ccccc1n2)OC
INCHI=InChI=1S/C27H30N4O4/c1-33-18-8-9-24(34-2)21(16-18)26-25-20(19-6-3-4-7-22(19)29-25)17-23(30-26)27(32)28-10-5-11-31-12-14-35-15-13-31/h3-4,6-9,16-17,30H,5,10-15H2,1-2H3,(H,28,32)
FORMULA=C27H30N4O4
PUBMED=N/A
SUBMITUSER=BIOADREM
LIBRARYQUALITY=0
SPECTRUMID=CCMSLIB00000079769
SCANS=1975
ID=CCMSLIB00000079769
155.060374203 	 16.27
232.0994993635 	 0.89
242.0838492993 	 0.91
243.0916743314 	 1.18
248.1069900446 	 1.92
259.0865889535 	 1.28
260.0944139856 	 2.03
271.0865889535 	 4.34
272.0944139856 	 10.6
273.0658535114 	 11.63
274.0696557981 	 2.49
276.1019046667 	 11.38
277.1057069534 	 1.84
285.1022390177 	 2.25
286.1060413044 	 0.84
287.0815035756 	 1.54
288.0893286077 	 17.07
289.0931308944 	 5.07
302.1049786719 	 2.73
303.112803704 	 100
304.1166059907 	 16.66
321.1233683903 	 45.21
330.1237027413 	 2.4
331.1077183261 	 16.02
344.1393528055 	 1.04
349.1182830124 	 15.83
358.1186173634 	 6.42
360.1342674276 	 26.43
373.1420924597 	 2.42
388.165567556 	 89.18
475.2339814722 	 17.01
END IONS

BEGIN IONS
PEPMASS=479.182
CHARGE=1
MSLEVEL=2
RT=0
SOURCE_INSTRUMENT=qTOF
FILENAME=CCMSLIB00000079770.ms
IONMODE=Positive
ORGANISM=Natural
NAME=MLS001140841-01!2-[[2-(4-butyl-2-oxochromen-7-yl)oxyacetyl]amino]-3-(5-hydroxy-1H-indol-3-yl)propanoic acid
PI=GNPS
DATACOLLECTOR=GNPS
SMILES=CCCCc1cc(=O)oc2cc(ccc12)OCC(=NC(Cc1c[nH]c2ccc(cc12)O)C(=O)O)O
INCHI=InChI=1S/C26H26N2O7/c1-2-3-4-15-10-25(31)35-23-12-18(6-7-19(15)23)34-14-24(30)28-22(26(32)33)9-16-13-27-21-8-5-17(29)11-20(16)21/h5-8,10-13,22,27,29H,2-4,9,14H2,1H3,(H,28,30)(H,32,33)
FORMULA=C26H26N2O7
PUBMED=N/A
SUBMITUSER=BIOADREM
LIBRARYQUALITY=0
SPECTRUMID=CCMSLIB00000079770
SCANS=1976
ID=CCMSLIB00000079770
115.0542261926 	 1.85
118.0651252299 	 3.03
131.0491408147 	 4.97
134.060039852 	 8.75
142.0651252299 	 4.83
145.0647908789 	 1.62
145.1011763852 	 5.48
146.060039852 	 100
148.0756899162 	 3.16
154.0651252299 	 1.37
158.060039852 	 20.58
159.0678648841 	 8.85
160.0756899162 	 28.34
162.0549544741 	 15.52
169.0760242672 	 1.12
170.060039852 	 11.4
172.0730098415 	 6.08
174.0787639214 	 22.85
176.0706045383 	 1.92
186.0549544741 	 32.88
187.0865889535 	 23.09
197.0709388893 	 2.35
198.0549544741 	 2.05
198.0787639214 	 3.81
199.0839088788 	 4.45
200.0706045383 	 1.51
201.0910056294 	 9.08
204.0655191604 	 24.32
215.0815035756 	 4.72
216.0893286077 	 5.67
219.1015703157 	 17.83
231.1015703157 	 5.44
258.112469353 	 1.67
259.0964849378 	 1.49
276.1230340393 	 2.59
376.1543341677 	 3.39
415.165233205 	 1.94
433.1757978913 	 16.64
479.1812771997 	 0
END IONS

BEGIN IONS
PEPMASS=213.088
CHARGE=1
MSLEVEL=2
RT=0
SOURCE_INSTRUMENT=qTOF
FILENAME=CCMSLIB00000079771.ms
IONMODE=Positive
ORGANISM=Natural
NAME=MLS001049086-01!butyl 2,4-dioxo-1H-pyrimidine-6-carboxylate
PI=GNPS
DATACOLLECTOR=GNPS
SMILES=CCCCOC(=O)c1cc(nc(n1)O)O
INCHI=InChI=1S/C9H12N2O4/c1-2-3-4-15-8(13)6-5-7(12)11-9(14)10-6/h5H,2-4H2,1H3,(H2,10,11,12,14)
FORMULA=C9H12N2O4
PUBMED=N/A
SUBMITUSER=BIOADREM
LIBRARYQUALITY=0
SPECTRUMID=CCMSLIB00000079771
SCANS=1977
ID=CCMSLIB00000079771
97.0158293136 	 3.95
111.0189033188 	 100
139.0138179409 	 60.2
157.0243826272 	 97.04
213.086982884 	 0
END IONS

BEGIN IONS
PEPMASS=339.16
CHARGE=1
MSLEVEL=2
RT=0
SOURCE_INSTRUMENT=qTOF
FILENAME=CCMSLIB00000079772.ms
IONMODE=Positive
ORGANISM=Natural
NAME=MLS002472920-01!9-[(2E)-3,7-dimethylocta-2,6-dienoxy]furo[3,2-g]chromen-7-one
PI=GNPS
DATACOLLECTOR=GNPS
SMILES=CC(=CCC/C(=C/COc1c2c(cco2)cc2ccc(=O)oc12)/C)C
INCHI=InChI=1S/C21H22O4/c1-14(2)5-4-6-15(3)9-11-24-21-19-17(10-12-23-19)13-16-7-8-18(22)25-20(16)21/h5,7-10,12-13H,4,6,11H2,1-3H3/b15-9+
FORMULA=C21H22O4
PUBMED=N/A
SUBMITUSER=BIOADREM
LIBRARYQUALITY=0
SPECTRUMID=CCMSLIB00000079772
SCANS=1978
ID=CCMSLIB00000079772
95.085526321 	 11.86
110.1090014173 	 1.55
131.0491408147 	 8.39
138.1403015457 	 1.49
147.0440554368 	 55.19
157.0284053726 	 5.38
159.0440554368 	 5.59
160.0518804689 	 1.49
175.0389700589 	 22.18
203.033884681 	 100
339.1590851946 	 0
END IONS

BEGIN IONS
PEPMASS=402.192
CHARGE=1
MSLEVEL=2
RT=0
SOURCE_INSTRUMENT=qTOF
FILENAME=CCMSLIB00000079773.ms
IONMODE=Positive
ORGANISM=Natural
NAME=MLS001140937-01!4-[[[2-(4-ethyl-8-methyl-2-oxochromen-7-yl)oxyacetyl]amino]methyl]cyclohexane-1-carboxylic acid
PI=GNPS
DATACOLLECTOR=GNPS
SMILES=CCc1cc(=O)oc2c(C)c(ccc12)OCC(=NC[C@H]1CC[C@@H](CC1)C(=O)O)O
INCHI=InChI=1S/C22H27NO6/c1-3-15-10-20(25)29-21-13(2)18(9-8-17(15)21)28-12-19(24)23-11-14-4-6-16(7-5-14)22(26)27/h8-10,14,16H,3-7,11-12H2,1-2H3,(H,23,24)(H,26,27)/t14-,16-
FORMULA=C22H27NO6
PUBMED=N/A
SUBMITUSER=BIOADREM
LIBRARYQUALITY=0
SPECTRUMID=CCMSLIB00000079773
SCANS=1979
ID=CCMSLIB00000079773
95.085526321 	 5.37
105.0698762568 	 1.84
119.0491408147 	 1.21
121.0647908789 	 2.39
131.0491408147 	 0.94
131.085526321 	 2.27
133.1011763852 	 1.48
145.0647908789 	 1.02
146.072615911 	 5.43
149.0960910073 	 1.71
157.0647908789 	 0.91
159.0804409431 	 10.38
161.0960910073 	 3.45
175.0753555652 	 2.54
177.0546201231 	 1.12
187.0753555652 	 1.6
189.0910056294 	 13.52
203.0702701873 	 0.94
205.0859202515 	 100
217.0859202515 	 46.38
245.0808348736 	 16.48
262.1073839751 	 27.99
356.1856342961 	 10.67
402.1911136045 	 0
END IONS

BEGIN IONS
PEPMASS=430.223
CHARGE=1
MSLEVEL=2
RT=0
SOURCE_INSTRUMENT=qTOF
FILENAME=CCMSLIB00000079774.ms
IONMODE=Positive
ORGANISM=Natural
NAME=MLS001140846-01!4-[[2-(7-methyl-2-oxo-4-propylchromen-5-yl)oxypropanoylamino]methyl]cyclohexane-1-carboxylic acid
PI=GNPS
DATACOLLECTOR=GNPS
SMILES=CCCc1cc(=O)oc2cc(C)cc(c12)OC(C)C(=NC[C@H]1CC[C@@H](CC1)C(=O)O)O
INCHI=InChI=1S/C24H31NO6/c1-4-5-18-12-21(26)31-20-11-14(2)10-19(22(18)20)30-15(3)23(27)25-13-16-6-8-17(9-7-16)24(28)29/h10-12,15-17H,4-9,13H2,1-3H3,(H,25,27)(H,28,29)/t15?,16-,17-
FORMULA=C24H31NO6
PUBMED=N/A
SUBMITUSER=BIOADREM
LIBRARYQUALITY=0
SPECTRUMID=CCMSLIB00000079774
SCANS=1980
ID=CCMSLIB00000079774
95.085526321 	 6.66
105.0698762568 	 1.26
112.1120754225 	 2.47
121.0647908789 	 2.69
137.059705501 	 2.36
138.0913399804 	 1.84
138.1277254867 	 7.52
140.1069900446 	 6.58
147.0804409431 	 0.78
152.1069900446 	 1.26
166.1226401088 	 3.63
167.1304651409 	 10.02
173.0960910073 	 1.25
175.0753555652 	 1.58
177.0546201231 	 10.52
184.1332047951 	 6.51
189.0910056294 	 2.6
201.0910056294 	 0.65
203.0702701873 	 9.66
217.0859202515 	 21.38
219.1015703157 	 100
245.1172203799 	 11.33
273.112135002 	 6.06
290.1386841035 	 4.62
384.2169344245 	 8.77
430.2224137329 	 0
END IONS

BEGIN IONS
PEPMASS=464.2273
CHARGE=1
MSLEVEL=2
RT=0
SOURCE_INSTRUMENT=qTOF
FILENAME=CCMSLIB00000079775.ms
IONMODE=Positive
ORGANISM=Natural
NAME=MLS001158283-01!(2R)-2-[[(2S)-2-(1,2-dihydroimidazo[1,2-a]benzimidazole-3-carbonylamino)-4-methylpentanoyl]amino]-3-phenylpropanoic acid
PI=GNPS
DATACOLLECTOR=GNPS
SMILES=CC(C)C[C@@H](C(=N[C@H](Cc1ccccc1)C(=O)O)O)N=C(N1CCn2c3ccccc3nc12)O
INCHI=InChI=1S/C25H29N5O4/c1-16(2)14-19(22(31)26-20(23(32)33)15-17-8-4-3-5-9-17)28-25(34)30-13-12-29-21-11-7-6-10-18(21)27-24(29)30/h3-11,16,19-20H,12-15H2,1-2H3,(H,26,31)(H,28,34)(H,32,33)/t19-,20+/m0/s1
FORMULA=C25H29N5O4
PUBMED=N/A
SUBMITUSER=BIOADREM
LIBRARYQUALITY=0
SPECTRUMID=CCMSLIB00000079775
SCANS=1981
ID=CCMSLIB00000079775
103.0542261926 	 0.58
105.0420440641 	 0.34
107.060374203 	 0.32
112.0756899162 	 0.54
118.0525491709 	 0.74
119.060374203 	 8.86
120.0807752941 	 8.52
128.0494751657 	 0.67
131.0576941283 	 0.29
132.0556231761 	 1.23
133.0760242672 	 1.69
134.0712732403 	 0.44
143.060374203 	 0.6
146.060039852 	 2.77
158.0685931656 	 0.81
159.0790982724 	 0.43
160.0869233045 	 100
161.0920682619 	 29
162.0913399804 	 1.16
172.0869233045 	 1.14
185.0947483366 	 0.26
186.1025733687 	 1.27
188.1406954762 	 0.52
215.0927369639 	 1.5
216.138290173 	 0.23
228.1495235613 	 5.6
231.1491892103 	 2.94
232.152991497 	 0.6
259.1441038324 	 8.21
260.1479061191 	 1.2
271.1553372207 	 53.85
272.1559516099 	 11.64
273.1597538966 	 0.85
299.1502518428 	 0.63
300.150866232 	 0.27
317.1608165291 	 0.66
464.2292304453 	 0.49
END IONS

BEGIN IONS
PEPMASS=466.161
CHARGE=1
MSLEVEL=2
RT=0
SOURCE_INSTRUMENT=qTOF
FILENAME=CCMSLIB00000079777.ms
IONMODE=Positive
ORGANISM=Natural
NAME=MLS001075900-01!N-[2-[7-methoxy-6-[(Z)-(1-methyl-2,4,6-trioxo-1,3-diazinan-5-ylidene)methyl]-1,3-benzodioxol-5-yl]ethyl]-N-methylbenzamide
PI=GNPS
DATACOLLECTOR=GNPS
SMILES=CN(CCc1cc2c(c(c1/C=C\1/C(=NC(=O)N(C)C1=O)O)OC)OCO2)C(=O)c1ccccc1
INCHI=InChI=1S/C24H23N3O7/c1-26(22(29)14-7-5-4-6-8-14)10-9-15-11-18-20(34-13-33-18)19(32-3)16(15)12-17-21(28)25-24(31)27(2)23(17)30/h4-8,11-12H,9-10,13H2,1-3H3,(H,25,28,31)/b17-12-
FORMULA=C24H23N3O7
PUBMED=N/A
SUBMITUSER=BIOADREM
LIBRARYQUALITY=0
SPECTRUMID=CCMSLIB00000079777
SCANS=1982
ID=CCMSLIB00000079777
105.0334907505 	 100
112.0366243352 	 0.82
131.0451180693 	 1.06
136.0730098415 	 0.85
145.0647908789 	 0.93
155.0424379946 	 3.65
160.0756899162 	 0.85
165.0546201231 	 4.3
171.0400326914 	 0.9
173.059705501 	 1.79
174.0271222814 	 0.86
189.0546201231 	 10.34
190.0584224098 	 1.2
198.0522743994 	 0.84
201.0546201231 	 2.23
202.0525491709 	 0.92
203.0662474419 	 3.72
205.0706641178 	 3.33
208.0882659752 	 1.14
216.0376869677 	 1.18
217.0455119998 	 1.09
218.0811692246 	 2.56
220.0941392141 	 10.82
221.0768121282 	 0.87
224.034219032 	 0.82
227.0298619356 	 1.74
229.0495347452 	 4.93
230.047463793 	 1.68
231.0651848094 	 7.57
232.0689870961 	 1.41
242.0447837183 	 2.65
247.0600994315 	 3.44
248.0580284793 	 1.2
256.0577537078 	 1.44
274.0709984688 	 1.43
300.074072474 	 1.1
301.0818975061 	 1.78
312.1203539646 	 2.89
331.0924621924 	 1.83
466.1608761086 	 0.51
END IONS

BEGIN IONS
PEPMASS=313.133
CHARGE=1
MSLEVEL=2
RT=0
SOURCE_INSTRUMENT=qTOF
FILENAME=CCMSLIB00000079778.ms
IONMODE=Positive
ORGANISM=Natural
NAME=MLS001140256-01!
PI=GNPS
DATACOLLECTOR=GNPS
SMILES=c1ccc(c(c1)C(=O)N1C[C@H]2C[C@@H](C1)c1cccc(=O)n1C2)F
INCHI=InChI=1S/C18H17FN2O2/c19-15-5-2-1-4-14(15)18(23)20-9-12-8-13(11-20)16-6-3-7-17(22)21(16)10-12/h1-7,12-13H,8-11H2/t12-,13+/m1/s1
FORMULA=C18H17FN2O2
PUBMED=N/A
SUBMITUSER=BIOADREM
LIBRARYQUALITY=0
SPECTRUMID=CCMSLIB00000079778
SCANS=1983
ID=CCMSLIB00000079778
95.0291542963 	 3.56
115.0542261926 	 0.38
117.0573001978 	 1.31
123.0240689184 	 100
132.0807752941 	 0.47
142.0651252299 	 0.69
145.0522148199 	 0.41
160.0756899162 	 9.11
217.0897431804 	 0.39
313.1346820003 	 15.99
END IONS

BEGIN IONS
PEPMASS=249.076
CHARGE=1
MSLEVEL=2
RT=0
SOURCE_INSTRUMENT=qTOF
FILENAME=CCMSLIB00000079779.ms
IONMODE=Positive
ORGANISM=Natural
NAME=MLS000863561-01!3-(4-hydroxy-5-oxo-3-phenyl-2H-furan-2-yl)propanoic acid
PI=GNPS
DATACOLLECTOR=GNPS
SMILES=c1ccc(cc1)C1=C(C(=O)OC1CCC(=O)O)O
INCHI=InChI=1S/C13H12O5/c14-10(15)7-6-9-11(12(16)13(17)18-9)8-4-2-1-3-5-8/h1-5,9,16H,6-7H2,(H,14,15)
FORMULA=C13H12O5
PUBMED=N/A
SUBMITUSER=BIOADREM
LIBRARYQUALITY=0
SPECTRUMID=CCMSLIB00000079779
SCANS=1984
ID=CCMSLIB00000079779
115.0542261926 	 42.82
116.0620512247 	 48.21
128.0620512247 	 75.13
129.0698762568 	 60.51
131.0491408147 	 32.82
131.085526321 	 35.13
143.0491408147 	 12.31
145.0647908789 	 23.59
159.0804409431 	 46.92
163.0753555652 	 12.82
171.0804409431 	 23.59
185.059705501 	 13.59
216.0780952194 	 14.1
249.0757494957 	 0
END IONS

BEGIN IONS
PEPMASS=440.1701
CHARGE=1
MSLEVEL=2
RT=0
SOURCE_INSTRUMENT=qTOF
FILENAME=CCMSLIB00000079780.ms
IONMODE=Positive
ORGANISM=Natural
NAME=MLS001158477-01!(2Z)-2-[(2,4-dimethoxyphenyl)methylidene]-6-[2-[(2S)-2-(hydroxymethyl)pyrrolidin-1-yl]-2-oxoethoxy]-1-benzofuran-3-one
PI=GNPS
DATACOLLECTOR=GNPS
SMILES=COc1ccc(/C=C\2/C(=O)c3ccc(cc3O2)OCC(=O)N2CCC[C@H]2CO)c(c1)OC
INCHI=InChI=1S/C24H25NO7/c1-29-17-6-5-15(20(11-17)30-2)10-22-24(28)19-8-7-18(12-21(19)32-22)31-14-23(27)25-9-3-4-16(25)13-26/h5-8,10-12,16,26H,3-4,9,13-14H2,1-2H3/b22-10-/t16-/m0/s1
FORMULA=C24H25NO7
PUBMED=N/A
SUBMITUSER=BIOADREM
LIBRARYQUALITY=0
SPECTRUMID=CCMSLIB00000079780
SCANS=1985
ID=CCMSLIB00000079780
96.0807752941 	 1.24
100.0756899162 	 4.86
107.0491408147 	 2.24
114.0913399804 	 28.66
133.0284053726 	 1.5
137.0233199947 	 1.91
137.059705501 	 8.6
142.0862546025 	 5.7
148.0518804689 	 20.68
163.0389700589 	 7.96
224.046795091 	 1.27
241.0495347452 	 5.23
243.1015703157 	 3.34
251.0702701873 	 1.67
252.0417097131 	 5.06
253.0495347452 	 3.71
254.0573597773 	 1.29
255.0651848094 	 1.83
256.0730098415 	 2.88
267.0651848094 	 26.81
269.0444493673 	 1.84
270.0886599057 	 1.37
271.0964849378 	 2.43
279.0651848094 	 1.96
282.0522743994 	 1.21
282.0886599057 	 1.11
283.0600994315 	 6.93
284.0679244636 	 21.85
297.0757494957 	 2.04
298.0835745278 	 3.25
299.0913995599 	 100
301.0944735651 	 2.12
311.0913995599 	 5.5
313.0706641178 	 1.11
313.1070496241 	 1.07
339.086314182 	 1.34
357.0968788683 	 1.56
440.1703781624 	 29.63
END IONS

BEGIN IONS
PEPMASS=386.197
CHARGE=1
MSLEVEL=2
RT=0
SOURCE_INSTRUMENT=qTOF
FILENAME=CCMSLIB00000079781.ms
IONMODE=Positive
ORGANISM=Natural
NAME=MLS001142813-01!7-[2-[(4aS,8aS)-4a-hydroxy-1,3,4,5,6,7,8,8a-octahydroisoquinolin-2-yl]-2-oxoethoxy]-3,4-dimethylchromen-2-one
PI=GNPS
DATACOLLECTOR=GNPS
SMILES=Cc1c(C)c(=O)oc2cc(ccc12)OCC(=O)N1CC[C@]2(CCCC[C@H]2C1)O
INCHI=InChI=1S/C22H27NO5/c1-14-15(2)21(25)28-19-11-17(6-7-18(14)19)27-13-20(24)23-10-9-22(26)8-4-3-5-16(22)12-23/h6-7,11,16,26H,3-5,8-10,12-13H2,1-2H3/t16-,22-/m0/s1
FORMULA=C22H27NO5
PUBMED=N/A
SUBMITUSER=BIOADREM
LIBRARYQUALITY=0
SPECTRUMID=CCMSLIB00000079781
SCANS=1986
ID=CCMSLIB00000079781
96.0807752941 	 1.6
105.0698762568 	 7.65
107.085526321 	 2.45
108.0807752941 	 36.74
109.0886003262 	 12.28
110.0964253583 	 2.93
115.0542261926 	 3.89
117.0698762568 	 31.45
119.085526321 	 11.03
120.0933513531 	 11.3
121.1011763852 	 19.99
122.0964253583 	 18.26
131.085526321 	 1.53
135.0804409431 	 2.82
136.1120754225 	 58.74
137.1199004546 	 76.89
138.1277254867 	 43.5
145.0647908789 	 35.74
147.0804409431 	 9.54
150.1277254867 	 68.35
151.1355505188 	 20.35
162.0675305331 	 1.76
164.1069900446 	 7.7
173.059705501 	 20.02
175.0753555652 	 33.74
178.1226401088 	 14.95
179.1304651409 	 100
190.0624451552 	 2.6
191.0702701873 	 13.44
203.0702701873 	 68.08
230.0811692246 	 1.73
231.0651848094 	 12.59
248.0917339109 	 11.83
340.190719674 	 21.38
341.1985447061 	 5.85
368.1856342961 	 28.29
369.1934593282 	 8.27
386.1961989824 	 0
END IONS

BEGIN IONS
PEPMASS=548.189
CHARGE=1
MSLEVEL=2
RT=0
SOURCE_INSTRUMENT=qTOF
FILENAME=CCMSLIB00000079782.ms
IONMODE=Positive
ORGANISM=Natural
NAME=MLS001142788-01!(2S)-2-[[1-[(2S)-2-[(4-methylphenyl)sulfonylamino]-4-methylsulfanylbutanoyl]piperidine-4-carbonyl]amino]-2-phenylacetic acid
PI=GNPS
DATACOLLECTOR=GNPS
SMILES=Cc1ccc(cc1)S(=O)(=O)N[C@@H](CCSC)C(=O)N1CCC(CC1)C(=N[C@@H](c1ccccc1)C(=O)O)O
INCHI=InChI=1S/C26H33N3O6S2/c1-18-8-10-21(11-9-18)37(34,35)28-22(14-17-36-2)25(31)29-15-12-20(13-16-29)24(30)27-23(26(32)33)19-6-4-3-5-7-19/h3-11,20,22-23,28H,12-17H2,1-2H3,(H,27,30)(H,32,33)/t22-,23-/m0/s1
FORMULA=C26H33N3O6S2
PUBMED=N/A
SUBMITUSER=BIOADREM
LIBRARYQUALITY=0
SPECTRUMID=CCMSLIB00000079782
SCANS=1987
ID=CCMSLIB00000079782
106.0651252299 	 16.62
107.0491408147 	 3.47
110.060039852 	 3.63
112.0756899162 	 100
128.0706045383 	 3.8
130.0862546025 	 4.33
135.0440554368 	 13.88
137.0709388893 	 10
152.0706045383 	 7.43
155.0161261268 	 39.44
156.0165575951 	 6.86
165.1022390177 	 22.62
166.0974879908 	 4.21
167.0815035756 	 2.74
175.0839088788 	 3.43
210.0583252925 	 30.67
211.0587567608 	 6.12
211.1077183261 	 3.88
258.0616961109 	 86.2
260.058719223 	 6.57
261.1233683903 	 19.44
263.1390184545 	 58.06
264.1416609914 	 12.74
298.1550028697 	 2.57
300.1706529339 	 3.43
316.1291820497 	 2.57
321.1215567135 	 4.78
329.1444006456 	 3.47
344.1604821781 	 9.51
345.163124715 	 27.52
350.1294788629 	 2.82
366.1430204371 	 3.55
367.1322185171 	 6.98
500.1849823691 	 60.27
501.187624906 	 34.22
502.1828738791 	 5.47
548.1883531875 	 0
END IONS

BEGIN IONS
PEPMASS=385.165
CHARGE=1
MSLEVEL=2
RT=0
SOURCE_INSTRUMENT=qTOF
FILENAME=CCMSLIB00000079783.ms
IONMODE=Positive
ORGANISM=Natural
NAME=MLS000697744-01!
PI=GNPS
DATACOLLECTOR=GNPS
SMILES=CC(=CCc1c(ccc(c1OC)OC)C1CC(=O)c2c(cc(cc2O1)O)O)C
INCHI=InChI=1S/C22H24O6/c1-12(2)5-6-15-14(7-8-18(26-3)22(15)27-4)19-11-17(25)21-16(24)9-13(23)10-20(21)28-19/h5,7-10,19,23-24H,6,11H2,1-4H3
FORMULA=C22H24O6
PUBMED=N/A
SUBMITUSER=BIOADREM
LIBRARYQUALITY=0
SPECTRUMID=CCMSLIB00000079783
SCANS=1988
ID=CCMSLIB00000079783
97.0284053726 	 0.5
111.0076699305 	 1.03
115.0542261926 	 0.51
123.0440554368 	 0.94
135.0440554368 	 0.57
136.0518804689 	 1.18
137.059705501 	 0.5
139.0389700589 	 8.16
143.085526321 	 1.22
145.0647908789 	 0.88
151.0389700589 	 1.37
151.0753555652 	 1.07
153.0182346168 	 100
158.072615911 	 0.95
159.0804409431 	 2.5
160.0518804689 	 0.52
161.059705501 	 0.81
162.0675305331 	 1.14
163.0389700589 	 1.15
163.0753555652 	 1.49
171.0804409431 	 2.63
173.059705501 	 0.8
173.0960910073 	 1.95
174.0675305331 	 0.63
175.0753555652 	 1.27
176.046795091 	 1.52
176.0831805973 	 0.81
177.0910056294 	 1.38
179.033884681 	 0.87
186.1039160394 	 7.2
187.0753555652 	 5.68
189.0910056294 	 2.27
191.0702701873 	 7.66
201.0910056294 	 0.63
202.0988306615 	 6.96
209.0808348736 	 5.17
215.1066556936 	 0.49
217.1223057578 	 14.06
269.0808348736 	 0.52
287.0913995599 	 2.13
385.164564503 	 0
END IONS

BEGIN IONS
PEPMASS=246.0755
CHARGE=1
MSLEVEL=2
RT=0
SOURCE_INSTRUMENT=qTOF
FILENAME=CCMSLIB00000079785.ms
IONMODE=Positive
ORGANISM=Natural
NAME=MLS001049015-01!4,8-dimethoxy-9H-furo[2,3-b]quinolin-7-one
PI=GNPS
DATACOLLECTOR=GNPS
SMILES=COc1c2ccc(c(c2nc2c1cco2)OC)O
INCHI=InChI=1S/C13H11NO4/c1-16-11-7-3-4-9(15)12(17-2)10(7)14-13-8(11)5-6-18-13/h3-6,15H,1-2H3
FORMULA=C13H11NO4
PUBMED=N/A
SUBMITUSER=BIOADREM
LIBRARYQUALITY=0
SPECTRUMID=CCMSLIB00000079785
SCANS=1990
ID=CCMSLIB00000079785
102.0464011605 	 0.31
104.0494751657 	 4.71
105.0334907505 	 0.54
127.0416501336 	 0.8
128.0494751657 	 0.54
129.0573001978 	 0.91
132.0443897878 	 8.65
133.0284053726 	 0.81
146.060039852 	 0.34
155.0365647557 	 0.77
156.0443897878 	 6.14
157.0522148199 	 1.94
159.0314793778 	 0.47
160.0393044099 	 15.14
162.0185689678 	 1.61
173.047129442 	 0.33
174.0549544741 	 1.65
183.0314793778 	 0.66
184.0393044099 	 5.6
185.047129442 	 2.59
186.0549544741 	 0.93
188.034219032 	 61.94
200.0706045383 	 0.85
201.0420440641 	 0.64
202.0498690962 	 4.25
212.034219032 	 1.21
214.0498690962 	 1.79
216.0291336541 	 100
230.0447837183 	 0.88
231.0526087504 	 88.78
246.0760838467 	 3.6
END IONS

BEGIN IONS
PEPMASS=475.2321
CHARGE=1
MSLEVEL=2
RT=0
SOURCE_INSTRUMENT=qTOF
FILENAME=CCMSLIB00000079787.ms
IONMODE=Positive
ORGANISM=Natural
NAME=MLS001157910-01!
PI=GNPS
DATACOLLECTOR=GNPS
SMILES=COc1ccc(cc1OC)c1c2c(cc(C(=O)NCCCN3CCOCC3)[nH]1)c1ccccc1n2
INCHI=InChI=1S/C27H30N4O4/c1-33-23-9-8-18(16-24(23)34-2)25-26-20(19-6-3-4-7-21(19)29-26)17-22(30-25)27(32)28-10-5-11-31-12-14-35-15-13-31/h3-4,6-9,16-17,30H,5,10-15H2,1-2H3,(H,28,32)
FORMULA=C27H30N4O4
PUBMED=N/A
SUBMITUSER=BIOADREM
LIBRARYQUALITY=0
SPECTRUMID=CCMSLIB00000079787
SCANS=1991
ID=CCMSLIB00000079787
229.0760242672 	 0.53
243.0916743314 	 1.08
244.0994993635 	 0.44
245.0709388893 	 0.42
257.0709388893 	 1.57
258.074741176 	 0.62
259.0865889535 	 5.31
260.0944139856 	 2.84
270.0787639214 	 2.2
271.0865889535 	 1.93
272.0944139856 	 43.59
273.0982162723 	 8.83
287.0815035756 	 2.13
288.0893286077 	 16.85
289.0931308944 	 3.13
302.1049786719 	 0.8
303.112803704 	 100
304.1166059907 	 19.35
305.1172203799 	 2.91
317.0920682619 	 0.45
317.1284537682 	 0.53
321.1233683903 	 34.01
323.1277850662 	 0.96
329.1158777092 	 0.5
330.1237027413 	 3.51
331.1077183261 	 16.28
344.1029672992 	 0.59
344.1393528055 	 0.71
349.1182830124 	 13.95
360.1342674276 	 17.99
362.1386841035 	 0.87
372.1342674276 	 1.35
388.165567556 	 97.86
390.1699842319 	 3.04
475.2339814722 	 12.27
END IONS

BEGIN IONS
PEPMASS=218.082
CHARGE=1
MSLEVEL=2
RT=0
SOURCE_INSTRUMENT=qTOF
FILENAME=CCMSLIB00000079788.ms
IONMODE=Positive
ORGANISM=Natural
NAME=MLS001049016-01![2-(1H-indol-3-yl)-2-oxoethyl] acetate
PI=GNPS
DATACOLLECTOR=GNPS
SMILES=CC(=O)OCC(=O)c1c[nH]c2ccccc12
INCHI=InChI=1S/C12H11NO3/c1-8(14)16-7-12(15)10-6-13-11-5-3-2-4-9(10)11/h2-6,13H,7H2,1H3
FORMULA=C12H11NO3
PUBMED=N/A
SUBMITUSER=BIOADREM
LIBRARYQUALITY=0
SPECTRUMID=CCMSLIB00000079788
SCANS=1992
ID=CCMSLIB00000079788
102.0464011605 	 3.96
103.0542261926 	 5.94
118.0651252299 	 15.85
128.0494751657 	 3.04
130.0651252299 	 100
132.0443897878 	 5.94
158.060039852 	 20.08
218.0811692246 	 0
END IONS

BEGIN IONS
PEPMASS=569.159
CHARGE=1
MSLEVEL=2
RT=0
SOURCE_INSTRUMENT=qTOF
FILENAME=CCMSLIB00000079789.ms
IONMODE=Positive
ORGANISM=Natural
NAME=MLS001140667-01!
PI=GNPS
DATACOLLECTOR=GNPS
SMILES=c1ccc2c(c1)c1C[C@H]3C(=O)N(c4ccccc4C(=O)N4CCC[C@@H]4C(=O)O)C(=O)N3C(c3cccc(c3)Cl)c1[nH]2
INCHI=InChI=1S/C31H25ClN4O5/c32-18-8-5-7-17(15-18)27-26-21(19-9-1-3-11-22(19)33-26)16-25-29(38)36(31(41)35(25)27)23-12-4-2-10-20(23)28(37)34-14-6-13-24(34)30(39)40/h1-5,7-12,15,24-25,27,33H,6,13-14,16H2,(H,39,40)/t24-,25+,27?/m1/s1
FORMULA=C31H25ClN4O5
PUBMED=N/A
SUBMITUSER=BIOADREM
LIBRARYQUALITY=0
SPECTRUMID=CCMSLIB00000079789
SCANS=1993
ID=CCMSLIB00000079789
120.0443897878 	 5.96
144.0443897878 	 2.94
146.0236543457 	 34.4
156.0681992351 	 6.85
163.0502034472 	 4.7
184.0631138572 	 37.38
217.0886003262 	 22.09
218.0964253583 	 100
229.0886003262 	 2.98
235.0627795062 	 2.92
242.0367175941 	 34.58
243.0427127661 	 6.58
244.0352816645 	 10.15
251.0496280041 	 5.69
252.0574530362 	 50.11
253.0607681335 	 32.41
254.0560171066 	 12.04
264.0574530362 	 63.24
265.0607681335 	 13.29
270.0316322162 	 24.56
271.0376273882 	 5.04
271.0865889535 	 3.64
272.0944139856 	 8.42
279.0683520735 	 3.82
292.0523676583 	 18.98
293.0556827556 	 7.66
307.0632666956 	 27.43
308.0665817929 	 8.09
329.0727687494 	 13.54
330.087317235 	 3.3
357.099558943 	 3.08
358.1060413044 	 5.5
359.1138663365 	 3.07
375.1101236293 	 11.2
376.1166059907 	 10.47
377.1244310228 	 4.34
383.0918867493 	 9.73
384.0911584678 	 3.5
385.0864074409 	 2.78
393.0762366851 	 5.5
411.0868013714 	 81.48
412.0932837328 	 30.97
413.081322063 	 23.78
426.1003804834 	 17.29
427.0969721272 	 4.93
428.0922211003 	 6.85
454.0952951055 	 62.83
455.0918867493 	 18.8
456.0871357224 	 25.61
569.1586236438 	 0
END IONS

BEGIN IONS
PEPMASS=535.295
CHARGE=1
MSLEVEL=2
RT=0
SOURCE_INSTRUMENT=qTOF
FILENAME=CCMSLIB00000079790.ms
IONMODE=Positive
ORGANISM=Natural
NAME=MLS001142764-01!tert-butyl N-[(2S)-4-methylsulfanyl-1-oxo-1-[4-[[(2S)-1-oxo-1-(1-phenylethylamino)propan-2-yl]carbamoyl]piperidin-1-yl]butan-2-yl]carbamate
PI=GNPS
DATACOLLECTOR=GNPS
SMILES=CC(c1ccccc1)N=C([C@H](C)N=C(C1CCN(CC1)C(=O)[C@H](CCSC)N=C(O)OC(C)(C)C)O)O
INCHI=InChI=1S/C27H42N4O5S/c1-18(20-10-8-7-9-11-20)28-23(32)19(2)29-24(33)21-12-15-31(16-13-21)25(34)22(14-17-37-6)30-26(35)36-27(3,4)5/h7-11,18-19,21-22H,12-17H2,1-6H3,(H,28,32)(H,29,33)(H,30,35)/t18?,19-,22-/m0/s1
FORMULA=C27H42N4O5S
PUBMED=N/A
SUBMITUSER=BIOADREM
LIBRARYQUALITY=0
SPECTRUMID=CCMSLIB00000079790
SCANS=1994
ID=CCMSLIB00000079790
104.0528459841 	 14.04
105.0698762568 	 29.08
112.0756899162 	 84.36
155.1178890819 	 16.1
167.0815035756 	 3.19
167.1178890819 	 3.19
181.0919711446 	 8.25
183.112803704 	 51.63
193.1335391461 	 15.37
200.1393528055 	 29.67
207.112803704 	 5.46
238.1550028697 	 10.38
261.1267392087 	 3.53
283.1764665933 	 10.31
287.1536226612 	 5.26
297.1267392087 	 3.59
304.2019530623 	 100
305.2045955992 	 20.69
314.1532883102 	 21.09
331.1798374117 	 7.19
351.2100749076 	 4.19
387.2390668501 	 17.23
418.215888567 	 3.39
435.2424376685 	 28.08
535.2948671695 	 0
END IONS

BEGIN IONS
PEPMASS=360.1442
CHARGE=1
MSLEVEL=2
RT=0
SOURCE_INSTRUMENT=qTOF
FILENAME=CCMSLIB00000079791.ms
IONMODE=Positive
ORGANISM=Natural
NAME=MLS001139453-01!(2R)-1-[2-(4-ethyl-7-methyl-2-oxochromen-5-yl)oxyacetyl]pyrrolidine-2-carboxylic acid
PI=GNPS
DATACOLLECTOR=GNPS
SMILES=CCc1cc(=O)oc2cc(C)cc(c12)OCC(=O)N1CCC[C@@H]1C(=O)O
INCHI=InChI=1S/C19H21NO6/c1-3-12-9-17(22)26-15-8-11(2)7-14(18(12)15)25-10-16(21)20-6-4-5-13(20)19(23)24/h7-9,13H,3-6,10H2,1-2H3,(H,23,24)/t13-/m1/s1
FORMULA=C19H21NO6
PUBMED=N/A
SUBMITUSER=BIOADREM
LIBRARYQUALITY=0
SPECTRUMID=CCMSLIB00000079791
SCANS=1995
ID=CCMSLIB00000079791
98.060039852 	 16.45
100.0756899162 	 24.39
105.0698762568 	 8.69
112.0756899162 	 19.72
115.0542261926 	 8.32
121.0647908789 	 8.22
128.0706045383 	 40.09
129.0698762568 	 10.19
130.0777012889 	 5.61
131.085526321 	 21.59
137.059705501 	 25.7
139.0627795062 	 9.63
143.085526321 	 12.24
145.0647908789 	 11.87
146.072615911 	 15.98
149.059705501 	 11.12
156.0655191604 	 11.21
159.0804409431 	 20
161.059705501 	 14.58
161.0960910073 	 18.79
174.0675305331 	 28.97
175.0753555652 	 16.73
176.0831805973 	 7.38
177.0546201231 	 61.31
178.0624451552 	 8.41
187.0753555652 	 31.4
189.0910056294 	 51.96
203.0702701873 	 44.67
204.0780952194 	 47.01
205.0859202515 	 66.82
217.0859202515 	 100
245.0808348736 	 45.23
263.0913995599 	 6.45
360.1441634119 	 5.7
END IONS

BEGIN IONS
PEPMASS=438.1911
CHARGE=1
MSLEVEL=2
RT=0
SOURCE_INSTRUMENT=qTOF
FILENAME=CCMSLIB00000079792.ms
IONMODE=Positive
ORGANISM=Natural
NAME=MLS001141218-01!N-[(2-methoxyphenyl)methyl]-2-[(4,8,8-trimethyl-2-oxo-9,10-dihydropyrano[2,3-h]chromen-5-yl)oxy]acetamide
PI=GNPS
DATACOLLECTOR=GNPS
SMILES=Cc1cc(=O)oc2c3CCC(C)(C)Oc3cc(c12)OCC(=NCc1ccccc1OC)O
INCHI=InChI=1S/C25H27NO6/c1-15-11-22(28)31-24-17-9-10-25(2,3)32-19(17)12-20(23(15)24)30-14-21(27)26-13-16-7-5-6-8-18(16)29-4/h5-8,11-12H,9-10,13-14H2,1-4H3,(H,26,27)
FORMULA=C25H27NO6
PUBMED=N/A
SUBMITUSER=BIOADREM
LIBRARYQUALITY=0
SPECTRUMID=CCMSLIB00000079792
SCANS=1996
ID=CCMSLIB00000079792
106.0413157826 	 0.24
107.0491408147 	 0.56
109.0647908789 	 8.13
121.0647908789 	 100
134.0362304047 	 0.29
135.0440554368 	 0.3
137.059705501 	 22.63
148.0756899162 	 0.95
149.059705501 	 1.69
150.0913399804 	 1.39
160.0756899162 	 0.31
161.059705501 	 0.41
178.0862546025 	 23.46
187.0389700589 	 0.3
189.0546201231 	 1.04
205.0495347452 	 13.5
217.0495347452 	 2.97
245.0444493673 	 3.15
276.086648533 	 0.41
330.1335987256 	 0.88
438.1911136045 	 8.98
END IONS

BEGIN IONS
PEPMASS=358.1299
CHARGE=1
MSLEVEL=2
RT=0
SOURCE_INSTRUMENT=qTOF
FILENAME=CCMSLIB00000079795.ms
IONMODE=Positive
ORGANISM=Natural
NAME=MLS001139209-01!(2S)-1-[2-[(4-oxo-2,3-dihydro-1H-cyclopenta[c]chromen-7-yl)oxy]acetyl]pyrrolidine-2-carboxylic acid
PI=GNPS
DATACOLLECTOR=GNPS
SMILES=C1Cc2c3ccc(cc3oc(=O)c2C1)OCC(=O)N1CCC[C@H]1C(=O)O
INCHI=InChI=1S/C19H19NO6/c21-17(20-8-2-5-15(20)18(22)23)10-25-11-6-7-13-12-3-1-4-14(12)19(24)26-16(13)9-11/h6-7,9,15H,1-5,8,10H2,(H,22,23)/t15-/m0/s1
FORMULA=C19H19NO6
PUBMED=N/A
SUBMITUSER=BIOADREM
LIBRARYQUALITY=0
SPECTRUMID=CCMSLIB00000079795
SCANS=1998
ID=CCMSLIB00000079795
105.0698762568 	 5.42
115.0542261926 	 5.46
117.0698762568 	 6.42
128.0620512247 	 37.42
129.0698762568 	 43.15
131.0491408147 	 5.12
131.085526321 	 4.25
133.0647908789 	 10.02
141.0698762568 	 7.76
144.0569658468 	 5.94
145.0647908789 	 7.94
147.0440554368 	 6.03
157.0647908789 	 25.46
159.0804409431 	 27.41
169.0647908789 	 8.15
173.059705501 	 3.25
174.0675305331 	 11.01
185.059705501 	 71.6
187.0753555652 	 63.36
189.0910056294 	 6.98
203.0702701873 	 19.69
215.0702701873 	 100
217.0859202515 	 11.93
245.0808348736 	 5.38
284.1281194172 	 23.81
312.1230340393 	 8.02
358.1285133477 	 6.11
END IONS

BEGIN IONS
PEPMASS=563.2529
CHARGE=1
MSLEVEL=2
RT=0
SOURCE_INSTRUMENT=qTOF
FILENAME=CCMSLIB00000079796.ms
IONMODE=Positive
ORGANISM=Natural
NAME=MLS000756410-01!
PI=GNPS
DATACOLLECTOR=GNPS
SMILES=CN1CCc2cc(c3c4c2C1Cc1ccc(cc1)Oc1cc(ccc1OC)CC1c2cc(c(cc2CCN1)O3)O4)OC
INCHI=InChI=1S/C35H34N2O5/c1-37-13-11-23-18-32(39-3)34-35-33(23)27(37)15-20-4-7-24(8-5-20)40-29-16-21(6-9-28(29)38-2)14-26-25-19-31(42-35)30(41-34)17-22(25)10-12-36-26/h4-9,16-19,26-27,36H,10-15H2,1-3H3
FORMULA=C35H34N2O5
PUBMED=N/A
SUBMITUSER=BIOADREM
LIBRARYQUALITY=0
SPECTRUMID=CCMSLIB00000079796
SCANS=1999
ID=CCMSLIB00000079796
213.0910056294 	 7.21
214.0862546025 	 5.49
263.1304651409 	 6.93
266.1175547309 	 4.25
280.0968192888 	 4.37
280.1332047951 	 6.53
281.1410298272 	 4.41
294.112469353 	 24.52
307.1202943851 	 4.81
308.1281194172 	 8.89
309.1359444493 	 20.39
319.1202943851 	 25.84
320.1281194172 	 17.51
321.1273911357 	 9.25
332.1281194172 	 9.13
334.1352161678 	 7.41
335.1390184545 	 67.99
336.1468434866 	 15.63
349.1586912641 	 10.78
350.1624935508 	 14.94
371.1515945135 	 5.17
400.1543341677 	 4.97
426.1699842319 	 5.37
489.1696498809 	 14.42
490.177474913 	 6.73
501.1934593282 	 4.21
504.1805489182 	 7.57
506.1961989824 	 7.33
516.1805489182 	 12.9
517.1883739503 	 8.49
518.1961989824 	 18.59
520.2118490466 	 80.13
521.2070980197 	 25.84
531.2166000735 	 8.01
532.2118490466 	 100
534.2274991108 	 31.89
546.2274991108 	 7.45
563.2540482123 	 215.34
END IONS

BEGIN IONS
PEPMASS=598.22
CHARGE=1
MSLEVEL=2
RT=0
SOURCE_INSTRUMENT=qTOF
FILENAME=CCMSLIB00000079797.ms
IONMODE=Positive
ORGANISM=Natural
NAME=MLS001140661-01!
PI=GNPS
DATACOLLECTOR=GNPS
SMILES=c1ccc2c(c1)c1C[C@H]3C(=O)N(c4ccccc4C(=NCCCN4CCOCC4)O)C(=O)N3C(c3cccc(c3)Cl)c1[nH]2
INCHI=InChI=1S/C33H32ClN5O4/c34-22-8-5-7-21(19-22)30-29-25(23-9-1-3-11-26(23)36-29)20-28-32(41)39(33(42)38(28)30)27-12-4-2-10-24(27)31(40)35-13-6-14-37-15-17-43-18-16-37/h1-5,7-12,19,28,30,36H,6,13-18,20H2,(H,35,40)/t28-,30?/m0/s1
FORMULA=C33H32ClN5O4
PUBMED=N/A
SUBMITUSER=BIOADREM
LIBRARYQUALITY=0
SPECTRUMID=CCMSLIB00000079797
SCANS=2000
ID=CCMSLIB00000079797
130.0651252299 	 4.43
146.0236543457 	 27.14
163.0502034472 	 2.97
175.0502034472 	 7.66
184.0631138572 	 23.72
201.0294680051 	 9.63
203.0815035756 	 59.74
217.0886003262 	 6.46
218.0964253583 	 41.18
242.0367175941 	 16.69
252.0574530362 	 25.86
253.0652780683 	 21.7
258.087317235 	 55.9
264.0574530362 	 38.08
265.0612553229 	 8.3
266.0560171066 	 8.44
270.0316322162 	 14.64
272.0944139856 	 3.87
292.0523676583 	 22
293.056169945 	 3.73
294.0509317287 	 5.97
307.0632666956 	 24.27
328.0954766181 	 5.75
329.0799793923 	 5.95
375.112803704 	 6.14
376.1166059907 	 4.36
383.094566824 	 4.53
411.0894814461 	 59.5
412.0932837328 	 14.99
413.0840021377 	 17.33
414.0891470951 	 3.84
426.1003804834 	 10.02
427.0996522019 	 3.01
428.094901175 	 3.44
453.1112795207 	 5.44
454.0952951055 	 78.51
455.094566824 	 23.86
456.0898157971 	 25.4
457.0949607545 	 4.9
511.1531443354 	 100
512.1524160539 	 31.43
514.1528099844 	 8.49
598.2215582516 	 41.62
END IONS

BEGIN IONS
PEPMASS=391.096
CHARGE=1
MSLEVEL=2
RT=0
SOURCE_INSTRUMENT=qTOF
FILENAME=CCMSLIB00000079798.ms
IONMODE=Positive
ORGANISM=Natural
NAME=MLS002666834-01!
PI=GNPS
DATACOLLECTOR=GNPS
SMILES=CC(=O)OCC1=C(C(=O)O)N2C(=O)[C@H]([C@H]2SC1)N=C(Cc1ccccc1)O
INCHI=InChI=1S/C18H18N2O6S/c1-10(21)26-8-12-9-27-17-14(16(23)20(17)15(12)18(24)25)19-13(22)7-11-5-3-2-4-6-11/h2-6,14,17H,7-9H2,1H3,(H,19,22)(H,24,25)/t14-,17-/m1/s1
FORMULA=C18H18N2O6S
PUBMED=N/A
SUBMITUSER=BIOADREM
LIBRARYQUALITY=0
SPECTRUMID=CCMSLIB00000079798
SCANS=2001
ID=CCMSLIB00000079798
149.0233199947 	 100
248.0917339109 	 7.81
391.0958330108 	 0
END IONS

BEGIN IONS
PEPMASS=449.199
CHARGE=1
MSLEVEL=2
RT=0
SOURCE_INSTRUMENT=qTOF
FILENAME=CCMSLIB00000079799.ms
IONMODE=Positive
ORGANISM=Natural
NAME=MLS001142787-01!
PI=GNPS
DATACOLLECTOR=GNPS
SMILES=C[C@@H](C(=NCCc1ccccc1F)O)N1C(=O)[C@]2(C)c3c(CCN2C1=O)c1ccccc1[nH]3
INCHI=InChI=1S/C25H25FN4O3/c1-15(22(31)27-13-11-16-7-3-5-9-19(16)26)30-23(32)25(2)21-18(12-14-29(25)24(30)33)17-8-4-6-10-20(17)28-21/h3-10,15,28H,11-14H2,1-2H3,(H,27,31)/t15-,25-/m0/s1
FORMULA=C25H25FN4O3
PUBMED=N/A
SUBMITUSER=BIOADREM
LIBRARYQUALITY=0
SPECTRUMID=CCMSLIB00000079799
SCANS=2002
ID=CCMSLIB00000079799
154.1716016741 	 0.35
156.1872517383 	 0.47
169.1950767704 	 1.56
449.1983448896 	 0
END IONS

BEGIN IONS
PEPMASS=283.0973
CHARGE=1
MSLEVEL=2
RT=0
SOURCE_INSTRUMENT=qTOF
FILENAME=CCMSLIB00000079800.ms
IONMODE=Positive
ORGANISM=Natural
NAME=MLS001049126-01!6-methoxy-2-(4-methoxyphenyl)chromen-4-one
PI=GNPS
DATACOLLECTOR=GNPS
SMILES=COc1ccc(cc1)c1cc(=O)c2cc(ccc2o1)OC
INCHI=InChI=1S/C17H14O4/c1-19-12-5-3-11(4-6-12)17-10-15(18)14-9-13(20-2)7-8-16(14)21-17/h3-10H,1-2H3
FORMULA=C17H14O4
PUBMED=N/A
SUBMITUSER=BIOADREM
LIBRARYQUALITY=0
SPECTRUMID=CCMSLIB00000079800
SCANS=2003
ID=CCMSLIB00000079800
95.0491408147 	 0.57
103.0542261926 	 0.41
108.0205803405 	 11.8
116.0256657184 	 0.53
118.0413157826 	 0.57
123.0440554368 	 1.22
128.0620512247 	 0.34
132.0569658468 	 0.76
133.0647908789 	 3.36
135.0440554368 	 1.95
141.0698762568 	 2.47
144.0205803405 	 0.56
151.0389700589 	 10.96
153.0698762568 	 0.98
154.0777012889 	 0.45
157.0647908789 	 1.89
158.072615911 	 0.6
159.0440554368 	 1.73
165.0698762568 	 0.4
169.0647908789 	 5.11
172.0882659752 	 4.53
181.0647908789 	 2.01
183.0804409431 	 0.83
184.0882659752 	 1.78
197.059705501 	 5.97
207.0440554368 	 0.5
209.059705501 	 1.4
211.0753555652 	 1.36
212.0831805973 	 1.87
222.0675305331 	 0.69
224.0831805973 	 0.53
225.0546201231 	 5.02
227.1066556936 	 0.79
239.0702701873 	 1.21
240.0780952194 	 100
253.0495347452 	 0.35
255.1015703157 	 0.68
268.0730098415 	 33.65
283.0964849378 	 64.38
END IONS

BEGIN IONS
PEPMASS=430.165
CHARGE=1
MSLEVEL=2
RT=0
SOURCE_INSTRUMENT=qTOF
FILENAME=CCMSLIB00000079801.ms
IONMODE=Positive
ORGANISM=Natural
NAME=MLS001158060-01!
PI=GNPS
DATACOLLECTOR=GNPS
SMILES=CC(C(=NCC(c1ccccc1)O)O)Oc1ccc2c(cc(=O)oc2c1)c1ccccc1
INCHI=InChI=1S/C26H23NO5/c1-17(26(30)27-16-23(28)19-10-6-3-7-11-19)31-20-12-13-21-22(18-8-4-2-5-9-18)15-25(29)32-24(21)14-20/h2-15,17,23,28H,16H2,1H3,(H,27,30)
FORMULA=C26H23NO5
PUBMED=N/A
SUBMITUSER=BIOADREM
LIBRARYQUALITY=0
SPECTRUMID=CCMSLIB00000079801
SCANS=2004
ID=CCMSLIB00000079801
103.0542261926 	 8.87
105.0698762568 	 2.01
115.0542261926 	 3.18
117.0698762568 	 3.74
118.0651252299 	 2.94
120.0807752941 	 44.31
128.0620512247 	 1.8
129.0698762568 	 8.67
131.085526321 	 21.5
141.0698762568 	 3.14
146.0964253583 	 12.52
153.0698762568 	 2.18
165.0698762568 	 29.98
166.0777012889 	 8.03
167.085526321 	 3.57
169.1011763852 	 1.82
174.0913399804 	 2.59
177.0698762568 	 2.44
178.0777012889 	 8.21
179.085526321 	 3.57
181.0647908789 	 4.11
181.1011763852 	 7.94
183.0804409431 	 3.7
191.085526321 	 6.37
193.0647908789 	 6.24
193.1011763852 	 2
194.072615911 	 7.35
195.0804409431 	 2.75
197.059705501 	 9.42
197.0960910073 	 5.93
209.0960910073 	 10.62
219.0804409431 	 5.15
221.059705501 	 5.78
221.0960910073 	 1.97
223.0753555652 	 3.47
237.0910056294 	 28.31
239.0702701873 	 27.69
247.0753555652 	 2.45
265.0859202515 	 100
430.164898854 	 0
END IONS

BEGIN IONS
PEPMASS=457.14
CHARGE=1
MSLEVEL=2
RT=0
SOURCE_INSTRUMENT=qTOF
FILENAME=CCMSLIB00000079802.ms
IONMODE=Positive
ORGANISM=Natural
NAME=MLS001140573-01!(2S)-3-(1H-indol-3-yl)-2-[[2-(6-oxobenzo[c]chromen-3-yl)oxyacetyl]amino]propanoic acid
PI=GNPS
DATACOLLECTOR=GNPS
SMILES=c1ccc2c(c1)c1ccc(cc1oc2=O)OCC(=N[C@@H](Cc1c[nH]c2ccccc12)C(=O)O)O
INCHI=InChI=1S/C26H20N2O6/c29-24(28-22(25(30)31)11-15-13-27-21-8-4-3-5-17(15)21)14-33-16-9-10-19-18-6-1-2-7-20(18)26(32)34-23(19)12-16/h1-10,12-13,22,27H,11,14H2,(H,28,29)(H,30,31)/t22-/m0/s1
FORMULA=C26H20N2O6
PUBMED=N/A
SUBMITUSER=BIOADREM
LIBRARYQUALITY=0
SPECTRUMID=CCMSLIB00000079802
SCANS=2005
ID=CCMSLIB00000079802
103.0542261926 	 2.62
115.0542261926 	 6.97
117.0573001978 	 3.96
118.0651252299 	 12.65
129.0698762568 	 2.64
130.0651252299 	 100
132.0807752941 	 7.71
139.0542261926 	 3.22
142.0651252299 	 13.44
143.072950262 	 15.83
144.0807752941 	 33.59
146.060039852 	 20.35
153.0698762568 	 5.78
154.0651252299 	 8.98
156.0807752941 	 5.77
157.0760242672 	 6.82
158.0838492993 	 39.34
167.0491408147 	 16.19
170.060039852 	 33.49
171.0916743314 	 35.6
181.0760242672 	 2.28
182.0838492993 	 3.97
183.0678648841 	 4.75
183.0916743314 	 10.78
184.0756899162 	 7.46
185.0709388893 	 5.84
188.0706045383 	 21.41
195.0440554368 	 8.41
197.059705501 	 7.98
199.0865889535 	 5.1
200.0944139856 	 8.5
213.0546201231 	 4.7
225.0546201231 	 19.13
252.0655191604 	 3.53
270.0760838467 	 1.44
354.112469353 	 3.38
394.1159372887 	 1.79
411.1339330766 	 15.86
457.139412385 	 0
END IONS

BEGIN IONS
PEPMASS=486.155
CHARGE=1
MSLEVEL=2
RT=0
SOURCE_INSTRUMENT=qTOF
FILENAME=CCMSLIB00000079803.ms
IONMODE=Positive
ORGANISM=Natural
NAME=MLS001032368-01!(3S)-2-[2-[[(2Z)-2-[(3-methoxyphenyl)methylidene]-3-oxo-1-benzofuran-6-yl]oxy]acetyl]-3,4-dihydro-1H-isoquinoline-3-carboxylic acid
PI=GNPS
DATACOLLECTOR=GNPS
SMILES=COc1cccc(c1)/C=C\1/C(=O)c2ccc(cc2O1)OCC(=O)N1Cc2ccccc2C[C@H]1C(=O)O
INCHI=InChI=1S/C28H23NO7/c1-34-20-8-4-5-17(11-20)12-25-27(31)22-10-9-21(14-24(22)36-25)35-16-26(30)29-15-19-7-3-2-6-18(19)13-23(29)28(32)33/h2-12,14,23H,13,15-16H2,1H3,(H,32,33)/b25-12-/t23-/m0/s1
FORMULA=C28H23NO7
PUBMED=N/A
SUBMITUSER=BIOADREM
LIBRARYQUALITY=0
SPECTRUMID=CCMSLIB00000079803
SCANS=2006
ID=CCMSLIB00000079803
103.0542261926 	 1.87
105.0698762568 	 1.57
107.0491408147 	 4.47
115.0542261926 	 2.83
117.0573001978 	 3.87
118.0413157826 	 2.01
130.0651252299 	 50.27
132.0807752941 	 49.82
133.0647908789 	 2.71
137.0233199947 	 5.94
144.0807752941 	 13.99
160.0756899162 	 5.27
162.0913399804 	 10.36
163.0389700589 	 3.96
172.0756899162 	 2.36
176.0706045383 	 7.77
190.0862546025 	 11.55
213.0910056294 	 13.9
218.0811692246 	 4.23
226.0624451552 	 2.83
251.0702701873 	 4.67
253.0859202515 	 1.62
254.0573597773 	 9.39
269.0808348736 	 100
281.0808348736 	 22.78
283.0600994315 	 4.06
309.0757494957 	 2.43
327.086314182 	 8.44
412.1543341677 	 4.7
440.1492487898 	 3.32
486.1547280982 	 0
END IONS

BEGIN IONS
PEPMASS=335.259
CHARGE=1
MSLEVEL=2
RT=0
SOURCE_INSTRUMENT=qTOF
FILENAME=CCMSLIB00000079804.ms
IONMODE=Positive
ORGANISM=Natural
NAME=MLS002694509-01!
PI=GNPS
DATACOLLECTOR=GNPS
SMILES=CC(C1CCC2C3CCC4CC(CCC4(C)C3C(=O)CC12C)O)O
INCHI=InChI=1S/C21H34O3/c1-12(22)16-6-7-17-15-5-4-13-10-14(23)8-9-20(13,2)19(15)18(24)11-21(16,17)3/h12-17,19,22-23H,4-11H2,1-3H3
FORMULA=C21H34O3
PUBMED=N/A
SUBMITUSER=BIOADREM
LIBRARYQUALITY=0
SPECTRUMID=CCMSLIB00000079804
SCANS=2007
ID=CCMSLIB00000079804
95.085526321 	 19.83
105.0698762568 	 44.91
107.085526321 	 100
109.1011763852 	 39.41
117.0698762568 	 17.21
119.085526321 	 67.05
121.1011763852 	 30.07
123.1168264494 	 11.64
129.0698762568 	 22.52
131.085526321 	 32.63
133.1011763852 	 41.84
135.0804409431 	 9.34
135.1168264494 	 42.8
137.0960910073 	 13.82
143.085526321 	 22.2
144.0933513531 	 16.38
145.1011763852 	 48.88
147.0804409431 	 32.5
147.1168264494 	 67.11
149.1324765136 	 99.74
155.085526321 	 9.15
156.0933513531 	 10.94
157.1011763852 	 25.27
158.1090014173 	 9.21
159.1168264494 	 66.92
161.0960910073 	 14.91
161.1324765136 	 37.43
169.1011763852 	 12.8
171.1168264494 	 32.89
173.1324765136 	 34.29
175.1481265778 	 29.75
177.1273911357 	 17.02
183.1168264494 	 14.97
185.1324765136 	 18.87
189.1273911357 	 12.67
191.1430411999 	 9.66
199.1481265778 	 25.4
203.1430411999 	 10.81
213.163776642 	 10.88
215.1794267062 	 13.5
217.1586912641 	 57.71
225.163776642 	 12.28
241.1950767704 	 14.27
243.1743413283 	 11.9
255.2107268346 	 27.51
257.2263768988 	 17.15
281.2263768988 	 23.29
299.2369415851 	 18.36
317.2475062714 	 11.64
335.2580709577 	 0
END IONS

BEGIN IONS
PEPMASS=565.156
CHARGE=1
MSLEVEL=2
RT=0
SOURCE_INSTRUMENT=qTOF
FILENAME=CCMSLIB00000079805.ms
IONMODE=Positive
ORGANISM=Natural
NAME=MLS000876755-01!5,7-dihydroxy-2-(4-hydroxyphenyl)-6-[3,4,5-trihydroxy-6-(hydroxymethyl)oxan-2-yl]-8-(3,4,5-trihydroxyoxan-2-yl)chromen-4-one
PI=GNPS
DATACOLLECTOR=GNPS
SMILES=c1cc(ccc1c1cc(=O)c2c(c(c(c(c2o1)C1C(C(C(CO1)O)O)O)O)C1C(C(C(C(CO)O1)O)O)O)O)O
INCHI=InChI=1S/C26H28O14/c27-6-13-18(32)21(35)23(37)26(40-13)15-19(33)14-10(29)5-12(8-1-3-9(28)4-2-8)39-24(14)16(20(15)34)25-22(36)17(31)11(30)7-38-25/h1-5,11,13,17-18,21-23,25-28,30-37H,6-7H2
FORMULA=C26H28O14
PUBMED=N/A
SUBMITUSER=BIOADREM
LIBRARYQUALITY=0
SPECTRUMID=CCMSLIB00000079805
SCANS=2008
ID=CCMSLIB00000079805
294.0522743994 	 15.56
295.0600994315 	 91.34
307.0600994315 	 35.19
308.0679244636 	 16.89
313.0706641178 	 12.56
321.0757494957 	 38.2
325.0706641178 	 100
333.0757494957 	 13
335.0913995599 	 15.92
336.0628390857 	 10.88
337.0706641178 	 69.32
349.0706641178 	 47.92
351.086314182 	 30.42
352.0941392141 	 11.32
355.0812288041 	 16.8
361.0706641178 	 31.21
365.1019642462 	 11.32
367.0812288041 	 13.09
375.086314182 	 27.59
379.0812288041 	 91.07
389.1019642462 	 11.76
391.0812288041 	 25.2
393.0968788683 	 10.34
397.0917934904 	 27.67
403.0812288041 	 40.32
409.0917934904 	 25.55
415.0812288041 	 10.52
417.0968788683 	 12.82
421.0917934904 	 18.83
427.1023581767 	 33.78
433.0917934904 	 12.47
445.0917934904 	 19.89
451.1023581767 	 28.74
457.0917934904 	 15.21
469.112922863 	 15.83
475.1023581767 	 18.13
493.112922863 	 10.43
565.1551816082 	 0
END IONS

BEGIN IONS
PEPMASS=203.118
CHARGE=1
MSLEVEL=2
RT=0
SOURCE_INSTRUMENT=qTOF
FILENAME=CCMSLIB00000079806.ms
IONMODE=Positive
ORGANISM=Natural
NAME=MLS002153360-01!
PI=GNPS
DATACOLLECTOR=GNPS
SMILES=COc1ccc2c(c1)c1CCNCc1[nH]2
INCHI=InChI=1S/C12H14N2O/c1-15-8-2-3-11-10(6-8)9-4-5-13-7-12(9)14-11/h2-3,6,13-14H,4-5,7H2,1H3
FORMULA=C12H14N2O
PUBMED=N/A
SUBMITUSER=BIOADREM
LIBRARYQUALITY=0
SPECTRUMID=CCMSLIB00000079806
SCANS=2009
ID=CCMSLIB00000079806
103.0542261926 	 1.73
104.0620512247 	 1.07
115.0542261926 	 4.07
117.0573001978 	 1.99
119.0491408147 	 0.63
128.0494751657 	 2
130.0651252299 	 53.99
131.072950262 	 100
142.0651252299 	 4
143.072950262 	 32.44
145.0522148199 	 0.69
146.060039852 	 0.68
158.060039852 	 8.1
159.0678648841 	 74.54
171.0678648841 	 1.08
174.0913399804 	 70.72
203.1178890819 	 0
END IONS

BEGIN IONS
PEPMASS=582.2492
CHARGE=1
MSLEVEL=2
RT=0
SOURCE_INSTRUMENT=qTOF
FILENAME=CCMSLIB00000079807.ms
IONMODE=Positive
ORGANISM=Natural
NAME=MLS001140705-01!
PI=GNPS
DATACOLLECTOR=GNPS
SMILES=c1ccc2c(c1)c1C[C@H]3C(=O)N(c4ccccc4C(=NCCCN4CCOCC4)O)C(=O)N3C(c3ccc(cc3)F)c1[nH]2
INCHI=InChI=1S/C33H32FN5O4/c34-22-12-10-21(11-13-22)30-29-25(23-6-1-3-8-26(23)36-29)20-28-32(41)39(33(42)38(28)30)27-9-4-2-7-24(27)31(40)35-14-5-15-37-16-18-43-19-17-37/h1-4,6-13,28,30,36H,5,14-20H2,(H,35,40)/t28-,30?/m0/s1
FORMULA=C33H32FN5O4
PUBMED=N/A
SUBMITUSER=BIOADREM
LIBRARYQUALITY=0
SPECTRUMID=CCMSLIB00000079807
SCANS=2010
ID=CCMSLIB00000079807
120.0443897878 	 2.43
130.0651252299 	 3.35
146.0236543457 	 26.48
163.0502034472 	 1.9
169.0760242672 	 2.68
175.0502034472 	 7.15
187.0865889535 	 2.91
198.071353462 	 5.26
203.0815035756 	 49.17
217.0886003262 	 4.17
226.0662680841 	 3.4
236.0870035262 	 61.4
237.0948285583 	 51.52
248.0870035262 	 32.37
249.0896629587 	 6.64
254.0611827062 	 64.85
258.087317235 	 54.75
263.0979025635 	 1.85
276.0819181483 	 26.46
277.0845775808 	 5.08
291.0928171856 	 15.93
308.0829807808 	 2.47
341.1044445044 	 6.69
367.124117314 	 6.12
377.1084672498 	 2.81
395.1190319361 	 59.87
410.1299309734 	 9.42
438.1248455955 	 79.22
495.1826948254 	 100
582.2511087416 	 34.05
END IONS

BEGIN IONS
PEPMASS=413.2068
CHARGE=1
MSLEVEL=2
RT=0
SOURCE_INSTRUMENT=qTOF
FILENAME=CCMSLIB00000079808.ms
IONMODE=Positive
ORGANISM=Natural
NAME=MLS001157758-01!N-(2-morpholin-4-ylethyl)-3-(2,3,5-trimethyl-7-oxofuro[3,2-g]chromen-6-yl)propanamide
PI=GNPS
DATACOLLECTOR=GNPS
SMILES=Cc1c(C)oc2cc3c(cc12)c(C)c(CCC(=NCCN1CCOCC1)O)c(=O)o3
INCHI=InChI=1S/C23H28N2O5/c1-14-16(3)29-20-13-21-19(12-18(14)20)15(2)17(23(27)30-21)4-5-22(26)24-6-7-25-8-10-28-11-9-25/h12-13H,4-11H2,1-3H3,(H,24,26)
FORMULA=C23H28N2O5
PUBMED=N/A
SUBMITUSER=BIOADREM
LIBRARYQUALITY=0
SPECTRUMID=CCMSLIB00000079808
SCANS=2011
ID=CCMSLIB00000079808
98.060039852 	 0.65
114.0913399804 	 4.82
128.0620512247 	 0.32
129.0698762568 	 1.09
141.0698762568 	 0.75
142.0777012889 	 0.51
153.0698762568 	 0.21
154.0777012889 	 0.78
157.0647908789 	 0.47
157.1011763852 	 1.17
167.085526321 	 0.26
169.0647908789 	 0.2
169.1011763852 	 0.25
170.072615911 	 0.45
182.072615911 	 0.62
185.0960910073 	 2.58
186.099893294 	 0.53
195.0804409431 	 0.3
197.0960910073 	 0.66
198.0675305331 	 0.9
199.1117410715 	 0.21
212.0831805973 	 0.33
213.0910056294 	 19.06
214.0948079161 	 3.15
227.1066556936 	 0.77
241.0859202515 	 100
242.0897225382 	 29.62
255.1015703157 	 15.57
282.112469353 	 7.66
283.0964849378 	 13.73
326.1386841035 	 55.42
413.2070980197 	 4.04
END IONS

BEGIN IONS
PEPMASS=530.2324
CHARGE=1
MSLEVEL=2
RT=0
SOURCE_INSTRUMENT=qTOF
FILENAME=CCMSLIB00000079809.ms
IONMODE=Positive
ORGANISM=Natural
NAME=MLS001142949-01!(2S)-2-[[1-[(2S)-3-methyl-2-[(4-methylphenyl)sulfonylamino]pentanoyl]piperidine-4-carbonyl]amino]-2-phenylacetic acid
PI=GNPS
DATACOLLECTOR=GNPS
SMILES=CCC(C)[C@@H](C(=O)N1CCC(CC1)C(=N[C@@H](c1ccccc1)C(=O)O)O)NS(=O)(=O)c1ccc(C)cc1
INCHI=InChI=1S/C27H35N3O6S/c1-4-19(3)23(29-37(35,36)22-12-10-18(2)11-13-22)26(32)30-16-14-21(15-17-30)25(31)28-24(27(33)34)20-8-6-5-7-9-20/h5-13,19,21,23-24,29H,4,14-17H2,1-3H3,(H,28,31)(H,33,34)/t19?,23-,24-/m0/s1
FORMULA=C27H35N3O6S
PUBMED=N/A
SUBMITUSER=BIOADREM
LIBRARYQUALITY=0
SPECTRUMID=CCMSLIB00000079809
SCANS=2012
ID=CCMSLIB00000079809
106.0651252299 	 3.85
112.0756899162 	 100
113.0021906221 	 0.85
139.0178406863 	 2.69
155.0161261268 	 96.74
156.0205803405 	 12.6
172.0426752283 	 2.75
173.047129442 	 0.91
184.0426752283 	 19.3
217.1335391461 	 1.39
240.1052754851 	 29.41
245.1284537682 	 1.21
261.1233683903 	 1.52
263.1390184545 	 30.22
351.1736894013 	 1.84
485.2342782854 	 0.95
530.2319325617 	 0.67
END IONS

BEGIN IONS
PEPMASS=405.1714
CHARGE=1
MSLEVEL=2
RT=0
SOURCE_INSTRUMENT=qTOF
FILENAME=CCMSLIB00000079810.ms
IONMODE=Positive
ORGANISM=Natural
NAME=MLS001049118-01!5-hydroxy-3-(4-hydroxyphenyl)-8,8-dimethyl-6-(3-methylbut-2-enyl)pyrano[2,3-h]chromen-4-one
PI=GNPS
DATACOLLECTOR=GNPS
SMILES=CC(=CCc1c(c2c(=O)c(coc2c2C=CC(C)(C)Oc12)c1ccc(cc1)O)O)C
INCHI=InChI=1S/C25H24O5/c1-14(2)5-10-17-21(27)20-22(28)19(15-6-8-16(26)9-7-15)13-29-24(20)18-11-12-25(3,4)30-23(17)18/h5-9,11-13,26-27H,10H2,1-4H3
FORMULA=C25H24O5
PUBMED=N/A
SUBMITUSER=BIOADREM
LIBRARYQUALITY=0
SPECTRUMID=CCMSLIB00000079810
SCANS=2013
ID=CCMSLIB00000079810
103.0542261926 	 1.02
107.0491408147 	 0.66
117.0698762568 	 1.78
129.0698762568 	 1.82
131.0491408147 	 2.16
131.085526321 	 1.05
135.0440554368 	 3.13
157.0647908789 	 1.47
159.0440554368 	 11.62
171.0440554368 	 2.58
185.059705501 	 7.37
187.0753555652 	 4.62
213.0546201231 	 37.55
247.1117410715 	 0.89
260.0831805973 	 1.06
275.1066556936 	 1.86
277.0859202515 	 1.03
291.0651848094 	 1.21
295.0600994315 	 16.33
303.1015703157 	 5.38
305.0808348736 	 2.61
306.0886599057 	 2.41
307.0600994315 	 3.67
321.0757494957 	 2.71
321.112135002 	 0.93
331.0964849378 	 46.73
333.0757494957 	 8.84
334.0835745278 	 9.37
349.1070496241 	 100
405.1696498809 	 0.13
END IONS

BEGIN IONS
PEPMASS=444.2007
CHARGE=1
MSLEVEL=2
RT=0
SOURCE_INSTRUMENT=qTOF
FILENAME=CCMSLIB00000079811.ms
IONMODE=Positive
ORGANISM=Natural
NAME=MLS001160330-01!1-[2-[(3,4,8,8-tetramethyl-2-oxo-9,10-dihydropyrano[2,3-h]chromen-5-yl)oxy]acetyl]piperidine-4-carboxylic acid
PI=GNPS
DATACOLLECTOR=GNPS
SMILES=Cc1c(C)c(=O)oc2c3CCC(C)(C)Oc3cc(c12)OCC(=O)N1CCC(CC1)C(=O)O
INCHI=InChI=1S/C24H29NO7/c1-13-14(2)23(29)31-21-16-5-8-24(3,4)32-17(16)11-18(20(13)21)30-12-19(26)25-9-6-15(7-10-25)22(27)28/h11,15H,5-10,12H2,1-4H3,(H,27,28)
FORMULA=C24H29NO7
PUBMED=N/A
SUBMITUSER=BIOADREM
LIBRARYQUALITY=0
SPECTRUMID=CCMSLIB00000079811
SCANS=2014
ID=CCMSLIB00000079811
96.0807752941 	 1.45
99.0440554368 	 3.77
110.060039852 	 1.47
111.0440554368 	 1.26
112.0756899162 	 3.64
124.0756899162 	 2.25
126.0913399804 	 0.96
128.0706045383 	 94.32
142.0862546025 	 100
147.0804409431 	 0.99
152.0706045383 	 0.94
163.0753555652 	 1.33
170.0811692246 	 84.68
175.0753555652 	 2.19
190.0624451552 	 5.75
191.0702701873 	 3.91
203.0702701873 	 5.21
218.0573597773 	 1.7
219.0651848094 	 23.15
231.0651848094 	 30.36
233.0808348736 	 1.93
259.0600994315 	 18.12
274.1199600341 	 9.62
287.1277850662 	 4.74
315.1226996883 	 5.28
342.1335987256 	 0.89
360.1441634119 	 0.76
370.1285133477 	 1.36
388.139078034 	 17.37
444.2016782908 	 14.18
END IONS

BEGIN IONS
PEPMASS=300.1497
CHARGE=1
MSLEVEL=2
RT=0
SOURCE_INSTRUMENT=qTOF
FILENAME=CCMSLIB00000079812.ms
IONMODE=Positive
ORGANISM=Natural
NAME=MLS001049051-01!1-quinolin-8-yl-2,3,4,9-tetrahydro-1H-pyrido[3,4-b]indole
PI=GNPS
DATACOLLECTOR=GNPS
SMILES=c1ccc2c(c1)c1CCNC(c3cccc4cccnc34)c1[nH]2
INCHI=InChI=1S/C20H17N3/c1-2-9-17-14(7-1)15-10-12-22-19(20(15)23-17)16-8-3-5-13-6-4-11-21-18(13)16/h1-9,11,19,22-23H,10,12H2
FORMULA=C20H17N3
PUBMED=N/A
SUBMITUSER=BIOADREM
LIBRARYQUALITY=0
SPECTRUMID=CCMSLIB00000079812
SCANS=2015
ID=CCMSLIB00000079812
103.0542261926 	 1.09
115.0542261926 	 3.98
117.0698762568 	 4.65
127.0542261926 	 1.27
130.0651252299 	 5.38
141.0573001978 	 0.38
142.0651252299 	 6.43
144.0807752941 	 48.11
154.0651252299 	 3.42
155.060374203 	 2.26
157.0760242672 	 23.9
166.0651252299 	 1.15
167.072950262 	 0.51
171.0916743314 	 0.26
244.1120754225 	 1.45
254.0964253583 	 4.53
255.0916743314 	 12.8
256.0994993635 	 100
268.0994993635 	 1.95
269.1073243956 	 18.89
271.1229744598 	 40.01
283.1229744598 	 1.17
300.1495235613 	 0.26
END IONS

BEGIN IONS
PEPMASS=231.102
CHARGE=1
MSLEVEL=2
RT=0
SOURCE_INSTRUMENT=qTOF
FILENAME=CCMSLIB00000079813.ms
IONMODE=Positive
ORGANISM=Natural
NAME=MLS001049095-01!7-(3-methylbut-2-enoxy)chromen-2-one
PI=GNPS
DATACOLLECTOR=GNPS
SMILES=CC(=CCOc1ccc2ccc(=O)oc2c1)C
INCHI=InChI=1S/C14H14O3/c1-10(2)7-8-16-12-5-3-11-4-6-14(15)17-13(11)9-12/h3-7,9H,8H2,1-2H3
FORMULA=C14H14O3
PUBMED=N/A
SUBMITUSER=BIOADREM
LIBRARYQUALITY=0
SPECTRUMID=CCMSLIB00000079813
SCANS=2016
ID=CCMSLIB00000079813
107.0491408147 	 53.7
119.0491408147 	 10.47
135.0440554368 	 2.37
163.0389700589 	 100
231.1015703157 	 0
END IONS

BEGIN IONS
PEPMASS=433.113
CHARGE=1
MSLEVEL=2
RT=0
SOURCE_INSTRUMENT=qTOF
FILENAME=CCMSLIB00000079814.ms
IONMODE=Positive
ORGANISM=Natural
NAME=MLS000697566-01!
PI=GNPS
DATACOLLECTOR=GNPS
SMILES=c1cc2c(c(c1)O[C@H]1[C@H]([C@@H]([C@@H](C(CO)O1)O)O)O)C(=O)c1c(cc(cc1O)CO)C2=O
INCHI=InChI=1S/C21H20O10/c22-6-8-4-10-14(11(24)5-8)18(27)15-9(16(10)25)2-1-3-12(15)30-21-20(29)19(28)17(26)13(7-23)31-21/h1-5,13,17,19-24,26,28-29H,6-7H2/t13?,17-,19-,20+,21-/m1/s1
FORMULA=C21H20O10
PUBMED=N/A
SUBMITUSER=BIOADREM
LIBRARYQUALITY=0
SPECTRUMID=CCMSLIB00000079814
SCANS=2017
ID=CCMSLIB00000079814
246.0370182657 	 2.7
261.0816227346 	 100
262.0835745278 	 18.43
263.0913995599 	 3.84
263.1277850662 	 2.7
280.0941392141 	 19.15
290.0784891499 	 3.6
300.0839684583 	 2.64
308.0890538362 	 6.6
433.112922863 	 0
END IONS

BEGIN IONS
PEPMASS=230.1175
CHARGE=1
MSLEVEL=2
RT=0
SOURCE_INSTRUMENT=qTOF
FILENAME=CCMSLIB00000079815.ms
IONMODE=Positive
ORGANISM=Natural
NAME=MLS001048955-01!2,2-dimethyl-4,10-dihydro-3H-pyrano[2,3-b]quinolin-5-one
PI=GNPS
DATACOLLECTOR=GNPS
SMILES=CC1(C)CCc2c(c3ccccc3nc2O1)O
INCHI=InChI=1S/C14H15NO2/c1-14(2)8-7-10-12(16)9-5-3-4-6-11(9)15-13(10)17-14/h3-6H,7-8H2,1-2H3,(H,15,16)
FORMULA=C14H15NO2
PUBMED=N/A
SUBMITUSER=BIOADREM
LIBRARYQUALITY=0
SPECTRUMID=CCMSLIB00000079815
SCANS=2018
ID=CCMSLIB00000079815
101.0385761284 	 0.68
102.0338251015 	 0.34
103.0542261926 	 0.47
104.0494751657 	 0.22
106.0651252299 	 0.83
115.0542261926 	 0.38
116.0494751657 	 0.5
118.0651252299 	 1.77
120.0443897878 	 23.93
128.0494751657 	 14.68
130.0287397236 	 3.17
132.0443897878 	 1.92
142.0651252299 	 0.33
144.0443897878 	 0.57
146.060039852 	 10.12
156.0443897878 	 14.08
162.0549544741 	 1.02
170.060039852 	 0.61
174.0549544741 	 100
188.0706045383 	 1.45
230.1175547309 	 1.15
END IONS

BEGIN IONS
PEPMASS=309.088
CHARGE=1
MSLEVEL=2
RT=0
SOURCE_INSTRUMENT=qTOF
FILENAME=CCMSLIB00000079816.ms
IONMODE=Positive
ORGANISM=Natural
NAME=MLS000574971-01!
PI=GNPS
DATACOLLECTOR=GNPS
SMILES=CC(=O)Oc1c(c2c3c(ccn2)c2ccccc2n3c1=O)OC
INCHI=InChI=1S/C17H12N2O4/c1-9(20)23-16-15(22-2)13-14-11(7-8-18-13)10-5-3-4-6-12(10)19(14)17(16)21/h3-8H,1-2H3
FORMULA=C17H12N2O4
PUBMED=N/A
SUBMITUSER=BIOADREM
LIBRARYQUALITY=0
SPECTRUMID=CCMSLIB00000079816
SCANS=2019
ID=CCMSLIB00000079816
140.0494751657 	 1.01
141.0573001978 	 0.91
155.060374203 	 2.3
167.060374203 	 0.48
168.0681992351 	 41.98
183.0552888251 	 69.67
193.0760242672 	 0.49
211.0865889535 	 0.4
221.0709388893 	 0.34
224.0580284793 	 1.14
239.0815035756 	 0.83
252.0529431014 	 100
267.0764181977 	 62.64
309.086982884 	 0
END IONS

BEGIN IONS
PEPMASS=508.248
CHARGE=1
MSLEVEL=2
RT=0
SOURCE_INSTRUMENT=qTOF
FILENAME=CCMSLIB00000079817.ms
IONMODE=Positive
ORGANISM=Natural
NAME=MLS001142758-01!methyl 1-[1-[(2S)-3-methyl-2-[(4-methylphenyl)sulfonylamino]butanoyl]piperidine-4-carbonyl]piperidine-4-carboxylate
PI=GNPS
DATACOLLECTOR=GNPS
SMILES=CC(C)[C@@H](C(=O)N1CCC(CC1)C(=O)N1CCC(CC1)C(=O)OC)NS(=O)(=O)c1ccc(C)cc1
INCHI=InChI=1S/C25H37N3O6S/c1-17(2)22(26-35(32,33)21-7-5-18(3)6-8-21)24(30)28-13-9-19(10-14-28)23(29)27-15-11-20(12-16-27)25(31)34-4/h5-8,17,19-20,22,26H,9-16H2,1-4H3/t22-/m0/s1
FORMULA=C25H37N3O6S
PUBMED=N/A
SUBMITUSER=BIOADREM
LIBRARYQUALITY=0
SPECTRUMID=CCMSLIB00000079817
SCANS=2020
ID=CCMSLIB00000079817
110.060039852 	 0.84
112.0756899162 	 66.46
119.060374203 	 0.97
132.0807752941 	 0.62
142.0862546025 	 2.4
144.1019046667 	 98.72
145.1045472036 	 9.11
155.0161261268 	 100
160.1120754225 	 0.93
226.0896254209 	 43.72
237.1597538966 	 0.7
238.1437694814 	 7.32
239.1464120183 	 1.18
255.1703185829 	 70.83
282.1522256777 	 1
337.1580393371 	 0.91
462.2421033175 	 0.6
508.2475826259 	 0
END IONS

BEGIN IONS
PEPMASS=239.0705
CHARGE=1
MSLEVEL=2
RT=0
SOURCE_INSTRUMENT=qTOF
FILENAME=CCMSLIB00000079818.ms
IONMODE=Positive
ORGANISM=Natural
NAME=MLS002639146-01!5-hydroxy-2-phenylchromen-4-one
PI=GNPS
DATACOLLECTOR=GNPS
SMILES=c1ccc(cc1)c1cc(=O)c2c(cccc2o1)O
INCHI=InChI=1S/C15H10O3/c16-11-7-4-8-13-15(11)12(17)9-14(18-13)10-5-2-1-3-6-10/h1-9,16H
FORMULA=C15H10O3
PUBMED=N/A
SUBMITUSER=BIOADREM
LIBRARYQUALITY=0
SPECTRUMID=CCMSLIB00000079818
SCANS=2021
ID=CCMSLIB00000079818
103.0542261926 	 26.79
105.0334907505 	 2.18
107.0127553084 	 1.85
109.0284053726 	 3.38
115.0542261926 	 4.73
119.0127553084 	 1.16
129.0334907505 	 20.33
137.0233199947 	 100
139.0542261926 	 43.29
141.0698762568 	 2.46
150.0464011605 	 1.11
153.0334907505 	 1.58
155.085526321 	 1.75
164.0620512247 	 6.75
165.0698762568 	 73.31
168.0569658468 	 5.81
183.0804409431 	 1.23
193.0647908789 	 9.58
195.0440554368 	 3.81
221.059705501 	 10.26
239.0702701873 	 345.5
END IONS

BEGIN IONS
PEPMASS=500.1456
CHARGE=1
MSLEVEL=2
RT=0
SOURCE_INSTRUMENT=qTOF
FILENAME=CCMSLIB00000079819.ms
IONMODE=Positive
ORGANISM=Natural
NAME=MLS001140239-01!3-(4-chlorophenyl)-2-[[2-[(4,8,8-trimethyl-2-oxo-9,10-dihydropyrano[2,3-h]chromen-5-yl)oxy]acetyl]amino]propanoic acid
PI=GNPS
DATACOLLECTOR=GNPS
SMILES=Cc1cc(=O)oc2c3CCC(C)(C)Oc3cc(c12)OCC(=NC(Cc1ccc(cc1)Cl)C(=O)O)O
INCHI=InChI=1S/C26H26ClNO7/c1-14-10-22(30)34-24-17-8-9-26(2,3)35-19(17)12-20(23(14)24)33-13-21(29)28-18(25(31)32)11-15-4-6-16(27)7-5-15/h4-7,10,12,18H,8-9,11,13H2,1-3H3,(H,28,29)(H,31,32)
FORMULA=C26H26ClNO7
PUBMED=N/A
SUBMITUSER=BIOADREM
LIBRARYQUALITY=0
SPECTRUMID=CCMSLIB00000079819
SCANS=2022
ID=CCMSLIB00000079819
118.0651252299 	 1.41
119.072950262 	 1.46
121.0647908789 	 1.14
125.0152538705 	 14.67
130.0651252299 	 9.24
131.072950262 	 34.44
137.0152538705 	 1.91
139.0309039347 	 2.66
149.0152538705 	 1.69
149.059705501 	 3.03
151.0309039347 	 2.03
154.041802972 	 12.02
159.0440554368 	 1.67
161.059705501 	 1.97
163.0389700589 	 2.41
164.0261529078 	 10.28
165.0101684926 	 3.13
166.041802972 	 100
169.041468621 	 2.78
176.0261529078 	 1.98
177.0546201231 	 5.09
183.0207331789 	 1.34
187.0389700589 	 2.2
189.0546201231 	 7.27
194.0367175941 	 8.29
205.0495347452 	 87.94
217.0495347452 	 23.22
233.0444493673 	 1.24
240.0421969025 	 5.39
245.0444493673 	 22.31
301.1070496241 	 4.55
398.0789763393 	 8.25
444.0844556477 	 33.79
500.1470559045 	 4.6
END IONS

BEGIN IONS
PEPMASS=338.1847
CHARGE=1
MSLEVEL=2
RT=0
SOURCE_INSTRUMENT=qTOF
FILENAME=CCMSLIB00000079820.ms
IONMODE=Positive
ORGANISM=Natural
NAME=MLS001142950-01!
PI=GNPS
DATACOLLECTOR=GNPS
SMILES=c1ccc(cc1)C[C@@H](C(=O)N1C[C@H]2C[C@@H](C1)c1cccc(=O)n1C2)N
INCHI=InChI=1S/C20H23N3O2/c21-17(10-14-5-2-1-3-6-14)20(25)22-11-15-9-16(13-22)18-7-4-8-19(24)23(18)12-15/h1-8,15-17H,9-13,21H2/t15-,16+,17+/m1/s1
FORMULA=C20H23N3O2
PUBMED=N/A
SUBMITUSER=BIOADREM
LIBRARYQUALITY=0
SPECTRUMID=CCMSLIB00000079820
SCANS=2023
ID=CCMSLIB00000079820
103.0542261926 	 13.24
105.0573001978 	 0.96
120.0807752941 	 76.14
131.0491408147 	 1.6
131.072950262 	 1.84
133.0522148199 	 1.78
134.0964253583 	 1.33
148.0756899162 	 43.07
162.0913399804 	 2.46
191.1178890819 	 100
219.112803704 	 8.41
338.1863029981 	 4.26
END IONS

BEGIN IONS
PEPMASS=356.113
CHARGE=1
MSLEVEL=2
RT=0
SOURCE_INSTRUMENT=qTOF
FILENAME=CCMSLIB00000079823.ms
IONMODE=Positive
ORGANISM=Natural
NAME=MLS001146630-01![4-[(E)-3-[(2-hydroxybenzoyl)amino]-3-oxoprop-1-enyl]-2-methoxyphenyl] acetate
PI=GNPS
DATACOLLECTOR=GNPS
SMILES=CC(=O)Oc1ccc(/C=C/C(=NC(=O)c2ccccc2O)O)cc1OC
INCHI=InChI=1S/C19H17NO6/c1-12(21)26-16-9-7-13(11-17(16)25-2)8-10-18(23)20-19(24)14-5-3-4-6-15(14)22/h3-11,22H,1-2H3,(H,20,23,24)/b10-8+
FORMULA=C19H17NO6
PUBMED=N/A
SUBMITUSER=BIOADREM
LIBRARYQUALITY=0
SPECTRUMID=CCMSLIB00000079823
SCANS=2024
ID=CCMSLIB00000079823
117.0334907505 	 16.46
121.0284053726 	 17.04
145.0284053726 	 55.05
149.059705501 	 13
177.0546201231 	 100
194.0811692246 	 3.18
356.1128632835 	 0
END IONS

BEGIN IONS
PEPMASS=477.2034
CHARGE=1
MSLEVEL=2
RT=0
SOURCE_INSTRUMENT=qTOF
FILENAME=CCMSLIB00000079824.ms
IONMODE=Positive
ORGANISM=Natural
NAME=MLS001139229-01!(2S)-3-(1H-indol-3-yl)-2-[2-(7-methyl-2-oxo-4-propylchromen-5-yl)oxypropanoylamino]propanoic acid
PI=GNPS
DATACOLLECTOR=GNPS
SMILES=CCCc1cc(=O)oc2cc(C)cc(c12)OC(C)C(=N[C@@H](Cc1c[nH]c2ccccc12)C(=O)O)O
INCHI=InChI=1S/C27H28N2O6/c1-4-7-17-13-24(30)35-23-11-15(2)10-22(25(17)23)34-16(3)26(31)29-21(27(32)33)12-18-14-28-20-9-6-5-8-19(18)20/h5-6,8-11,13-14,16,21,28H,4,7,12H2,1-3H3,(H,29,31)(H,32,33)/t16?,21-/m0/s1
FORMULA=C27H28N2O6
PUBMED=N/A
SUBMITUSER=BIOADREM
LIBRARYQUALITY=0
SPECTRUMID=CCMSLIB00000079824
SCANS=2025
ID=CCMSLIB00000079824
105.0698762568 	 4.6
109.0284053726 	 3.3
115.0542261926 	 5.8
117.0573001978 	 4.98
118.0651252299 	 11.53
121.0647908789 	 4.4
128.0620512247 	 3.36
129.0698762568 	 4.43
130.0651252299 	 100
132.0807752941 	 10.74
135.0440554368 	 4.14
141.0698762568 	 3.25
142.0651252299 	 9.48
144.0807752941 	 13.5
146.060039852 	 25.31
147.0804409431 	 3.96
154.0624451552 	 7.28
155.072950262 	 7.28
156.0780952194 	 6.62
157.0859202515 	 10.27
159.0889942567 	 30.29
161.059705501 	 8.28
161.0960910073 	 6.42
167.0702701873 	 3.83
168.0780952194 	 22.31
170.060039852 	 26.28
170.0964253583 	 26.39
171.0651848094 	 4.43
175.0753555652 	 15.3
177.0546201231 	 10.3
184.0730098415 	 3.56
185.1046443209 	 13.2
186.112469353 	 4.3
188.0706045383 	 42.82
189.1273911357 	 3.57
199.0839088788 	 4.21
201.0546201231 	 3.23
203.0702701873 	 13.31
213.099558943 	 8.02
214.1073839751 	 8.28
217.0859202515 	 99.96
219.1015703157 	 62.74
245.1172203799 	 28.8
290.1386841035 	 3.92
477.2020126418 	 0.89
END IONS

BEGIN IONS
PEPMASS=188.071
CHARGE=1
MSLEVEL=2
RT=0
SOURCE_INSTRUMENT=qTOF
FILENAME=CCMSLIB00000079825.ms
IONMODE=Positive
ORGANISM=Natural
NAME=MLS001048891-01!methyl quinoline-2-carboxylate
PI=GNPS
DATACOLLECTOR=GNPS
SMILES=COC(=O)c1ccc2ccccc2n1
INCHI=InChI=1S/C11H9NO2/c1-14-11(13)10-7-6-8-4-2-3-5-9(8)12-10/h2-7H,1H3
FORMULA=C11H9NO2
PUBMED=N/A
SUBMITUSER=BIOADREM
LIBRARYQUALITY=0
SPECTRUMID=CCMSLIB00000079825
SCANS=2026
ID=CCMSLIB00000079825
101.0385761284 	 7.32
119.0491408147 	 1.47
128.0494751657 	 100
146.060039852 	 22.43
188.0706045383 	 0
END IONS

BEGIN IONS
PEPMASS=372.156
CHARGE=1
MSLEVEL=2
RT=0
SOURCE_INSTRUMENT=qTOF
FILENAME=CCMSLIB00000079826.ms
IONMODE=Positive
ORGANISM=Natural
NAME=MLS001141307-01!(2S)-1-[3-[(10aS)-1,3-dioxo-10,10a-dihydro-5H-imidazo[1,5-b]isoquinolin-2-yl]propanoyl]pyrrolidine-2-carboxylic acid
PI=GNPS
DATACOLLECTOR=GNPS
SMILES=c1ccc2CN3[C@@H](Cc2c1)C(=O)N(CCC(=O)N1CCC[C@H]1C(=O)O)C3=O
INCHI=InChI=1S/C19H21N3O5/c23-16(20-8-3-6-14(20)18(25)26)7-9-21-17(24)15-10-12-4-1-2-5-13(12)11-22(15)19(21)27/h1-2,4-5,14-15H,3,6-11H2,(H,25,26)/t14-,15-/m0/s1
FORMULA=C19H21N3O5
PUBMED=N/A
SUBMITUSER=BIOADREM
LIBRARYQUALITY=0
SPECTRUMID=CCMSLIB00000079826
SCANS=2027
ID=CCMSLIB00000079826
114.0549544741 	 2.43
117.0698762568 	 2.03
130.0651252299 	 62.02
132.0807752941 	 54.28
140.0706045383 	 1.49
144.0807752941 	 12.67
158.060039852 	 24.53
159.0916743314 	 1.55
160.0756899162 	 3.3
175.0865889535 	 11.88
185.0709388893 	 1.85
187.0865889535 	 100
201.1022390177 	 5.12
203.0815035756 	 60.59
215.0815035756 	 17.4
229.0971536398 	 7.96
233.0920682619 	 2.09
257.0920682619 	 43.23
372.1553968002 	 0
END IONS

BEGIN IONS
PEPMASS=517.303
CHARGE=1
MSLEVEL=2
RT=0
SOURCE_INSTRUMENT=qTOF
FILENAME=CCMSLIB00000079827.ms
IONMODE=Positive
ORGANISM=Natural
NAME=MLS001142929-01!tert-butyl (2S)-2-[4-[[(2S)-1-[(2-methoxyphenyl)methylamino]-1-oxopropan-2-yl]carbamoyl]piperidine-1-carbonyl]pyrrolidine-1-carboxylate
PI=GNPS
DATACOLLECTOR=GNPS
SMILES=C[C@@H](C(=NCc1ccccc1OC)O)N=C(C1CCN(CC1)C(=O)[C@@H]1CCCN1C(=O)OC(C)(C)C)O
INCHI=InChI=1S/C27H40N4O6/c1-18(23(32)28-17-20-9-6-7-11-22(20)36-5)29-24(33)19-12-15-30(16-13-19)25(34)21-10-8-14-31(21)26(35)37-27(2,3)4/h6-7,9,11,18-19,21H,8,10,12-17H2,1-5H3,(H,28,32)(H,29,33)/t18-,21-/m0/s1
FORMULA=C27H40N4O6
PUBMED=N/A
SUBMITUSER=BIOADREM
LIBRARYQUALITY=0
SPECTRUMID=CCMSLIB00000079827
SCANS=2028
ID=CCMSLIB00000079827
101.0709388893 	 0.56
104.0580284793 	 0.79
112.0756899162 	 70.05
121.0647908789 	 100
122.0685931656 	 8.77
138.0913399804 	 12.57
140.0706045383 	 0.81
155.1178890819 	 15.9
164.1029672992 	 0.84
183.112803704 	 34.73
198.1237027413 	 1
208.1444381834 	 0.83
209.1284537682 	 38.75
252.1706529339 	 9.8
280.165567556 	 8.83
302.1863029981 	 0.58
320.1968676844 	 56.83
322.2012843603 	 2.96
399.2404095208 	 0.9
417.2509742071 	 44.36
418.2574565685 	 15.96
419.2540482123 	 2.08
517.3020610374 	 0
END IONS

BEGIN IONS
PEPMASS=373.1275
CHARGE=1
MSLEVEL=2
RT=0
SOURCE_INSTRUMENT=qTOF
FILENAME=CCMSLIB00000079828.ms
IONMODE=Positive
ORGANISM=Natural
NAME=MLS001048983-01!2-(3,4-dimethoxyphenyl)-3,5,7-trimethoxychromen-4-one
PI=GNPS
DATACOLLECTOR=GNPS
SMILES=COc1cc(c2c(c1)oc(c1ccc(c(c1)OC)OC)c(c2=O)OC)OC
INCHI=InChI=1S/C20H20O7/c1-22-12-9-15(25-4)17-16(10-12)27-19(20(26-5)18(17)21)11-6-7-13(23-2)14(8-11)24-3/h6-10H,1-5H3
FORMULA=C20H20O7
PUBMED=N/A
SUBMITUSER=BIOADREM
LIBRARYQUALITY=0
SPECTRUMID=CCMSLIB00000079828
SCANS=2029
ID=CCMSLIB00000079828
198.0675305331 	 3.76
213.0910056294 	 3.53
226.0624451552 	 4.17
227.0702701873 	 3.44
231.0651848094 	 3.83
239.0702701873 	 3.14
240.0780952194 	 3.26
241.0859202515 	 17.57
253.0859202515 	 16.81
254.0573597773 	 6.3
255.0651848094 	 4.32
267.0651848094 	 8.5
268.0730098415 	 5.99
269.0808348736 	 14.86
271.0600994315 	 2.99
272.0679244636 	 3.65
281.0808348736 	 9.67
282.0522743994 	 4.87
283.0600994315 	 8.66
285.0757494957 	 8.3
295.0600994315 	 3.71
296.0679244636 	 8.54
297.0757494957 	 17.16
299.0550140536 	 4.47
300.0628390857 	 8.05
309.0757494957 	 5.02
311.0550140536 	 7.42
311.0913995599 	 4.17
312.099224592 	 100
313.0706641178 	 17.43
314.0784891499 	 4.31
315.086314182 	 19.56
324.0628390857 	 5.9
325.0706641178 	 9.02
327.086314182 	 21.98
328.0577537078 	 6.88
329.1019642462 	 13.13
339.086314182 	 12.26
340.0941392141 	 23.8
341.0655787399 	 6.02
342.073403772 	 4.34
343.0812288041 	 36.59
357.0968788683 	 53.02
358.1047039004 	 28.41
373.1281789967 	 55.11
END IONS

BEGIN IONS
PEPMASS=206.0968
CHARGE=1
MSLEVEL=2
RT=0
SOURCE_INSTRUMENT=qTOF
FILENAME=CCMSLIB00000079829.ms
IONMODE=Positive
ORGANISM=Natural
NAME=MLS001050066-01!2-phenylquinoline
PI=GNPS
DATACOLLECTOR=GNPS
SMILES=c1ccc(cc1)c1ccc2ccccc2n1
INCHI=InChI=1S/C15H11N/c1-2-6-12(7-3-1)15-11-10-13-8-4-5-9-14(13)16-15/h1-11H
FORMULA=C15H11N
PUBMED=N/A
SUBMITUSER=BIOADREM
LIBRARYQUALITY=0
SPECTRUMID=CCMSLIB00000079829
SCANS=2030
ID=CCMSLIB00000079829
101.0385761284 	 8.63
102.0338251015 	 0.93
128.0494751657 	 100
180.0807752941 	 0.86
191.072950262 	 0.85
206.0964253583 	 110.56
END IONS

BEGIN IONS
PEPMASS=374.1598
CHARGE=1
MSLEVEL=2
RT=0
SOURCE_INSTRUMENT=qTOF
FILENAME=CCMSLIB00000079830.ms
IONMODE=Positive
ORGANISM=Natural
NAME=MLS001139423-01!(2R)-1-[2-(8-methyl-2-oxo-4-propylchromen-7-yl)oxyacetyl]pyrrolidine-2-carboxylic acid
PI=GNPS
DATACOLLECTOR=GNPS
SMILES=CCCc1cc(=O)oc2c(C)c(ccc12)OCC(=O)N1CCC[C@@H]1C(=O)O
INCHI=InChI=1S/C20H23NO6/c1-3-5-13-10-18(23)27-19-12(2)16(8-7-14(13)19)26-11-17(22)21-9-4-6-15(21)20(24)25/h7-8,10,15H,3-6,9,11H2,1-2H3,(H,24,25)/t15-/m1/s1
FORMULA=C20H23NO6
PUBMED=N/A
SUBMITUSER=BIOADREM
LIBRARYQUALITY=0
SPECTRUMID=CCMSLIB00000079830
SCANS=2031
ID=CCMSLIB00000079830
103.0542261926 	 3.13
105.0698762568 	 8.3
116.0620512247 	 2.91
117.0698762568 	 4.89
119.085526321 	 7.4
121.0647908789 	 10.56
123.0440554368 	 3.42
129.0698762568 	 11.16
130.0777012889 	 9.81
131.0491408147 	 7.15
131.085526321 	 4.54
133.0647908789 	 7.15
143.085526321 	 8.59
145.0647908789 	 7.77
145.1011763852 	 14.35
147.0804409431 	 5.58
147.1168264494 	 7.3
155.085526321 	 2.91
158.072615911 	 13.91
160.0882659752 	 6.83
161.059705501 	 3.7
162.0675305331 	 5.83
171.0804409431 	 3.89
173.0960910073 	 53.87
175.0753555652 	 6.68
175.1117410715 	 12.19
177.0546201231 	 13.16
188.0831805973 	 14.63
189.0910056294 	 6.83
190.0624451552 	 11.47
203.1066556936 	 49.55
218.0937452836 	 5.08
219.1015703157 	 60.36
231.1015703157 	 100
277.1070496241 	 3.35
374.1598134761 	 2.63
END IONS

BEGIN IONS
PEPMASS=195.066
CHARGE=1
MSLEVEL=2
RT=0
SOURCE_INSTRUMENT=qTOF
FILENAME=CCMSLIB00000079831.ms
IONMODE=Positive
ORGANISM=Natural
NAME=MLS001049120-01!6,7-dimethoxy-3H-2-benzofuran-1-one
PI=GNPS
DATACOLLECTOR=GNPS
SMILES=COc1ccc2COC(=O)c2c1OC
INCHI=InChI=1S/C10H10O4/c1-12-7-4-3-6-5-14-10(11)8(6)9(7)13-2/h3-4H,5H2,1-2H3
FORMULA=C10H10O4
PUBMED=N/A
SUBMITUSER=BIOADREM
LIBRARYQUALITY=0
SPECTRUMID=CCMSLIB00000079831
SCANS=2032
ID=CCMSLIB00000079831
96.0569658468 	 5.31
105.0334907505 	 37.04
106.0413157826 	 22.65
107.0491408147 	 8.88
108.0205803405 	 17.76
109.0284053726 	 5.71
121.0284053726 	 10.92
132.0205803405 	 16.22
133.0284053726 	 27.55
134.0362304047 	 22.86
135.0440554368 	 21.43
136.0154949626 	 16.33
137.0233199947 	 13.78
139.0753555652 	 5.51
149.0233199947 	 10.1
149.059705501 	 13.16
150.0311450268 	 12.35
162.0311450268 	 100
165.0182346168 	 14.49
179.033884681 	 60.1
180.0417097131 	 90.1
195.0651848094 	 0
END IONS

BEGIN IONS
PEPMASS=391.169
CHARGE=1
MSLEVEL=2
RT=0
SOURCE_INSTRUMENT=qTOF
FILENAME=CCMSLIB00000079832.ms
IONMODE=Positive
ORGANISM=Natural
NAME=MLS001140586-01!(3R)-N-cyclopentyl-6,7-dimethoxy-2,2-dimethyl-5-oxo-3,9b-dihydro-[1,3]thiazolo[2,3-a]isoindole-3-carboxamide
PI=GNPS
DATACOLLECTOR=GNPS
SMILES=CC1(C)[C@@H](C(=NC2CCCC2)O)N2C(=O)c3c(ccc(c3OC)OC)C2S1
INCHI=InChI=1S/C20H26N2O4S/c1-20(2)16(17(23)21-11-7-5-6-8-11)22-18(24)14-12(19(22)27-20)9-10-13(25-3)15(14)26-4/h9-11,16,19H,5-8H2,1-4H3,(H,21,23)/t16-,19?/m1/s1
FORMULA=C20H26N2O4S
PUBMED=N/A
SUBMITUSER=BIOADREM
LIBRARYQUALITY=0
SPECTRUMID=CCMSLIB00000079832
SCANS=2033
ID=CCMSLIB00000079832
116.0494751657 	 0.55
118.0651252299 	 0.79
134.060039852 	 0.63
144.0443897878 	 0.82
148.0393044099 	 1.94
149.047129442 	 2.11
161.047129442 	 0.62
162.0549544741 	 1.39
164.0706045383 	 2.58
165.0546201231 	 1.32
174.0549544741 	 2.83
175.057597011 	 0.53
176.0706045383 	 1.39
177.0420440641 	 4.5
181.031776191 	 1.5
189.0606710162 	 1.07
190.0498690962 	 0.86
192.0655191604 	 62.24
193.0681616973 	 8.63
194.0032157168 	 0.54
202.0862546025 	 0.88
205.0733441925 	 1.79
209.0266908131 	 5.29
217.0555856383 	 1.02
218.1175547309 	 0.61
220.0426752283 	 3.06
220.0968192888 	 2.68
234.0583252925 	 5.09
235.0661503246 	 6.6
246.112469353 	 5.24
250.0896254209 	 4.65
262.0532399146 	 0.9
278.084540043 	 100
391.1686040234 	 0
END IONS

BEGIN IONS
PEPMASS=338.2101
CHARGE=1
MSLEVEL=2
RT=0
SOURCE_INSTRUMENT=qTOF
FILENAME=CCMSLIB00000079833.ms
IONMODE=Positive
ORGANISM=Natural
NAME=MLS000536557-01!
PI=GNPS
DATACOLLECTOR=GNPS
SMILES=CN1C(CCCC1CC(=O)c1ccccc1)CC(c1ccccc1)O
INCHI=InChI=1S/C22H27NO2/c1-23-19(15-21(24)17-9-4-2-5-10-17)13-8-14-20(23)16-22(25)18-11-6-3-7-12-18/h2-7,9-12,19-21,24H,8,13-16H2,1H3
FORMULA=C22H27NO2
PUBMED=N/A
SUBMITUSER=BIOADREM
LIBRARYQUALITY=0
SPECTRUMID=CCMSLIB00000079833
SCANS=2034
ID=CCMSLIB00000079833
96.0807752941 	 100
98.0964253583 	 17.94
103.0542261926 	 2.75
105.0334907505 	 77.89
107.0491408147 	 3.99
108.0807752941 	 6.25
114.0913399804 	 2.44
115.0542261926 	 2.94
117.0698762568 	 3.38
120.0807752941 	 2.17
127.0542261926 	 0.61
128.0620512247 	 13.51
131.085526321 	 1.72
133.0647908789 	 0.59
141.0698762568 	 3.58
143.085526321 	 10.92
146.0964253583 	 1.41
148.1120754225 	 0.82
159.0804409431 	 2.85
162.0913399804 	 0.68
169.1011763852 	 1.17
170.0964253583 	 0.67
174.1277254867 	 0.98
185.0960910073 	 0.55
188.1069900446 	 4.57
198.1277254867 	 1.14
200.1433755509 	 53.98
202.1226401088 	 0.57
216.138290173 	 52.91
218.1539402372 	 21.25
320.2008904298 	 9.01
338.2114551161 	 9.37
END IONS

BEGIN IONS
PEPMASS=569.159
CHARGE=1
MSLEVEL=2
RT=0
SOURCE_INSTRUMENT=qTOF
FILENAME=CCMSLIB00000079834.ms
IONMODE=Positive
ORGANISM=Natural
NAME=MLS001140666-01!
PI=GNPS
DATACOLLECTOR=GNPS
SMILES=c1ccc2c(c1)c1C[C@H]3C(=O)N(c4ccccc4C(=O)N4CCC[C@H]4C(=O)O)C(=O)N3C(c3cccc(c3)Cl)c1[nH]2
INCHI=InChI=1S/C31H25ClN4O5/c32-18-8-5-7-17(15-18)27-26-21(19-9-1-3-11-22(19)33-26)16-25-29(38)36(31(41)35(25)27)23-12-4-2-10-20(23)28(37)34-14-6-13-24(34)30(39)40/h1-5,7-12,15,24-25,27,33H,6,13-14,16H2,(H,39,40)/t24-,25-,27?/m0/s1
FORMULA=C31H25ClN4O5
PUBMED=N/A
SUBMITUSER=BIOADREM
LIBRARYQUALITY=0
SPECTRUMID=CCMSLIB00000079834
SCANS=2035
ID=CCMSLIB00000079834
120.0443897878 	 2.78
146.0236543457 	 46.1
156.0681992351 	 5.11
163.0502034472 	 4.48
184.0631138572 	 42.27
217.0886003262 	 20.34
218.0964253583 	 100
235.0587567608 	 3.35
242.0367175941 	 37.64
243.0405198808 	 5.64
244.0352816645 	 8.6
250.041802972 	 2.7
251.0496280041 	 6.99
252.0574530362 	 54.45
253.0652780683 	 30.15
254.0560171066 	 13.76
255.0638421387 	 7.81
257.0794922029 	 2.62
264.0574530362 	 62.28
265.0612553229 	 10.11
266.0560171066 	 17.46
267.0571186852 	 4.12
270.0316322162 	 15.16
271.0354345029 	 3.83
271.0865889535 	 5.97
272.0301962866 	 5.38
272.0944139856 	 5.37
279.0683520735 	 6.01
292.0523676583 	 25.24
293.056169945 	 4.57
294.0509317287 	 8.46
307.0632666956 	 23.69
308.0665817929 	 4.96
329.081322063 	 10.6
358.1100640498 	 5.15
359.1178890819 	 2.97
375.112803704 	 15.51
376.1206287361 	 13.8
377.1284537682 	 2.5
383.094566824 	 10.37
384.1023918561 	 3.58
385.0949607545 	 2.52
393.0789167598 	 4.01
411.0894814461 	 79.08
412.0973064782 	 18.22
413.0898753766 	 29.13
426.1003804834 	 14.05
427.1082055155 	 3.89
428.1007744139 	 3.11
454.0952951055 	 58.2
455.1031201376 	 16.16
569.1586236438 	 0
END IONS

BEGIN IONS
PEPMASS=493.1961
CHARGE=1
MSLEVEL=2
RT=0
SOURCE_INSTRUMENT=qTOF
FILENAME=CCMSLIB00000079835.ms
IONMODE=Positive
ORGANISM=Natural
NAME=MLS001160081-01!2-[2-(3-ethyl-4,8-dimethyl-2-oxochromen-7-yl)oxypropanoylamino]-3-(5-hydroxy-1H-indol-3-yl)propanoic acid
PI=GNPS
DATACOLLECTOR=GNPS
SMILES=CCc1c(C)c2ccc(c(C)c2oc1=O)OC(C)C(=NC(Cc1c[nH]c2ccc(cc12)O)C(=O)O)O
INCHI=InChI=1S/C27H28N2O7/c1-5-18-13(2)19-7-9-23(14(3)24(19)36-27(18)34)35-15(4)25(31)29-22(26(32)33)10-16-12-28-21-8-6-17(30)11-20(16)21/h6-9,11-12,15,22,28,30H,5,10H2,1-4H3,(H,29,31)(H,32,33)
FORMULA=C27H28N2O7
PUBMED=N/A
SUBMITUSER=BIOADREM
LIBRARYQUALITY=0
SPECTRUMID=CCMSLIB00000079835
SCANS=2036
ID=CCMSLIB00000079835
105.0698762568 	 3.72
115.0542261926 	 3.5
118.0651252299 	 3.11
121.0647908789 	 2.86
130.0736785435 	 2.57
132.0807752941 	 3.14
133.0522148199 	 2.97
134.060039852 	 11.95
143.085526321 	 2.53
145.1011763852 	 11.42
146.060039852 	 100
148.0756899162 	 7.75
158.060039852 	 15.84
160.0756899162 	 11.37
161.0960910073 	 4.03
162.0549544741 	 26.05
173.0960910073 	 37.72
175.0839088788 	 24.36
184.0730098415 	 11.07
186.0549544741 	 30.03
187.0600994315 	 3.83
189.0910056294 	 12.63
189.1273911357 	 5.05
191.0702701873 	 3.55
201.099558943 	 5.7
202.0988306615 	 5.4
204.0655191604 	 29.04
213.0757494957 	 2.61
215.0788235009 	 9.2
217.0859202515 	 21.4
217.1223057578 	 12.37
218.0897225382 	 3.45
219.1015703157 	 39.51
220.1053726024 	 4.31
229.0944735651 	 5.25
230.1022985972 	 15.27
245.1172203799 	 43.42
246.1210226666 	 9.75
376.1543341677 	 3.02
447.1914479555 	 5.33
493.1969272639 	 0.31
END IONS

BEGIN IONS
PEPMASS=395.1337
CHARGE=1
MSLEVEL=2
RT=0
SOURCE_INSTRUMENT=qTOF
FILENAME=CCMSLIB00000079836.ms
IONMODE=Positive
ORGANISM=Natural
NAME=MLS000863622-01!7-hydroxy-5-methyl-2-(2-oxopropyl)-8-[3,4,5-trihydroxy-6-(hydroxymethyl)oxan-2-yl]chromen-4-one
PI=GNPS
DATACOLLECTOR=GNPS
SMILES=Cc1cc(c(c2c1c(=O)cc(CC(=O)C)o2)C1C(C(C(C(CO)O1)O)O)O)O
INCHI=InChI=1S/C19H22O9/c1-7-3-10(22)14(19-17(26)16(25)15(24)12(6-20)28-19)18-13(7)11(23)5-9(27-18)4-8(2)21/h3,5,12,15-17,19-20,22,24-26H,4,6H2,1-2H3
FORMULA=C19H22O9
PUBMED=N/A
SUBMITUSER=BIOADREM
LIBRARYQUALITY=0
SPECTRUMID=CCMSLIB00000079836
SCANS=2037
ID=CCMSLIB00000079836
163.0389700589 	 6.96
175.0753555652 	 10.5
187.0753555652 	 4.97
191.0702701873 	 7.95
203.0702701873 	 68.94
204.0780952194 	 30.62
215.0702701873 	 11.93
217.0859202515 	 16.02
229.0859202515 	 6.02
230.0937452836 	 5.28
231.0651848094 	 11.8
233.0808348736 	 100
245.0808348736 	 39.63
247.0964849378 	 18.63
257.0808348736 	 14.97
259.0964849378 	 13.98
263.0913995599 	 10.37
275.0913995599 	 44.04
287.0913995599 	 7.95
299.0913995599 	 17.95
305.1019642462 	 5.59
317.1019642462 	 13.23
335.1125289325 	 3.73
395.1336583051 	 1.86
END IONS

BEGIN IONS
PEPMASS=451.2711
CHARGE=1
MSLEVEL=2
RT=0
SOURCE_INSTRUMENT=qTOF
FILENAME=CCMSLIB00000079837.ms
IONMODE=Positive
ORGANISM=Natural
NAME=MLS001141043-01!1-[(2S)-2-amino-3-phenylpropanoyl]-N-[(2S)-1-(4-ethylanilino)-1-oxopropan-2-yl]piperidine-4-carboxamide
PI=GNPS
DATACOLLECTOR=GNPS
SMILES=CCc1ccc(cc1)NC(=O)[C@H](C)N=C(C1CCN(CC1)C(=O)[C@H](Cc1ccccc1)N)O
INCHI=InChI=1S/C26H34N4O3/c1-3-19-9-11-22(12-10-19)29-24(31)18(2)28-25(32)21-13-15-30(16-14-21)26(33)23(27)17-20-7-5-4-6-8-20/h4-12,18,21,23H,3,13-17,27H2,1-2H3,(H,28,32)(H,29,31)/t18-,23-/m0/s1
FORMULA=C26H34N4O3
PUBMED=N/A
SUBMITUSER=BIOADREM
LIBRARYQUALITY=0
SPECTRUMID=CCMSLIB00000079837
SCANS=2038
ID=CCMSLIB00000079837
103.0542261926 	 5.5
112.0756899162 	 100
120.0807752941 	 45.02
131.0491408147 	 0.93
138.0913399804 	 0.68
146.0964253583 	 1.19
148.0756899162 	 0.69
148.1120754225 	 2.93
155.1178890819 	 23.19
183.112803704 	 40.26
185.1199004546 	 1.17
193.1335391461 	 5.19
214.1226401088 	 1.05
258.1600882476 	 1.52
285.1597538966 	 0.59
302.1863029981 	 8.88
330.1812176202 	 4.91
331.1890426523 	 1.03
451.2703669785 	 2.15
END IONS

BEGIN IONS
PEPMASS=326.1386
CHARGE=1
MSLEVEL=2
RT=0
SOURCE_INSTRUMENT=qTOF
FILENAME=CCMSLIB00000079838.ms
IONMODE=Positive
ORGANISM=Natural
NAME=MLS000737546-01!
PI=GNPS
DATACOLLECTOR=GNPS
SMILES=COc1c2CN3CCc4cc5c(cc4C3Cc2ccc1O)OCO5
INCHI=InChI=1S/C19H19NO4/c1-22-19-14-9-20-5-4-12-7-17-18(24-10-23-17)8-13(12)15(20)6-11(14)2-3-16(19)21/h2-3,7-8,15,21H,4-6,9-10H2,1H3
FORMULA=C19H19NO4
PUBMED=N/A
SUBMITUSER=BIOADREM
LIBRARYQUALITY=0
SPECTRUMID=CCMSLIB00000079838
SCANS=2039
ID=CCMSLIB00000079838
103.0542261926 	 0.28
117.0573001978 	 1.09
118.0651252299 	 2.44
119.0491408147 	 7.94
131.0491408147 	 0.53
136.0518804689 	 1.13
146.060039852 	 2.21
147.0440554368 	 0.33
149.059705501 	 16.28
159.0440554368 	 1.29
161.047129442 	 4.48
163.0627795062 	 0.28
174.0549544741 	 4.07
176.0706045383 	 100
189.0784295704 	 1.4
207.0804409431 	 0.97
235.0753555652 	 0.43
239.1066556936 	 0.27
249.0910056294 	 0.44
267.1015703157 	 0.46
279.0889942567 	 0.83
292.0968192888 	 0.35
294.112469353 	 4.55
309.112135002 	 0.52
310.1073839751 	 1.63
311.1152090072 	 2.18
326.1386841035 	 12.65
END IONS

BEGIN IONS
PEPMASS=372.1436
CHARGE=1
MSLEVEL=2
RT=0
SOURCE_INSTRUMENT=qTOF
FILENAME=CCMSLIB00000079839.ms
IONMODE=Positive
ORGANISM=Natural
NAME=MLS001160283-01!2-[(5-hydroxy-2,2-dimethyl-4-oxo-3H-chromen-7-yl)oxy]-N-(3-methoxyphenyl)acetamide
PI=GNPS
DATACOLLECTOR=GNPS
SMILES=CC1(C)CC(=O)c2c(cc(cc2O1)OCC(=Nc1cccc(c1)OC)O)O
INCHI=InChI=1S/C20H21NO6/c1-20(2)10-16(23)19-15(22)8-14(9-17(19)27-20)26-11-18(24)21-12-5-4-6-13(7-12)25-3/h4-9,22H,10-11H2,1-3H3,(H,21,24)
FORMULA=C20H21NO6
PUBMED=N/A
SUBMITUSER=BIOADREM
LIBRARYQUALITY=0
SPECTRUMID=CCMSLIB00000079839
SCANS=2040
ID=CCMSLIB00000079839
95.0491408147 	 0.68
104.0494751657 	 6.2
106.0651252299 	 4.97
107.0491408147 	 1.51
109.0647908789 	 7.85
111.0076699305 	 0.92
120.0443897878 	 0.74
121.0522148199 	 3.73
125.0233199947 	 0.62
132.0443897878 	 3.68
133.0522148199 	 2.34
134.060039852 	 0.98
135.0076699305 	 1.75
135.0804409431 	 1.86
136.0756899162 	 84.1
137.0233199947 	 1.34
139.0389700589 	 0.58
153.0182346168 	 100
162.0549544741 	 0.77
163.0753555652 	 4.19
164.0706045383 	 12.83
165.0182346168 	 11.94
176.046795091 	 2.67
191.0702701873 	 15.4
193.0131492389 	 8.49
209.0808348736 	 37.62
270.0760838467 	 0.82
280.0604337825 	 0.68
298.0709984688 	 1.29
316.0815631551 	 3.51
372.1441634119 	 0.74
END IONS

BEGIN IONS
PEPMASS=417.229
CHARGE=1
MSLEVEL=2
RT=0
SOURCE_INSTRUMENT=qTOF
FILENAME=CCMSLIB00000079840.ms
IONMODE=Positive
ORGANISM=Natural
NAME=MLS001075149-01!
PI=GNPS
DATACOLLECTOR=GNPS
SMILES=Cc1ccc2c(c1)c1CN(CCc1[nH]2)C(=O)CN1C[C@H]2C[C@@H](C1)c1cccc(=O)n1C2
INCHI=InChI=1S/C25H28N4O2/c1-16-5-6-21-19(9-16)20-14-28(8-7-22(20)26-21)25(31)15-27-11-17-10-18(13-27)23-3-2-4-24(30)29(23)12-17/h2-6,9,17-18,26H,7-8,10-15H2,1H3/t17-,18+/m1/s1
FORMULA=C25H28N4O2
PUBMED=N/A
SUBMITUSER=BIOADREM
LIBRARYQUALITY=0
SPECTRUMID=CCMSLIB00000079840
SCANS=2041
ID=CCMSLIB00000079840
101.0709388893 	 3.69
103.0542261926 	 0.59
117.0573001978 	 0.57
128.0620512247 	 4.9
129.0658535114 	 1.26
130.0651252299 	 0.56
132.0807752941 	 0.72
143.085526321 	 6.66
144.0807752941 	 1.45
145.0886003262 	 0.78
146.060039852 	 2.51
146.0964253583 	 1.35
154.0651252299 	 8.48
155.072950262 	 17.31
157.0886003262 	 1.95
158.060039852 	 0.99
158.0964253583 	 2.58
160.0756899162 	 13.49
170.0964253583 	 89.4
171.100227645 	 10.79
172.1120754225 	 12.07
184.1080526771 	 1.03
185.1073243956 	 0.67
191.1178890819 	 1.8
197.0709388893 	 0.83
199.1229744598 	 0.97
203.1178890819 	 100
209.1073243956 	 10.24
212.0944139856 	 1.52
227.1178890819 	 3.8
248.1393528055 	 29.7
399.2179374775 	 5.75
417.2285021638 	 0
END IONS

BEGIN IONS
PEPMASS=325.1894
CHARGE=1
MSLEVEL=2
RT=0
SOURCE_INSTRUMENT=qTOF
FILENAME=CCMSLIB00000079842.ms
IONMODE=Positive
ORGANISM=Natural
NAME=MLS002638287-01!
PI=GNPS
DATACOLLECTOR=GNPS
SMILES=C=CC1CN2CCC1CC2C(c1ccnc2ccc(cc12)OC)O
INCHI=InChI=1S/C20H24N2O2/c1-3-13-12-22-9-7-14(13)10-19(22)20(23)16-6-8-21-18-5-4-15(24-2)11-17(16)18/h3-6,8,11,13-14,19-20,23H,1,7,9-10,12H2,2H3
FORMULA=C20H24N2O2
PUBMED=N/A
SUBMITUSER=BIOADREM
LIBRARYQUALITY=0
SPECTRUMID=CCMSLIB00000079842
SCANS=2042
ID=CCMSLIB00000079842
108.0807752941 	 7.16
110.0964253583 	 12.91
117.0573001978 	 7.84
134.0964253583 	 11.08
135.1042503904 	 7.27
136.1120754225 	 9.72
145.0522148199 	 10.87
154.0651252299 	 10.25
155.072950262 	 13.54
158.060039852 	 13.75
159.0678648841 	 10.56
160.0756899162 	 100
162.0913399804 	 8.52
166.1226401088 	 17.72
167.072950262 	 7.84
169.0522148199 	 7.11
172.0756899162 	 55.04
174.0913399804 	 9.78
180.0807752941 	 8
182.060039852 	 8.31
183.0678648841 	 13.23
184.0756899162 	 37.85
186.0913399804 	 25.35
198.0913399804 	 30.11
202.0862546025 	 12.6
210.0913399804 	 11.76
224.1069900446 	 10.93
227.1178890819 	 13.75
237.1022390177 	 8.63
253.1335391461 	 18.4
307.1804893387 	 78.31
325.191054025 	 120.86
END IONS

BEGIN IONS
PEPMASS=470.2273
CHARGE=1
MSLEVEL=2
RT=0
SOURCE_INSTRUMENT=qTOF
FILENAME=CCMSLIB00000079843.ms
IONMODE=Positive
ORGANISM=Natural
NAME=MLS001075534-01!
PI=GNPS
DATACOLLECTOR=GNPS
SMILES=COc1cc(cc(c1OC)OC)CN=C(CCC(=O)N1C[C@H]2C[C@H](C1)c1cccc(=O)n1C2)O
INCHI=InChI=1S/C25H31N3O6/c1-32-20-10-16(11-21(33-2)25(20)34-3)12-26-22(29)7-8-23(30)27-13-17-9-18(15-27)19-5-4-6-24(31)28(19)14-17/h4-6,10-11,17-18H,7-9,12-15H2,1-3H3,(H,26,29)/t17-,18-/m1/s1
FORMULA=C25H31N3O6
PUBMED=N/A
SUBMITUSER=BIOADREM
LIBRARYQUALITY=0
SPECTRUMID=CCMSLIB00000079843
SCANS=2043
ID=CCMSLIB00000079843
105.0334907505 	 0.22
107.0491408147 	 0.33
108.0569658468 	 0.32
109.0647908789 	 0.49
120.0569658468 	 0.33
121.0647908789 	 0.58
123.0440554368 	 1.4
135.0440554368 	 0.28
136.0518804689 	 0.66
137.059705501 	 3.32
138.0675305331 	 2.21
146.060039852 	 0.4
148.0518804689 	 11.53
151.0389700589 	 1.17
153.0910056294 	 0.25
160.0756899162 	 1.72
165.0546201231 	 0.7
166.0624451552 	 0.7
172.0756899162 	 0.43
181.0859202515 	 100
183.0916743314 	 1.26
189.1022390177 	 1.1
191.1178890819 	 9.77
227.1178890819 	 0.42
245.1284537682 	 32.25
273.1233683903 	 38.62
470.2285617433 	 0.16
END IONS

BEGIN IONS
PEPMASS=269.0801
CHARGE=1
MSLEVEL=2
RT=0
SOURCE_INSTRUMENT=qTOF
FILENAME=CCMSLIB00000079844.ms
IONMODE=Positive
ORGANISM=Natural
NAME=MLS001048982-01!
PI=GNPS
DATACOLLECTOR=GNPS
SMILES=COc1cc(ccc1O)c1cc(=O)c2ccccc2o1
INCHI=InChI=1S/C16H12O4/c1-19-16-8-10(6-7-12(16)17)15-9-13(18)11-4-2-3-5-14(11)20-15/h2-9,17H,1H3
FORMULA=C16H12O4
PUBMED=N/A
SUBMITUSER=BIOADREM
LIBRARYQUALITY=0
SPECTRUMID=CCMSLIB00000079844
SCANS=2044
ID=CCMSLIB00000079844
105.0334907505 	 1.92
108.0205803405 	 0.23
115.0542261926 	 0.47
120.0205803405 	 0.27
121.0284053726 	 11.22
129.0698762568 	 1.6
133.0284053726 	 0.76
141.0698762568 	 1.38
146.0362304047 	 0.42
149.059705501 	 0.54
152.0620512247 	 1.01
157.0647908789 	 1.73
169.0647908789 	 3.02
197.059705501 	 20.28
225.0546201231 	 7.93
226.0624451552 	 100
254.0573597773 	 74.75
269.0808348736 	 17.36
END IONS

BEGIN IONS
PEPMASS=341.139
CHARGE=1
MSLEVEL=2
RT=0
SOURCE_INSTRUMENT=qTOF
FILENAME=CCMSLIB00000079845.ms
IONMODE=Positive
ORGANISM=Natural
NAME=MLS000863575-01!5,7-dihydroxy-2-(4-hydroxyphenyl)-6-(3-methylbut-2-enyl)-2,3-dihydrochromen-4-one
PI=GNPS
DATACOLLECTOR=GNPS
SMILES=CC(=CCc1c(cc2c(C(=O)CC(c3ccc(cc3)O)O2)c1O)O)C
INCHI=InChI=1S/C20H20O5/c1-11(2)3-8-14-15(22)9-18-19(20(14)24)16(23)10-17(25-18)12-4-6-13(21)7-5-12/h3-7,9,17,21-22,24H,8,10H2,1-2H3
FORMULA=C20H20O5
PUBMED=N/A
SUBMITUSER=BIOADREM
LIBRARYQUALITY=0
SPECTRUMID=CCMSLIB00000079845
SCANS=2045
ID=CCMSLIB00000079845
107.0491408147 	 0.76
109.0284053726 	 0.78
123.0076699305 	 4.74
135.0440554368 	 0.21
137.0233199947 	 3.91
141.0182346168 	 0.73
165.0182346168 	 100
191.033884681 	 0.91
341.1383497525 	 0
END IONS

BEGIN IONS
PEPMASS=301.0699
CHARGE=1
MSLEVEL=2
RT=0
SOURCE_INSTRUMENT=qTOF
FILENAME=CCMSLIB00000079846.ms
IONMODE=Positive
ORGANISM=Natural
NAME=MLS001048958-01!5,7-dihydroxy-2-(4-hydroxy-3-methoxyphenyl)chromen-4-one
PI=GNPS
DATACOLLECTOR=GNPS
SMILES=COc1cc(ccc1O)c1cc(=O)c2c(cc(cc2o1)O)O
INCHI=InChI=1S/C16H12O6/c1-21-14-4-8(2-3-10(14)18)13-7-12(20)16-11(19)5-9(17)6-15(16)22-13/h2-7,17-19H,1H3
FORMULA=C16H12O6
PUBMED=N/A
SUBMITUSER=BIOADREM
LIBRARYQUALITY=0
SPECTRUMID=CCMSLIB00000079846
SCANS=2046
ID=CCMSLIB00000079846
128.0620512247 	 0.73
153.0182346168 	 12.27
184.0518804689 	 0.99
187.0389700589 	 0.66
201.0546201231 	 2.11
203.033884681 	 0.89
211.0389700589 	 0.49
215.033884681 	 0.53
229.0495347452 	 12.22
241.0495347452 	 0.47
257.0444493673 	 7.68
258.0522743994 	 100
269.0444493673 	 0.99
285.0393639894 	 0.52
286.0471890215 	 55.05
301.0706641178 	 17.51
END IONS

BEGIN IONS
PEPMASS=348.1952
CHARGE=1
MSLEVEL=2
RT=0
SOURCE_INSTRUMENT=qTOF
FILENAME=CCMSLIB00000079847.ms
IONMODE=Positive
ORGANISM=Natural
NAME=MLS000876952-01!3,8-dimethyl-3-(4-methylpent-3-enyl)-11H-pyrano[3,2-a]carbazol-9-ol
PI=GNPS
DATACOLLECTOR=GNPS
SMILES=CC(=CCCC1(C)C=Cc2c(ccc3c4cc(C)c(cc4[nH]c23)O)O1)C
INCHI=InChI=1S/C23H25NO2/c1-14(2)6-5-10-23(4)11-9-17-21(26-23)8-7-16-18-12-15(3)20(25)13-19(18)24-22(16)17/h6-9,11-13,24-25H,5,10H2,1-4H3
FORMULA=C23H25NO2
PUBMED=N/A
SUBMITUSER=BIOADREM
LIBRARYQUALITY=0
SPECTRUMID=CCMSLIB00000079847
SCANS=2047
ID=CCMSLIB00000079847
183.0678648841 	 8.35
196.0756899162 	 1.67
197.0835149483 	 4.16
198.0913399804 	 9.05
209.0835149483 	 1.42
210.0913399804 	 3.89
212.0706045383 	 3.42
213.0784295704 	 5.26
220.0756899162 	 2.28
221.0835149483 	 4.05
222.0913399804 	 2.1
223.0991650125 	 2.35
224.1069900446 	 3.53
226.0862546025 	 23.22
233.0835149483 	 1.14
234.0913399804 	 2.92
236.0706045383 	 2.65
236.1069900446 	 4.09
237.0784295704 	 5.61
238.0862546025 	 1.85
238.1226401088 	 2.02
240.1019046667 	 1.01
246.0913399804 	 1.03
249.0784295704 	 7.75
250.0862546025 	 7.5
250.1226401088 	 1.52
251.0940796346 	 6.44
252.1019046667 	 1.68
254.1175547309 	 2.65
263.0940796346 	 3.7
264.1019046667 	 100
266.1175547309 	 9.87
276.1019046667 	 1.14
277.1097296988 	 3.14
278.1175547309 	 2.12
280.1332047951 	 2.26
292.1332047951 	 2.94
348.1958050519 	 0.58
END IONS

BEGIN IONS
PEPMASS=429.2285
CHARGE=1
MSLEVEL=2
RT=0
SOURCE_INSTRUMENT=qTOF
FILENAME=CCMSLIB00000079848.ms
IONMODE=Positive
ORGANISM=Natural
NAME=MLS001140555-01!
PI=GNPS
DATACOLLECTOR=GNPS
SMILES=Cc1ccc(cc1)c1c2c(cc(C(=O)NCCCN3CCOCC3)[nH]1)c1ccccc1n2
INCHI=InChI=1S/C26H28N4O2/c1-18-7-9-19(10-8-18)24-25-21(20-5-2-3-6-22(20)28-25)17-23(29-24)26(31)27-11-4-12-30-13-15-32-16-14-30/h2-3,5-10,17,29H,4,11-16H2,1H3,(H,27,31)
FORMULA=C26H28N4O2
PUBMED=N/A
SUBMITUSER=BIOADREM
LIBRARYQUALITY=0
SPECTRUMID=CCMSLIB00000079848
SCANS=2048
ID=CCMSLIB00000079848
242.0838492993 	 3.77
257.1073243956 	 100
275.1178890819 	 47.51
285.1022390177 	 21.59
303.112803704 	 15.25
429.2285021638 	 3.61
END IONS

BEGIN IONS
PEPMASS=194.082
CHARGE=1
MSLEVEL=2
RT=0
SOURCE_INSTRUMENT=qTOF
FILENAME=CCMSLIB00000079849.ms
IONMODE=Positive
ORGANISM=Natural
NAME=MLS001049133-01!2,4,5-trimethoxybenzonitrile
PI=GNPS
DATACOLLECTOR=GNPS
SMILES=COc1cc(c(cc1C#N)OC)OC
INCHI=InChI=1S/C10H11NO3/c1-12-8-5-10(14-3)9(13-2)4-7(8)6-11/h4-5H,1-3H3
FORMULA=C10H11NO3
PUBMED=N/A
SUBMITUSER=BIOADREM
LIBRARYQUALITY=0
SPECTRUMID=CCMSLIB00000079849
SCANS=2049
ID=CCMSLIB00000079849
106.0287397236 	 12.5
108.0443897878 	 7.44
109.0284053726 	 21.32
118.0287397236 	 17.34
119.0127553084 	 6.36
120.0205803405 	 3.54
120.0443897878 	 15.53
122.0236543457 	 6
123.0440554368 	 8.16
130.0287397236 	 4.34
134.0236543457 	 5.85
136.0393044099 	 61.92
148.0393044099 	 14.16
151.0389700589 	 28.54
152.046795091 	 21.1
153.0420440641 	 10.19
164.034219032 	 100
179.0576941283 	 29.41
194.0811692246 	 0
END IONS

BEGIN IONS
PEPMASS=287.14
CHARGE=1
MSLEVEL=2
RT=0
SOURCE_INSTRUMENT=qTOF
FILENAME=CCMSLIB00000079850.ms
IONMODE=Positive
ORGANISM=Natural
NAME=MLS001075321-01!1-(5-methoxy-1H-indol-3-yl)-2-piperidin-1-ylethane-1,2-dione
PI=GNPS
DATACOLLECTOR=GNPS
SMILES=COc1ccc2c(c1)c(c[nH]2)C(=O)C(=O)N1CCCCC1
INCHI=InChI=1S/C16H18N2O3/c1-21-11-5-6-14-12(9-11)13(10-17-14)15(19)16(20)18-7-3-2-4-8-18/h5-6,9-10,17H,2-4,7-8H2,1H3
FORMULA=C16H18N2O3
PUBMED=N/A
SUBMITUSER=BIOADREM
LIBRARYQUALITY=0
SPECTRUMID=CCMSLIB00000079850
SCANS=2050
ID=CCMSLIB00000079850
103.0416501336 	 1.36
116.0494751657 	 0.71
117.0573001978 	 0.77
119.0491408147 	 3.47
131.0365647557 	 4.58
146.060039852 	 21.2
159.0314793778 	 38.52
174.0549544741 	 100
287.1390184545 	 0
END IONS

BEGIN IONS
PEPMASS=471.3469
CHARGE=1
MSLEVEL=2
RT=0
SOURCE_INSTRUMENT=qTOF
FILENAME=CCMSLIB00000079851.ms
IONMODE=Positive
ORGANISM=Natural
NAME=MLS000563519-01!
PI=GNPS
DATACOLLECTOR=GNPS
SMILES=CC1(C)C2CC[C@]3(C)C(CC=C4[C@@H]5C[C@@](C)(CO)[C@@H]6C[C@@]5(CC[C@@]34C)C(=O)O6)[C@@]2(C)CC[C@@H]1O
INCHI=InChI=1S/C30H46O4/c1-25(2)20-9-12-29(6)21(27(20,4)11-10-22(25)32)8-7-18-19-15-26(3,17-31)23-16-30(19,24(33)34-23)14-13-28(18,29)5/h7,19-23,31-32H,8-17H2,1-6H3/t19-,20?,21?,22-,23-,26-,27-,28+,29+,30+/m0/s1
FORMULA=C30H46O4
PUBMED=N/A
SUBMITUSER=BIOADREM
LIBRARYQUALITY=0
SPECTRUMID=CCMSLIB00000079851
SCANS=2051
ID=CCMSLIB00000079851
95.085526321 	 17.11
105.0698762568 	 31.86
107.085526321 	 35.85
109.1011763852 	 24.49
119.085526321 	 89.98
121.1011763852 	 43.26
123.1168264494 	 19.55
129.0698762568 	 12.42
131.085526321 	 32.75
133.1011763852 	 44
135.1168264494 	 36.13
142.0777012889 	 7.83
143.085526321 	 33.56
145.1011763852 	 100
147.1168264494 	 51.76
149.1324765136 	 12.46
155.085526321 	 9.81
156.0933513531 	 15.07
157.1011763852 	 34.19
158.1090014173 	 11.43
159.1168264494 	 73.47
161.1324765136 	 32.6
163.0753555652 	 9.88
163.1481265778 	 28.65
169.1011763852 	 11.86
170.1090014173 	 28.05
171.1168264494 	 41.67
172.1246514815 	 12.31
173.1324765136 	 61.43
175.1481265778 	 28.44
177.163776642 	 10.83
183.1168264494 	 18.77
185.1324765136 	 82.07
187.1481265778 	 59.28
189.0910056294 	 7.8
189.163776642 	 32.29
191.1794267062 	 42.17
197.1324765136 	 19.76
199.1481265778 	 62.35
201.163776642 	 26.89
203.1430411999 	 7.73
203.1794267062 	 24.03
211.1481265778 	 14.47
217.1586912641 	 16.87
217.1950767704 	 11.43
227.1430411999 	 8.33
227.1794267062 	 10.87
245.1536058862 	 10.09
253.1950767704 	 8.57
267.2107268346 	 9.56
471.346885965 	 1.09
END IONS

BEGIN IONS
PEPMASS=283.0975
CHARGE=1
MSLEVEL=2
RT=0
SOURCE_INSTRUMENT=qTOF
FILENAME=CCMSLIB00000079852.ms
IONMODE=Positive
ORGANISM=Natural
NAME=MLS001049094-01!
PI=GNPS
DATACOLLECTOR=GNPS
SMILES=COc1cc(c2c(=O)cc(c3ccccc3)oc2c1)OC
INCHI=InChI=1S/C17H14O4/c1-19-12-8-15(20-2)17-13(18)10-14(21-16(17)9-12)11-6-4-3-5-7-11/h3-10H,1-2H3
FORMULA=C17H14O4
PUBMED=N/A
SUBMITUSER=BIOADREM
LIBRARYQUALITY=0
SPECTRUMID=CCMSLIB00000079852
SCANS=2052
ID=CCMSLIB00000079852
95.0127553084 	 0.76
103.0542261926 	 0.8
105.0334907505 	 1.76
108.0205803405 	 6.73
109.0284053726 	 0.79
110.0362304047 	 0.46
120.0205803405 	 0.47
121.0284053726 	 0.34
123.0076699305 	 2.83
129.0334907505 	 6.46
136.0154949626 	 3.76
137.0233199947 	 12.27
138.0311450268 	 5.49
141.0698762568 	 1.61
147.0440554368 	 0.63
153.0698762568 	 2.81
154.0777012889 	 1.42
155.033884681 	 1.37
155.085526321 	 0.9
164.0620512247 	 0.45
165.0698762568 	 1.9
166.0260596489 	 5.1
169.0647908789 	 0.88
181.0647908789 	 2.44
183.0804409431 	 0.85
192.0569658468 	 1.09
197.059705501 	 1.59
209.059705501 	 0.54
210.0675305331 	 12.31
211.0753555652 	 4.38
223.0753555652 	 1.38
225.0546201231 	 26.56
237.0546201231 	 1.4
238.0624451552 	 18.36
239.0702701873 	 100
251.0702701873 	 0.85
252.0417097131 	 1.22
253.0495347452 	 0.46
267.0651848094 	 26.21
268.0730098415 	 73.65
283.0964849378 	 47.42
END IONS

BEGIN IONS
PEPMASS=335.222
CHARGE=1
MSLEVEL=2
RT=0
SOURCE_INSTRUMENT=qTOF
FILENAME=CCMSLIB00000079853.ms
IONMODE=Positive
ORGANISM=Natural
NAME=MLS000574943-01!
PI=GNPS
DATACOLLECTOR=GNPS
SMILES=C[C@@H]1CC[C@@]23COC(=O)C2=CCC[C@@H]3[C@@]1(C)CC/C(=C/CO)/CO
INCHI=InChI=1S/C20H30O4/c1-14-6-10-20-13-24-18(23)16(20)4-3-5-17(20)19(14,2)9-7-15(12-22)8-11-21/h4,8,14,17,21-22H,3,5-7,9-13H2,1-2H3/b15-8-/t14-,17-,19+,20-/m1/s1
FORMULA=C20H30O4
PUBMED=N/A
SUBMITUSER=BIOADREM
LIBRARYQUALITY=0
SPECTRUMID=CCMSLIB00000079853
SCANS=2053
ID=CCMSLIB00000079853
95.085526321 	 18.95
103.0542261926 	 7.85
105.0698762568 	 100
107.0491408147 	 7.11
107.085526321 	 30.5
109.1011763852 	 20.95
115.0542261926 	 8.14
117.0698762568 	 29.02
119.0491408147 	 11.4
119.085526321 	 33.01
121.1011763852 	 31.53
128.0620512247 	 10.95
129.0698762568 	 35.68
130.0777012889 	 21.1
131.085526321 	 50.56
132.0933513531 	 10.73
133.1011763852 	 40.71
135.1168264494 	 12.36
141.0698762568 	 17.54
142.0777012889 	 13.84
143.085526321 	 33.23
145.1011763852 	 71.21
147.1168264494 	 30.5
154.0777012889 	 12.88
155.085526321 	 23.61
156.0933513531 	 11.18
157.1011763852 	 38.93
159.0804409431 	 11.03
159.1168264494 	 34.57
161.1324765136 	 10.21
167.085526321 	 14.14
169.1011763852 	 33.01
171.0804409431 	 8.88
171.1168264494 	 19.47
173.0960910073 	 22.06
173.1324765136 	 19.39
181.1011763852 	 12.95
182.1090014173 	 13.99
183.1168264494 	 22.72
187.1117410715 	 7.62
187.1481265778 	 19.84
188.1195661036 	 8.22
197.1324765136 	 20.65
199.1481265778 	 18.21
335.2216854514 	 0
END IONS

BEGIN IONS
PEPMASS=426.203
CHARGE=1
MSLEVEL=2
RT=0
SOURCE_INSTRUMENT=qTOF
FILENAME=CCMSLIB00000079854.ms
IONMODE=Positive
ORGANISM=Natural
NAME=MLS001158965-01!N-[(2S)-1-[[(1S)-2-hydroxy-1-phenylethyl]amino]-1-oxopropan-2-yl]-1-(4-methoxyphenyl)-5-oxopyrrolidine-3-carboxamide
PI=GNPS
DATACOLLECTOR=GNPS
SMILES=C[C@@H](C(=N[C@H](CO)c1ccccc1)O)N=C(C1CC(=O)N(C1)c1ccc(cc1)OC)O
INCHI=InChI=1S/C23H27N3O5/c1-15(22(29)25-20(14-27)16-6-4-3-5-7-16)24-23(30)17-12-21(28)26(13-17)18-8-10-19(31-2)11-9-18/h3-11,15,17,20,27H,12-14H2,1-2H3,(H,24,30)(H,25,29)/t15-,17?,20+/m0/s1
FORMULA=C23H27N3O5
PUBMED=N/A
SUBMITUSER=BIOADREM
LIBRARYQUALITY=0
SPECTRUMID=CCMSLIB00000079854
SCANS=2054
ID=CCMSLIB00000079854
103.0542261926 	 29.9
117.0573001978 	 0.8
120.0807752941 	 5.42
121.0647908789 	 19.88
134.0236543457 	 1.27
134.060039852 	 3.52
136.0756899162 	 100
138.0549544741 	 0.82
138.0913399804 	 2.89
147.0678648841 	 1.61
148.0756899162 	 3.23
149.047129442 	 10.02
162.0913399804 	 8.72
175.0627795062 	 1.23
190.0862546025 	 36.43
218.0811692246 	 20.74
261.1233683903 	 42.27
289.1182830124 	 3.04
306.1448321139 	 1.14
408.1917823065 	 0.96
426.2023469928 	 0
END IONS

BEGIN IONS
PEPMASS=389.182
CHARGE=1
MSLEVEL=2
RT=0
SOURCE_INSTRUMENT=qTOF
FILENAME=CCMSLIB00000079855.ms
IONMODE=Positive
ORGANISM=Natural
NAME=MLS001158924-01!(2S)-1-[(2S)-3-methyl-2-[(3-oxo-2,4-dihydroquinoxaline-1-carbonyl)amino]butanoyl]pyrrolidine-2-carboxylic acid
PI=GNPS
DATACOLLECTOR=GNPS
SMILES=CC(C)[C@@H](C(=O)N1CCC[C@H]1C(=O)O)N=C(N1CC(=Nc2ccccc12)O)O
INCHI=InChI=1S/C19H24N4O5/c1-11(2)16(17(25)22-9-5-8-14(22)18(26)27)21-19(28)23-10-15(24)20-12-6-3-4-7-13(12)23/h3-4,6-7,11,14,16H,5,8-10H2,1-2H3,(H,20,24)(H,21,28)(H,26,27)/t14-,16-/m0/s1
FORMULA=C19H24N4O5
PUBMED=N/A
SUBMITUSER=BIOADREM
LIBRARYQUALITY=0
SPECTRUMID=CCMSLIB00000079855
SCANS=2055
ID=CCMSLIB00000079855
98.060039852 	 0.77
116.0706045383 	 3.31
119.060374203 	 15.15
121.0760242672 	 20.98
131.060374203 	 0.5
132.0443897878 	 0.46
147.0552888251 	 100
149.0709388893 	 2.51
175.0502034472 	 27.97
203.0689275166 	 0.68
203.1178890819 	 0.86
218.1287881192 	 3.01
229.0971536398 	 1.94
246.1237027413 	 43.8
389.1819459017 	 0
END IONS

BEGIN IONS
PEPMASS=311.103
CHARGE=1
MSLEVEL=2
RT=0
SOURCE_INSTRUMENT=qTOF
FILENAME=CCMSLIB00000079856.ms
IONMODE=Positive
ORGANISM=Natural
NAME=MLS000877017-01!(3S,3'R)-3'-(3-hydroxyphenyl)-4-methylspiro[1H-1,4-benzodiazepine-3,2'-oxirane]-2,5-dione
PI=GNPS
DATACOLLECTOR=GNPS
SMILES=CN1C(=O)c2ccccc2N=C([C@]21[C@@H](c1cccc(c1)O)O2)O
INCHI=InChI=1S/C17H14N2O4/c1-19-15(21)12-7-2-3-8-13(12)18-16(22)17(19)14(23-17)10-5-4-6-11(20)9-10/h2-9,14,20H,1H3,(H,18,22)/t14-,17+/m1/s1
FORMULA=C17H14N2O4
PUBMED=N/A
SUBMITUSER=BIOADREM
LIBRARYQUALITY=0
SPECTRUMID=CCMSLIB00000079856
SCANS=2056
ID=CCMSLIB00000079856
118.0287397236 	 6.33
120.0443897878 	 6.56
121.0495347452 	 3.17
130.0287397236 	 3.17
132.0443897878 	 3.54
136.9869344884 	 2.71
146.0236543457 	 100
151.0542261926 	 2.79
161.0233199947 	 3.84
169.0859202515 	 3.09
174.0549544741 	 2.94
177.0658535114 	 10.4
180.0807752941 	 3.62
181.0647908789 	 4.37
195.0678648841 	 3.24
197.0808348736 	 2.41
198.0886599057 	 4.45
206.0573597773 	 2.64
209.0835149483 	 3.39
211.0627795062 	 2.56
224.0706045383 	 3.84
225.0784295704 	 2.19
233.0709388893 	 4.22
252.0655191604 	 11.83
311.1026329482 	 0
END IONS

BEGIN IONS
PEPMASS=387.192
CHARGE=1
MSLEVEL=2
RT=0
SOURCE_INSTRUMENT=qTOF
FILENAME=CCMSLIB00000079857.ms
IONMODE=Positive
ORGANISM=Natural
NAME=MLS001140369-01!1-[2-(8-methyl-2-oxo-4-propylchromen-7-yl)oxyacetyl]piperidine-4-carboxamide
PI=GNPS
DATACOLLECTOR=GNPS
SMILES=CCCc1cc(=O)oc2c(C)c(ccc12)OCC(=O)N1CCC(CC1)C(=N)O
INCHI=InChI=1S/C21H26N2O5/c1-3-4-15-11-19(25)28-20-13(2)17(6-5-16(15)20)27-12-18(24)23-9-7-14(8-10-23)21(22)26/h5-6,11,14H,3-4,7-10,12H2,1-2H3,(H2,22,26)
FORMULA=C21H26N2O5
PUBMED=N/A
SUBMITUSER=BIOADREM
LIBRARYQUALITY=0
SPECTRUMID=CCMSLIB00000079857
SCANS=2057
ID=CCMSLIB00000079857
96.0807752941 	 4.93
97.0886003262 	 5.86
98.060039852 	 6.34
105.0698762568 	 7.46
110.060039852 	 7.43
112.0756899162 	 15.68
119.085526321 	 4.34
124.0756899162 	 10.29
125.0835149483 	 8.99
126.0913399804 	 6.32
127.0865889535 	 83.69
129.1022390177 	 3.16
130.0777012889 	 5.65
131.0491408147 	 5.65
133.0647908789 	 3.21
141.1022390177 	 33.29
145.0647908789 	 3.86
145.1011763852 	 8.46
147.1168264494 	 3.53
149.0960910073 	 3.44
158.072615911 	 5.27
162.0675305331 	 5.76
163.0713328198 	 2.9
173.0960910073 	 40.52
174.099893294 	 7.34
175.1117410715 	 11.52
185.0920682619 	 6.88
188.0831805973 	 6.85
203.1066556936 	 32.6
204.1104579803 	 6.48
231.1015703157 	 100
232.1053726024 	 20.28
259.0964849378 	 14.85
314.1750696098 	 18.05
342.1699842319 	 43.33
369.1808832692 	 3.09
370.164898854 	 8.55
387.1914479555 	 0
END IONS

BEGIN IONS
PEPMASS=239.0708
CHARGE=1
MSLEVEL=2
RT=0
SOURCE_INSTRUMENT=qTOF
FILENAME=CCMSLIB00000079859.ms
IONMODE=Positive
ORGANISM=Natural
NAME=MLS001049036-01!2-(4-hydroxyphenyl)chromen-4-one
PI=GNPS
DATACOLLECTOR=GNPS
SMILES=c1ccc2c(c1)c(=O)cc(c1ccc(cc1)O)o2
INCHI=InChI=1S/C15H10O3/c16-11-7-5-10(6-8-11)15-9-13(17)12-3-1-2-4-14(12)18-15/h1-9,16H
FORMULA=C15H10O3
PUBMED=N/A
SUBMITUSER=BIOADREM
LIBRARYQUALITY=0
SPECTRUMID=CCMSLIB00000079859
SCANS=2058
ID=CCMSLIB00000079859
105.0334907505 	 3.86
115.0542261926 	 3.77
117.0334907505 	 1.41
118.0413157826 	 2.57
119.0491408147 	 45.97
121.0284053726 	 100
127.0542261926 	 2.02
129.0698762568 	 1.67
133.0284053726 	 4.34
141.0698762568 	 5.87
145.0284053726 	 77.79
151.0542261926 	 3.44
152.0620512247 	 10.63
153.0698762568 	 8.79
154.0777012889 	 2.73
155.085526321 	 9.64
163.0542261926 	 2.2
164.0620512247 	 1.23
165.0698762568 	 59.92
168.0569658468 	 4.1
169.0647908789 	 3.65
170.072615911 	 1.11
176.0620512247 	 6.28
177.0698762568 	 5.32
181.0647908789 	 5.99
182.072615911 	 2.87
183.0804409431 	 12.82
192.0569658468 	 1.43
194.072615911 	 5.67
196.0518804689 	 1.13
197.059705501 	 4.31
210.0675305331 	 2.29
211.0753555652 	 14.91
213.0546201231 	 1.71
221.059705501 	 2.95
239.0702701873 	 278.43
END IONS

BEGIN IONS
PEPMASS=253.0867
CHARGE=1
MSLEVEL=2
RT=0
SOURCE_INSTRUMENT=qTOF
FILENAME=CCMSLIB00000079860.ms
IONMODE=Positive
ORGANISM=Natural
NAME=MLS001049012-01!7-methoxy-3-phenylchromen-4-one
PI=GNPS
DATACOLLECTOR=GNPS
SMILES=COc1ccc2c(c1)occ(c1ccccc1)c2=O
INCHI=InChI=1S/C16H12O3/c1-18-12-7-8-13-15(9-12)19-10-14(16(13)17)11-5-3-2-4-6-11/h2-10H,1H3
FORMULA=C16H12O3
PUBMED=N/A
SUBMITUSER=BIOADREM
LIBRARYQUALITY=0
SPECTRUMID=CCMSLIB00000079860
SCANS=2059
ID=CCMSLIB00000079860
102.0464011605 	 1.24
108.0205803405 	 6.57
115.0542261926 	 0.57
123.0440554368 	 0.51
128.0620512247 	 0.91
138.0464011605 	 0.47
139.0542261926 	 1.03
141.0698762568 	 1.32
151.0389700589 	 5.63
152.0620512247 	 3.77
153.0698762568 	 17.96
154.0777012889 	 10.14
163.0542261926 	 1.62
164.0620512247 	 2.5
165.0698762568 	 15.38
166.0777012889 	 8.76
167.085526321 	 2.77
169.1011763852 	 1.07
179.085526321 	 0.8
181.0647908789 	 13.8
182.072615911 	 10.78
192.0569658468 	 2.11
194.072615911 	 1.73
197.0960910073 	 21.19
209.059705501 	 5.51
210.0675305331 	 100
225.0910056294 	 1.38
238.0624451552 	 11.22
253.0859202515 	 92.66
END IONS

BEGIN IONS
PEPMASS=413.2072
CHARGE=1
MSLEVEL=2
RT=0
SOURCE_INSTRUMENT=qTOF
FILENAME=CCMSLIB00000079861.ms
IONMODE=Positive
ORGANISM=Natural
NAME=MLS001158534-01!3-(3,5-dimethyl-7-oxofuro[3,2-g]chromen-6-yl)-N-(3-morpholin-4-ylpropyl)propanamide
PI=GNPS
DATACOLLECTOR=GNPS
SMILES=Cc1coc2cc3c(cc12)c(C)c(CCC(=NCCCN1CCOCC1)O)c(=O)o3
INCHI=InChI=1S/C23H28N2O5/c1-15-14-29-20-13-21-19(12-18(15)20)16(2)17(23(27)30-21)4-5-22(26)24-6-3-7-25-8-10-28-11-9-25/h12-14H,3-11H2,1-2H3,(H,24,26)
FORMULA=C23H28N2O5
PUBMED=N/A
SUBMITUSER=BIOADREM
LIBRARYQUALITY=0
SPECTRUMID=CCMSLIB00000079861
SCANS=2060
ID=CCMSLIB00000079861
100.0756899162 	 1.45
112.0756899162 	 0.4
115.0542261926 	 0.4
128.0620512247 	 0.98
128.1069900446 	 3.13
129.0698762568 	 0.38
141.0698762568 	 0.28
142.0777012889 	 0.21
143.085526321 	 1.07
152.0620512247 	 0.38
153.0698762568 	 0.53
154.0777012889 	 0.34
155.085526321 	 0.71
171.0804409431 	 1.51
182.072615911 	 0.23
183.0804409431 	 0.29
198.0675305331 	 0.28
199.0753555652 	 8.19
213.0910056294 	 1.23
227.0702701873 	 100
240.1019046667 	 0.21
241.0859202515 	 39.2
268.0968192888 	 27.88
269.0808348736 	 51.85
308.1281194172 	 0.45
326.1386841035 	 69.75
413.2070980197 	 8.9
END IONS

BEGIN IONS
PEPMASS=496.248
CHARGE=1
MSLEVEL=2
RT=0
SOURCE_INSTRUMENT=qTOF
FILENAME=CCMSLIB00000079862.ms
IONMODE=Positive
ORGANISM=Natural
NAME=MLS001142776-01!(2S)-3-methyl-2-[[1-[(2S)-4-methyl-2-[(4-methylphenyl)sulfonylamino]pentanoyl]piperidine-4-carbonyl]amino]butanoic acid
PI=GNPS
DATACOLLECTOR=GNPS
SMILES=CC(C)C[C@@H](C(=O)N1CCC(CC1)C(=N[C@@H](C(C)C)C(=O)O)O)NS(=O)(=O)c1ccc(C)cc1
INCHI=InChI=1S/C24H37N3O6S/c1-15(2)14-20(26-34(32,33)19-8-6-17(5)7-9-19)23(29)27-12-10-18(11-13-27)22(28)25-21(16(3)4)24(30)31/h6-9,15-16,18,20-21,26H,10-14H2,1-5H3,(H,25,28)(H,30,31)/t20-,21-/m0/s1
FORMULA=C24H37N3O6S
PUBMED=N/A
SUBMITUSER=BIOADREM
LIBRARYQUALITY=0
SPECTRUMID=CCMSLIB00000079862
SCANS=2061
ID=CCMSLIB00000079862
95.0491408147 	 0.62
112.0756899162 	 73.15
155.0161261268 	 100
165.138624524 	 0.83
183.1491892103 	 8.7
184.0426752283 	 12.97
211.1441038324 	 2.29
229.1546685187 	 28.57
240.1052754851 	 46.87
333.163124715 	 0.65
351.1736894013 	 3.18
379.1686040234 	 1.81
397.1791687097 	 0.92
450.2421033175 	 5.46
453.2417689665 	 0.63
496.2475826259 	 0
END IONS

BEGIN IONS
PEPMASS=551.185
CHARGE=1
MSLEVEL=2
RT=0
SOURCE_INSTRUMENT=qTOF
FILENAME=CCMSLIB00000079864.ms
IONMODE=Positive
ORGANISM=Natural
NAME=MLS001140278-01!(2S)-2-[[(2R)-3-methylsulfanyl-2-[[2-(2,3,5-trimethyl-7-oxofuro[3,2-g]chromen-6-yl)acetyl]amino]propanoyl]amino]-3-phenylpropanoic acid
PI=GNPS
DATACOLLECTOR=GNPS
SMILES=Cc1c(C)oc2cc3c(cc12)c(C)c(CC(=N[C@@H](CSC)C(=N[C@@H](Cc1ccccc1)C(=O)O)O)O)c(=O)o3
INCHI=InChI=1S/C29H30N2O7S/c1-15-17(3)37-24-13-25-20(11-19(15)24)16(2)21(29(36)38-25)12-26(32)30-23(14-39-4)27(33)31-22(28(34)35)10-18-8-6-5-7-9-18/h5-9,11,13,22-23H,10,12,14H2,1-4H3,(H,30,32)(H,31,33)(H,34,35)/t22-,23-/m0/s1
FORMULA=C29H30N2O7S
PUBMED=N/A
SUBMITUSER=BIOADREM
LIBRARYQUALITY=0
SPECTRUMID=CCMSLIB00000079864
SCANS=2062
ID=CCMSLIB00000079864
141.0698762568 	 0.44
142.0777012889 	 0.46
157.1011763852 	 0.3
185.0960910073 	 0.75
213.0910056294 	 8.1
241.0859202515 	 100
269.0808348736 	 17.94
338.1022985972 	 0.6
551.1846480181 	 0
END IONS

BEGIN IONS
PEPMASS=353.1861
CHARGE=1
MSLEVEL=2
RT=0
SOURCE_INSTRUMENT=qTOF
FILENAME=CCMSLIB00000079865.ms
IONMODE=Positive
ORGANISM=Natural
NAME=MLS001075526-01!
PI=GNPS
DATACOLLECTOR=GNPS
SMILES=COc1ccc(cc1)CCC(=O)N1C[C@H]2C[C@@H](C1)c1cccc(=O)n1C2
INCHI=InChI=1S/C21H24N2O3/c1-26-18-8-5-15(6-9-18)7-10-20(24)22-12-16-11-17(14-22)19-3-2-4-21(25)23(19)13-16/h2-6,8-9,16-17H,7,10-14H2,1H3/t16-,17+/m1/s1
FORMULA=C21H24N2O3
PUBMED=N/A
SUBMITUSER=BIOADREM
LIBRARYQUALITY=0
SPECTRUMID=CCMSLIB00000079865
SCANS=2063
ID=CCMSLIB00000079865
103.0542261926 	 0.66
104.0494751657 	 0.48
108.0443897878 	 0.26
120.0569658468 	 0.35
120.0807752941 	 0.88
121.0647908789 	 68.62
130.0651252299 	 0.75
133.0522148199 	 1.46
134.060039852 	 0.95
134.0964253583 	 0.25
135.0804409431 	 1.82
142.0651252299 	 0.35
146.060039852 	 1.64
147.0678648841 	 0.75
148.0756899162 	 71.61
160.0756899162 	 3.12
162.0913399804 	 2.43
174.0913399804 	 1.28
191.1178890819 	 100
245.1284537682 	 0.33
353.1859686471 	 27.3
END IONS

BEGIN IONS
PEPMASS=393.145
CHARGE=1
MSLEVEL=2
RT=0
SOURCE_INSTRUMENT=qTOF
FILENAME=CCMSLIB00000079866.ms
IONMODE=Positive
ORGANISM=Natural
NAME=MLS001160043-01!N-[2-(5-methoxy-1H-indol-3-yl)ethyl]-2-(2-oxochromen-7-yl)oxyacetamide
PI=GNPS
DATACOLLECTOR=GNPS
SMILES=COc1ccc2c(c1)c(CCN=C(COc1ccc3ccc(=O)oc3c1)O)c[nH]2
INCHI=InChI=1S/C22H20N2O5/c1-27-16-5-6-19-18(10-16)15(12-24-19)8-9-23-21(25)13-28-17-4-2-14-3-7-22(26)29-20(14)11-17/h2-7,10-12,24H,8-9,13H2,1H3,(H,23,25)
FORMULA=C22H20N2O5
PUBMED=N/A
SUBMITUSER=BIOADREM
LIBRARYQUALITY=0
SPECTRUMID=CCMSLIB00000079866
SCANS=2064
ID=CCMSLIB00000079866
103.0542261926 	 0.42
115.0542261926 	 1.4
117.0698762568 	 1.07
130.0651252299 	 4.99
131.072950262 	 8.92
142.0651252299 	 2.03
143.072950262 	 11.07
146.0964253583 	 0.43
158.060039852 	 1.45
159.0678648841 	 32.47
174.0913399804 	 100
246.0760838467 	 0.29
393.1444977629 	 0
END IONS

BEGIN IONS
PEPMASS=315.1228
CHARGE=1
MSLEVEL=2
RT=0
SOURCE_INSTRUMENT=qTOF
FILENAME=CCMSLIB00000079867.ms
IONMODE=Positive
ORGANISM=Natural
NAME=MLS001049027-01!(E)-1-(2-hydroxyphenyl)-3-(3,4,5-trimethoxyphenyl)prop-2-en-1-one
PI=GNPS
DATACOLLECTOR=GNPS
SMILES=COc1cc(/C=C/C(=O)c2ccccc2O)cc(c1OC)OC
INCHI=InChI=1S/C18H18O5/c1-21-16-10-12(11-17(22-2)18(16)23-3)8-9-15(20)13-6-4-5-7-14(13)19/h4-11,19H,1-3H3/b9-8+
FORMULA=C18H18O5
PUBMED=N/A
SUBMITUSER=BIOADREM
LIBRARYQUALITY=0
SPECTRUMID=CCMSLIB00000079867
SCANS=2065
ID=CCMSLIB00000079867
105.0334907505 	 1.82
107.0491408147 	 4.92
119.0491408147 	 2.26
121.0284053726 	 100
129.0334907505 	 4.07
131.0491408147 	 2.86
133.0284053726 	 1.73
135.0440554368 	 3.88
137.059705501 	 2.07
147.0440554368 	 34.12
149.059705501 	 3.64
162.0675305331 	 3.63
163.0389700589 	 7.63
163.0753555652 	 1.87
167.0702701873 	 5.37
169.0647908789 	 2.4
175.0389700589 	 4.24
178.0624451552 	 5.39
190.0624451552 	 8.52
191.033884681 	 7.28
193.0859202515 	 4.82
196.0518804689 	 2.1
205.0647908789 	 1.75
206.0573597773 	 5.7
211.0753555652 	 3.46
221.0808348736 	 9.68
223.0753555652 	 3.74
225.0546201231 	 1.89
225.0910056294 	 1.93
235.0753555652 	 2.74
239.0702701873 	 6.59
251.0702701873 	 3.63
253.0859202515 	 3.31
254.0573597773 	 1.76
267.0651848094 	 4.47
269.0808348736 	 3.17
281.0808348736 	 2.63
285.0757494957 	 2.46
299.0913995599 	 2.28
315.1226996883 	 1.39
END IONS

BEGIN IONS
PEPMASS=245.118
CHARGE=1
MSLEVEL=2
RT=0
SOURCE_INSTRUMENT=qTOF
FILENAME=CCMSLIB00000079868.ms
IONMODE=Positive
ORGANISM=Natural
NAME=MLS001048988-01!
PI=GNPS
DATACOLLECTOR=GNPS
SMILES=CC(=CCc1c(ccc2ccc(=O)oc12)OC)C
INCHI=InChI=1S/C15H16O3/c1-10(2)4-7-12-13(17-3)8-5-11-6-9-14(16)18-15(11)12/h4-6,8-9H,7H2,1-3H3
FORMULA=C15H16O3
PUBMED=N/A
SUBMITUSER=BIOADREM
LIBRARYQUALITY=0
SPECTRUMID=CCMSLIB00000079868
SCANS=2066
ID=CCMSLIB00000079868
102.0464011605 	 3.35
103.0542261926 	 32.95
105.0698762568 	 0.91
115.0542261926 	 1.14
117.0698762568 	 0.34
119.0491408147 	 0.36
131.0491408147 	 100
133.0647908789 	 1.13
143.0491408147 	 0.46
146.0362304047 	 1.02
147.0440554368 	 1.12
159.0440554368 	 5.15
161.059705501 	 4.11
175.0753555652 	 0.34
177.0546201231 	 0.46
187.0389700589 	 1.74
189.0546201231 	 33.96
203.0702701873 	 0.58
245.1172203799 	 0
END IONS

BEGIN IONS
PEPMASS=250.0877
CHARGE=1
MSLEVEL=2
RT=0
SOURCE_INSTRUMENT=qTOF
FILENAME=CCMSLIB00000079869.ms
IONMODE=Positive
ORGANISM=Natural
NAME=MLS001048989-01!2-(1,3-benzodioxol-5-yl)quinoline
PI=GNPS
DATACOLLECTOR=GNPS
SMILES=c1ccc2c(c1)ccc(c1ccc3c(c1)OCO3)n2
INCHI=InChI=1S/C16H11NO2/c1-2-4-13-11(3-1)5-7-14(17-13)12-6-8-15-16(9-12)19-10-18-15/h1-9H,10H2
FORMULA=C16H11NO2
PUBMED=N/A
SUBMITUSER=BIOADREM
LIBRARYQUALITY=0
SPECTRUMID=CCMSLIB00000079869
SCANS=2067
ID=CCMSLIB00000079869
101.0385761284 	 0.59
115.0542261926 	 0.4
116.0494751657 	 0.28
128.0494751657 	 21.66
139.0542261926 	 0.91
142.0651252299 	 0.37
152.0620512247 	 2.77
154.0651252299 	 0.23
163.0542261926 	 0.52
164.0620512247 	 1.26
165.0698762568 	 34.04
177.0573001978 	 3.93
179.072950262 	 0.97
180.0807752941 	 1.05
190.0651252299 	 10.03
191.072950262 	 80.54
192.0807752941 	 100
194.0964253583 	 11.36
204.0807752941 	 3.38
207.0678648841 	 0.28
208.0756899162 	 0.37
219.0678648841 	 0.28
220.0756899162 	 29.74
222.0913399804 	 11.78
232.0756899162 	 0.37
250.0862546025 	 82.73
END IONS

BEGIN IONS
PEPMASS=483.24
CHARGE=1
MSLEVEL=2
RT=0
SOURCE_INSTRUMENT=qTOF
FILENAME=CCMSLIB00000079870.ms
IONMODE=Positive
ORGANISM=Natural
NAME=MLS001158976-01!(3S)-N-[(2S)-3-(1H-indol-3-yl)-1-[(4-methoxyphenyl)methylamino]-1-oxopropan-2-yl]-1,2,3,4-tetrahydroisoquinoline-3-carboxamide
PI=GNPS
DATACOLLECTOR=GNPS
SMILES=COc1ccc(cc1)CN=C([C@H](Cc1c[nH]c2ccccc12)N=C([C@@H]1Cc2ccccc2CN1)O)O
INCHI=InChI=1S/C29H30N4O3/c1-36-23-12-10-19(11-13-23)16-32-28(34)27(15-22-18-30-25-9-5-4-8-24(22)25)33-29(35)26-14-20-6-2-3-7-21(20)17-31-26/h2-13,18,26-27,30-31H,14-17H2,1H3,(H,32,34)(H,33,35)/t26-,27-/m0/s1
FORMULA=C29H30N4O3
PUBMED=N/A
SUBMITUSER=BIOADREM
LIBRARYQUALITY=0
SPECTRUMID=CCMSLIB00000079870
SCANS=2068
ID=CCMSLIB00000079870
106.0413157826 	 0.43
115.0542261926 	 3.04
117.0573001978 	 4.39
121.0647908789 	 100
130.0651252299 	 40.99
132.0807752941 	 96.77
142.0651252299 	 1.02
144.0807752941 	 2.5
156.0807752941 	 0.45
159.0916743314 	 30.22
169.0760242672 	 0.77
171.0916743314 	 0.62
187.0865889535 	 38.94
199.0865889535 	 1.02
218.0964253583 	 0.57
236.1069900446 	 4.55
250.1226401088 	 15.33
262.1226401088 	 1.85
278.1175547309 	 0.92
279.1491892103 	 0.73
307.1441038324 	 2.76
324.1706529339 	 1.02
483.2390668501 	 0
END IONS

BEGIN IONS
PEPMASS=439.235
CHARGE=1
MSLEVEL=2
RT=0
SOURCE_INSTRUMENT=qTOF
FILENAME=CCMSLIB00000079871.ms
IONMODE=Positive
ORGANISM=Natural
NAME=MLS001141012-01!
PI=GNPS
DATACOLLECTOR=GNPS
SMILES=CC(C)[C@@H](C(=NCC1CCCO1)O)N1C(=O)[C@]2(C)c3c(CCN2C1=O)c1ccccc1[nH]3
INCHI=InChI=1S/C24H30N4O4/c1-14(2)19(21(29)25-13-15-7-6-12-32-15)28-22(30)24(3)20-17(10-11-27(24)23(28)31)16-8-4-5-9-18(16)26-20/h4-5,8-9,14-15,19,26H,6-7,10-13H2,1-3H3,(H,25,29)/t15?,19-,24-/m0/s1
FORMULA=C24H30N4O4
PUBMED=N/A
SUBMITUSER=BIOADREM
LIBRARYQUALITY=0
SPECTRUMID=CCMSLIB00000079871
SCANS=2069
ID=CCMSLIB00000079871
142.0651252299 	 0.4
143.072950262 	 0.99
144.0807752941 	 43.14
168.0807752941 	 3.44
170.0838492993 	 0.78
183.0916743314 	 2.85
185.1073243956 	 55.65
211.0865889535 	 9.28
213.1022390177 	 4.35
228.113138055 	 0.94
239.0815035756 	 1.97
240.113138055 	 2.27
241.0845775808 	 1.56
251.1053130229 	 0.46
256.1080526771 	 8.08
266.1287881192 	 0.45
277.1209630871 	 0.77
282.1600882476 	 40.86
292.1444381834 	 1.03
295.1315277734 	 1.06
310.1550028697 	 100
439.2339814722 	 0
END IONS

BEGIN IONS
PEPMASS=386.16
CHARGE=1
MSLEVEL=2
RT=0
SOURCE_INSTRUMENT=qTOF
FILENAME=CCMSLIB00000079872.ms
IONMODE=Positive
ORGANISM=Natural
NAME=MLS001032306-01!2-[(5-hydroxy-2,2-dimethyl-4-oxo-3H-chromen-7-yl)oxy]-N-[(3-methoxyphenyl)methyl]acetamide
PI=GNPS
DATACOLLECTOR=GNPS
SMILES=CC1(C)CC(=O)c2c(cc(cc2O1)OCC(=NCc1cccc(c1)OC)O)O
INCHI=InChI=1S/C21H23NO6/c1-21(2)10-17(24)20-16(23)8-15(9-18(20)28-21)27-12-19(25)22-11-13-5-4-6-14(7-13)26-3/h4-9,23H,10-12H2,1-3H3,(H,22,25)
FORMULA=C21H23NO6
PUBMED=N/A
SUBMITUSER=BIOADREM
LIBRARYQUALITY=0
SPECTRUMID=CCMSLIB00000079872
SCANS=2070
ID=CCMSLIB00000079872
97.0284053726 	 0.53
105.0334907505 	 0.89
106.0413157826 	 2.9
109.0647908789 	 5.51
121.0647908789 	 100
125.0233199947 	 0.43
137.059705501 	 7.3
153.0182346168 	 56
163.0753555652 	 0.89
165.0182346168 	 5.48
183.0287993031 	 0.42
191.0702701873 	 11.23
209.0808348736 	 33.54
221.0808348736 	 6.05
278.1022985972 	 4.47
386.1598134761 	 0
END IONS

BEGIN IONS
PEPMASS=428.201
CHARGE=1
MSLEVEL=2
RT=0
SOURCE_INSTRUMENT=qTOF
FILENAME=CCMSLIB00000079873.ms
IONMODE=Positive
ORGANISM=Natural
NAME=MLS001158005-01!(3S)-N-[(2S)-1-[(2-methoxyphenyl)methylamino]-4-methylsulfanyl-1-oxobutan-2-yl]-1,2,3,4-tetrahydroisoquinoline-3-carboxamide
PI=GNPS
DATACOLLECTOR=GNPS
SMILES=COc1ccccc1CN=C([C@H](CCSC)N=C([C@@H]1Cc2ccccc2CN1)O)O
INCHI=InChI=1S/C23H29N3O3S/c1-29-21-10-6-5-9-18(21)15-25-22(27)19(11-12-30-2)26-23(28)20-13-16-7-3-4-8-17(16)14-24-20/h3-10,19-20,24H,11-15H2,1-2H3,(H,25,27)(H,26,28)/t19-,20-/m0/s1
FORMULA=C23H29N3O3S
PUBMED=N/A
SUBMITUSER=BIOADREM
LIBRARYQUALITY=0
SPECTRUMID=CCMSLIB00000079873
SCANS=2071
ID=CCMSLIB00000079873
103.0542261926 	 1.13
105.0698762568 	 1.56
115.0542261926 	 4.04
117.0573001978 	 5.24
121.0647908789 	 41.69
130.0651252299 	 42.96
132.0807752941 	 100
138.0913399804 	 2.03
170.0964253583 	 3.5
187.0865889535 	 0.25
197.1073243956 	 0.21
198.0913399804 	 1.42
215.1178890819 	 17.26
263.1212599003 	 3.22
428.2002385028 	 0
END IONS

BEGIN IONS
PEPMASS=208.134
CHARGE=1
MSLEVEL=2
RT=0
SOURCE_INSTRUMENT=qTOF
FILENAME=CCMSLIB00000079874.ms
IONMODE=Positive
ORGANISM=Natural
NAME=MLS000863632-01!3-phenyl-2-(trimethylazaniumyl)propanoate
PI=GNPS
DATACOLLECTOR=GNPS
SMILES=C[N+](C)(C)C(Cc1ccccc1)C(=O)[O-]
INCHI=InChI=1S/C12H17NO2/c1-13(2,3)11(12(14)15)9-10-7-5-4-6-8-10/h4-8,11H,9H2,1-3H3
FORMULA=C12H17NO2
PUBMED=N/A
SUBMITUSER=BIOADREM
LIBRARYQUALITY=0
SPECTRUMID=CCMSLIB00000079874
SCANS=2072
ID=CCMSLIB00000079874
102.0464011605 	 11.59
103.0542261926 	 100
107.0491408147 	 65.55
133.0522148199 	 16.46
208.1332047951 	 0
END IONS

BEGIN IONS
PEPMASS=352.1667
CHARGE=1
MSLEVEL=2
RT=0
SOURCE_INSTRUMENT=qTOF
FILENAME=CCMSLIB00000079875.ms
IONMODE=Positive
ORGANISM=Natural
NAME=MLS001142566-01!
PI=GNPS
DATACOLLECTOR=GNPS
SMILES=CC(=O)c1cccc(c1)N=C(N1C[C@H]2C[C@@H](C1)c1cccc(=O)n1C2)O
INCHI=InChI=1S/C20H21N3O3/c1-13(24)15-4-2-5-17(9-15)21-20(26)22-10-14-8-16(12-22)18-6-3-7-19(25)23(18)11-14/h2-7,9,14,16H,8,10-12H2,1H3,(H,21,26)/t14-,16+/m1/s1
FORMULA=C20H21N3O3
PUBMED=N/A
SUBMITUSER=BIOADREM
LIBRARYQUALITY=0
SPECTRUMID=CCMSLIB00000079875
SCANS=2073
ID=CCMSLIB00000079875
103.0542261926 	 0.5
104.0494751657 	 1.45
106.0651252299 	 1.52
115.0542261926 	 0.71
117.0573001978 	 1.41
118.0651252299 	 1.07
119.0491408147 	 0.81
120.0807752941 	 0.68
122.060039852 	 1.03
129.0698762568 	 1.15
130.0651252299 	 2.67
131.072950262 	 1.92
132.0443897878 	 4.3
132.0807752941 	 2.04
133.0522148199 	 6.02
134.060039852 	 5.14
142.0651252299 	 2.86
144.0807752941 	 2.15
145.0522148199 	 1.32
146.060039852 	 29.34
148.0756899162 	 15.39
154.0651252299 	 0.71
156.0807752941 	 2.47
158.060039852 	 9.03
159.0678648841 	 4.98
160.0756899162 	 66.13
171.0916743314 	 0.63
172.0756899162 	 8.68
174.0913399804 	 30.23
188.0706045383 	 2.47
189.1022390177 	 35.27
191.1178890819 	 6.74
199.0865889535 	 0.89
217.0971536398 	 100
235.1077183261 	 6.2
352.165567556 	 13.35
END IONS

BEGIN IONS
PEPMASS=420.169
CHARGE=1
MSLEVEL=2
RT=0
SOURCE_INSTRUMENT=qTOF
FILENAME=CCMSLIB00000079876.ms
IONMODE=Positive
ORGANISM=Natural
NAME=MLS001140284-01!(2S)-1-[(2S)-2-[(5-chloro-1-methylindole-2-carbonyl)amino]-4-methylpentanoyl]pyrrolidine-2-carboxylic acid
PI=GNPS
DATACOLLECTOR=GNPS
SMILES=CC(C)C[C@@H](C(=O)N1CCC[C@H]1C(=O)O)N=C(c1cc2cc(ccc2n1C)Cl)O
INCHI=InChI=1S/C21H26ClN3O4/c1-12(2)9-15(20(27)25-8-4-5-17(25)21(28)29)23-19(26)18-11-13-10-14(22)6-7-16(13)24(18)3/h6-7,10-12,15,17H,4-5,8-9H2,1-3H3,(H,23,26)(H,28,29)/t15-,17-/m0/s1
FORMULA=C21H26ClN3O4
PUBMED=N/A
SUBMITUSER=BIOADREM
LIBRARYQUALITY=0
SPECTRUMID=CCMSLIB00000079876
SCANS=2074
ID=CCMSLIB00000079876
104.0494751657 	 0.3
105.0573001978 	 0.26
111.0076699305 	 0.29
112.0074288384 	 0.23
113.0152538705 	 0.38
122.9996038063 	 5.52
124.0029189036 	 0.47
124.9981678767 	 1.91
128.0494751657 	 0.23
140.0261529078 	 0.93
150.0105028436 	 0.5
152.9930824988 	 0.36
164.0261529078 	 1.54
168.0210675299 	 0.53
178.041802972 	 2.03
181.0243826272 	 0.25
192.0210675299 	 100
193.0243826272 	 10.65
194.0196316003 	 39.09
234.1044032288 	 2.12
277.1102168882 	 1.75
278.1135319855 	 0.59
420.1684600486 	 0
END IONS

BEGIN IONS
PEPMASS=499.155
CHARGE=1
MSLEVEL=2
RT=0
SOURCE_INSTRUMENT=qTOF
FILENAME=CCMSLIB00000079877.ms
IONMODE=Positive
ORGANISM=Natural
NAME=MLS001142431-01!
PI=GNPS
DATACOLLECTOR=GNPS
SMILES=C[C@@H](C(=NCc1c(cccc1F)Cl)O)N1C(=O)[C@]2(C)c3c(CCN2C1=O)c1cc(ccc1[nH]3)OC
INCHI=InChI=1S/C25H24ClFN4O4/c1-13(22(32)28-12-17-18(26)5-4-6-19(17)27)31-23(33)25(2)21-15(9-10-30(25)24(31)34)16-11-14(35-3)7-8-20(16)29-21/h4-8,11,13,29H,9-10,12H2,1-3H3,(H,28,32)/t13-,25-/m0/s1
FORMULA=C25H24ClFN4O4
PUBMED=N/A
SUBMITUSER=BIOADREM
LIBRARYQUALITY=0
SPECTRUMID=CCMSLIB00000079877
SCANS=2075
ID=CCMSLIB00000079877
155.072950262 	 0.33
159.0678648841 	 1.16
160.0756899162 	 0.65
173.0835149483 	 0.83
174.0913399804 	 12.32
183.0678648841 	 0.42
186.0913399804 	 0.74
198.0913399804 	 5.8
210.0787639214 	 0.3
213.1022390177 	 5.74
215.1178890819 	 21.83
225.1022390177 	 0.72
226.1100640498 	 0.4
241.0971536398 	 25
243.112803704 	 3.47
253.1209630871 	 0.3
267.112803704 	 0.75
268.1444381834 	 0.76
269.0920682619 	 4.4
284.1393528055 	 100
285.1404543841 	 18.82
312.1342674276 	 17.15
313.1353690062 	 3.5
428.1371599202 	 0.34
499.1542871896 	 0
END IONS

BEGIN IONS
PEPMASS=509.292
CHARGE=1
MSLEVEL=2
RT=0
SOURCE_INSTRUMENT=qTOF
FILENAME=CCMSLIB00000079878.ms
IONMODE=Positive
ORGANISM=Natural
NAME=MLS000863651-01!
PI=GNPS
DATACOLLECTOR=GNPS
SMILES=C/C=C/C=C/C(=O)N1CC[C@@]23c4ccccc4N[C@@H]4[C@@]53CCN([C@H](c3cccc(c53)N4C)C3C(C)(C)O3)[C@H]12
INCHI=InChI=1S/C32H36N4O2/c1-5-6-7-15-24(37)35-18-16-31-21-12-8-9-13-22(21)33-28-32(31)17-19-36(29(31)35)26(27-30(2,3)38-27)20-11-10-14-23(25(20)32)34(28)4/h5-15,26-29,33H,16-19H2,1-4H3/b6-5+,15-7+/t26-,27?,28+,29+,31-,32-/m1/s1
FORMULA=C32H36N4O2
PUBMED=N/A
SUBMITUSER=BIOADREM
LIBRARYQUALITY=0
SPECTRUMID=CCMSLIB00000079878
SCANS=2076
ID=CCMSLIB00000079878
130.0651252299 	 4.39
144.0807752941 	 3.87
159.0916743314 	 30.02
168.0807752941 	 7.79
169.0760242672 	 2.24
170.0964253583 	 2.88
181.0886003262 	 6.69
182.0964253583 	 5.68
183.0916743314 	 14.24
184.0994993635 	 6.79
185.1073243956 	 18.18
197.1073243956 	 13.05
198.1151494277 	 11.5
199.1229744598 	 3.69
210.1277254867 	 3.77
226.1212974381 	 3.43
237.138624524 	 3.27
253.1335391461 	 2.65
255.1491892103 	 11.64
271.1189517144 	 2.32
283.1189517144 	 2.48
294.1111266823 	 2.39
295.1229744598 	 3.87
296.1267767465 	 2.41
297.1346017786 	 7.56
298.1338734971 	 4.43
308.1307994919 	 2.24
309.1346017786 	 10.01
312.1495235613 	 4.28
314.1651736255 	 2.38
323.1542745882 	 6.37
324.1580768749 	 4.19
326.1651736255 	 17.79
340.1808236897 	 8.52
343.191722727 	 22.41
367.1804893387 	 6.06
381.1961394029 	 7.25
437.2335875417 	 100
439.2380042176 	 5.5
451.2492376059 	 6.46
492.2645533191 	 2.24
509.2911024206 	 0
END IONS

BEGIN IONS
PEPMASS=437.16
CHARGE=1
MSLEVEL=2
RT=0
SOURCE_INSTRUMENT=qTOF
FILENAME=CCMSLIB00000079880.ms
IONMODE=Positive
ORGANISM=Natural
NAME=MLS000697561-01!
PI=GNPS
DATACOLLECTOR=GNPS
SMILES=CC(=CCC12C(=O)c3c(cc4c(C=CC(C)(C)O4)c3O)OC1(c1ccc(cc1O2)O)O)C
INCHI=InChI=1S/C25H24O7/c1-13(2)7-10-24-22(28)20-19(12-17-15(21(20)27)8-9-23(3,4)30-17)32-25(24,29)16-6-5-14(26)11-18(16)31-24/h5-9,11-12,26-27,29H,10H2,1-4H3
FORMULA=C25H24O7
PUBMED=N/A
SUBMITUSER=BIOADREM
LIBRARYQUALITY=0
SPECTRUMID=CCMSLIB00000079880
SCANS=2077
ID=CCMSLIB00000079880
107.0491408147 	 3
135.0440554368 	 4.39
137.0233199947 	 26.26
149.0233199947 	 7.06
163.0389700589 	 7.11
165.0182346168 	 5.23
177.0182346168 	 5.97
193.0859202515 	 5.09
201.0546201231 	 6.01
219.0651848094 	 56.56
277.0859202515 	 3.85
281.0444493673 	 8.26
285.0393639894 	 5.79
293.0444493673 	 3.74
295.0600994315 	 3.46
295.0964849378 	 4.66
297.0393639894 	 41.41
299.0550140536 	 4.75
305.0808348736 	 5.82
309.0393639894 	 16.24
309.0757494957 	 3
310.0471890215 	 4.56
311.0550140536 	 4.1
315.0499286757 	 19.91
318.0522743994 	 3.34
321.0393639894 	 7.83
322.0471890215 	 10.26
323.0550140536 	 7.49
323.0913995599 	 4.39
325.0706641178 	 3.81
327.0499286757 	 5.11
333.0757494957 	 8.83
335.0550140536 	 4.36
336.0628390857 	 12.7
337.0706641178 	 4.66
340.0577537078 	 4.32
341.0655787399 	 4.43
351.086314182 	 97.07
354.073403772 	 7.11
369.0968788683 	 100
370.1047039004 	 24.19
437.1594791251 	 0
END IONS

BEGIN IONS
PEPMASS=297.0866
CHARGE=1
MSLEVEL=2
RT=0
SOURCE_INSTRUMENT=qTOF
FILENAME=CCMSLIB00000079881.ms
IONMODE=Positive
ORGANISM=Natural
NAME=MLS000575012-01!
PI=GNPS
DATACOLLECTOR=GNPS
SMILES=COc1c2c3c(cc(n2)O)c2ccccc2n3c(=O)c1OC
INCHI=InChI=1S/C16H12N2O4/c1-21-14-12-13-9(7-11(19)17-12)8-5-3-4-6-10(8)18(13)16(20)15(14)22-2/h3-7H,1-2H3,(H,17,19)
FORMULA=C16H12N2O4
PUBMED=N/A
SUBMITUSER=BIOADREM
LIBRARYQUALITY=0
SPECTRUMID=CCMSLIB00000079881
SCANS=2078
ID=CCMSLIB00000079881
128.0494751657 	 2.98
141.0447241388 	 2.32
153.0573001978 	 2.59
155.060374203 	 26.98
156.0443897878 	 2.14
168.0681992351 	 3.28
169.0396387609 	 1.53
179.060374203 	 8.83
180.0681992351 	 29.83
182.047463793 	 6.18
183.0552888251 	 78.33
196.0631138572 	 3.8
198.0423784151 	 23.96
199.0502034472 	 2.84
201.0658535114 	 47.2
208.0631138572 	 100
211.0502034472 	 51.4
224.0580284793 	 2.15
225.0658535114 	 1.53
229.0607681335 	 23.1
234.0423784151 	 1.38
235.0502034472 	 2.19
236.0580284793 	 55.12
252.0529431014 	 2.3
253.0607681335 	 37.92
263.0451180693 	 9.18
264.0529431014 	 33.7
267.0400326914 	 58.22
281.0556827556 	 22.75
282.0635077877 	 20.67
297.086982884 	 17.85
END IONS

BEGIN IONS
PEPMASS=374.16
CHARGE=1
MSLEVEL=2
RT=0
SOURCE_INSTRUMENT=qTOF
FILENAME=CCMSLIB00000079882.ms
IONMODE=Positive
ORGANISM=Natural
NAME=MLS001140979-01!4-[[[2-(4-methyl-2-oxochromen-7-yl)oxyacetyl]amino]methyl]cyclohexane-1-carboxylic acid
PI=GNPS
DATACOLLECTOR=GNPS
SMILES=Cc1cc(=O)oc2cc(ccc12)OCC(=NC[C@H]1CC[C@@H](CC1)C(=O)O)O
INCHI=InChI=1S/C20H23NO6/c1-12-8-19(23)27-17-9-15(6-7-16(12)17)26-11-18(22)21-10-13-2-4-14(5-3-13)20(24)25/h6-9,13-14H,2-5,10-11H2,1H3,(H,21,22)(H,24,25)/t13-,14-
FORMULA=C20H23NO6
PUBMED=N/A
SUBMITUSER=BIOADREM
LIBRARYQUALITY=0
SPECTRUMID=CCMSLIB00000079882
SCANS=2079
ID=CCMSLIB00000079882
103.0542261926 	 4.29
105.0698762568 	 1.61
115.0542261926 	 1.58
119.0491408147 	 0.85
121.0647908789 	 2.72
131.0491408147 	 2.08
133.0647908789 	 1.18
148.0518804689 	 2.34
149.059705501 	 1.23
151.0389700589 	 0.59
159.0440554368 	 10.71
161.059705501 	 8.19
176.046795091 	 2.37
177.0546201231 	 100
189.0546201231 	 36.08
217.0495347452 	 18.31
234.0760838467 	 51.57
328.1543341677 	 16.31
374.1598134761 	 0
END IONS

BEGIN IONS
PEPMASS=401.208
CHARGE=1
MSLEVEL=2
RT=0
SOURCE_INSTRUMENT=qTOF
FILENAME=CCMSLIB00000079883.ms
IONMODE=Positive
ORGANISM=Natural
NAME=MLS001160289-01!3-(7-methoxy-4,8-dimethyl-2-oxochromen-3-yl)-N-[3-(2-oxopyrrolidin-1-yl)propyl]propanamide
PI=GNPS
DATACOLLECTOR=GNPS
SMILES=Cc1c2ccc(c(C)c2oc(=O)c1CCC(=NCCCN1CCCC1=O)O)OC
INCHI=InChI=1S/C22H28N2O5/c1-14-16-7-9-18(28-3)15(2)21(16)29-22(27)17(14)8-10-19(25)23-11-5-13-24-12-4-6-20(24)26/h7,9H,4-6,8,10-13H2,1-3H3,(H,23,25)
FORMULA=C22H28N2O5
PUBMED=N/A
SUBMITUSER=BIOADREM
LIBRARYQUALITY=0
SPECTRUMID=CCMSLIB00000079883
SCANS=2080
ID=CCMSLIB00000079883
98.060039852 	 0.55
105.0698762568 	 0.4
115.0542261926 	 0.22
126.0913399804 	 2.52
128.0620512247 	 0.57
129.0698762568 	 0.32
130.0736785435 	 0.24
131.0491408147 	 0.22
131.085526321 	 0.28
141.0698762568 	 0.34
142.0777012889 	 0.26
143.0491408147 	 0.22
143.085526321 	 0.26
144.0569658468 	 0.2
145.0647908789 	 0.22
146.072615911 	 0.52
157.0647908789 	 0.23
158.072615911 	 1.87
161.0960910073 	 0.91
172.0882659752 	 0.64
173.0960910073 	 0.53
174.0675305331 	 1.37
175.0713328198 	 0.33
188.0831805973 	 0.43
189.0910056294 	 3.66
203.1066556936 	 0.41
217.0859202515 	 100
218.0897225382 	 19.28
231.1015703157 	 10.9
259.0964849378 	 15.85
401.2070980197 	 0
END IONS

BEGIN IONS
PEPMASS=408.1442
CHARGE=1
MSLEVEL=2
RT=0
SOURCE_INSTRUMENT=qTOF
FILENAME=CCMSLIB00000079884.ms
IONMODE=Positive
ORGANISM=Natural
NAME=MLS001139310-01!(2S)-2-[[2-[(6-oxo-7,8,9,10-tetrahydrobenzo[c]chromen-3-yl)oxy]acetyl]amino]-2-phenylacetic acid
PI=GNPS
DATACOLLECTOR=GNPS
SMILES=c1ccc(cc1)[C@@H](C(=O)O)N=C(COc1ccc2c3CCCCc3c(=O)oc2c1)O
INCHI=InChI=1S/C23H21NO6/c25-20(24-21(22(26)27)14-6-2-1-3-7-14)13-29-15-10-11-17-16-8-4-5-9-18(16)23(28)30-19(17)12-15/h1-3,6-7,10-12,21H,4-5,8-9,13H2,(H,24,25)(H,26,27)/t21-/m0/s1
FORMULA=C23H21NO6
PUBMED=N/A
SUBMITUSER=BIOADREM
LIBRARYQUALITY=0
SPECTRUMID=CCMSLIB00000079884
SCANS=2081
ID=CCMSLIB00000079884
103.0542261926 	 2.24
106.0651252299 	 15.13
107.0491408147 	 31.25
117.0698762568 	 3.28
118.0651252299 	 41.75
128.0620512247 	 14.44
129.0698762568 	 3.91
135.0440554368 	 60.73
141.0698762568 	 2.14
143.085526321 	 23.72
145.0647908789 	 4.44
145.1011763852 	 2.23
147.0440554368 	 5.76
153.0698762568 	 5.97
159.0804409431 	 3.36
161.0960910073 	 3.47
163.0389700589 	 2.35
164.0706045383 	 4
171.0804409431 	 51.91
173.059705501 	 2.51
173.0960910073 	 10.83
175.0389700589 	 4.87
175.0753555652 	 3.14
187.0753555652 	 2.61
188.0831805973 	 5.76
189.0910056294 	 4.93
199.0753555652 	 17.84
201.0910056294 	 26.84
215.0702701873 	 4.76
216.0780952194 	 11.42
217.0859202515 	 100
229.0859202515 	 70.74
257.0808348736 	 3.36
274.1073839751 	 84.45
362.1386841035 	 7.01
408.1441634119 	 0.54
END IONS

BEGIN IONS
PEPMASS=653.245
CHARGE=1
MSLEVEL=2
RT=0
SOURCE_INSTRUMENT=qTOF
FILENAME=CCMSLIB00000079885.ms
IONMODE=Positive
ORGANISM=Natural
NAME=MLS000563030-01![5-hydroxy-6-[2-(3-hydroxy-4-methoxyphenyl)ethoxy]-2-(hydroxymethyl)-4-[(2R,3R,4R,5R,6S)-3,4,5-trihydroxy-6-methyloxan-2-yl]oxyoxan-3-yl] (E)-3-(4-hydroxy-3-methoxyphenyl)prop-2-enoate
PI=GNPS
DATACOLLECTOR=GNPS
SMILES=C[C@H]1[C@@H]([C@H]([C@H]([C@H](O1)OC1C(C(OCCc2ccc(c(c2)O)OC)OC(CO)C1OC(=O)/C=C/c1ccc(c(c1)OC)O)O)O)O)O
INCHI=InChI=1S/C31H40O15/c1-15-24(36)25(37)26(38)31(43-15)46-29-27(39)30(42-11-10-17-5-8-20(40-2)19(34)12-17)44-22(14-32)28(29)45-23(35)9-6-16-4-7-18(33)21(13-16)41-3/h4-9,12-13,15,22,24-34,36-39H,10-11,14H2,1-3H3/b9-6+/t15-,22?,24-,25+,26+,27?,28?,29?,30?,31+/m0/s1
FORMULA=C31H40O15
PUBMED=N/A
SUBMITUSER=BIOADREM
LIBRARYQUALITY=0
SPECTRUMID=CCMSLIB00000079885
SCANS=2082
ID=CCMSLIB00000079885
97.0284053726 	 0.619047619047619
117.0334907505 	 0.483809523809524
129.0546201231 	 0.354285714285714
129.0910056294 	 2.44952380952381
134.0362304047 	 0.24952380952381
145.0284053726 	 4.61333333333333
169.0495347452 	 0.276190476190476
177.0546201231 	 19.047619047619
181.0859202515 	 0.276190476190476
189.0546201231 	 0.220952380952381
191.0702701873 	 0.266666666666667
195.0651848094 	 0.992380952380952
217.0495347452 	 0.24952380952381
222.0158888931 	 1.53142857142857
233.0808348736 	 0.35047619047619
250.0413157826 	 1.7352380952381
255.086314182 	 0.24
265.0495347452 	 1.63238095238095
265.0859202515 	 1.59809523809524
313.1281789967 	 5.44190476190476
314.1148746562 	 2.99238095238095
317.1230936188 	 1.53142857142857
323.085526321 	 1.7352380952381
329.0867081125 	 1.7352380952381
347.1277850662 	 2.04
376.0882659752 	 1.56380952380952
379.0084577915 	 2.14285714285714
438.2248190361 	 0.259047619047619
459.1860878061 	 6.05523809523809
460.1727834656 	 2.27809523809524
460.2150422108 	 1.66666666666667
492.1626127098 	 1.9047619047619
504.1626127098 	 1.70095238095238
507.1860878061 	 19.047619047619
508.1939128382 	 4.48952380952381
509.2017378703 	 2.61904761904762
523.1657462945 	 3.40190476190476
541.1551816082 	 1.9047619047619
549.1391376135 	 1.66666666666667
638.2205215192 	 2.21142857142857
653.2439966155 	 100
END IONS

BEGIN IONS
PEPMASS=539.196
CHARGE=1
MSLEVEL=2
RT=0
SOURCE_INSTRUMENT=qTOF
FILENAME=CCMSLIB00000079887.ms
IONMODE=Positive
ORGANISM=Natural
NAME=MLS001140680-01!(2S)-1-[(2S)-2-[[(2S)-2-(2,4-dioxo-1H-quinazolin-3-yl)-3-phenylpropanoyl]amino]-4-methylsulfanylbutanoyl]pyrrolidine-2-carboxylic acid
PI=GNPS
DATACOLLECTOR=GNPS
SMILES=CSCC[C@@H](C(=O)N1CCC[C@H]1C(=O)O)N=C([C@H](Cc1ccccc1)n1c(=O)c2ccccc2nc1O)O
INCHI=InChI=1S/C27H30N4O6S/c1-38-15-13-20(25(34)30-14-7-12-21(30)26(35)36)28-23(32)22(16-17-8-3-2-4-9-17)31-24(33)18-10-5-6-11-19(18)29-27(31)37/h2-6,8-11,20-22H,7,12-16H2,1H3,(H,28,32)(H,29,37)(H,35,36)/t20-,21-,22-/m0/s1
FORMULA=C27H30N4O6S
PUBMED=N/A
SUBMITUSER=BIOADREM
LIBRARYQUALITY=0
SPECTRUMID=CCMSLIB00000079887
SCANS=2084
ID=CCMSLIB00000079887
103.0542261926 	 2.96
105.0573001978 	 0.38
120.0443897878 	 0.6
145.0396387609 	 0.33
146.0236543457 	 9.4
163.0502034472 	 6.59
194.0964253583 	 0.53
222.0913399804 	 0.51
247.0865889535 	 0.78
265.0971536398 	 100
266.0997961767 	 18.06
275.0815035756 	 1.05
293.0920682619 	 16.9
539.1958814064 	 0
END IONS

BEGIN IONS
PEPMASS=445.3164
CHARGE=1
MSLEVEL=2
RT=0
SOURCE_INSTRUMENT=qTOF
FILENAME=CCMSLIB00000079888.ms
IONMODE=Positive
ORGANISM=Natural
NAME=MLS001141073-01!1-[(2S)-2-amino-4-methylpentanoyl]-N-[(2S)-3-methyl-1-oxo-1-(1-phenylethylamino)butan-2-yl]piperidine-4-carboxamide
PI=GNPS
DATACOLLECTOR=GNPS
SMILES=CC(C)C[C@@H](C(=O)N1CCC(CC1)C(=N[C@@H](C(C)C)C(=NC(C)c1ccccc1)O)O)N
INCHI=InChI=1S/C25H40N4O3/c1-16(2)15-21(26)25(32)29-13-11-20(12-14-29)23(30)28-22(17(3)4)24(31)27-18(5)19-9-7-6-8-10-19/h6-10,16-18,20-22H,11-15,26H2,1-5H3,(H,27,31)(H,28,30)/t18?,21-,22-/m0/s1
FORMULA=C25H40N4O3
PUBMED=N/A
SUBMITUSER=BIOADREM
LIBRARYQUALITY=0
SPECTRUMID=CCMSLIB00000079888
SCANS=2085
ID=CCMSLIB00000079888
103.0542261926 	 0.95
105.0698762568 	 26.89
112.0756899162 	 100
114.0787639214 	 0.32
117.1022390177 	 4.36
129.1022390177 	 1.11
138.0913399804 	 0.37
140.1433755509 	 2.72
141.151200583 	 0.43
166.0862546025 	 0.64
181.1335391461 	 0.46
183.1491892103 	 34.23
209.1284537682 	 0.78
210.1600882476 	 1.42
211.1441038324 	 40.28
213.1471778376 	 0.47
221.1648392745 	 19.77
225.1597538966 	 0.82
228.1706529339 	 14.23
243.1703185829 	 0.65
279.2067040892 	 2.07
296.2332531907 	 8.03
324.2281678128 	 6.08
341.2547169143 	 1.37
445.3173171711 	 3.57
END IONS

BEGIN IONS
PEPMASS=240.102
CHARGE=1
MSLEVEL=2
RT=0
SOURCE_INSTRUMENT=qTOF
FILENAME=CCMSLIB00000079889.ms
IONMODE=Positive
ORGANISM=Natural
NAME=MLS001049111-01!ethyl 9H-carbazole-3-carboxylate
PI=GNPS
DATACOLLECTOR=GNPS
SMILES=CCOC(=O)c1ccc2c(c1)c1ccccc1[nH]2
INCHI=InChI=1S/C15H13NO2/c1-2-18-15(17)10-7-8-14-12(9-10)11-5-3-4-6-13(11)16-14/h3-9,16H,2H2,1H3
FORMULA=C15H13NO2
PUBMED=N/A
SUBMITUSER=BIOADREM
LIBRARYQUALITY=0
SPECTRUMID=CCMSLIB00000079889
SCANS=2086
ID=CCMSLIB00000079889
115.0542261926 	 0.92
128.0494751657 	 0.67
139.0542261926 	 11.28
141.0698762568 	 2.03
142.0651252299 	 2.48
153.0573001978 	 0.59
154.0651252299 	 0.35
165.0573001978 	 0.37
166.0651252299 	 19.96
167.072950262 	 100
168.0807752941 	 99.27
180.0807752941 	 0.52
194.060039852 	 12.26
240.1019046667 	 0
END IONS

BEGIN IONS
PEPMASS=493.209
CHARGE=1
MSLEVEL=2
RT=0
SOURCE_INSTRUMENT=qTOF
FILENAME=CCMSLIB00000079890.ms
IONMODE=Positive
ORGANISM=Natural
NAME=MLS001140708-01!1-[(2S)-2-[[(2S)-2-(2,4-dioxo-1H-quinazolin-3-yl)-3-phenylpropanoyl]amino]propanoyl]piperidine-4-carboxylic acid
PI=GNPS
DATACOLLECTOR=GNPS
SMILES=C[C@@H](C(=O)N1CCC(CC1)C(=O)O)N=C([C@H](Cc1ccccc1)n1c(=O)c2ccccc2nc1O)O
INCHI=InChI=1S/C26H28N4O6/c1-16(23(32)29-13-11-18(12-14-29)25(34)35)27-22(31)21(15-17-7-3-2-4-8-17)30-24(33)19-9-5-6-10-20(19)28-26(30)36/h2-10,16,18,21H,11-15H2,1H3,(H,27,31)(H,28,36)(H,34,35)/t16-,21-/m0/s1
FORMULA=C26H28N4O6
PUBMED=N/A
SUBMITUSER=BIOADREM
LIBRARYQUALITY=0
SPECTRUMID=CCMSLIB00000079890
SCANS=2087
ID=CCMSLIB00000079890
103.0542261926 	 4.07
112.0756899162 	 5.97
120.0443897878 	 0.71
130.0862546025 	 16.63
131.085526321 	 1.14
145.0396387609 	 0.6
146.0236543457 	 25.64
148.0267283509 	 0.33
156.1019046667 	 0.24
163.0502034472 	 12.19
194.0937452836 	 0.27
222.0886599057 	 1.06
237.099558943 	 0.69
238.1060413044 	 0.33
247.0839088788 	 1.51
265.0944735651 	 100
266.1009559265 	 19.7
275.0788235009 	 1.27
293.0893881872 	 12.45
294.0958705486 	 2.3
493.2081606522 	 0
END IONS

BEGIN IONS
PEPMASS=409.1757
CHARGE=1
MSLEVEL=2
RT=0
SOURCE_INSTRUMENT=qTOF
FILENAME=CCMSLIB00000079891.ms
IONMODE=Positive
ORGANISM=Natural
NAME=MLS001032262-01!2-[(4-ethyl-8,8-dimethyl-2-oxo-9,10-dihydropyrano[2,3-h]chromen-5-yl)oxy]-N-pyridin-3-ylacetamide
PI=GNPS
DATACOLLECTOR=GNPS
SMILES=CCc1cc(=O)oc2c3CCC(C)(C)Oc3cc(c12)OCC(=Nc1cccnc1)O
INCHI=InChI=1S/C23H24N2O5/c1-4-14-10-20(27)29-22-16-7-8-23(2,3)30-17(16)11-18(21(14)22)28-13-19(26)25-15-6-5-9-24-12-15/h5-6,9-12H,4,7-8,13H2,1-3H3,(H,25,26)
FORMULA=C23H24N2O5
PUBMED=N/A
SUBMITUSER=BIOADREM
LIBRARYQUALITY=0
SPECTRUMID=CCMSLIB00000079891
SCANS=2088
ID=CCMSLIB00000079891
95.060374203 	 3.03
107.060374203 	 51.64
119.0365647557 	 0.39
121.0396387609 	 1.84
121.0647908789 	 1.45
135.0552888251 	 100
136.0631138572 	 28.6
145.0647908789 	 0.81
147.0440554368 	 0.42
147.0804409431 	 0.64
149.059705501 	 1.36
157.0647908789 	 0.36
161.059705501 	 0.84
163.0753555652 	 3.28
173.059705501 	 1.35
175.0753555652 	 2.24
177.0546201231 	 1.44
189.0546201231 	 0.91
190.0624451552 	 2.17
191.0702701873 	 10.36
203.0702701873 	 6.82
217.0495347452 	 0.58
218.0573597773 	 0.88
219.0651848094 	 26.79
231.0651848094 	 25.49
233.0709388893 	 0.39
245.0808348736 	 0.38
246.125045412 	 0.62
259.0600994315 	 5.94
274.1199600341 	 3.23
287.1277850662 	 8.69
315.1226996883 	 2.12
325.1182830124 	 1.96
353.1131976345 	 44.68
381.1808832692 	 0.69
409.1757978913 	 24.94
END IONS

BEGIN IONS
PEPMASS=450.214
CHARGE=1
MSLEVEL=2
RT=0
SOURCE_INSTRUMENT=qTOF
FILENAME=CCMSLIB00000079892.ms
IONMODE=Positive
ORGANISM=Natural
NAME=MLS001158285-01!(2R)-2-[[(2S)-2-(1,2-dihydroimidazo[1,2-a]benzimidazole-3-carbonylamino)-4-methylpentanoyl]amino]-2-phenylacetic acid
PI=GNPS
DATACOLLECTOR=GNPS
SMILES=CC(C)C[C@@H](C(=N[C@H](c1ccccc1)C(=O)O)O)N=C(N1CCn2c3ccccc3nc12)O
INCHI=InChI=1S/C24H27N5O4/c1-15(2)14-18(21(30)27-20(22(31)32)16-8-4-3-5-9-16)26-24(33)29-13-12-28-19-11-7-6-10-17(19)25-23(28)29/h3-11,15,18,20H,12-14H2,1-2H3,(H,26,33)(H,27,30)(H,31,32)/t18-,20+/m0/s1
FORMULA=C24H27N5O4
PUBMED=N/A
SUBMITUSER=BIOADREM
LIBRARYQUALITY=0
SPECTRUMID=CCMSLIB00000079892
SCANS=2089
ID=CCMSLIB00000079892
105.0784295704 	 0.41
106.0988306615 	 3.01
107.085526321 	 2.26
120.1019046667 	 1.02
132.0893286077 	 7.42
134.1175547309 	 0.67
143.1066556936 	 0.5
172.1444381834 	 1.01
174.1838976949 	 0.54
185.1536058862 	 0.28
215.1628279018 	 1.11
217.203630084 	 1.42
229.2260968606 	 0.74
245.2097780944 	 2.77
450.2135803811 	 0
END IONS

BEGIN IONS
PEPMASS=515.229
CHARGE=1
MSLEVEL=2
RT=0
SOURCE_INSTRUMENT=qTOF
FILENAME=CCMSLIB00000079893.ms
IONMODE=Positive
ORGANISM=Natural
NAME=MLS001158447-01!(2R)-2-[[(2S)-2-[[(2S)-3-oxo-2-propan-2-yl-2,4-dihydroquinoxaline-1-carbonyl]amino]-3-phenylpropanoyl]amino]-2-phenylacetic acid
PI=GNPS
DATACOLLECTOR=GNPS
SMILES=CC(C)[C@H]1C(=Nc2ccccc2N1C(=N[C@@H](Cc1ccccc1)C(=N[C@H](c1ccccc1)C(=O)O)O)O)O
INCHI=InChI=1S/C29H30N4O5/c1-18(2)25-27(35)30-21-15-9-10-16-23(21)33(25)29(38)31-22(17-19-11-5-3-6-12-19)26(34)32-24(28(36)37)20-13-7-4-8-14-20/h3-16,18,22,24-25H,17H2,1-2H3,(H,30,35)(H,31,38)(H,32,34)(H,36,37)/t22-,24+,25-/m0/s1
FORMULA=C29H30N4O5
PUBMED=N/A
SUBMITUSER=BIOADREM
LIBRARYQUALITY=0
SPECTRUMID=CCMSLIB00000079893
SCANS=2090
ID=CCMSLIB00000079893
106.0287397236 	 1.38
106.0651252299 	 3.96
107.060374203 	 4.44
108.0681992351 	 5.31
119.060374203 	 27.62
120.0807752941 	 1.79
128.0494751657 	 1.96
132.0443897878 	 6.87
133.0396387609 	 15.84
135.0552888251 	 27.96
146.060039852 	 7.51
147.0552888251 	 100
148.0604337825 	 10.31
161.034553383 	 18.73
161.0709388893 	 3.82
163.1229744598 	 72.2
173.1073243956 	 3.28
174.0787639214 	 1.2
175.0502034472 	 3.08
175.0865889535 	 11.48
179.0451180693 	 18.81
189.1022390177 	 40.68
191.1178890819 	 6.03
202.0611024845 	 2.9
209.1073243956 	 1.25
217.0971536398 	 79.12
237.1022390177 	 1.41
244.1080526771 	 47.27
251.1152090072 	 1.54
265.1699246524 	 13.32
279.1101236293 	 2.86
293.1648392745 	 3.16
308.1757383118 	 18.7
309.1808832692 	 4.79
320.1492487898 	 1.2
336.1706529339 	 40.28
337.1757978913 	 8.5
515.2288960943 	 0
END IONS

BEGIN IONS
PEPMASS=402.192
CHARGE=1
MSLEVEL=2
RT=0
SOURCE_INSTRUMENT=qTOF
FILENAME=CCMSLIB00000079894.ms
IONMODE=Positive
ORGANISM=Natural
NAME=MLS001140977-01!4-[[[2-(3,4,7-trimethyl-2-oxochromen-5-yl)oxyacetyl]amino]methyl]cyclohexane-1-carboxylic acid
PI=GNPS
DATACOLLECTOR=GNPS
SMILES=Cc1cc(c2c(C)c(C)c(=O)oc2c1)OCC(=NC[C@H]1CC[C@@H](CC1)C(=O)O)O
INCHI=InChI=1S/C22H27NO6/c1-12-8-17(20-13(2)14(3)22(27)29-18(20)9-12)28-11-19(24)23-10-15-4-6-16(7-5-15)21(25)26/h8-9,15-16H,4-7,10-11H2,1-3H3,(H,23,24)(H,25,26)/t15-,16-
FORMULA=C22H27NO6
PUBMED=N/A
SUBMITUSER=BIOADREM
LIBRARYQUALITY=0
SPECTRUMID=CCMSLIB00000079894
SCANS=2091
ID=CCMSLIB00000079894
95.085526321 	 8.58
107.0491408147 	 1.99
110.060039852 	 3.9
112.1120754225 	 2.78
117.0698762568 	 1.99
121.0647908789 	 5.72
124.1120754225 	 1.93
128.0620512247 	 3.1
133.0647908789 	 3.57
133.1011763852 	 4.09
138.0913399804 	 3.15
140.1069900446 	 3.17
144.0569658468 	 2.38
147.0804409431 	 3.79
152.1069900446 	 6.92
153.1148150767 	 7.21
159.0804409431 	 15.69
161.059705501 	 18.73
161.0960910073 	 10.26
171.0804409431 	 1.88
174.0675305331 	 3.77
175.0753555652 	 15.61
176.0831805973 	 66.54
180.1019046667 	 4.3
189.0910056294 	 63.71
198.112469353 	 1.8
199.0753555652 	 3.4
203.0702701873 	 3.04
204.0780952194 	 27.74
205.0859202515 	 100
217.0859202515 	 82.62
245.0808348736 	 70.09
262.1073839751 	 57.72
274.1073839751 	 3.96
356.1856342961 	 36.97
402.1911136045 	 0
END IONS

BEGIN IONS
PEPMASS=436.1747
CHARGE=1
MSLEVEL=2
RT=0
SOURCE_INSTRUMENT=qTOF
FILENAME=CCMSLIB00000079895.ms
IONMODE=Positive
ORGANISM=Natural
NAME=MLS001158680-01!1-[2-(3-benzyl-4-methyl-2-oxochromen-7-yl)oxyacetyl]piperidine-4-carboxylic acid
PI=GNPS
DATACOLLECTOR=GNPS
SMILES=Cc1c2ccc(cc2oc(=O)c1Cc1ccccc1)OCC(=O)N1CCC(CC1)C(=O)O
INCHI=InChI=1S/C25H25NO6/c1-16-20-8-7-19(31-15-23(27)26-11-9-18(10-12-26)24(28)29)14-22(20)32-25(30)21(16)13-17-5-3-2-4-6-17/h2-8,14,18H,9-13,15H2,1H3,(H,28,29)
FORMULA=C25H25NO6
PUBMED=N/A
SUBMITUSER=BIOADREM
LIBRARYQUALITY=0
SPECTRUMID=CCMSLIB00000079895
SCANS=2092
ID=CCMSLIB00000079895
96.0807752941 	 2.69
99.0440554368 	 3.94
110.060039852 	 1.38
112.0756899162 	 6.76
114.0549544741 	 6.95
124.0756899162 	 3.74
125.0835149483 	 2.42
126.0913399804 	 15.94
128.0706045383 	 96.09
142.0862546025 	 100
167.085526321 	 1.61
170.0811692246 	 37.94
173.059705501 	 1.96
178.0777012889 	 8.58
193.1011763852 	 3.79
201.0546201231 	 5.07
205.1011763852 	 1.37
221.0960910073 	 12.06
223.0753555652 	 3.6
229.0495347452 	 4.86
233.0960910073 	 1.64
249.0910056294 	 7
251.0702701873 	 2.26
251.1066556936 	 9.72
266.0937452836 	 6.93
279.1015703157 	 30.03
281.0808348736 	 1.78
307.0964849378 	 3.52
320.1281194172 	 3.75
348.1230340393 	 3.13
358.1285133477 	 11.58
359.1277850662 	 1.63
362.1750696098 	 9.88
390.1699842319 	 19.94
418.164898854 	 4.33
436.1754635403 	 9.4
END IONS

BEGIN IONS
PEPMASS=407.222
CHARGE=1
MSLEVEL=2
RT=0
SOURCE_INSTRUMENT=qTOF
FILENAME=CCMSLIB00000079896.ms
IONMODE=Positive
ORGANISM=Natural
NAME=MLS002472956-01!(E)-1-[3-[(2E)-3,7-dimethylocta-2,6-dienyl]-2-hydroxy-4-methoxyphenyl]-3-(4-hydroxyphenyl)prop-2-en-1-one
PI=GNPS
DATACOLLECTOR=GNPS
SMILES=CC(=CCC/C(=C/Cc1c(ccc(C(=O)/C=C/c2ccc(cc2)O)c1O)OC)/C)C
INCHI=InChI=1S/C26H30O4/c1-18(2)6-5-7-19(3)8-14-23-25(30-4)17-15-22(26(23)29)24(28)16-11-20-9-12-21(27)13-10-20/h6,8-13,15-17,27,29H,5,7,14H2,1-4H3/b16-11+,19-8+
FORMULA=C26H30O4
PUBMED=N/A
SUBMITUSER=BIOADREM
LIBRARYQUALITY=0
SPECTRUMID=CCMSLIB00000079896
SCANS=2093
ID=CCMSLIB00000079896
105.0334907505 	 16.76
119.0491408147 	 0.49
133.0284053726 	 38.77
163.0389700589 	 100
181.0495347452 	 6.43
407.2216854514 	 0
END IONS

BEGIN IONS
PEPMASS=404.1586
CHARGE=1
MSLEVEL=2
RT=0
SOURCE_INSTRUMENT=qTOF
FILENAME=CCMSLIB00000079898.ms
IONMODE=Positive
ORGANISM=Natural
NAME=MLS001159087-01!N-(3-imidazol-1-ylpropyl)-2-(2-oxo-4-phenylchromen-7-yl)oxyacetamide
PI=GNPS
DATACOLLECTOR=GNPS
SMILES=c1ccc(cc1)c1cc(=O)oc2cc(ccc12)OCC(=NCCCn1ccnc1)O
INCHI=InChI=1S/C23H21N3O4/c27-22(25-9-4-11-26-12-10-24-16-26)15-29-18-7-8-19-20(17-5-2-1-3-6-17)14-23(28)30-21(19)13-18/h1-3,5-8,10,12-14,16H,4,9,11,15H2,(H,25,27)
FORMULA=C23H21N3O4
PUBMED=N/A
SUBMITUSER=BIOADREM
LIBRARYQUALITY=0
SPECTRUMID=CCMSLIB00000079898
SCANS=2094
ID=CCMSLIB00000079898
95.060374203 	 0.72
98.060039852 	 0.44
99.0678648841 	 37.86
152.0620512247 	 0.52
153.0658535114 	 0.34
165.0698762568 	 4.2
167.085526321 	 1.28
169.0647908789 	 0.41
177.0658535114 	 0.49
178.0777012889 	 0.53
179.0815035756 	 1.1
181.0647908789 	 1.22
183.0804409431 	 0.83
193.0647908789 	 1.35
195.0804409431 	 2.23
197.059705501 	 3.08
198.0635077877 	 0.39
205.0647908789 	 0.54
207.0764181977 	 0.65
209.059705501 	 2.18
221.059705501 	 4.18
223.0753555652 	 7.33
224.0791578519 	 1.57
233.059705501 	 0.38
235.0753555652 	 0.66
237.0546201231 	 0.44
238.0624451552 	 2.57
251.0702701873 	 100
254.0573597773 	 0.3
261.0546201231 	 0.4
262.0862546025 	 0.61
265.0859202515 	 0.34
277.0733441925 	 0.37
278.0811692246 	 11.08
279.0651848094 	 24.93
281.0682588146 	 0.65
290.0811692246 	 0.37
292.0968192888 	 0.48
296.0917339109 	 0.34
308.0917339109 	 1.36
318.112469353 	 0.49
336.1230340393 	 73.04
338.1261080445 	 1.45
404.1604821781 	 3.28
END IONS

BEGIN IONS
PEPMASS=271.097
CHARGE=1
MSLEVEL=2
RT=0
SOURCE_INSTRUMENT=qTOF
FILENAME=CCMSLIB00000079899.ms
IONMODE=Positive
ORGANISM=Natural
NAME=MLS002472907-01!4-hydroxy-9-(2-methylbut-3-en-2-yl)furo[3,2-g]chromen-7-one
PI=GNPS
DATACOLLECTOR=GNPS
SMILES=C=CC(C)(C)c1c2c(cco2)c(c2ccc(=O)oc12)O
INCHI=InChI=1S/C16H14O4/c1-4-16(2,3)12-14-10(7-8-19-14)13(18)9-5-6-11(17)20-15(9)12/h4-8,18H,1H2,2-3H3
FORMULA=C16H14O4
PUBMED=N/A
SUBMITUSER=BIOADREM
LIBRARYQUALITY=0
SPECTRUMID=CCMSLIB00000079899
SCANS=2095
ID=CCMSLIB00000079899
102.0464011605 	 2.69
103.0542261926 	 10.03
105.0334907505 	 1.44
115.0542261926 	 19.2
117.0698762568 	 12.49
127.0542261926 	 2.7
128.0620512247 	 4.88
129.0698762568 	 4.95
130.0413157826 	 0.91
131.0491408147 	 100
145.0647908789 	 35.98
147.0440554368 	 4.36
155.0491408147 	 5.36
157.0647908789 	 1.9
158.0362304047 	 1.4
159.0440554368 	 62.12
171.0804409431 	 1.64
173.059705501 	 51.24
183.0440554368 	 1.2
184.0518804689 	 1.29
185.059705501 	 5.24
187.0389700589 	 48.8
199.0753555652 	 4.13
201.0546201231 	 17.02
203.033884681 	 3.13
215.033884681 	 48.74
227.0702701873 	 2.47
229.0495347452 	 41.99
271.0964849378 	 0
END IONS

BEGIN IONS
PEPMASS=289.0702
CHARGE=1
MSLEVEL=2
RT=0
SOURCE_INSTRUMENT=qTOF
FILENAME=CCMSLIB00000079900.ms
IONMODE=Positive
ORGANISM=Natural
NAME=MLS000877024-01!2-(3,4-dihydroxyphenyl)-5,7-dihydroxy-2,3-dihydrochromen-4-one
PI=GNPS
DATACOLLECTOR=GNPS
SMILES=c1cc(c(cc1C1CC(=O)c2c(cc(cc2O1)O)O)O)O
INCHI=InChI=1S/C15H12O6/c16-8-4-11(19)15-12(20)6-13(21-14(15)5-8)7-1-2-9(17)10(18)3-7/h1-5,13,16-19H,6H2
FORMULA=C15H12O6
PUBMED=N/A
SUBMITUSER=BIOADREM
LIBRARYQUALITY=0
SPECTRUMID=CCMSLIB00000079900
SCANS=2096
ID=CCMSLIB00000079900
108.0569658468 	 2.28
111.0076699305 	 1.87
117.0334907505 	 9.98
123.0440554368 	 10.12
135.0440554368 	 21.65
153.0182346168 	 100
163.0389700589 	 25.21
180.0417097131 	 1.96
289.0706641178 	 3.1
END IONS

BEGIN IONS
PEPMASS=453.229
CHARGE=1
MSLEVEL=2
RT=0
SOURCE_INSTRUMENT=qTOF
FILENAME=CCMSLIB00000079901.ms
IONMODE=Positive
ORGANISM=Natural
NAME=MLS001158584-01!(3S)-N-[(2S)-3-(1H-indol-3-yl)-1-(3-methylanilino)-1-oxopropan-2-yl]-1,2,3,4-tetrahydroisoquinoline-3-carboxamide
PI=GNPS
DATACOLLECTOR=GNPS
SMILES=Cc1cccc(c1)N=C([C@H](Cc1c[nH]c2ccccc12)N=C([C@@H]1Cc2ccccc2CN1)O)O
INCHI=InChI=1S/C28H28N4O2/c1-18-7-6-10-22(13-18)31-28(34)26(15-21-17-29-24-12-5-4-11-23(21)24)32-27(33)25-14-19-8-2-3-9-20(19)16-30-25/h2-13,17,25-26,29-30H,14-16H2,1H3,(H,31,34)(H,32,33)/t25-,26-/m0/s1
FORMULA=C28H28N4O2
PUBMED=N/A
SUBMITUSER=BIOADREM
LIBRARYQUALITY=0
SPECTRUMID=CCMSLIB00000079901
SCANS=2097
ID=CCMSLIB00000079901
103.0542261926 	 1.31
105.0698762568 	 1.88
115.0542261926 	 3.65
117.0573001978 	 4.85
118.0651252299 	 0.82
130.0651252299 	 40.82
132.0807752941 	 100
142.0651252299 	 2.1
144.0807752941 	 0.6
159.0916743314 	 52.15
169.0760242672 	 1.85
170.060039852 	 2.66
187.0865889535 	 39.83
249.138624524 	 0.78
277.1335391461 	 2.09
318.1600882476 	 1.88
453.2285021638 	 0
END IONS

BEGIN IONS
PEPMASS=409.1754
CHARGE=1
MSLEVEL=2
RT=0
SOURCE_INSTRUMENT=qTOF
FILENAME=CCMSLIB00000079902.ms
IONMODE=Positive
ORGANISM=Natural
NAME=MLS001032330-01!N-pyridin-3-yl-2-[(3,4,8,8-tetramethyl-2-oxo-9,10-dihydropyrano[2,3-h]chromen-5-yl)oxy]acetamide
PI=GNPS
DATACOLLECTOR=GNPS
SMILES=Cc1c(C)c(=O)oc2c3CCC(C)(C)Oc3cc(c12)OCC(=Nc1cccnc1)O
INCHI=InChI=1S/C23H24N2O5/c1-13-14(2)22(27)29-21-16-7-8-23(3,4)30-17(16)10-18(20(13)21)28-12-19(26)25-15-6-5-9-24-11-15/h5-6,9-11H,7-8,12H2,1-4H3,(H,25,26)
FORMULA=C23H24N2O5
PUBMED=N/A
SUBMITUSER=BIOADREM
LIBRARYQUALITY=0
SPECTRUMID=CCMSLIB00000079902
SCANS=2098
ID=CCMSLIB00000079902
95.060374203 	 3.02
107.060374203 	 53.32
119.0365647557 	 0.49
121.0396387609 	 3.25
121.0647908789 	 1.71
135.0552888251 	 100
136.0631138572 	 29.35
145.0647908789 	 0.44
147.0440554368 	 0.45
147.0804409431 	 0.51
149.059705501 	 0.96
161.059705501 	 0.62
163.0753555652 	 2.93
173.059705501 	 1
175.0753555652 	 2.51
177.0546201231 	 0.62
189.0546201231 	 0.87
190.0624451552 	 2.76
191.0702701873 	 8.05
203.0702701873 	 4.02
217.0495347452 	 0.65
218.0573597773 	 1.38
219.0651848094 	 47.05
221.0709388893 	 0.86
231.0651848094 	 17.01
245.1172203799 	 0.46
246.125045412 	 0.49
247.0600994315 	 1.28
259.0600994315 	 5.65
259.0964849378 	 1.23
273.112135002 	 1.09
274.1199600341 	 8.14
287.1277850662 	 4.48
315.1226996883 	 2.99
325.1182830124 	 0.43
353.1131976345 	 35.18
409.1757978913 	 17.74
END IONS

BEGIN IONS
PEPMASS=587.3399
CHARGE=1
MSLEVEL=2
RT=0
SOURCE_INSTRUMENT=qTOF
FILENAME=CCMSLIB00000079903.ms
IONMODE=Positive
ORGANISM=Natural
NAME=MLS000863563-01!1,11,22-trihydroxy-1,6,11,16,22,27-hexazacyclodotriacontane-2,5,12,15,23,26-hexone
PI=GNPS
DATACOLLECTOR=GNPS
SMILES=C1CCN=C(CCC(=O)N(CCCCCN=C(CCC(=O)N(CCCCN=C(CCC(=O)N(CC1)O)O)O)O)O)O
INCHI=InChI=1S/C26H46N6O9/c33-21-9-12-24(36)30(39)18-6-2-4-16-28-22(34)10-14-26(38)32(41)20-8-5-17-29-23(35)11-13-25(37)31(40)19-7-1-3-15-27-21/h39-41H,1-20H2,(H,27,33)(H,28,34)(H,29,35)
FORMULA=C26H46N6O9
PUBMED=N/A
SUBMITUSER=BIOADREM
LIBRARYQUALITY=0
SPECTRUMID=CCMSLIB00000079903
SCANS=2099
ID=CCMSLIB00000079903
98.1090014173 	 3.94
100.0393044099 	 9.69
102.0913399804 	 28.57
112.0393044099 	 9.48
136.0631138572 	 4.81
137.1073243956 	 7.07
138.0913399804 	 5.54
140.0706045383 	 13.41
154.0862546025 	 38.34
165.1022390177 	 19.9
166.0862546025 	 5.32
169.0971536398 	 15.38
170.0811692246 	 11.73
183.112803704 	 21.14
184.0968192888 	 14.29
185.1284537682 	 6.56
187.1077183261 	 88.85
201.1233683903 	 100
237.1233683903 	 6.27
265.1182830124 	 7.29
269.1091748891 	 16.18
283.1288476987 	 19.61
284.1326499854 	 5.32
287.1197395754 	 6.41
301.139412385 	 16.55
302.1432146717 	 6.05
383.2248733489 	 4.74
387.219787971 	 68
388.2190596895 	 11.88
401.2354380352 	 30.1
402.2432630673 	 6.27
587.3399031067 	 21.57
END IONS

BEGIN IONS
PEPMASS=397.151
CHARGE=1
MSLEVEL=2
RT=0
SOURCE_INSTRUMENT=qTOF
FILENAME=CCMSLIB00000079904.ms
IONMODE=Positive
ORGANISM=Natural
NAME=MLS001158993-01!(2R)-2-[[2-[(3-oxo-2,4-dihydroquinoxaline-1-carbonyl)amino]acetyl]amino]-3-phenylpropanoic acid
PI=GNPS
DATACOLLECTOR=GNPS
SMILES=c1ccc(cc1)C[C@H](C(=O)O)N=C(CN=C(N1CC(=Nc2ccccc12)O)O)O
INCHI=InChI=1S/C20H20N4O5/c25-17(23-15(19(27)28)10-13-6-2-1-3-7-13)11-21-20(29)24-12-18(26)22-14-8-4-5-9-16(14)24/h1-9,15H,10-12H2,(H,21,29)(H,22,26)(H,23,25)(H,27,28)/t15-/m1/s1
FORMULA=C20H20N4O5
PUBMED=N/A
SUBMITUSER=BIOADREM
LIBRARYQUALITY=0
SPECTRUMID=CCMSLIB00000079904
SCANS=2100
ID=CCMSLIB00000079904
103.0542261926 	 3.59
118.0651252299 	 1.28
119.060374203 	 18.62
120.0807752941 	 28.68
121.0760242672 	 7.51
128.0494751657 	 1.3
131.060374203 	 2.39
132.0443897878 	 1.14
132.0681992351 	 4.12
146.060039852 	 4.27
147.0552888251 	 100
149.0709388893 	 16.72
175.0502034472 	 45.87
176.0818379266 	 2.98
204.0767525487 	 34.97
232.0716671708 	 3.1
397.1506457733 	 0
END IONS

BEGIN IONS
PEPMASS=409.2234
CHARGE=1
MSLEVEL=2
RT=0
SOURCE_INSTRUMENT=qTOF
FILENAME=CCMSLIB00000079905.ms
IONMODE=Positive
ORGANISM=Natural
NAME=MLS001140909-01!
PI=GNPS
DATACOLLECTOR=GNPS
SMILES=CC(C)[C@@H](C(=O)N1CCCC1)N1C(=O)[C@]2(C)c3c(CCN2C1=O)c1ccccc1[nH]3
INCHI=InChI=1S/C23H28N4O3/c1-14(2)18(20(28)25-11-6-7-12-25)27-21(29)23(3)19-16(10-13-26(23)22(27)30)15-8-4-5-9-17(15)24-19/h4-5,8-9,14,18,24H,6-7,10-13H2,1-3H3/t18-,23-/m0/s1
FORMULA=C23H28N4O3
PUBMED=N/A
SUBMITUSER=BIOADREM
LIBRARYQUALITY=0
SPECTRUMID=CCMSLIB00000079905
SCANS=2101
ID=CCMSLIB00000079905
117.0698762568 	 0.71
143.072950262 	 0.99
144.0807752941 	 49.66
168.0807752941 	 5.65
170.0838492993 	 0.83
183.0916743314 	 3.61
185.1073243956 	 67.44
211.0865889535 	 12.2
213.1022390177 	 5.95
239.0815035756 	 1.7
241.0845775808 	 2.81
256.1080526771 	 8.8
282.1600882476 	 50.06
292.1444381834 	 1.37
310.1550028697 	 100
409.2234167859 	 1.41
END IONS

BEGIN IONS
PEPMASS=395.077
CHARGE=1
MSLEVEL=2
RT=0
SOURCE_INSTRUMENT=qTOF
FILENAME=CCMSLIB00000079906.ms
IONMODE=Positive
ORGANISM=Natural
NAME=MLS000728534-01![6-methoxy-2-oxo-3-(2-oxochromen-7-yl)oxychromen-7-yl] acetate
PI=GNPS
DATACOLLECTOR=GNPS
SMILES=CC(=O)Oc1cc2c(cc1OC)cc(c(=O)o2)Oc1ccc2ccc(=O)oc2c1
INCHI=InChI=1S/C21H14O8/c1-11(22)26-18-10-16-13(7-17(18)25-2)8-19(21(24)29-16)27-14-5-3-12-4-6-20(23)28-15(12)9-14/h3-10H,1-2H3
FORMULA=C21H14O8
PUBMED=N/A
SUBMITUSER=BIOADREM
LIBRARYQUALITY=0
SPECTRUMID=CCMSLIB00000079906
SCANS=2102
ID=CCMSLIB00000079906
117.0334907505 	 2.51
118.0413157826 	 4.05
145.0284053726 	 2.81
146.0362304047 	 26.39
149.0233199947 	 8.06
151.0389700589 	 6.13
164.0104095847 	 4.83
164.046795091 	 4.93
165.0182346168 	 17
179.033884681 	 53.18
191.033884681 	 5.45
192.0417097131 	 10.6
209.0444493673 	 3.49
237.0546201231 	 3.82
249.0546201231 	 2.61
253.0495347452 	 5.81
265.0495347452 	 7.57
281.0444493673 	 6.69
282.0522743994 	 8.68
293.0444493673 	 4.86
309.0393639894 	 2.41
310.0471890215 	 21.89
321.0393639894 	 10.8
338.0421036436 	 42.19
353.0655787399 	 100
395.0761434262 	 0
END IONS

BEGIN IONS
PEPMASS=368.197
CHARGE=1
MSLEVEL=2
RT=0
SOURCE_INSTRUMENT=qTOF
FILENAME=CCMSLIB00000079907.ms
IONMODE=Positive
ORGANISM=Natural
NAME=MLS001158988-01!(3S)-N-[(2R)-1-[(4-methoxyphenyl)methylamino]-1-oxopropan-2-yl]-1,2,3,4-tetrahydroisoquinoline-3-carboxamide
PI=GNPS
DATACOLLECTOR=GNPS
SMILES=C[C@H](C(=NCc1ccc(cc1)OC)O)N=C([C@@H]1Cc2ccccc2CN1)O
INCHI=InChI=1S/C21H25N3O3/c1-14(20(25)23-12-15-7-9-18(27-2)10-8-15)24-21(26)19-11-16-5-3-4-6-17(16)13-22-19/h3-10,14,19,22H,11-13H2,1-2H3,(H,23,25)(H,24,26)/t14-,19+/m1/s1
FORMULA=C21H25N3O3
PUBMED=N/A
SUBMITUSER=BIOADREM
LIBRARYQUALITY=0
SPECTRUMID=CCMSLIB00000079907
SCANS=2103
ID=CCMSLIB00000079907
103.0542261926 	 0.91
105.0698762568 	 1.88
106.0413157826 	 0.84
115.0542261926 	 4.42
117.0573001978 	 5.41
121.0647908789 	 89.71
130.0651252299 	 44.74
132.0807752941 	 100
203.1178890819 	 2.25
368.1968676844 	 0
END IONS

BEGIN IONS
PEPMASS=203.0327
CHARGE=1
MSLEVEL=2
RT=0
SOURCE_INSTRUMENT=qTOF
FILENAME=CCMSLIB00000079909.ms
IONMODE=Positive
ORGANISM=Natural
NAME=MLS002472898-01!4-hydroxyfuro[3,2-g]chromen-7-one
PI=GNPS
DATACOLLECTOR=GNPS
SMILES=c1cc(=O)oc2cc3c(cco3)c(c12)O
INCHI=InChI=1S/C11H6O4/c12-10-2-1-6-9(15-10)5-8-7(11(6)13)3-4-14-8/h1-5,13H
FORMULA=C11H6O4
PUBMED=N/A
SUBMITUSER=BIOADREM
LIBRARYQUALITY=0
SPECTRUMID=CCMSLIB00000079909
SCANS=2105
ID=CCMSLIB00000079909
101.0385761284 	 2.13
103.0542261926 	 4.3
105.0334907505 	 2.42
119.0491408147 	 20.53
131.0491408147 	 31.32
147.0440554368 	 100
159.0440554368 	 13.01
203.033884681 	 24.2
END IONS

BEGIN IONS
PEPMASS=355.155
CHARGE=1
MSLEVEL=2
RT=0
SOURCE_INSTRUMENT=qTOF
FILENAME=CCMSLIB00000079910.ms
IONMODE=Positive
ORGANISM=Natural
NAME=MLS002472954-01!(E)-1-[2-hydroxy-3-(2-hydroxy-3-methylbut-3-enyl)-4-methoxyphenyl]-3-(4-hydroxyphenyl)prop-2-en-1-one
PI=GNPS
DATACOLLECTOR=GNPS
SMILES=C=C(C)C(Cc1c(ccc(C(=O)/C=C/c2ccc(cc2)O)c1O)OC)O
INCHI=InChI=1S/C21H22O5/c1-13(2)19(24)12-17-20(26-3)11-9-16(21(17)25)18(23)10-6-14-4-7-15(22)8-5-14/h4-11,19,22,24-25H,1,12H2,2-3H3/b10-6+
FORMULA=C21H22O5
PUBMED=N/A
SUBMITUSER=BIOADREM
LIBRARYQUALITY=0
SPECTRUMID=CCMSLIB00000079910
SCANS=2106
ID=CCMSLIB00000079910
103.0542261926 	 1.03
105.0334907505 	 5.98
115.0542261926 	 2.45
117.0698762568 	 1.47
119.0491408147 	 8.78
128.0620512247 	 5.62
129.0698762568 	 12.74
131.0491408147 	 2.53
133.0284053726 	 13.38
137.0233199947 	 1.25
145.0647908789 	 1.97
146.072615911 	 8.19
147.0440554368 	 9.78
149.0233199947 	 2.11
157.0647908789 	 8.62
158.072615911 	 8.46
159.0440554368 	 2.35
159.0804409431 	 1.15
160.0154949626 	 0.78
161.0960910073 	 7.48
163.0389700589 	 30.63
171.0440554368 	 1.98
171.0804409431 	 2.64
174.0675305331 	 9.01
175.0389700589 	 4.44
185.059705501 	 20.17
187.0389700589 	 8.8
187.0753555652 	 2.47
189.0546201231 	 3.29
189.0910056294 	 3.28
199.0753555652 	 4.65
202.0624451552 	 3.92
217.0859202515 	 100
355.1539998167 	 0
END IONS

BEGIN IONS
PEPMASS=521.24
CHARGE=1
MSLEVEL=2
RT=0
SOURCE_INSTRUMENT=qTOF
FILENAME=CCMSLIB00000079911.ms
IONMODE=Positive
ORGANISM=Natural
NAME=MLS001142435-01!
PI=GNPS
DATACOLLECTOR=GNPS
SMILES=C[C@@H](C(=NCCc1ccc(c(c1)OC)OC)O)N1C(=O)[C@]2(C)c3c(CCN2C1=O)c1cc(ccc1[nH]3)OC
INCHI=InChI=1S/C28H32N4O6/c1-16(25(33)29-12-10-17-6-9-22(37-4)23(14-17)38-5)32-26(34)28(2)24-19(11-13-31(28)27(32)35)20-15-18(36-3)7-8-21(20)30-24/h6-9,14-16,30H,10-13H2,1-5H3,(H,29,33)/t16-,28-/m0/s1
FORMULA=C28H32N4O6
PUBMED=N/A
SUBMITUSER=BIOADREM
LIBRARYQUALITY=0
SPECTRUMID=CCMSLIB00000079911
SCANS=2107
ID=CCMSLIB00000079911
105.0698762568 	 0.27
118.0413157826 	 0.38
122.072615911 	 0.27
133.0647908789 	 1.05
135.0440554368 	 0.68
150.0675305331 	 4.41
159.0651848094 	 1.29
160.0730098415 	 0.66
165.0910056294 	 15.03
174.0886599057 	 12.28
186.0886599057 	 0.48
198.0886599057 	 3.95
200.0679244636 	 0.5
213.099558943 	 2.35
215.1152090072 	 17.31
217.0944735651 	 0.54
226.0835745278 	 0.37
241.0944735651 	 19.03
242.0964253583 	 3.01
243.1101236293 	 2.71
267.1101236293 	 0.53
270.0913399804 	 0.7
284.1366727308 	 100
285.138624524 	 20.01
312.1315873529 	 23.14
313.1335391461 	 4.55
521.2394607806 	 0
END IONS

BEGIN IONS
PEPMASS=473.2071
CHARGE=1
MSLEVEL=2
RT=0
SOURCE_INSTRUMENT=qTOF
FILENAME=CCMSLIB00000079912.ms
IONMODE=Positive
ORGANISM=Natural
NAME=MLS001160496-01!
PI=GNPS
DATACOLLECTOR=GNPS
SMILES=Cc1coc2c(C)c3c(cc12)c(C)c(CCC(=O)N1C[C@H]2C[C@@H](C1)c1cccc(=O)n1C2)c(=O)o3
INCHI=InChI=1S/C28H28N2O5/c1-15-14-34-26-17(3)27-22(10-21(15)26)16(2)20(28(33)35-27)7-8-24(31)29-11-18-9-19(13-29)23-5-4-6-25(32)30(23)12-18/h4-6,10,14,18-19H,7-9,11-13H2,1-3H3/t18-,19+/m1/s1
FORMULA=C28H28N2O5
PUBMED=N/A
SUBMITUSER=BIOADREM
LIBRARYQUALITY=0
SPECTRUMID=CCMSLIB00000079912
SCANS=2108
ID=CCMSLIB00000079912
105.0698762568 	 0.39
128.0620512247 	 0.22
133.0647908789 	 0.27
141.0698762568 	 0.39
142.0777012889 	 0.72
152.0620512247 	 0.22
154.0777012889 	 0.75
157.1011763852 	 0.67
161.059705501 	 1.3
167.085526321 	 0.32
170.072615911 	 0.3
182.072615911 	 0.47
185.0960910073 	 1.53
198.0675305331 	 0.35
213.0910056294 	 8.21
227.1066556936 	 0.78
241.0859202515 	 100
255.1015703157 	 26.8
283.0964849378 	 42.43
473.2070980197 	 1.27
END IONS

BEGIN IONS
PEPMASS=549.306
CHARGE=1
MSLEVEL=2
RT=0
SOURCE_INSTRUMENT=qTOF
FILENAME=CCMSLIB00000079913.ms
IONMODE=Positive
ORGANISM=Natural
NAME=MLS002695970-01!
PI=GNPS
DATACOLLECTOR=GNPS
SMILES=CC1C(C(C(C(O1)OC1CCC2(C=O)C(CCC3C2CCC2(C)C(CCC32O)C2=CC(=O)OC2)C1)O)OC)O
INCHI=InChI=1S/C30H44O9/c1-16-24(33)26(36-3)25(34)27(38-16)39-19-6-10-29(15-31)18(13-19)4-5-22-21(29)7-9-28(2)20(8-11-30(22,28)35)17-12-23(32)37-14-17/h12,15-16,18-22,24-27,33-35H,4-11,13-14H2,1-3H3
FORMULA=C30H44O9
PUBMED=N/A
SUBMITUSER=BIOADREM
LIBRARYQUALITY=0
SPECTRUMID=CCMSLIB00000079913
SCANS=2109
ID=CCMSLIB00000079913
105.0698762568 	 2.00758699283451
107.085526321 	 1.61106514510514
111.0440554368 	 1.49398192235041
117.0698762568 	 2.10125357103829
119.085526321 	 1.42451254351593
121.1011763852 	 1.47056527779946
125.059705501 	 2.75457795400971
129.0698762568 	 2.17930905287478
131.085526321 	 1.70395116849056
133.1011763852 	 2.10125357103829
135.0804409431 	 1.17473500163917
143.0702701873 	 1.46275972961581
143.085526321 	 2.0544202819364
145.1011763852 	 3.0660193265373
147.1168264494 	 2.0231980892018
157.1011763852 	 2.25658397989291
159.1168264494 	 2.3346394617294
173.1324765136 	 1.94592316218368
181.1011763852 	 2.5836364487878
185.1324765136 	 2.54460870786955
187.1481265778 	 2.66169193062429
197.1324765136 	 2.67730302699159
199.1481265778 	 1.94592316218368
213.0546201231 	 1.73985669013535
219.1168264494 	 1.61106514510514
223.1481265778 	 2.63046973788969
227.1066556936 	 1.20595719437376
237.163776642 	 1.38548480259769
257.1536058862 	 1.41670699533228
262.1563455404 	 1.91782318872254
265.1586912641 	 1.3074293207612
267.1743413283 	 1.15990446009023
269.1536058862 	 2.75457795400971
283.1692559504 	 1.71956226485786
302.1301307899 	 2.94347222005401
307.2056414567 	 3.52498555973586
314.2240311751 	 2.94347222005401
315.2107268346 	 1.73985669013535
317.1899913925 	 1.28401267621025
325.1798206367 	 1.40109589896498
325.216206143 	 4.42028193640039
331.242026963 	 2.2300451160685
334.229116553 	 1.87333156407574
335.2005560788 	 5.70429461261064
353.2111207651 	 7.80554818364894
371.2216854514 	 1.8210343912453
389.2322501377 	 7.80554818364894
390.2400751698 	 3.21120252275317
407.2369415851 	 1.87333156407574
407.2639441966 	 1.82883993942895
408.2506398561 	 2.1855534914217
442.2502459256 	 1.96231481336934
467.1700438114 	 1.91782318872254
493.2432087545 	 1.87333156407574
507.2588588187 	 2.00680643801614
511.2326440682 	 2.1410618667749
549.3058090113 	 100
END IONS

BEGIN IONS
PEPMASS=392.1116
CHARGE=1
MSLEVEL=2
RT=0
SOURCE_INSTRUMENT=qTOF
FILENAME=CCMSLIB00000079915.ms
IONMODE=Positive
ORGANISM=Natural
NAME=MLS001140588-01!N-[3-(3,4-dimethoxyphenyl)-4-oxochromen-2-yl]furan-2-carboxamide
PI=GNPS
DATACOLLECTOR=GNPS
SMILES=COc1ccc(cc1OC)c1c(=O)c2ccccc2oc1N=C(c1ccco1)O
INCHI=InChI=1S/C22H17NO6/c1-26-16-10-9-13(12-18(16)27-2)19-20(24)14-6-3-4-7-15(14)29-22(19)23-21(25)17-8-5-11-28-17/h3-12H,1-2H3,(H,23,25)
FORMULA=C22H17NO6
PUBMED=N/A
SUBMITUSER=BIOADREM
LIBRARYQUALITY=0
SPECTRUMID=CCMSLIB00000079915
SCANS=2111
ID=CCMSLIB00000079915
95.0127553084 	 100
121.0284053726 	 33.82
135.0440554368 	 2.41
136.0518804689 	 4.19
137.059705501 	 4.03
151.0753555652 	 3.86
164.046795091 	 5.72
190.0260596489 	 4.83
196.0518804689 	 1.74
209.059705501 	 1.32
224.046795091 	 2.19
236.0679244636 	 1.63
239.0702701873 	 2.32
251.0576941283 	 1.9
254.0784891499 	 1.32
255.0651848094 	 1.59
267.0651848094 	 6.61
271.0964849378 	 1.33
279.0526087504 	 1.36
280.0604337825 	 7.68
282.0760838467 	 5.15
284.0679244636 	 6.69
294.0396983404 	 1.21
296.0917339109 	 1.78
297.099558943 	 2.03
299.0913995599 	 29.61
308.0553484046 	 13.09
309.0631734367 	 6.67
324.086648533 	 22.19
325.0944735651 	 4.85
392.1128632835 	 12.33
END IONS

BEGIN IONS
PEPMASS=529.245
CHARGE=1
MSLEVEL=2
RT=0
SOURCE_INSTRUMENT=qTOF
FILENAME=CCMSLIB00000079916.ms
IONMODE=Positive
ORGANISM=Natural
NAME=MLS001158376-01!(2S)-2-[[(2S)-2-[[(2S)-3-oxo-2-propan-2-yl-2,4-dihydroquinoxaline-1-carbonyl]amino]-3-phenylpropanoyl]amino]-3-phenylpropanoic acid
PI=GNPS
DATACOLLECTOR=GNPS
SMILES=CC(C)[C@H]1C(=Nc2ccccc2N1C(=N[C@@H](Cc1ccccc1)C(=N[C@@H](Cc1ccccc1)C(=O)O)O)O)O
INCHI=InChI=1S/C30H32N4O5/c1-19(2)26-28(36)31-22-15-9-10-16-25(22)34(26)30(39)33-23(17-20-11-5-3-6-12-20)27(35)32-24(29(37)38)18-21-13-7-4-8-14-21/h3-16,19,23-24,26H,17-18H2,1-2H3,(H,31,36)(H,32,35)(H,33,39)(H,37,38)/t23-,24-,26-/m0/s1
FORMULA=C30H32N4O5
PUBMED=N/A
SUBMITUSER=BIOADREM
LIBRARYQUALITY=0
SPECTRUMID=CCMSLIB00000079916
SCANS=2112
ID=CCMSLIB00000079916
107.060374203 	 3.69
119.060374203 	 19.72
120.0807752941 	 14.57
128.0494751657 	 3.74
133.0396387609 	 15.43
135.0552888251 	 30.91
146.060039852 	 14.49
147.0552888251 	 100
148.0631138572 	 19.43
161.034553383 	 22.51
161.0709388893 	 4.55
163.1229744598 	 76.33
173.1073243956 	 3.12
174.0787639214 	 1.02
175.0502034472 	 2.43
175.0865889535 	 12.26
189.1022390177 	 38.28
191.1178890819 	 8.41
202.0611024845 	 4.8
217.0971536398 	 99.43
244.1080526771 	 57.21
265.1335391461 	 3.56
265.1699246524 	 11.07
291.1491892103 	 1.52
293.1284537682 	 9.17
308.1757383118 	 27.21
319.1441038324 	 4.73
336.1706529339 	 56.89
364.165567556 	 1.12
529.2445461585 	 0
END IONS

BEGIN IONS
PEPMASS=487.198
CHARGE=1
MSLEVEL=2
RT=0
SOURCE_INSTRUMENT=qTOF
FILENAME=CCMSLIB00000079917.ms
IONMODE=Positive
ORGANISM=Natural
NAME=MLS001159173-01!(2S)-2-[[(2S)-2-[(3-oxo-2,4-dihydroquinoxaline-1-carbonyl)amino]-3-phenylpropanoyl]amino]-3-phenylpropanoic acid
PI=GNPS
DATACOLLECTOR=GNPS
SMILES=c1ccc(cc1)C[C@@H](C(=N[C@@H](Cc1ccccc1)C(=O)O)O)N=C(N1CC(=Nc2ccccc12)O)O
INCHI=InChI=1S/C27H26N4O5/c32-24-17-31(23-14-8-7-13-20(23)28-24)27(36)30-21(15-18-9-3-1-4-10-18)25(33)29-22(26(34)35)16-19-11-5-2-6-12-19/h1-14,21-22H,15-17H2,(H,28,32)(H,29,33)(H,30,36)(H,34,35)/t21-,22-/m0/s1
FORMULA=C27H26N4O5
PUBMED=N/A
SUBMITUSER=BIOADREM
LIBRARYQUALITY=0
SPECTRUMID=CCMSLIB00000079917
SCANS=2113
ID=CCMSLIB00000079917
103.0542261926 	 1.05
104.0494751657 	 0.41
105.0698762568 	 0.62
118.0651252299 	 0.99
119.060374203 	 14.42
120.0807752941 	 14.12
121.0760242672 	 12.26
128.0494751657 	 5.6
129.0546201231 	 0.62
130.0651252299 	 0.49
131.060374203 	 0.84
132.0681992351 	 2.05
133.0495347452 	 0.72
145.0760242672 	 1.65
146.060039852 	 21.14
147.0552888251 	 100
149.0709388893 	 4.79
160.0604337825 	 0.78
174.0661878624 	 0.99
175.0502034472 	 28.38
193.0607681335 	 0.51
202.0611024845 	 65.43
206.0937452836 	 1.03
221.1046443209 	 0.49
222.1025733687 	 0.42
223.1229744598 	 8.61
248.1043099699 	 0.82
249.099558943 	 2.55
250.1073839751 	 0.7
251.1178890819 	 13.46
265.1308590714 	 1.91
266.1287881192 	 2.95
277.0944735651 	 7.54
278.1022985972 	 1.97
293.1257736935 	 5.26
294.1237027413 	 24.72
322.1186173634 	 0.56
487.1975959659 	 0
END IONS

BEGIN IONS
PEPMASS=409.2235
CHARGE=1
MSLEVEL=2
RT=0
SOURCE_INSTRUMENT=qTOF
FILENAME=CCMSLIB00000079918.ms
IONMODE=Positive
ORGANISM=Natural
NAME=MLS001142925-01!
PI=GNPS
DATACOLLECTOR=GNPS
SMILES=Cc1cc(C)cc(c1)N=C(CCN=C(N1C[C@H]2C[C@@H](C1)c1cccc(=O)n1C2)O)O
INCHI=InChI=1S/C23H28N4O3/c1-15-8-16(2)10-19(9-15)25-21(28)6-7-24-23(30)26-12-17-11-18(14-26)20-4-3-5-22(29)27(20)13-17/h3-5,8-10,17-18H,6-7,11-14H2,1-2H3,(H,24,30)(H,25,28)/t17-,18+/m1/s1
FORMULA=C23H28N4O3
PUBMED=N/A
SUBMITUSER=BIOADREM
LIBRARYQUALITY=0
SPECTRUMID=CCMSLIB00000079918
SCANS=2114
ID=CCMSLIB00000079918
96.0443897878 	 0.4
105.0698762568 	 1.85
106.0651252299 	 0.7
107.072950262 	 1.29
120.0807752941 	 1.01
122.0964253583 	 21.82
130.0651252299 	 0.38
132.0443897878 	 1.33
132.0807752941 	 0.42
133.0522148199 	 1.48
146.060039852 	 7.09
146.0964253583 	 2.94
148.0756899162 	 18.62
158.060039852 	 2.37
158.0964253583 	 5.65
159.0678648841 	 1.23
160.0756899162 	 15.39
172.0756899162 	 3.47
174.0913399804 	 9.23
176.1069900446 	 2.8
189.1022390177 	 14.32
191.1178890819 	 43.45
199.0865889535 	 0.69
201.1022390177 	 0.53
216.113138055 	 0.37
217.0971536398 	 100
219.112803704 	 6.43
234.1237027413 	 69.91
246.1237027413 	 47.01
260.1393528055 	 0.66
288.1342674276 	 29.25
409.2234167859 	 0.6
END IONS

BEGIN IONS
PEPMASS=302.139
CHARGE=1
MSLEVEL=2
RT=0
SOURCE_INSTRUMENT=qTOF
FILENAME=CCMSLIB00000079919.ms
IONMODE=Positive
ORGANISM=Natural
NAME=MLS001158933-01!N-cyclopropyl-3-(7-methoxy-4-methyl-2-oxochromen-3-yl)propanamide
PI=GNPS
DATACOLLECTOR=GNPS
SMILES=Cc1c2ccc(cc2oc(=O)c1CCC(=NC1CC1)O)OC
INCHI=InChI=1S/C17H19NO4/c1-10-13-6-5-12(21-2)9-15(13)22-17(20)14(10)7-8-16(19)18-11-3-4-11/h5-6,9,11H,3-4,7-8H2,1-2H3,(H,18,19)
FORMULA=C17H19NO4
PUBMED=N/A
SUBMITUSER=BIOADREM
LIBRARYQUALITY=0
SPECTRUMID=CCMSLIB00000079919
SCANS=2115
ID=CCMSLIB00000079919
103.0542261926 	 0.32
115.0542261926 	 2.36
116.0620512247 	 1.7
119.085526321 	 0.37
121.0647908789 	 0.23
128.0620512247 	 1.98
129.0698762568 	 1.5
130.0777012889 	 0.42
131.0491408147 	 0.81
132.0569658468 	 3.63
141.0698762568 	 0.29
143.0491408147 	 0.39
144.0569658468 	 4.25
146.072615911 	 0.82
147.0804409431 	 3.58
149.059705501 	 0.27
157.0647908789 	 0.31
158.072615911 	 1.32
159.0804409431 	 1.11
160.0518804689 	 4.43
174.0675305331 	 1.2
175.0753555652 	 21.54
189.0910056294 	 1.99
203.0702701873 	 100
217.0859202515 	 11.88
245.0808348736 	 1.8
302.1386841035 	 0
END IONS

BEGIN IONS
PEPMASS=471.202
CHARGE=1
MSLEVEL=2
RT=0
SOURCE_INSTRUMENT=qTOF
FILENAME=CCMSLIB00000079920.ms
IONMODE=Positive
ORGANISM=Natural
NAME=MLS001143609-01!
PI=GNPS
DATACOLLECTOR=GNPS
SMILES=CC1(C)[C@@H]2CC(=O)[C@]3(C)[C@H](CC[C@@]4(C)[C@H](c5ccoc5)OC(=O)[C@@H]5[C@]34O5)C32COC(=O)C[C@@H]3O1
INCHI=InChI=1S/C26H30O8/c1-22(2)15-9-16(27)24(4)14(25(15)12-31-18(28)10-17(25)33-22)5-7-23(3)19(13-6-8-30-11-13)32-21(29)20-26(23,24)34-20/h6,8,11,14-15,17,19-20H,5,7,9-10,12H2,1-4H3/t14-,15-,17-,19-,20+,23-,24-,25?,26+/m0/s1
FORMULA=C26H30O8
PUBMED=N/A
SUBMITUSER=BIOADREM
LIBRARYQUALITY=0
SPECTRUMID=CCMSLIB00000079920
SCANS=2116
ID=CCMSLIB00000079920
95.0127553084 	 24.9
105.0698762568 	 29.44
107.085526321 	 10.02
109.0647908789 	 8.16
115.0542261926 	 8.68
119.085526321 	 11.57
121.0647908789 	 12.5
123.0804409431 	 8.47
129.0698762568 	 10.43
131.085526321 	 14.88
133.0647908789 	 27.69
133.1011763852 	 8.88
143.085526321 	 16.74
147.0804409431 	 8.37
149.0960910073 	 10.33
155.085526321 	 7.95
157.1011763852 	 11.36
159.0804409431 	 11.88
161.059705501 	 100
167.085526321 	 8.47
183.0804409431 	 10.02
187.0753555652 	 16.22
189.0910056294 	 8.78
197.0960910073 	 13.33
201.0910056294 	 11.57
241.0859202515 	 12.4
365.1747352588 	 12.29
425.1958646314 	 44.52
471.2013439398 	 0
END IONS

BEGIN IONS
PEPMASS=414.1551
CHARGE=1
MSLEVEL=2
RT=0
SOURCE_INSTRUMENT=qTOF
FILENAME=CCMSLIB00000079921.ms
IONMODE=Positive
ORGANISM=Natural
NAME=MLS000104989-01!
PI=GNPS
DATACOLLECTOR=GNPS
SMILES=CN1CCc2cc3c(c(c2C1C1c2ccc(c(c2C(=O)O1)OC)OC)OC)OCO3
INCHI=InChI=1S/C22H23NO7/c1-23-8-7-11-9-14-20(29-10-28-14)21(27-4)15(11)17(23)18-12-5-6-13(25-2)19(26-3)16(12)22(24)30-18/h5-6,9,17-18H,7-8,10H2,1-4H3
FORMULA=C22H23NO7
PUBMED=N/A
SUBMITUSER=BIOADREM
LIBRARYQUALITY=0
SPECTRUMID=CCMSLIB00000079921
SCANS=2117
ID=CCMSLIB00000079921
179.0702701873 	 7.07666666666667
204.0655191604 	 2.33
205.0733441925 	 30.29
206.0811692246 	 19.1133333333333
220.0968192888 	 100
234.0675305331 	 1.4
237.0546201231 	 2.12333333333333
249.0546201231 	 2.59
251.0702701873 	 2.74333333333333
252.0780952194 	 2.30666666666667
262.0624451552 	 3.24333333333333
263.0702701873 	 3.46
264.0780952194 	 3.82
265.0495347452 	 4.91
265.0859202515 	 2.67
275.0702701873 	 1.97333333333333
277.0495347452 	 2.75
277.0859202515 	 1.91333333333333
279.0651848094 	 4.09666666666667
280.0730098415 	 10.4533333333333
281.0808348736 	 4.39666666666667
289.0495347452 	 1.53666666666667
290.0573597773 	 1.4
291.0651848094 	 3.64333333333333
292.0730098415 	 3.34
293.0808348736 	 3.04333333333333
294.0886599057 	 0.586666666666667
295.0600994315 	 4.62333333333333
295.0964849378 	 7.41333333333333
296.1043099699 	 0.79
305.0808348736 	 2.49333333333333
306.0522743994 	 3.09666666666667
307.0600994315 	 8.58333333333333
307.0964849378 	 1.39333333333333
308.0679244636 	 3.93666666666667
309.0757494957 	 3.61666666666667
310.0835745278 	 4.12333333333333
319.0600994315 	 3.12333333333333
320.0679244636 	 1.35666666666667
321.0757494957 	 2.87333333333333
322.0835745278 	 5.23666666666667
323.0913995599 	 16.0166666666667
324.099224592 	 3.01333333333333
325.1070496241 	 5.78
334.0835745278 	 3.67666666666667
335.0550140536 	 1.93666666666667
335.0913995599 	 1.61666666666667
337.0706641178 	 2.63666666666667
338.0784891499 	 4.46333333333333
350.0784891499 	 6.22333333333333
352.0941392141 	 2.35666666666667
353.1019642462 	 32.3566666666667
365.1019642462 	 5.44666666666667
366.0972132193 	 3.83666666666667
381.1206883156 	 2.24
414.1547280982 	 2.79
END IONS

BEGIN IONS
PEPMASS=207.0633
CHARGE=1
MSLEVEL=2
RT=0
SOURCE_INSTRUMENT=qTOF
FILENAME=CCMSLIB00000079922.ms
IONMODE=Positive
ORGANISM=Natural
NAME=MLS002472928-01!
PI=GNPS
DATACOLLECTOR=GNPS
SMILES=COc1cc(c2ccc(=O)oc2c1)OC
INCHI=InChI=1S/C11H10O4/c1-13-7-5-9(14-2)8-3-4-11(12)15-10(8)6-7/h3-6H,1-2H3
FORMULA=C11H10O4
PUBMED=N/A
SUBMITUSER=BIOADREM
LIBRARYQUALITY=0
SPECTRUMID=CCMSLIB00000079922
SCANS=2118
ID=CCMSLIB00000079922
103.0178406863 	 1.16
103.0542261926 	 3.36
105.0334907505 	 3.64
106.0413157826 	 4.76
107.0491408147 	 9.26
110.0362304047 	 1.43
117.0334907505 	 1.46
118.0413157826 	 3.67
120.0569658468 	 3.25
121.0284053726 	 28.1
121.0647908789 	 20.73
123.0804409431 	 1.79
132.0569658468 	 1.51
133.0284053726 	 6.53
133.0647908789 	 3.73
134.0362304047 	 12.04
135.0440554368 	 21.35
136.0518804689 	 4.07
138.0311450268 	 1.42
145.0284053726 	 1.39
146.0362304047 	 14.18
148.0518804689 	 9.13
149.0233199947 	 100
151.0753555652 	 10.7
162.0311450268 	 13.01
163.0389700589 	 39.02
164.046795091 	 45.94
178.0624451552 	 1.12
179.0702701873 	 2.66
192.0417097131 	 42.62
207.0651848094 	 32.68
END IONS

BEGIN IONS
PEPMASS=271.097
CHARGE=1
MSLEVEL=2
RT=0
SOURCE_INSTRUMENT=qTOF
FILENAME=CCMSLIB00000079923.ms
IONMODE=Positive
ORGANISM=Natural
NAME=MLS001048978-01!
PI=GNPS
DATACOLLECTOR=GNPS
SMILES=CC(=CCOc1c2ccc(=O)oc2cc2c1cco2)C
INCHI=InChI=1S/C16H14O4/c1-10(2)5-7-19-16-11-3-4-15(17)20-14(11)9-13-12(16)6-8-18-13/h3-6,8-9H,7H2,1-2H3
FORMULA=C16H14O4
PUBMED=N/A
SUBMITUSER=BIOADREM
LIBRARYQUALITY=0
SPECTRUMID=CCMSLIB00000079923
SCANS=2119
ID=CCMSLIB00000079923
119.0491408147 	 2.13
129.0334907505 	 13.12
131.0491408147 	 11.36
146.0362304047 	 1.34
147.0440554368 	 100
157.0284053726 	 9.52
159.0440554368 	 8.33
174.0311450268 	 3.44
175.0389700589 	 21.25
202.0260596489 	 3.46
203.033884681 	 77.29
271.0964849378 	 0
END IONS

BEGIN IONS
PEPMASS=405.166
CHARGE=1
MSLEVEL=2
RT=0
SOURCE_INSTRUMENT=qTOF
FILENAME=CCMSLIB00000079925.ms
IONMODE=Positive
ORGANISM=Natural
NAME=MLS001139227-01!(2S)-1-(4,5-dimethoxy-3-oxo-1H-2-benzofuran-1-yl)-5-oxo-N-(oxolan-2-ylmethyl)pyrrolidine-2-carboxamide
PI=GNPS
DATACOLLECTOR=GNPS
SMILES=COc1ccc2c(c1OC)C(=O)OC2N1[C@@H](CCC1=O)C(=NCC1CCCO1)O
INCHI=InChI=1S/C20H24N2O7/c1-26-14-7-5-12-16(17(14)27-2)20(25)29-19(12)22-13(6-8-15(22)23)18(24)21-10-11-4-3-9-28-11/h5,7,11,13,19H,3-4,6,8-10H2,1-2H3,(H,21,24)/t11?,13-,19?/m0/s1
FORMULA=C20H24N2O7
PUBMED=N/A
SUBMITUSER=BIOADREM
LIBRARYQUALITY=0
SPECTRUMID=CCMSLIB00000079925
SCANS=2120
ID=CCMSLIB00000079925
103.0178406863 	 0.34
107.0491408147 	 1.78
108.0205803405 	 0.23
109.0284053726 	 2.75
121.0284053726 	 3.54
122.0362304047 	 3.67
132.0205803405 	 0.41
134.0362304047 	 0.45
135.0440554368 	 5.51
137.0233199947 	 1.69
137.059705501 	 0.65
149.0233199947 	 5.57
150.0311450268 	 5.05
163.0389700589 	 15.36
165.0546201231 	 0.8
175.0389700589 	 0.45
177.0182346168 	 0.44
178.0260596489 	 4.22
193.0495347452 	 100
276.1230340393 	 1.41
405.1656271355 	 0
END IONS

BEGIN IONS
PEPMASS=313.1067
CHARGE=1
MSLEVEL=2
RT=0
SOURCE_INSTRUMENT=qTOF
FILENAME=CCMSLIB00000079926.ms
IONMODE=Positive
ORGANISM=Natural
NAME=MLS001049139-01!5,7-dimethoxy-3-(4-methoxyphenyl)chromen-4-one
PI=GNPS
DATACOLLECTOR=GNPS
SMILES=COc1ccc(cc1)c1coc2cc(cc(c2c1=O)OC)OC
INCHI=InChI=1S/C18H16O5/c1-20-12-6-4-11(5-7-12)14-10-23-16-9-13(21-2)8-15(22-3)17(16)18(14)19/h4-10H,1-3H3
FORMULA=C18H16O5
PUBMED=N/A
SUBMITUSER=BIOADREM
LIBRARYQUALITY=0
SPECTRUMID=CCMSLIB00000079926
SCANS=2121
ID=CCMSLIB00000079926
95.0127553084 	 1.15
102.0464011605 	 1.03
117.0334907505 	 7.14
123.0076699305 	 1.05
132.0569658468 	 33.04
136.0154949626 	 0.91
138.0311450268 	 14.52
153.0698762568 	 1.68
166.0260596489 	 20.63
181.0647908789 	 2.84
199.0753555652 	 1.46
209.059705501 	 1.52
212.046795091 	 2.15
213.0910056294 	 7.18
223.0753555652 	 1.95
227.0702701873 	 7.43
240.0417097131 	 3.87
241.0859202515 	 4.48
252.0780952194 	 12.18
255.0651848094 	 23.52
268.0366243352 	 1.56
269.0808348736 	 20.79
270.0886599057 	 7.38
282.0522743994 	 4.43
283.0600994315 	 25.46
297.0757494957 	 38.56
298.0835745278 	 100
313.1070496241 	 66.06
END IONS

BEGIN IONS
PEPMASS=436.1755
CHARGE=1
MSLEVEL=2
RT=0
SOURCE_INSTRUMENT=qTOF
FILENAME=CCMSLIB00000079927.ms
IONMODE=Positive
ORGANISM=Natural
NAME=MLS001159061-01!1-[2-(4,7-dimethyl-2-oxochromen-5-yl)oxyacetyl]-4-phenylpiperidine-4-carboxylic acid
PI=GNPS
DATACOLLECTOR=GNPS
SMILES=Cc1cc(c2c(C)cc(=O)oc2c1)OCC(=O)N1CCC(CC1)(c1ccccc1)C(=O)O
INCHI=InChI=1S/C25H25NO6/c1-16-12-19(23-17(2)14-22(28)32-20(23)13-16)31-15-21(27)26-10-8-25(9-11-26,24(29)30)18-6-4-3-5-7-18/h3-7,12-14H,8-11,15H2,1-2H3,(H,29,30)
FORMULA=C25H25NO6
PUBMED=N/A
SUBMITUSER=BIOADREM
LIBRARYQUALITY=0
SPECTRUMID=CCMSLIB00000079927
SCANS=2122
ID=CCMSLIB00000079927
103.0542261926 	 3.97
105.0698762568 	 2.65
110.060039852 	 4.51
112.0756899162 	 4.33
115.0542261926 	 6.26
116.0620512247 	 3.09
117.0698762568 	 9.17
119.085526321 	 2.85
126.0549544741 	 4.03
128.0620512247 	 13.88
129.0698762568 	 8.95
131.085526321 	 9.59
141.0698762568 	 5.09
143.085526321 	 38.55
144.0569658468 	 4.43
145.0647908789 	 7.5
145.1011763852 	 3.24
147.0804409431 	 6.99
157.0647908789 	 2.39
158.0964253583 	 100
160.1120754225 	 15.54
162.0675305331 	 6.55
171.0804409431 	 3.56
172.1120754225 	 23.9
173.0960910073 	 4.04
175.0753555652 	 27.52
186.0913399804 	 8.36
187.0991650125 	 95.42
190.0624451552 	 28.33
190.1226401088 	 14.69
202.1226401088 	 13.79
203.0702701873 	 62.5
204.1019046667 	 30.16
216.1019046667 	 3.28
218.1175547309 	 49.82
246.112469353 	 6.26
390.1699842319 	 3.87
436.1754635403 	 10.04
END IONS

BEGIN IONS
PEPMASS=319.1183
CHARGE=1
MSLEVEL=2
RT=0
SOURCE_INSTRUMENT=qTOF
FILENAME=CCMSLIB00000079928.ms
IONMODE=Positive
ORGANISM=Natural
NAME=MLS000877020-01!3',4,6-trimethoxy-5'-methylspiro[1-benzofuran-2,4'-cyclohex-2-ene]-1',3-dione
PI=GNPS
DATACOLLECTOR=GNPS
SMILES=CC1CC(=O)C=C(C21C(=O)c1c(cc(cc1O2)OC)OC)OC
INCHI=InChI=1S/C17H18O6/c1-9-5-10(18)6-14(22-4)17(9)16(19)15-12(21-3)7-11(20-2)8-13(15)23-17/h6-9H,5H2,1-4H3
FORMULA=C17H18O6
PUBMED=N/A
SUBMITUSER=BIOADREM
LIBRARYQUALITY=0
SPECTRUMID=CCMSLIB00000079928
SCANS=2123
ID=CCMSLIB00000079928
95.0127553084 	 1.7
95.0491408147 	 2.02
107.0491408147 	 3.4
110.0362304047 	 1.68
122.0362304047 	 7.62
123.0440554368 	 1.6
125.059705501 	 1.95
135.0804409431 	 1.51
138.0311450268 	 12.28
150.0311450268 	 6.72
151.0389700589 	 2.23
163.0753555652 	 5.41
165.0546201231 	 80.18
166.0260596489 	 16.65
176.046795091 	 1.59
181.0495347452 	 100
190.0624451552 	 10.47
191.0702701873 	 3.18
193.0495347452 	 2.55
201.0546201231 	 3.14
207.0651848094 	 4.29
215.0702701873 	 1.93
219.0651848094 	 5.25
223.0964849378 	 6.27
230.0573597773 	 1.41
231.0651848094 	 1.63
231.1015703157 	 3.67
236.0679244636 	 8.08
243.0651848094 	 8.21
244.0730098415 	 4.17
245.0808348736 	 4.77
249.0757494957 	 1.74
251.0913995599 	 34.69
259.0600994315 	 1.61
259.0964849378 	 2.61
271.0600994315 	 1.47
272.0679244636 	 3.82
273.0757494957 	 2.42
277.0706641178 	 1.64
277.1070496241 	 2.33
287.0913995599 	 3.22
319.1176143104 	 0.39
END IONS

BEGIN IONS
PEPMASS=380.15
CHARGE=1
MSLEVEL=2
RT=0
SOURCE_INSTRUMENT=qTOF
FILENAME=CCMSLIB00000079929.ms
IONMODE=Positive
ORGANISM=Natural
NAME=MLS001158064-01!N-cyclopropyl-2-[4-(4-methoxyphenyl)-2-oxochromen-7-yl]oxypropanamide
PI=GNPS
DATACOLLECTOR=GNPS
SMILES=CC(C(=NC1CC1)O)Oc1ccc2c(cc(=O)oc2c1)c1ccc(cc1)OC
INCHI=InChI=1S/C22H21NO5/c1-13(22(25)23-15-5-6-15)27-17-9-10-18-19(12-21(24)28-20(18)11-17)14-3-7-16(26-2)8-4-14/h3-4,7-13,15H,5-6H2,1-2H3,(H,23,25)
FORMULA=C22H21NO5
PUBMED=N/A
SUBMITUSER=BIOADREM
LIBRARYQUALITY=0
SPECTRUMID=CCMSLIB00000079929
SCANS=2124
ID=CCMSLIB00000079929
107.0491408147 	 0.27
135.0440554368 	 8.33
153.0698762568 	 0.47
169.0647908789 	 0.77
197.059705501 	 0.61
198.0675305331 	 1.38
213.0910056294 	 7.2
226.0624451552 	 3.79
254.0573597773 	 6.05
269.0808348736 	 100
380.1492487898 	 0
END IONS

BEGIN IONS
PEPMASS=498.2163
CHARGE=1
MSLEVEL=2
RT=0
SOURCE_INSTRUMENT=qTOF
FILENAME=CCMSLIB00000079930.ms
IONMODE=Positive
ORGANISM=Natural
NAME=MLS001142919-01!
PI=GNPS
DATACOLLECTOR=GNPS
SMILES=CC(=Nc1ccc(cc1)NC(=O)[C@H](CCSC)N=C(N1C[C@H]2C[C@@H](C1)c1cccc(=O)n1C2)O)O
INCHI=InChI=1S/C25H31N5O4S/c1-16(31)26-19-6-8-20(9-7-19)27-24(33)21(10-11-35-2)28-25(34)29-13-17-12-18(15-29)22-4-3-5-23(32)30(22)14-17/h3-9,17-18,21H,10-15H2,1-2H3,(H,26,31)(H,27,33)(H,28,34)/t17-,18+,21+/m1/s1
FORMULA=C25H31N5O4S
PUBMED=N/A
SUBMITUSER=BIOADREM
LIBRARYQUALITY=0
SPECTRUMID=CCMSLIB00000079930
SCANS=2125
ID=CCMSLIB00000079930
132.0443897878 	 0.3
133.0522148199 	 0.45
146.060039852 	 3.79
148.0756899162 	 1.69
158.060039852 	 1.94
160.0756899162 	 8.59
172.0756899162 	 1.31
174.0913399804 	 3.99
189.1022390177 	 10.24
191.1178890819 	 4.79
217.0971536398 	 69.84
218.0997961767 	 12.18
235.1077183261 	 17.99
236.110360863 	 2.45
272.1393528055 	 100
320.1427236239 	 2.44
348.137638246 	 1.23
498.2169511995 	 0.16
END IONS

BEGIN IONS
PEPMASS=436.176
CHARGE=1
MSLEVEL=2
RT=0
SOURCE_INSTRUMENT=qTOF
FILENAME=CCMSLIB00000079931.ms
IONMODE=Positive
ORGANISM=Natural
NAME=MLS001140355-01!(2S)-2-[2-[(6-oxo-7,8,9,10-tetrahydrobenzo[c]chromen-3-yl)oxy]propanoylamino]-3-phenylpropanoic acid
PI=GNPS
DATACOLLECTOR=GNPS
SMILES=CC(C(=N[C@@H](Cc1ccccc1)C(=O)O)O)Oc1ccc2c3CCCCc3c(=O)oc2c1
INCHI=InChI=1S/C25H25NO6/c1-15(23(27)26-21(24(28)29)13-16-7-3-2-4-8-16)31-17-11-12-19-18-9-5-6-10-20(18)25(30)32-22(19)14-17/h2-4,7-8,11-12,14-15,21H,5-6,9-10,13H2,1H3,(H,26,27)(H,28,29)/t15?,21-/m0/s1
FORMULA=C25H25NO6
PUBMED=N/A
SUBMITUSER=BIOADREM
LIBRARYQUALITY=0
SPECTRUMID=CCMSLIB00000079931
SCANS=2126
ID=CCMSLIB00000079931
103.0542261926 	 7.93
105.0698762568 	 3.18
107.0491408147 	 4.68
115.0542261926 	 1.86
117.0698762568 	 3.18
120.0807752941 	 51.53
123.0440554368 	 3.53
128.0620512247 	 4.38
129.0698762568 	 6.13
131.0491408147 	 2.25
131.085526321 	 6.15
133.0647908789 	 2.9
143.085526321 	 12.05
145.0647908789 	 3.5
146.0964253583 	 20.75
147.0440554368 	 7.72
147.0804409431 	 6.63
149.059705501 	 11.46
153.0698762568 	 2.57
157.0647908789 	 1.73
159.0804409431 	 3.52
159.1168264494 	 2.6
161.059705501 	 3.85
171.0804409431 	 14.21
172.0882659752 	 3.88
173.059705501 	 13.14
175.0389700589 	 2.84
175.0753555652 	 2.55
187.0753555652 	 4.58
187.1117410715 	 15.22
201.0546201231 	 11.8
215.0702701873 	 12.25
215.1066556936 	 49.34
217.0859202515 	 47.08
227.0788235009 	 3.33
243.1015703157 	 100
390.1699842319 	 1.95
436.1754635403 	 0
END IONS

BEGIN IONS
PEPMASS=529.245
CHARGE=1
MSLEVEL=2
RT=0
SOURCE_INSTRUMENT=qTOF
FILENAME=CCMSLIB00000079933.ms
IONMODE=Positive
ORGANISM=Natural
NAME=MLS001140263-01!
PI=GNPS
DATACOLLECTOR=GNPS
SMILES=CCC(C)[C@@H](C(=O)N1CCC[C@@H]1C(=O)O)N=C([C@@H]1Cc2c3ccccc3[nH]c2C2c3ccccc3C(=O)N12)O
INCHI=InChI=1S/C30H32N4O5/c1-3-16(2)24(29(37)33-14-8-13-22(33)30(38)39)32-27(35)23-15-20-17-9-6-7-12-21(17)31-25(20)26-18-10-4-5-11-19(18)28(36)34(23)26/h4-7,9-12,16,22-24,26,31H,3,8,13-15H2,1-2H3,(H,32,35)(H,38,39)/t16?,22-,23+,24+,26?/m1/s1
FORMULA=C30H32N4O5
PUBMED=N/A
SUBMITUSER=BIOADREM
LIBRARYQUALITY=0
SPECTRUMID=CCMSLIB00000079933
SCANS=2128
ID=CCMSLIB00000079933
170.060039852 	 0.39
218.0964253583 	 0.21
230.0964253583 	 0.3
243.0916743314 	 0.22
245.1073243956 	 2.23
256.0994993635 	 2.23
257.1073243956 	 1.03
258.0787639214 	 0.22
271.0865889535 	 6.38
273.1022390177 	 100
274.1073839751 	 20.43
301.0971536398 	 1.18
302.1022985972 	 0.4
341.1648392745 	 0.22
368.1757383118 	 0.26
386.1863029981 	 2.69
387.1914479555 	 0.81
529.2445461585 	 0
END IONS

BEGIN IONS
PEPMASS=494.291
CHARGE=1
MSLEVEL=2
RT=0
SOURCE_INSTRUMENT=qTOF
FILENAME=CCMSLIB00000079934.ms
IONMODE=Positive
ORGANISM=Natural
NAME=MLS000563209-01!
PI=GNPS
DATACOLLECTOR=GNPS
SMILES=C[C@H]1CC=C[C@H]2[C@@H](C(=C(C)[C@H]3[C@H](Cc4ccccc4)N=C([C@@]23[C@@H](C=C[C@@](C)(C1)O)OC(=O)C)O)C)O
INCHI=InChI=1S/C30H39NO5/c1-18-10-9-13-23-27(33)20(3)19(2)26-24(16-22-11-7-6-8-12-22)31-28(34)30(23,26)25(36-21(4)32)14-15-29(5,35)17-18/h6-9,11-15,18,23-27,33,35H,10,16-17H2,1-5H3,(H,31,34)/t18-,23-,24-,25+,26-,27+,29-,30+/m0/s1
FORMULA=C30H39NO5
PUBMED=N/A
SUBMITUSER=BIOADREM
LIBRARYQUALITY=0
SPECTRUMID=CCMSLIB00000079934
SCANS=2129
ID=CCMSLIB00000079934
103.0542261926 	 16.67
107.085526321 	 10.41
119.085526321 	 17.12
120.0807752941 	 100
131.085526321 	 8.01
133.1011763852 	 9.41
135.0804409431 	 32.23
143.085526321 	 17.62
145.1011763852 	 30.18
146.060039852 	 10.86
147.1168264494 	 9.61
156.0933513531 	 9.86
157.1011763852 	 27.73
159.1168264494 	 13.91
161.0960910073 	 11.31
165.0698762568 	 9.66
169.1011763852 	 31.93
171.1168264494 	 27.08
173.0960910073 	 20.37
175.1117410715 	 8.71
181.1011763852 	 18.37
183.1168264494 	 18.47
185.1324765136 	 10.51
194.1090014173 	 8.76
197.1324765136 	 13.36
207.1168264494 	 10.41
209.1324765136 	 21.37
211.1481265778 	 17.62
223.1481265778 	 11.86
225.163776642 	 8.51
226.1226401088 	 8.71
237.163776642 	 8.76
241.1950767704 	 10.56
251.1794267062 	 34.63
252.138290173 	 9.81
269.1899913925 	 28.43
364.2634906866 	 10.66
392.2584053087 	 15.37
494.2900993676 	 0
END IONS

BEGIN IONS
PEPMASS=550.27
CHARGE=1
MSLEVEL=2
RT=0
SOURCE_INSTRUMENT=qTOF
FILENAME=CCMSLIB00000079935.ms
IONMODE=Positive
ORGANISM=Natural
NAME=MLS001075494-01!N-[(2S)-1-[(2-amino-2-oxoethyl)amino]-4-methyl-1-oxopentan-2-yl]-1-[1-(4-methylphenyl)sulfonylpiperidine-4-carbonyl]pyrrolidine-2-carboxamide
PI=GNPS
DATACOLLECTOR=GNPS
SMILES=CC(C)C[C@@H](C(=NCC(=N)O)O)N=C(C1CCCN1C(=O)C1CCN(CC1)S(=O)(=O)c1ccc(C)cc1)O
INCHI=InChI=1S/C26H39N5O6S/c1-17(2)15-21(24(33)28-16-23(27)32)29-25(34)22-5-4-12-31(22)26(35)19-10-13-30(14-11-19)38(36,37)20-8-6-18(3)7-9-20/h6-9,17,19,21-22H,4-5,10-16H2,1-3H3,(H2,27,32)(H,28,33)(H,29,34)/t21-,22?/m0/s1
FORMULA=C26H39N5O6S
PUBMED=N/A
SUBMITUSER=BIOADREM
LIBRARYQUALITY=0
SPECTRUMID=CCMSLIB00000079935
SCANS=2130
ID=CCMSLIB00000079935
155.0161261268 	 23.66
184.0426752283 	 41.6
185.0457867713 	 3.85
236.0739753567 	 0.71
238.0896254209 	 79.43
239.0927369639 	 10.85
240.087985937 	 4.61
266.084540043 	 100
267.087651586 	 16.29
268.0829005591 	 7.88
335.1410466022 	 16.47
336.1455008159 	 4.92
363.1359612243 	 19.62
364.140415438 	 4.28
550.2693807005 	 0
END IONS

BEGIN IONS
PEPMASS=563.229
CHARGE=1
MSLEVEL=2
RT=0
SOURCE_INSTRUMENT=qTOF
FILENAME=CCMSLIB00000079936.ms
IONMODE=Positive
ORGANISM=Natural
NAME=MLS001140675-01!
PI=GNPS
DATACOLLECTOR=GNPS
SMILES=Cc1ccc(cc1)C1c2c(C[C@H]3C(=O)N(c4ccccc4C(=O)N4CCC(CC4)C(=O)O)C(=O)N13)c1ccccc1[nH]2
INCHI=InChI=1S/C33H30N4O5/c1-19-10-12-20(13-11-19)29-28-24(22-6-2-4-8-25(22)34-28)18-27-31(39)37(33(42)36(27)29)26-9-5-3-7-23(26)30(38)35-16-14-21(15-17-35)32(40)41/h2-13,21,27,29,34H,14-18H2,1H3,(H,40,41)/t27-,29?/m0/s1
FORMULA=C33H30N4O5
PUBMED=N/A
SUBMITUSER=BIOADREM
LIBRARYQUALITY=0
SPECTRUMID=CCMSLIB00000079936
SCANS=2131
ID=CCMSLIB00000079936
105.0698762568 	 4.35
119.0491408147 	 1.26
120.0443897878 	 1.65
130.0651252299 	 0.64
144.0443897878 	 0.73
146.0236543457 	 7.95
193.0845775808 	 0.59
194.0964253583 	 1.11
217.0886003262 	 5.48
218.0964253583 	 100
219.100227645 	 21.41
222.0913399804 	 43.4
223.0964849378 	 7.37
230.0964253583 	 1.18
231.1042503904 	 10.18
232.1120754225 	 46.24
233.1199004546 	 41.53
244.1120754225 	 33.56
245.1158777092 	 8.79
246.0913399804 	 2.55
250.0862546025 	 37.98
251.0913995599 	 7.61
259.1229744598 	 1.73
272.1069900446 	 14.7
273.1107923313 	 3.02
287.1178890819 	 8.89
299.0788235009 	 1.85
345.138624524 	 0.68
356.1281194172 	 0.58
358.1100640498 	 1.07
363.1491892103 	 4.12
364.1543341677 	 1.34
373.1335391461 	 3.66
374.1386841035 	 0.67
376.1179486614 	 1.33
390.1335987256 	 1.01
391.1441038324 	 45.65
392.1492487898 	 12.5
406.1550028697 	 8.61
407.1601478271 	 3.73
408.1679728592 	 0.6
434.1499174918 	 41.22
563.2288960943 	 0
END IONS

BEGIN IONS
PEPMASS=458.2188
CHARGE=1
MSLEVEL=2
RT=0
SOURCE_INSTRUMENT=qTOF
FILENAME=CCMSLIB00000079937.ms
IONMODE=Positive
ORGANISM=Natural
NAME=MLS001158165-01!(2S)-1-[2-[(4-butyl-8,8-dimethyl-2-oxo-9,10-dihydropyrano[2,3-h]chromen-5-yl)oxy]acetyl]pyrrolidine-2-carboxylic acid
PI=GNPS
DATACOLLECTOR=GNPS
SMILES=CCCCc1cc(=O)oc2c3CCC(C)(C)Oc3cc(c12)OCC(=O)N1CCC[C@H]1C(=O)O
INCHI=InChI=1S/C25H31NO7/c1-4-5-7-15-12-21(28)32-23-16-9-10-25(2,3)33-18(16)13-19(22(15)23)31-14-20(27)26-11-6-8-17(26)24(29)30/h12-13,17H,4-11,14H2,1-3H3,(H,29,30)/t17-/m0/s1
FORMULA=C25H31NO7
PUBMED=N/A
SUBMITUSER=BIOADREM
LIBRARYQUALITY=0
SPECTRUMID=CCMSLIB00000079937
SCANS=2132
ID=CCMSLIB00000079937
98.060039852 	 17.92
100.0756899162 	 17.34
123.0804409431 	 1.27
128.0706045383 	 41.87
131.085526321 	 1.33
133.1011763852 	 1.81
149.059705501 	 1.62
149.0960910073 	 1.55
151.0389700589 	 2.84
156.0655191604 	 56.82
161.059705501 	 1.65
163.0389700589 	 2.49
165.0546201231 	 2.96
177.0546201231 	 2.94
177.0910056294 	 2.14
189.0546201231 	 3.97
191.033884681 	 10.49
191.1066556936 	 2.02
201.0910056294 	 5.78
203.1066556936 	 1.17
205.0495347452 	 6.25
205.0859202515 	 6.11
217.0495347452 	 8.29
219.1015703157 	 17.93
229.0859202515 	 1.65
231.1015703157 	 8.13
247.0964849378 	 100
259.0964849378 	 18.31
273.112135002 	 4.4
287.0913995599 	 12.05
315.1590851946 	 2.79
343.1539998167 	 1.53
374.1598134761 	 1.51
402.1547280982 	 26.41
458.217328355 	 4.95
END IONS

BEGIN IONS
PEPMASS=151.124
CHARGE=1
MSLEVEL=2
RT=0
SOURCE_INSTRUMENT=qTOF
FILENAME=CCMSLIB00000079938.ms
IONMODE=Positive
ORGANISM=Natural
NAME=MLS000515960-01!
PI=GNPS
DATACOLLECTOR=GNPS
SMILES=CCc1c(CC)nc(C)cn1
INCHI=InChI=1S/C9H14N2/c1-4-8-9(5-2)11-7(3)6-10-8/h6H,4-5H2,1-3H3
FORMULA=C9H14N2
PUBMED=N/A
SUBMITUSER=BIOADREM
LIBRARYQUALITY=0
SPECTRUMID=CCMSLIB00000079938
SCANS=2133
ID=CCMSLIB00000079938
107.060374203 	 20.49
108.0681992351 	 8.8
109.0760242672 	 7.89
121.0760242672 	 4.86
135.0916743314 	 100
136.0994993635 	 23.07
151.1229744598 	 0
END IONS

BEGIN IONS
PEPMASS=495.261
CHARGE=1
MSLEVEL=2
RT=0
SOURCE_INSTRUMENT=qTOF
FILENAME=CCMSLIB00000079939.ms
IONMODE=Positive
ORGANISM=Natural
NAME=MLS001032302-01!(2S)-2-[[(2S)-3-methyl-2-[[(2S)-3-oxo-2-propan-2-yl-2,4-dihydroquinoxaline-1-carbonyl]amino]pentanoyl]amino]-3-phenylpropanoic acid
PI=GNPS
DATACOLLECTOR=GNPS
SMILES=CCC(C)[C@@H](C(=N[C@@H](Cc1ccccc1)C(=O)O)O)N=C(N1c2ccccc2N=C([C@@H]1C(C)C)O)O
INCHI=InChI=1S/C27H34N4O5/c1-5-17(4)22(24(32)29-20(26(34)35)15-18-11-7-6-8-12-18)30-27(36)31-21-14-10-9-13-19(21)28-25(33)23(31)16(2)3/h6-14,16-17,20,22-23H,5,15H2,1-4H3,(H,28,33)(H,29,32)(H,30,36)(H,34,35)/t17?,20-,22-,23-/m0/s1
FORMULA=C27H34N4O5
PUBMED=N/A
SUBMITUSER=BIOADREM
LIBRARYQUALITY=0
SPECTRUMID=CCMSLIB00000079939
SCANS=2134
ID=CCMSLIB00000079939
106.0287397236 	 1.27
107.060374203 	 4.11
117.0447241388 	 1.23
119.060374203 	 27.18
120.0807752941 	 6.66
128.0494751657 	 0.7
131.072950262 	 1.09
133.0396387609 	 18.26
135.0552888251 	 27.91
146.060039852 	 2.04
146.0964253583 	 3.05
147.0552888251 	 82.68
161.034553383 	 21.22
161.0709388893 	 4.39
163.1229744598 	 100
173.1073243956 	 1.86
174.0787639214 	 0.7
175.0865889535 	 11.04
189.1022390177 	 39.72
191.1178890819 	 3.9
199.0865889535 	 0.8
206.1287881192 	 3.46
217.0971536398 	 66.41
231.1491892103 	 2.31
231.1855747166 	 0.93
234.1237027413 	 3.51
259.1441038324 	 5.73
274.191388376 	 15.52
302.1863029981 	 56.81
330.1812176202 	 1.16
495.2601962227 	 0
END IONS

BEGIN IONS
PEPMASS=438.1911
CHARGE=1
MSLEVEL=2
RT=0
SOURCE_INSTRUMENT=qTOF
FILENAME=CCMSLIB00000079940.ms
IONMODE=Positive
ORGANISM=Natural
NAME=MLS001141214-01!N-[(3-methoxyphenyl)methyl]-2-[(4,8,8-trimethyl-2-oxo-9,10-dihydropyrano[2,3-h]chromen-5-yl)oxy]acetamide
PI=GNPS
DATACOLLECTOR=GNPS
SMILES=Cc1cc(=O)oc2c3CCC(C)(C)Oc3cc(c12)OCC(=NCc1cccc(c1)OC)O
INCHI=InChI=1S/C25H27NO6/c1-15-10-22(28)31-24-18-8-9-25(2,3)32-19(18)12-20(23(15)24)30-14-21(27)26-13-16-6-5-7-17(11-16)29-4/h5-7,10-12H,8-9,13-14H2,1-4H3,(H,26,27)
FORMULA=C25H27NO6
PUBMED=N/A
SUBMITUSER=BIOADREM
LIBRARYQUALITY=0
SPECTRUMID=CCMSLIB00000079940
SCANS=2135
ID=CCMSLIB00000079940
103.0542261926 	 0.76
105.0334907505 	 2.88
106.0413157826 	 1.05
107.0491408147 	 1.6
109.0647908789 	 27.05
115.0542261926 	 0.5
118.0651252299 	 1.07
121.0647908789 	 100
131.0491408147 	 0.79
133.0647908789 	 1.43
136.0756899162 	 0.9
137.059705501 	 32.16
149.059705501 	 3.85
150.0913399804 	 4.53
151.0389700589 	 0.53
160.0756899162 	 1.33
161.059705501 	 2.73
163.0627795062 	 0.7
176.046795091 	 2.17
177.0546201231 	 2.58
178.0862546025 	 15.79
189.0546201231 	 0.84
204.0417097131 	 0.99
205.0495347452 	 26.1
217.0495347452 	 4.9
231.0651848094 	 0.68
245.0444493673 	 2.07
245.0808348736 	 0.56
273.112135002 	 0.86
382.1285133477 	 7.12
438.1911136045 	 4.23
END IONS

BEGIN IONS
PEPMASS=217.134
CHARGE=1
MSLEVEL=2
RT=0
SOURCE_INSTRUMENT=qTOF
FILENAME=CCMSLIB00000079941.ms
IONMODE=Positive
ORGANISM=Natural
NAME=MLS001049053-01!7-methoxy-1-methyl-2,3,4,9-tetrahydro-1H-pyrido[3,4-b]indole
PI=GNPS
DATACOLLECTOR=GNPS
SMILES=CC1c2c(CCN1)c1ccc(cc1[nH]2)OC
INCHI=InChI=1S/C13H16N2O/c1-8-13-11(5-6-14-8)10-4-3-9(16-2)7-12(10)15-13/h3-4,7-8,14-15H,5-6H2,1-2H3
FORMULA=C13H16N2O
PUBMED=N/A
SUBMITUSER=BIOADREM
LIBRARYQUALITY=0
SPECTRUMID=CCMSLIB00000079941
SCANS=2136
ID=CCMSLIB00000079941
103.0542261926 	 2.42
115.0542261926 	 5.74
118.0651252299 	 1.76
128.0620512247 	 5.55
129.0698762568 	 6.32
130.0651252299 	 40.34
131.072950262 	 7.6
132.0443897878 	 2.91
133.0522148199 	 2.75
136.0756899162 	 0.94
142.0651252299 	 6.9
143.072950262 	 5.86
144.0807752941 	 22.68
145.0886003262 	 63.97
146.060039852 	 2.02
147.0678648841 	 2.97
154.0651252299 	 7.64
155.072950262 	 4.51
156.0807752941 	 33.46
157.0886003262 	 37.22
158.060039852 	 56.2
159.0678648841 	 9.01
161.0835149483 	 2
167.072950262 	 4.78
168.0807752941 	 14.89
169.0886003262 	 11.49
170.060039852 	 27.37
172.0756899162 	 16.74
173.0835149483 	 100
184.0756899162 	 10.46
185.0835149483 	 19.22
187.0991650125 	 3.46
188.1069900446 	 78.25
200.1069900446 	 13.46
217.1335391461 	 0
END IONS

BEGIN IONS
PEPMASS=468.1705
CHARGE=1
MSLEVEL=2
RT=0
SOURCE_INSTRUMENT=qTOF
FILENAME=CCMSLIB00000079942.ms
IONMODE=Positive
ORGANISM=Natural
NAME=MLS001160398-01!(2R)-2-[[(2S)-2-(1,2-dihydroimidazo[1,2-a]benzimidazole-3-carbonylamino)-4-methylsulfanylbutanoyl]amino]-2-phenylacetic acid
PI=GNPS
DATACOLLECTOR=GNPS
SMILES=CSCC[C@@H](C(=N[C@H](c1ccccc1)C(=O)O)O)N=C(N1CCn2c3ccccc3nc12)O
INCHI=InChI=1S/C23H25N5O4S/c1-33-14-11-17(20(29)26-19(21(30)31)15-7-3-2-4-8-15)25-23(32)28-13-12-27-18-10-6-5-9-16(18)24-22(27)28/h2-10,17,19H,11-14H2,1H3,(H,25,32)(H,26,29)(H,30,31)/t17-,19+/m0/s1
FORMULA=C23H25N5O4S
PUBMED=N/A
SUBMITUSER=BIOADREM
LIBRARYQUALITY=0
SPECTRUMID=CCMSLIB00000079942
SCANS=2137
ID=CCMSLIB00000079942
101.0055614405 	 0.28
106.0651252299 	 0.4
107.047798144 	 1.21
118.0525491709 	 0.93
119.060374203 	 4.37
127.0502034472 	 1.39
130.032110542 	 0.73
131.060374203 	 0.28
133.0733441925 	 0.71
134.0712732403 	 0.44
135.0427127661 	 2
145.0396387609 	 0.3
158.0270251641 	 2.67
158.0712732403 	 1.46
159.0790982724 	 8.84
160.0869233045 	 100
172.0869233045 	 1.61
198.1025733687 	 11.9
199.1077183261 	 1.97
215.0815035756 	 2
229.1083870281 	 0.35
241.1083870281 	 26.49
261.086982884 	 0.63
262.0896254209 	 0.51
289.1117578465 	 7.09
290.1135319855 	 1.57
335.1172371549 	 0.48
468.1700010069 	 0.29
END IONS

BEGIN IONS
PEPMASS=301.108
CHARGE=1
MSLEVEL=2
RT=0
SOURCE_INSTRUMENT=qTOF
FILENAME=CCMSLIB00000079943.ms
IONMODE=Positive
ORGANISM=Natural
NAME=MLS000863647-01!(E)-1-(2,3-dihydroxy-4,6-dimethoxyphenyl)-3-phenylprop-2-en-1-one
PI=GNPS
DATACOLLECTOR=GNPS
SMILES=COc1cc(c(c(c1C(=O)/C=C/c1ccccc1)O)O)OC
INCHI=InChI=1S/C17H16O5/c1-21-13-10-14(22-2)16(19)17(20)15(13)12(18)9-8-11-6-4-3-5-7-11/h3-10,19-20H,1-2H3/b9-8+
FORMULA=C17H16O5
PUBMED=N/A
SUBMITUSER=BIOADREM
LIBRARYQUALITY=0
SPECTRUMID=CCMSLIB00000079943
SCANS=2138
ID=CCMSLIB00000079943
97.0284053726 	 1.85
98.0362304047 	 1.9
103.0542261926 	 9.35
107.0127553084 	 1.55
108.0205803405 	 1.18
111.0076699305 	 2.78
124.0154949626 	 3.73
126.0311450268 	 4.03
131.0491408147 	 2.96
136.0154949626 	 6.73
137.0233199947 	 1.52
139.0025845526 	 25.72
141.0182346168 	 3.8
152.0104095847 	 2.2
153.0182346168 	 100
154.0260596489 	 24.04
165.0546201231 	 6.1
166.9974991747 	 35.41
169.0131492389 	 17.12
181.0131492389 	 2.96
182.020974271 	 81.14
197.0444493673 	 68.12
301.1104204425 	 0.64
END IONS

BEGIN IONS
PEPMASS=377.15
CHARGE=1
MSLEVEL=2
RT=0
SOURCE_INSTRUMENT=qTOF
FILENAME=CCMSLIB00000079944.ms
IONMODE=Positive
ORGANISM=Natural
NAME=MLS001140218-01!3-(3,5-dimethyl-7-oxofuro[3,2-g]chromen-6-yl)-N-(pyridin-2-ylmethyl)propanamide
PI=GNPS
DATACOLLECTOR=GNPS
SMILES=Cc1coc2cc3c(cc12)c(C)c(CCC(=NCc1ccccn1)O)c(=O)o3
INCHI=InChI=1S/C22H20N2O4/c1-13-12-27-19-10-20-18(9-17(13)19)14(2)16(22(26)28-20)6-7-21(25)24-11-15-5-3-4-8-23-15/h3-5,8-10,12H,6-7,11H2,1-2H3,(H,24,25)
FORMULA=C22H20N2O4
PUBMED=N/A
SUBMITUSER=BIOADREM
LIBRARYQUALITY=0
SPECTRUMID=CCMSLIB00000079944
SCANS=2139
ID=CCMSLIB00000079944
115.0542261926 	 0.82
127.0542261926 	 0.24
128.0620512247 	 2.6
129.0698762568 	 1.08
141.0698762568 	 0.35
142.0777012889 	 0.54
143.085526321 	 2.58
145.0647908789 	 0.27
152.0620512247 	 0.33
153.0698762568 	 2.24
155.085526321 	 1.36
157.0647908789 	 0.22
157.1011763852 	 0.46
165.0698762568 	 0.23
168.0569658468 	 0.37
170.072615911 	 0.6
171.0804409431 	 3.83
181.0647908789 	 0.22
183.0804409431 	 0.35
184.0518804689 	 0.36
185.0960910073 	 1.05
198.0675305331 	 0.49
199.0753555652 	 17.53
213.0910056294 	 2.27
227.0702701873 	 100
241.0859202515 	 28.26
269.0808348736 	 15.52
359.1390184545 	 2.11
377.1495831408 	 0
END IONS

BEGIN IONS
PEPMASS=436.1755
CHARGE=1
MSLEVEL=2
RT=0
SOURCE_INSTRUMENT=qTOF
FILENAME=CCMSLIB00000079945.ms
IONMODE=Positive
ORGANISM=Natural
NAME=MLS001158631-01!1-[2-(3,4-dimethyl-2-oxochromen-7-yl)oxyacetyl]-4-phenylpiperidine-4-carboxylic acid
PI=GNPS
DATACOLLECTOR=GNPS
SMILES=Cc1c(C)c(=O)oc2cc(ccc12)OCC(=O)N1CCC(CC1)(c1ccccc1)C(=O)O
INCHI=InChI=1S/C25H25NO6/c1-16-17(2)23(28)32-21-14-19(8-9-20(16)21)31-15-22(27)26-12-10-25(11-13-26,24(29)30)18-6-4-3-5-7-18/h3-9,14H,10-13,15H2,1-2H3,(H,29,30)
FORMULA=C25H25NO6
PUBMED=N/A
SUBMITUSER=BIOADREM
LIBRARYQUALITY=0
SPECTRUMID=CCMSLIB00000079945
SCANS=2140
ID=CCMSLIB00000079945
103.0542261926 	 4.6
105.0698762568 	 1.85
110.060039852 	 2.23
115.0542261926 	 9.22
117.0698762568 	 9.12
119.085526321 	 2.37
128.0620512247 	 22.8
129.0698762568 	 6.07
131.0491408147 	 1.81
133.0647908789 	 1.43
141.0698762568 	 2.31
142.0777012889 	 2.45
143.085526321 	 41.52
144.0569658468 	 5.89
144.0807752941 	 12.23
145.0647908789 	 8.06
147.0440554368 	 1.53
147.0804409431 	 4.6
158.0964253583 	 47.65
159.1042503904 	 17.88
160.1120754225 	 13.18
162.0675305331 	 6.23
172.1120754225 	 9.46
173.059705501 	 3.41
175.0753555652 	 14.04
186.0913399804 	 5.59
187.0991650125 	 100
190.0624451552 	 2.36
190.1226401088 	 6.97
191.0702701873 	 3.63
200.1069900446 	 4
201.1148150767 	 8
203.0702701873 	 39.82
204.1019046667 	 7.68
218.1175547309 	 18.53
231.0651848094 	 20.2
248.0917339109 	 4.6
390.1699842319 	 15.79
436.1754635403 	 1.38
END IONS

BEGIN IONS
PEPMASS=571.256
CHARGE=1
MSLEVEL=2
RT=0
SOURCE_INSTRUMENT=qTOF
FILENAME=CCMSLIB00000079946.ms
IONMODE=Positive
ORGANISM=Natural
NAME=MLS001141388-01!(2S)-2-[[(2S)-2-[[(2R)-2-(2,4-dioxo-1H-quinazolin-3-yl)-3-phenylpropanoyl]amino]-4-methylpentanoyl]amino]-3-phenylpropanoic acid
PI=GNPS
DATACOLLECTOR=GNPS
SMILES=CC(C)C[C@@H](C(=N[C@@H](Cc1ccccc1)C(=O)O)O)N=C([C@@H](Cc1ccccc1)n1c(=O)c2ccccc2nc1O)O
INCHI=InChI=1S/C32H34N4O6/c1-20(2)17-25(28(37)34-26(31(40)41)18-21-11-5-3-6-12-21)33-29(38)27(19-22-13-7-4-8-14-22)36-30(39)23-15-9-10-16-24(23)35-32(36)42/h3-16,20,25-27H,17-19H2,1-2H3,(H,33,38)(H,34,37)(H,35,42)(H,40,41)/t25-,26-,27+/m0/s1
FORMULA=C32H34N4O6
PUBMED=N/A
SUBMITUSER=BIOADREM
LIBRARYQUALITY=0
SPECTRUMID=CCMSLIB00000079946
SCANS=2141
ID=CCMSLIB00000079946
103.0542261926 	 2.58
120.0807752941 	 1.17
146.0236543457 	 14.9
166.0862546025 	 0.88
222.0913399804 	 0.69
237.1022390177 	 0.27
247.0865889535 	 1.08
265.0971536398 	 100
266.1022985972 	 20.63
275.0815035756 	 1.05
276.086648533 	 0.44
293.0920682619 	 16.27
294.0972132193 	 4.04
571.2551108448 	 0
END IONS

BEGIN IONS
PEPMASS=269.118
CHARGE=1
MSLEVEL=2
RT=0
SOURCE_INSTRUMENT=qTOF
FILENAME=CCMSLIB00000079947.ms
IONMODE=Positive
ORGANISM=Natural
NAME=MLS001049136-01!(E)-1-(2,4-dimethoxyphenyl)-3-phenylprop-2-en-1-one
PI=GNPS
DATACOLLECTOR=GNPS
SMILES=COc1ccc(C(=O)/C=C/c2ccccc2)c(c1)OC
INCHI=InChI=1S/C17H16O3/c1-19-14-9-10-15(17(12-14)20-2)16(18)11-8-13-6-4-3-5-7-13/h3-12H,1-2H3/b11-8+
FORMULA=C17H16O3
PUBMED=N/A
SUBMITUSER=BIOADREM
LIBRARYQUALITY=0
SPECTRUMID=CCMSLIB00000079947
SCANS=2142
ID=CCMSLIB00000079947
103.0542261926 	 8.4
107.0127553084 	 6.78
107.0491408147 	 1.41
109.0647908789 	 3.14
122.0362304047 	 18.31
124.0154949626 	 1.95
131.0491408147 	 2.56
135.0440554368 	 7.69
150.0311450268 	 9.59
165.0546201231 	 100
254.097116102 	 0.99
269.1205911983 	 0.83
END IONS

BEGIN IONS
PEPMASS=191.034
CHARGE=1
MSLEVEL=2
RT=0
SOURCE_INSTRUMENT=qTOF
FILENAME=CCMSLIB00000079948.ms
IONMODE=Positive
ORGANISM=Natural
NAME=MLS001049114-01!4,8-dihydroxynaphthalene-1,2-dione
PI=GNPS
DATACOLLECTOR=GNPS
SMILES=c1cc2C(=CC(=O)C(=O)c2c(c1)O)O
INCHI=InChI=1S/C10H6O4/c11-6-3-1-2-5-7(12)4-8(13)10(14)9(5)6/h1-4,11-12H
FORMULA=C10H6O4
PUBMED=N/A
SUBMITUSER=BIOADREM
LIBRARYQUALITY=0
SPECTRUMID=CCMSLIB00000079948
SCANS=2143
ID=CCMSLIB00000079948
121.0284053726 	 100
122.0362304047 	 27.53
145.0284053726 	 21.35
163.0389700589 	 24.16
191.033884681 	 0
END IONS

BEGIN IONS
PEPMASS=264.1397
CHARGE=1
MSLEVEL=2
RT=0
SOURCE_INSTRUMENT=qTOF
FILENAME=CCMSLIB00000079949.ms
IONMODE=Positive
ORGANISM=Natural
NAME=MLS000863568-01!3,3,5-trimethyl-11H-pyrano[3,2-a]carbazole
PI=GNPS
DATACOLLECTOR=GNPS
SMILES=Cc1cc2c3ccccc3[nH]c2c2C=CC(C)(C)Oc12
INCHI=InChI=1S/C18H17NO/c1-11-10-14-12-6-4-5-7-15(12)19-16(14)13-8-9-18(2,3)20-17(11)13/h4-10,19H,1-3H3
FORMULA=C18H17NO
PUBMED=N/A
SUBMITUSER=BIOADREM
LIBRARYQUALITY=0
SPECTRUMID=CCMSLIB00000079949
SCANS=2144
ID=CCMSLIB00000079949
152.0620512247 	 2.44
165.0698762568 	 3.4
167.072950262 	 19.4
168.0807752941 	 7.71
179.072950262 	 4.2
180.0807752941 	 37.82
181.0886003262 	 40.12
183.0678648841 	 2.52
191.072950262 	 19.16
192.0807752941 	 20.37
193.0886003262 	 27.56
194.0964253583 	 71.88
196.0756899162 	 10.72
204.0807752941 	 16.94
205.0886003262 	 14.19
206.0964253583 	 28.48
207.0678648841 	 15.69
209.0835149483 	 1.53
216.0807752941 	 4.05
218.0964253583 	 4.42
220.0756899162 	 100
221.0835149483 	 50.26
222.0913399804 	 16.86
230.0964253583 	 10.47
231.1042503904 	 10.34
233.0835149483 	 5.8
234.0913399804 	 60.01
236.1433755509 	 4.86
246.1277254867 	 1.95
248.1069900446 	 38.77
264.138290173 	 6.23
END IONS

BEGIN IONS
PEPMASS=466.187
CHARGE=1
MSLEVEL=2
RT=0
SOURCE_INSTRUMENT=qTOF
FILENAME=CCMSLIB00000079950.ms
IONMODE=Positive
ORGANISM=Natural
NAME=MLS001140904-01!4-[[[2-[3-(4-methoxyphenyl)-2-oxochromen-7-yl]oxyacetyl]amino]methyl]cyclohexane-1-carboxylic acid
PI=GNPS
DATACOLLECTOR=GNPS
SMILES=COc1ccc(cc1)c1cc2ccc(cc2oc1=O)OCC(=NCC1CCC(CC1)C(=O)O)O
INCHI=InChI=1S/C26H27NO7/c1-32-20-9-6-17(7-10-20)22-12-19-8-11-21(13-23(19)34-26(22)31)33-15-24(28)27-14-16-2-4-18(5-3-16)25(29)30/h6-13,16,18H,2-5,14-15H2,1H3,(H,27,28)(H,29,30)
FORMULA=C26H27NO7
PUBMED=N/A
SUBMITUSER=BIOADREM
LIBRARYQUALITY=0
SPECTRUMID=CCMSLIB00000079950
SCANS=2145
ID=CCMSLIB00000079950
165.0698762568 	 4.45
166.0777012889 	 3.34
177.0698762568 	 4.08
182.072615911 	 2.67
194.072615911 	 9.56
195.0804409431 	 3.61
197.0960910073 	 34.6
209.0960910073 	 3.86
210.0675305331 	 2.51
213.0910056294 	 23.83
223.0753555652 	 4.58
225.0546201231 	 14
225.0910056294 	 15.18
238.0624451552 	 1.59
239.0702701873 	 23.04
240.0780952194 	 18.7
241.0859202515 	 14.45
251.0702701873 	 4.16
253.0495347452 	 13.66
253.0859202515 	 26.34
254.0573597773 	 3.54
267.0651848094 	 5.98
268.0730098415 	 94.44
269.0808348736 	 100
281.0808348736 	 26.96
309.0757494957 	 16.36
311.0788235009 	 1.74
326.1022985972 	 44.83
420.1805489182 	 16.23
466.1860282266 	 0
END IONS

BEGIN IONS
PEPMASS=180.1383
CHARGE=1
MSLEVEL=2
RT=0
SOURCE_INSTRUMENT=qTOF
FILENAME=CCMSLIB00000079952.ms
IONMODE=Positive
ORGANISM=Natural
NAME=MLS001048976-01!2-(4-hydroxyphenyl)ethyl-trimethylazanium
PI=GNPS
DATACOLLECTOR=GNPS
SMILES=C[N+](C)(C)CCc1ccc(cc1)[O-]
INCHI=InChI=1S/C11H17NO/c1-12(2,3)9-8-10-4-6-11(13)7-5-10/h4-7H,8-9H2,1-3H3
FORMULA=C11H17NO
PUBMED=N/A
SUBMITUSER=BIOADREM
LIBRARYQUALITY=0
SPECTRUMID=CCMSLIB00000079952
SCANS=2147
ID=CCMSLIB00000079952
101.0021906221 	 23.23
103.0542261926 	 100
121.0647908789 	 67.93
180.138290173 	 0
END IONS

BEGIN IONS
PEPMASS=475.2236
CHARGE=1
MSLEVEL=2
RT=0
SOURCE_INSTRUMENT=qTOF
FILENAME=CCMSLIB00000079953.ms
IONMODE=Positive
ORGANISM=Natural
NAME=MLS001160036-01!
PI=GNPS
DATACOLLECTOR=GNPS
SMILES=C=C(C)COc1ccc2c(C)c(CC(=O)N3C[C@H]4C[C@@H](C3)c3cccc(=O)n3C4)c(=O)oc2c1C
INCHI=InChI=1S/C28H30N2O5/c1-16(2)15-34-24-9-8-21-17(3)22(28(33)35-27(21)18(24)4)11-26(32)29-12-19-10-20(14-29)23-6-5-7-25(31)30(23)13-19/h5-9,19-20H,1,10-15H2,2-4H3/t19-,20+/m1/s1
FORMULA=C28H30N2O5
PUBMED=N/A
SUBMITUSER=BIOADREM
LIBRARYQUALITY=0
SPECTRUMID=CCMSLIB00000079953
SCANS=2148
ID=CCMSLIB00000079953
121.0647908789 	 0.34
143.085526321 	 0.55
145.1011763852 	 0.32
148.0756899162 	 5.26
159.1168264494 	 0.54
171.0804409431 	 0.43
171.1168264494 	 0.38
173.059705501 	 7.14
174.0635077877 	 0.83
175.0753555652 	 3.12
177.0546201231 	 0.84
183.1168264494 	 0.74
187.0753555652 	 1.19
187.1117410715 	 0.35
188.0791578519 	 0.44
191.1178890819 	 23.22
196.0882659752 	 0.59
197.0960910073 	 3.01
201.0546201231 	 32.89
202.0584224098 	 5.36
203.0702701873 	 6.77
211.1117410715 	 4.5
212.1155433582 	 1.43
215.1066556936 	 5.34
224.0831805973 	 0.33
229.1223057578 	 12.8
230.1261080445 	 1.89
239.1066556936 	 3.61
240.1104579803 	 0.74
242.0897225382 	 1.02
257.1172203799 	 100
258.1210226666 	 21.79
285.112135002 	 8.11
475.2227480839 	 2.15
END IONS

BEGIN IONS
PEPMASS=562.205
CHARGE=1
MSLEVEL=2
RT=0
SOURCE_INSTRUMENT=qTOF
FILENAME=CCMSLIB00000079954.ms
IONMODE=Positive
ORGANISM=Natural
NAME=MLS001142719-01!(2S)-2-[[1-[(2S)-2-[(4-methylphenyl)sulfonylamino]-4-methylsulfanylbutanoyl]piperidine-4-carbonyl]amino]-3-phenylpropanoic acid
PI=GNPS
DATACOLLECTOR=GNPS
SMILES=Cc1ccc(cc1)S(=O)(=O)N[C@@H](CCSC)C(=O)N1CCC(CC1)C(=N[C@@H](Cc1ccccc1)C(=O)O)O
INCHI=InChI=1S/C27H35N3O6S2/c1-19-8-10-22(11-9-19)38(35,36)29-23(14-17-37-2)26(32)30-15-12-21(13-16-30)25(31)28-24(27(33)34)18-20-6-4-3-5-7-20/h3-11,21,23-24,29H,12-18H2,1-2H3,(H,28,31)(H,33,34)/t23-,24-/m0/s1
FORMULA=C27H35N3O6S2
PUBMED=N/A
SUBMITUSER=BIOADREM
LIBRARYQUALITY=0
SPECTRUMID=CCMSLIB00000079954
SCANS=2149
ID=CCMSLIB00000079954
102.0371959199 	 7.15
108.0807752941 	 4.44
109.0760242672 	 3.11
112.0756899162 	 100
116.0528459841 	 3.16
120.0807752941 	 11.94
137.0709388893 	 3.98
139.0212115047 	 3.73
139.0865889535 	 4.75
155.0161261268 	 28.94
157.0131492389 	 5.56
165.1022390177 	 6.53
166.0862546025 	 4.9
167.085526321 	 3.98
168.1144807257 	 4.65
194.0997961767 	 3.37
210.0583252925 	 16.95
211.0600994315 	 4.13
212.1155433582 	 8.83
214.1226401088 	 4.44
231.1491892103 	 13.32
257.1158777092 	 3.01
257.1266420914 	 2.86
258.0616961109 	 69.22
259.0634702499 	 15.62
275.1372067777 	 16.79
276.1416609914 	 3.37
277.1546685187 	 50.84
282.1270735597 	 2.86
322.1293817456 	 3.01
330.1482029323 	 2.86
349.1277047239 	 3.98
359.1839572744 	 17.1
360.1917823065 	 8.12
363.1168652661 	 2.86
367.1270360219 	 6.99
368.134861054 	 6.43
468.1951531249 	 10.16
469.1951155871 	 5.05
514.2006324333 	 42.93
516.1985239433 	 7.76
562.2040032517 	 0
END IONS

BEGIN IONS
PEPMASS=609.182
CHARGE=1
MSLEVEL=2
RT=0
SOURCE_INSTRUMENT=qTOF
FILENAME=CCMSLIB00000079955.ms
IONMODE=Positive
ORGANISM=Natural
NAME=MLS001333175-01!5-hydroxy-2-(3-hydroxy-4-methoxyphenyl)-7-[3,4,5-trihydroxy-6-[(3,4,5-trihydroxy-6-methyloxan-2-yl)oxymethyl]oxan-2-yl]oxychromen-4-one
PI=GNPS
DATACOLLECTOR=GNPS
SMILES=CC1C(C(C(C(OCC2C(C(C(C(Oc3cc(c4c(=O)cc(c5ccc(c(c5)O)OC)oc4c3)O)O2)O)O)O)O1)O)O)O
INCHI=InChI=1S/C28H32O15/c1-10-21(32)23(34)25(36)27(40-10)39-9-19-22(33)24(35)26(37)28(43-19)41-12-6-14(30)20-15(31)8-17(42-18(20)7-12)11-3-4-16(38-2)13(29)5-11/h3-8,10,19,21-30,32-37H,9H2,1-2H3
FORMULA=C28H32O15
PUBMED=N/A
SUBMITUSER=BIOADREM
LIBRARYQUALITY=0
SPECTRUMID=CCMSLIB00000079955
SCANS=2150
ID=CCMSLIB00000079955
132.9767637326 	 0.27
258.0522743994 	 1.89
286.0471890215 	 11.82
287.0550140536 	 2.4
301.0706641178 	 100
302.0784891499 	 19.21
463.1234875493 	 2.09
609.1813963587 	 0
END IONS

BEGIN IONS
PEPMASS=611.161
CHARGE=1
MSLEVEL=2
RT=0
SOURCE_INSTRUMENT=qTOF
FILENAME=CCMSLIB00000079957.ms
IONMODE=Positive
ORGANISM=Natural
NAME=MLS000863612-01!3-[4,5-dihydroxy-6-(hydroxymethyl)-3-[3,4,5-trihydroxy-6-(hydroxymethyl)oxan-2-yl]oxyoxan-2-yl]oxy-5,7-dihydroxy-2-(4-hydroxyphenyl)chromen-4-one
PI=GNPS
DATACOLLECTOR=GNPS
SMILES=c1cc(ccc1c1c(c(=O)c2c(cc(cc2o1)O)O)OC1C(C(C(C(CO)O1)O)O)OC1C(C(C(C(CO)O1)O)O)O)O
INCHI=InChI=1S/C27H30O16/c28-7-14-17(33)20(36)22(38)26(40-14)43-25-21(37)18(34)15(8-29)41-27(25)42-24-19(35)16-12(32)5-11(31)6-13(16)39-23(24)9-1-3-10(30)4-2-9/h1-6,14-15,17-18,20-22,25-34,36-38H,7-8H2
FORMULA=C27H30O16
PUBMED=N/A
SUBMITUSER=BIOADREM
LIBRARYQUALITY=0
SPECTRUMID=CCMSLIB00000079957
SCANS=2152
ID=CCMSLIB00000079957
97.0284053726 	 2.12
109.0284053726 	 2.06
127.0389700589 	 1.35
137.0233199947 	 0.97
145.0495347452 	 1.67
153.0182346168 	 1.74
165.0182346168 	 1.03
185.059705501 	 0.97
286.0471890215 	 6.11
287.0550140536 	 100
288.0569658468 	 17.91
301.0706641178 	 30.6
302.072615911 	 9.07
303.0804409431 	 1.5
611.1606609166 	 0
END IONS

BEGIN IONS
PEPMASS=578.2762
CHARGE=1
MSLEVEL=2
RT=0
SOURCE_INSTRUMENT=qTOF
FILENAME=CCMSLIB00000079958.ms
IONMODE=Positive
ORGANISM=Natural
NAME=MLS001140663-01!
PI=GNPS
DATACOLLECTOR=GNPS
SMILES=Cc1ccccc1C1c2c(C[C@H]3C(=O)N(c4ccccc4C(=NCCCN4CCOCC4)O)C(=O)N13)c1ccccc1[nH]2
INCHI=InChI=1S/C34H35N5O4/c1-22-9-2-3-10-23(22)31-30-26(24-11-4-6-13-27(24)36-30)21-29-33(41)39(34(42)38(29)31)28-14-7-5-12-25(28)32(40)35-15-8-16-37-17-19-43-20-18-37/h2-7,9-14,29,31,36H,8,15-21H2,1H3,(H,35,40)/t29-,31?/m0/s1
FORMULA=C34H35N5O4
PUBMED=N/A
SUBMITUSER=BIOADREM
LIBRARYQUALITY=0
SPECTRUMID=CCMSLIB00000079958
SCANS=2153
ID=CCMSLIB00000079958
100.0756899162 	 2.28
105.0698762568 	 14.23
120.0443897878 	 2.48
126.0913399804 	 3.28
130.0651252299 	 2.33
145.0396387609 	 2.31
146.0236543457 	 26.09
169.0760242672 	 2.59
175.0502034472 	 7.87
177.1022390177 	 2.14
201.0294680051 	 10.71
203.0815035756 	 66.45
214.0974879908 	 3.24
217.0886003262 	 2.88
218.0964253583 	 100
219.100227645 	 17.1
222.0913399804 	 42.89
223.0951422671 	 7.59
230.0964253583 	 3.17
231.1042503904 	 10.73
232.1120754225 	 36.54
233.1199004546 	 29.42
242.0924026129 	 4.92
244.1120754225 	 26.01
245.1158777092 	 4.23
250.0862546025 	 48.95
251.0900568892 	 8.52
258.087317235 	 66.28
272.1069900446 	 32.49
273.1107923313 	 5.8
287.1178890819 	 13.12
341.1033016502 	 7.58
345.1557311512 	 9.82
346.1590256151 	 2.45
363.1465091356 	 3.58
373.1335391461 	 3.52
391.1441038324 	 66.43
393.1485205083 	 3.04
406.1550028697 	 6.64
434.1499174918 	 98.35
436.1543341677 	 4.22
491.2077667217 	 96.15
494.2200084297 	 3.52
578.2761806379 	 33.76
END IONS

BEGIN IONS
PEPMASS=390.1612
CHARGE=1
MSLEVEL=2
RT=0
SOURCE_INSTRUMENT=qTOF
FILENAME=CCMSLIB00000079959.ms
IONMODE=Positive
ORGANISM=Natural
NAME=MLS001159193-01!
PI=GNPS
DATACOLLECTOR=GNPS
SMILES=c1ccc2c(c1)c1cc(C(=O)NCC3CCCO3)[nH]c(c3ccc(cc3)F)c1n2
INCHI=InChI=1S/C23H20FN3O2/c24-15-9-7-14(8-10-15)21-22-18(17-5-1-2-6-19(17)26-22)12-20(27-21)23(28)25-13-16-4-3-11-29-16/h1-2,5-10,12,16,27H,3-4,11,13H2,(H,25,28)
FORMULA=C23H20FN3O2
PUBMED=N/A
SUBMITUSER=BIOADREM
LIBRARYQUALITY=0
SPECTRUMID=CCMSLIB00000079959
SCANS=2154
ID=CCMSLIB00000079959
207.0604544247 	 0.4
214.0651252299 	 0.54
233.0635284299 	 0.46
234.071353462 	 4.95
235.0791784941 	 1.49
238.0662680841 	 0.67
241.0760242672 	 2.41
259.0865889535 	 0.54
260.0744274672 	 15.45
262.0900775314 	 45.88
264.0931515366 	 0.27
266.0611827062 	 0.51
280.0994993635 	 10.37
288.0931515366 	 3.81
290.0838492993 	 1.72
306.1037162229 	 0.43
307.0877318077 	 8.78
308.0944139856 	 1.28
372.1506664155 	 0.71
373.1584914476 	 0.2
390.1612311018 	 4.05
END IONS

BEGIN IONS
PEPMASS=392.172
CHARGE=1
MSLEVEL=2
RT=0
SOURCE_INSTRUMENT=qTOF
FILENAME=CCMSLIB00000079960.ms
IONMODE=Positive
ORGANISM=Natural
NAME=MLS001032155-01!N-[2-[2-(1H-indol-3-yl)ethylamino]-2-oxoethyl]-3-oxo-2,4-dihydroquinoxaline-1-carboxamide
PI=GNPS
DATACOLLECTOR=GNPS
SMILES=c1ccc2c(c1)c(CCN=C(CN=C(N1CC(=Nc3ccccc13)O)O)O)c[nH]2
INCHI=InChI=1S/C21H21N5O3/c27-19(22-10-9-14-11-23-16-6-2-1-5-15(14)16)12-24-21(29)26-13-20(28)25-17-7-3-4-8-18(17)26/h1-8,11,23H,9-10,12-13H2,(H,22,27)(H,24,29)(H,25,28)
FORMULA=C21H21N5O3
PUBMED=N/A
SUBMITUSER=BIOADREM
LIBRARYQUALITY=0
SPECTRUMID=CCMSLIB00000079960
SCANS=2155
ID=CCMSLIB00000079960
115.0542261926 	 2.02
117.0698762568 	 2.9
121.0760242672 	 2.11
131.060374203 	 0.69
133.0760242672 	 0.82
142.0651252299 	 0.68
144.0807752941 	 100
147.0552888251 	 18.07
148.0631138572 	 2.53
149.0709388893 	 4.45
159.0552888251 	 0.46
175.0502034472 	 7.62
176.0580284793 	 0.79
204.0767525487 	 3.14
392.1717155664 	 0
END IONS

BEGIN IONS
PEPMASS=583.175
CHARGE=1
MSLEVEL=2
RT=0
SOURCE_INSTRUMENT=qTOF
FILENAME=CCMSLIB00000079961.ms
IONMODE=Positive
ORGANISM=Natural
NAME=MLS001140668-01!
PI=GNPS
DATACOLLECTOR=GNPS
SMILES=c1ccc2c(c1)c1C[C@H]3C(=O)N(c4ccccc4C(=O)N4CCC(CC4)C(=O)O)C(=O)N3C(c3cccc(c3)Cl)c1[nH]2
INCHI=InChI=1S/C32H27ClN4O5/c33-20-7-5-6-19(16-20)28-27-23(21-8-1-3-10-24(21)34-27)17-26-30(39)37(32(42)36(26)28)25-11-4-2-9-22(25)29(38)35-14-12-18(13-15-35)31(40)41/h1-11,16,18,26,28,34H,12-15,17H2,(H,40,41)/t26-,28?/m0/s1
FORMULA=C32H27ClN4O5
PUBMED=N/A
SUBMITUSER=BIOADREM
LIBRARYQUALITY=0
SPECTRUMID=CCMSLIB00000079961
SCANS=2156
ID=CCMSLIB00000079961
120.0443897878 	 3.91
144.0443897878 	 2.59
146.0236543457 	 35.06
156.0681992351 	 6.16
163.0502034472 	 3.87
184.0631138572 	 49.19
217.0886003262 	 20.2
218.0964253583 	 100
219.100227645 	 19.6
242.0367175941 	 37.49
243.0400326914 	 5.89
251.0496280041 	 6.44
252.0574530362 	 47.45
253.0652780683 	 30.08
254.056504296 	 16.83
256.0631138572 	 3.32
257.0835149483 	 2.39
264.0574530362 	 59
265.0607681335 	 12.75
266.0560171066 	 13.45
267.0552888251 	 3.55
270.0316322162 	 20.21
271.0865889535 	 4.1
272.0903912402 	 5.94
273.0982162723 	 3.23
292.0523676583 	 26.59
293.0556827556 	 3.48
294.0509317287 	 8.1
307.0632666956 	 29.93
308.0670689823 	 5
329.0799793923 	 14.02
357.1022390177 	 3
358.1100640498 	 4.27
375.112803704 	 12.79
376.1206287361 	 12.8
377.1244310228 	 2.74
383.094566824 	 6.88
393.0789167598 	 3.45
394.0827190465 	 2.65
411.0894814461 	 86.27
412.0932837328 	 23.1
414.0891470951 	 7.62
426.1003804834 	 12.8
436.0847304192 	 2.6
454.0952951055 	 63.35
457.0949607545 	 6.3
583.174273708 	 0
END IONS

BEGIN IONS
PEPMASS=395.1615
CHARGE=1
MSLEVEL=2
RT=0
SOURCE_INSTRUMENT=qTOF
FILENAME=CCMSLIB00000079962.ms
IONMODE=Positive
ORGANISM=Natural
NAME=MLS001032355-01!N-pyridin-3-yl-2-[(4,8,8-trimethyl-2-oxo-9,10-dihydropyrano[2,3-h]chromen-5-yl)oxy]acetamide
PI=GNPS
DATACOLLECTOR=GNPS
SMILES=Cc1cc(=O)oc2c3CCC(C)(C)Oc3cc(c12)OCC(=Nc1cccnc1)O
INCHI=InChI=1S/C22H22N2O5/c1-13-9-19(26)28-21-15-6-7-22(2,3)29-16(15)10-17(20(13)21)27-12-18(25)24-14-5-4-8-23-11-14/h4-5,8-11H,6-7,12H2,1-3H3,(H,24,25)
FORMULA=C22H22N2O5
PUBMED=N/A
SUBMITUSER=BIOADREM
LIBRARYQUALITY=0
SPECTRUMID=CCMSLIB00000079962
SCANS=2157
ID=CCMSLIB00000079962
95.060374203 	 2.55
105.0698762568 	 0.36
107.060374203 	 65.96
109.0284053726 	 0.23
121.0396387609 	 2.18
133.0647908789 	 0.44
135.0552888251 	 100
136.0631138572 	 24.8
147.0440554368 	 0.31
161.059705501 	 1.37
163.0389700589 	 0.85
177.0546201231 	 3.81
189.0546201231 	 4.59
203.0702701873 	 0.26
205.0495347452 	 24.38
217.0495347452 	 19.92
231.0651848094 	 0.64
245.0444493673 	 3.53
273.112135002 	 6.11
301.1070496241 	 1.4
326.0897225382 	 0.23
339.0975475703 	 27.02
395.1601478271 	 11.11
END IONS

BEGIN IONS
PEPMASS=403.198
CHARGE=1
MSLEVEL=2
RT=0
SOURCE_INSTRUMENT=qTOF
FILENAME=CCMSLIB00000079963.ms
IONMODE=Positive
ORGANISM=Natural
NAME=MLS001159171-01!(2S)-1-[(2S)-3-methyl-2-[(3-oxo-2,4-dihydroquinoxaline-1-carbonyl)amino]pentanoyl]pyrrolidine-2-carboxylic acid
PI=GNPS
DATACOLLECTOR=GNPS
SMILES=CCC(C)[C@@H](C(=O)N1CCC[C@H]1C(=O)O)N=C(N1CC(=Nc2ccccc12)O)O
INCHI=InChI=1S/C20H26N4O5/c1-3-12(2)17(18(26)23-10-6-9-15(23)19(27)28)22-20(29)24-11-16(25)21-13-7-4-5-8-14(13)24/h4-5,7-8,12,15,17H,3,6,9-11H2,1-2H3,(H,21,25)(H,22,29)(H,27,28)/t12?,15-,17-/m0/s1
FORMULA=C20H26N4O5
PUBMED=N/A
SUBMITUSER=BIOADREM
LIBRARYQUALITY=0
SPECTRUMID=CCMSLIB00000079963
SCANS=2158
ID=CCMSLIB00000079963
104.0494751657 	 0.53
119.060374203 	 11.79
121.0760242672 	 26.86
132.0443897878 	 0.9
147.0552888251 	 100
164.0818379266 	 2.29
175.0502034472 	 29.08
192.0767525487 	 8.45
232.1444381834 	 1.99
243.112803704 	 0.72
260.1393528055 	 25.4
403.1975959659 	 0
END IONS

BEGIN IONS
PEPMASS=405.181
CHARGE=1
MSLEVEL=2
RT=0
SOURCE_INSTRUMENT=qTOF
FILENAME=CCMSLIB00000079964.ms
IONMODE=Positive
ORGANISM=Natural
NAME=MLS001158613-01!2-(4,7-dimethyl-2-oxochromen-5-yl)oxy-N-[2-(1H-indol-3-yl)ethyl]propanamide
PI=GNPS
DATACOLLECTOR=GNPS
SMILES=Cc1cc(c2c(C)cc(=O)oc2c1)OC(C)C(=NCCc1c[nH]c2ccccc12)O
INCHI=InChI=1S/C24H24N2O4/c1-14-10-20(23-15(2)12-22(27)30-21(23)11-14)29-16(3)24(28)25-9-8-17-13-26-19-7-5-4-6-18(17)19/h4-7,10-13,16,26H,8-9H2,1-3H3,(H,25,28)
FORMULA=C24H24N2O4
PUBMED=N/A
SUBMITUSER=BIOADREM
LIBRARYQUALITY=0
SPECTRUMID=CCMSLIB00000079964
SCANS=2159
ID=CCMSLIB00000079964
105.0698762568 	 1.02
107.085526321 	 0.9
109.0647908789 	 0.64
115.0542261926 	 4.57
117.0698762568 	 8.74
119.085526321 	 1.65
127.0542261926 	 1.41
128.0620512247 	 3.53
129.0698762568 	 0.75
130.0651252299 	 5.31
131.072950262 	 4.66
132.0569658468 	 2.93
132.0807752941 	 2.5
133.1011763852 	 0.93
135.0804409431 	 1.84
141.0698762568 	 0.57
143.072950262 	 29.08
144.0807752941 	 100
146.072615911 	 0.66
147.0804409431 	 3.24
155.072950262 	 6.32
157.0886003262 	 0.72
158.0964253583 	 15.52
161.0960910073 	 2.08
163.0753555652 	 0.58
170.0964253583 	 20.45
187.1229744598 	 1.19
189.0910056294 	 3.13
191.0702701873 	 50.26
217.0859202515 	 3.89
245.0808348736 	 0.54
405.1808832692 	 0
END IONS

BEGIN IONS
PEPMASS=285.185
CHARGE=1
MSLEVEL=2
RT=0
SOURCE_INSTRUMENT=qTOF
FILENAME=CCMSLIB00000079965.ms
IONMODE=Positive
ORGANISM=Natural
NAME=MLS002207247-01!(8R,9S,10R,13S,14S)-10,13-dimethyl-7,8,9,11,12,14,15,16-octahydro-6H-cyclopenta[a]phenanthrene-3,17-dione
PI=GNPS
DATACOLLECTOR=GNPS
SMILES=C[C@]12C=CC(=O)C=C1CC[C@H]1[C@@H]3CCC(=O)[C@@]3(C)CC[C@H]21
INCHI=InChI=1S/C19H24O2/c1-18-9-7-13(20)11-12(18)3-4-14-15-5-6-17(21)19(15,2)10-8-16(14)18/h7,9,11,14-16H,3-6,8,10H2,1-2H3/t14-,15-,16-,18-,19-/m0/s1
FORMULA=C19H24O2
PUBMED=N/A
SUBMITUSER=BIOADREM
LIBRARYQUALITY=0
SPECTRUMID=CCMSLIB00000079965
SCANS=2160
ID=CCMSLIB00000079965
103.0542261926 	 4.26
105.0698762568 	 5.69
107.0491408147 	 1.91
107.085526321 	 1.93
115.0542261926 	 1.58
116.0620512247 	 2.15
117.0698762568 	 2.12
119.085526321 	 2.44
121.0647908789 	 100
130.0777012889 	 2.82
131.085526321 	 4.96
132.0569658468 	 1.83
133.1011763852 	 2.47
135.0804409431 	 6.5
141.0698762568 	 0.97
144.0569658468 	 1.55
144.0933513531 	 1.53
145.0647908789 	 1.85
145.1011763852 	 4.64
147.0804409431 	 4.42
147.1168264494 	 4.97
159.0804409431 	 2.15
159.1168264494 	 1.98
161.0960910073 	 2.47
175.1117410715 	 0.88
177.1273911357 	 1.39
285.1849060146 	 0
END IONS

BEGIN IONS
PEPMASS=471.3469
CHARGE=1
MSLEVEL=2
RT=0
SOURCE_INSTRUMENT=qTOF
FILENAME=CCMSLIB00000079966.ms
IONMODE=Positive
ORGANISM=Natural
NAME=MLS000563223-01!
PI=GNPS
DATACOLLECTOR=GNPS
SMILES=CC1(C)C[C@H]2C3=CCC4[C@@]5(C)CC[C@@H](C(C)(C)C5CC[C@@]4(C)[C@]3(C)[C@H]3C[C@]2([C@H](C1)O)C(=O)O3)O
INCHI=InChI=1S/C30H46O4/c1-25(2)14-18-17-8-9-20-27(5)12-11-21(31)26(3,4)19(27)10-13-28(20,6)29(17,7)23-16-30(18,22(32)15-25)24(33)34-23/h8,18-23,31-32H,9-16H2,1-7H3/t18-,19?,20?,21-,22-,23+,27-,28+,29-,30-/m0/s1
FORMULA=C30H46O4
PUBMED=N/A
SUBMITUSER=BIOADREM
LIBRARYQUALITY=0
SPECTRUMID=CCMSLIB00000079966
SCANS=2161
ID=CCMSLIB00000079966
95.085526321 	 25.61
105.0698762568 	 31.44
107.085526321 	 92.31
109.1011763852 	 20.88
119.085526321 	 60.67
121.1011763852 	 45.01
123.1168264494 	 13.93
129.0698762568 	 13.77
131.085526321 	 37.9
133.1011763852 	 54.71
135.1168264494 	 43.2
143.085526321 	 22.85
145.1011763852 	 100
147.1168264494 	 53.31
149.1324765136 	 16.19
153.0910056294 	 19.32
157.1011763852 	 53.68
158.1090014173 	 12.54
159.1168264494 	 49.16
161.1324765136 	 53.76
163.1481265778 	 12.49
169.1011763852 	 20.14
170.1090014173 	 12.66
171.1168264494 	 37.24
173.1324765136 	 37.03
175.1481265778 	 41.88
177.163776642 	 16.24
183.1168264494 	 21.41
185.1324765136 	 59.43
187.1481265778 	 74.06
189.163776642 	 34.53
197.1324765136 	 19.44
199.1481265778 	 59.1
201.163776642 	 38.06
203.1794267062 	 29.96
211.1481265778 	 22.98
213.163776642 	 31.24
217.1586912641 	 22.65
227.1430411999 	 12.7
227.1794267062 	 25.28
231.137955822 	 14.59
239.1794267062 	 70.53
245.1536058862 	 15.66
253.1950767704 	 15.29
257.1899913925 	 15.13
285.1849060146 	 37.81
435.3257565924 	 14.63
471.346885965 	 1.32
END IONS

BEGIN IONS
PEPMASS=360.181
CHARGE=1
MSLEVEL=2
RT=0
SOURCE_INSTRUMENT=qTOF
FILENAME=CCMSLIB00000079967.ms
IONMODE=Positive
ORGANISM=Natural
NAME=MLS001048961-01!2-(3,4-dimethoxyphenyl)-N-[2-(3,4-dimethoxyphenyl)ethyl]acetamide
PI=GNPS
DATACOLLECTOR=GNPS
SMILES=COc1ccc(CCN=C(Cc2ccc(c(c2)OC)OC)O)cc1OC
INCHI=InChI=1S/C20H25NO5/c1-23-16-7-5-14(11-18(16)25-3)9-10-21-20(22)13-15-6-8-17(24-2)19(12-15)26-4/h5-8,11-12H,9-10,13H2,1-4H3,(H,21,22)
FORMULA=C20H25NO5
PUBMED=N/A
SUBMITUSER=BIOADREM
LIBRARYQUALITY=0
SPECTRUMID=CCMSLIB00000079967
SCANS=2162
ID=CCMSLIB00000079967
103.0542261926 	 2.1
104.0620512247 	 0.69
105.0698762568 	 3.77
107.0491408147 	 6.23
108.0569658468 	 1.1
118.0413157826 	 2.49
120.0569658468 	 1.51
121.0647908789 	 1.67
122.072615911 	 2.74
133.0647908789 	 5.05
135.0440554368 	 6.5
135.0804409431 	 2.75
136.0518804689 	 1.17
150.0675305331 	 23.92
151.0753555652 	 58.63
165.0910056294 	 100
343.1539998167 	 0.78
360.1805489182 	 0
END IONS

BEGIN IONS
PEPMASS=402.1812
CHARGE=1
MSLEVEL=2
RT=0
SOURCE_INSTRUMENT=qTOF
FILENAME=CCMSLIB00000079968.ms
IONMODE=Positive
ORGANISM=Natural
NAME=MLS001141309-01!
PI=GNPS
DATACOLLECTOR=GNPS
SMILES=COc1ccc(cc1)c1c2c(cc(C(=O)NCC3CCCO3)[nH]1)c1ccccc1n2
INCHI=InChI=1S/C24H23N3O3/c1-29-16-10-8-15(9-11-16)22-23-19(18-6-2-3-7-20(18)26-23)13-21(27-22)24(28)25-14-17-5-4-12-30-17/h2-3,6-11,13,17,27H,4-5,12,14H2,1H3,(H,25,28)
FORMULA=C24H23N3O3
PUBMED=N/A
SUBMITUSER=BIOADREM
LIBRARYQUALITY=0
SPECTRUMID=CCMSLIB00000079968
SCANS=2163
ID=CCMSLIB00000079968
229.0760242672 	 2.74
230.0838492993 	 15.27
232.0882659752 	 0.28
241.0760242672 	 0.62
242.0838492993 	 16.64
245.1073243956 	 0.43
246.0913399804 	 0.54
257.0709388893 	 1.42
258.0787639214 	 58.72
260.0831805973 	 2.87
273.1022390177 	 100
275.1066556936 	 4.82
276.113138055 	 0.2
285.0896629587 	 0.44
291.112803704 	 48.04
293.1199004546 	 1.06
300.113138055 	 5.65
301.0971536398 	 10.36
303.1042503904 	 0.26
319.1077183261 	 7.65
321.1148150767 	 0.23
384.1706529339 	 0.71
402.1812176202 	 9.33
END IONS

BEGIN IONS
PEPMASS=542.3126
CHARGE=1
MSLEVEL=2
RT=0
SOURCE_INSTRUMENT=qTOF
FILENAME=CCMSLIB00000079969.ms
IONMODE=Positive
ORGANISM=Natural
NAME=MLS001140929-01!
PI=GNPS
DATACOLLECTOR=GNPS
SMILES=CC(C)C[C@@H](C(=NC1CCN(CC1)Cc1ccccc1)O)N1C(=O)[C@]2(C)c3c(CCN2C1=O)c1ccccc1[nH]3
INCHI=InChI=1S/C32H39N5O3/c1-21(2)19-27(29(38)33-23-13-16-35(17-14-23)20-22-9-5-4-6-10-22)37-30(39)32(3)28-25(15-18-36(32)31(37)40)24-11-7-8-12-26(24)34-28/h4-12,21,23,27,34H,13-20H2,1-3H3,(H,33,38)/t27-,32-/m0/s1
FORMULA=C32H39N5O3
PUBMED=N/A
SUBMITUSER=BIOADREM
LIBRARYQUALITY=0
SPECTRUMID=CCMSLIB00000079969
SCANS=2164
ID=CCMSLIB00000079969
117.0698762568 	 1.12
120.0807752941 	 1.06
130.0651252299 	 0.86
144.0807752941 	 12.47
145.1011763852 	 1.48
146.0964253583 	 1.54
168.0807752941 	 0.9
172.1120754225 	 5.66
174.1277254867 	 100
183.0916743314 	 1.12
185.1073243956 	 5.8
191.1542745882 	 1.66
199.0865889535 	 0.85
211.0865889535 	 4.46
213.1022390177 	 1.29
228.113138055 	 2.37
232.1120754225 	 1.35
234.1277254867 	 12.81
240.113138055 	 31.78
241.0845775808 	 4.48
254.1287881192 	 13.23
256.1080526771 	 52.35
268.1080526771 	 6.29
275.1542745882 	 2.76
282.1237027413 	 4.58
294.1600882476 	 0.89
296.1757383118 	 12.62
322.1550028697 	 1.85
324.1706529339 	 34.55
330.1600882476 	 7.62
344.1757383118 	 1.97
346.1550028697 	 8.05
358.1550028697 	 2.12
372.1706529339 	 1.37
386.2226885044 	 3.96
414.2176031265 	 13.83
527.2890910479 	 1.24
542.3125661442 	 117.64
END IONS

BEGIN IONS
PEPMASS=578.278
CHARGE=1
MSLEVEL=2
RT=0
SOURCE_INSTRUMENT=qTOF
FILENAME=CCMSLIB00000079970.ms
IONMODE=Positive
ORGANISM=Natural
NAME=MLS001140883-01!
PI=GNPS
DATACOLLECTOR=GNPS
SMILES=Cc1ccc(cc1)C1c2c(C[C@H]3C(=O)N(c4ccccc4C(=NCCCN4CCOCC4)O)C(=O)N13)c1ccccc1[nH]2
INCHI=InChI=1S/C34H35N5O4/c1-22-11-13-23(14-12-22)31-30-26(24-7-2-4-9-27(24)36-30)21-29-33(41)39(34(42)38(29)31)28-10-5-3-8-25(28)32(40)35-15-6-16-37-17-19-43-20-18-37/h2-5,7-14,29,31,36H,6,15-21H2,1H3,(H,35,40)/t29-,31?/m0/s1
FORMULA=C34H35N5O4
PUBMED=N/A
SUBMITUSER=BIOADREM
LIBRARYQUALITY=0
SPECTRUMID=CCMSLIB00000079970
SCANS=2165
ID=CCMSLIB00000079970
100.0756899162 	 2.02
105.0698762568 	 9.26
126.0913399804 	 3.74
130.0651252299 	 3.24
146.0236543457 	 31.8
163.0502034472 	 2.05
169.0760242672 	 2.28
175.0502034472 	 9.81
187.0865889535 	 2.2
201.0294680051 	 10.34
203.0815035756 	 68.98
205.0886003262 	 1.56
214.0974879908 	 2.21
217.0886003262 	 3.55
218.0964253583 	 100
219.100227645 	 19.96
220.1080526771 	 2.83
222.0913399804 	 45.17
231.1042503904 	 7.7
232.1120754225 	 43.7
233.1199004546 	 45.49
242.0924026129 	 3.22
244.1120754225 	 40.55
245.1158777092 	 6.51
250.0862546025 	 50.16
258.087317235 	 48.19
260.1029672992 	 2.52
272.1069900446 	 26.74
273.1107923313 	 5.58
287.1178890819 	 15.3
346.1550028697 	 1.8
363.1491892103 	 4.41
364.152991497 	 1.75
373.1335391461 	 2.15
376.1206287361 	 1.57
391.1441038324 	 48.43
392.1479061191 	 15.36
406.1550028697 	 12.39
434.1499174918 	 88.27
491.2077667217 	 89.93
578.2761806379 	 24.64
END IONS

BEGIN IONS
PEPMASS=458.054
CHARGE=1
MSLEVEL=2
RT=0
SOURCE_INSTRUMENT=qTOF
FILENAME=CCMSLIB00000079971.ms
IONMODE=Positive
ORGANISM=Natural
NAME=MLS001076861-01!
PI=GNPS
DATACOLLECTOR=GNPS
SMILES=c1cc2[C@@H]3C[C@H](CN(C3)C(=S)N=C(/C=C/c3ccc(cc3)Br)O)Cn2c(=O)c1
INCHI=InChI=1S/C21H20BrN3O2S/c22-17-7-4-14(5-8-17)6-9-19(26)23-21(28)24-11-15-10-16(13-24)18-2-1-3-20(27)25(18)12-15/h1-9,15-16H,10-13H2,(H,23,26,28)/b9-6+/t15-,16-/m1/s1
FORMULA=C21H20BrN3O2S
PUBMED=N/A
SUBMITUSER=BIOADREM
LIBRARYQUALITY=0
SPECTRUMID=CCMSLIB00000079971
SCANS=2166
ID=CCMSLIB00000079971
102.0464011605 	 13.23
108.0443897878 	 3.55
131.072950262 	 3.69
132.0443897878 	 5.99
133.0522148199 	 5.99
146.060039852 	 15.18
146.0964253583 	 5.99
148.0756899162 	 24.51
158.060039852 	 5.85
160.0756899162 	 28.48
172.0756899162 	 5.08
174.0913399804 	 30.36
175.0376273882 	 4.19
182.9552367067 	 9.03
189.1056098361 	 7.71
191.0273595151 	 4.32
191.1178890819 	 87.4
208.9596533826 	 9.69
213.1022390177 	 92.51
214.1022014799 	 18.28
220.0175231103 	 10.13
225.0606710162 	 4.63
228.0767525487 	 5.51
233.0743097077 	 100
235.0773837129 	 8.08
235.0804372203 	 9.03
238.0083010947 	 9.03
238.0974879908 	 100
239.097450453 	 11.45
240.1052754851 	 5.29
250.1008588092 	 33.29
272.085208745 	 4.85
279.1729986576 	 11.67
298.0644733029 	 7.27
312.1290849324 	 7.49
313.0671924593 	 3.3
322.0583215697 	 11.23
458.0532361918 	 0
458.058735998 	 2.02
END IONS

BEGIN IONS
PEPMASS=156.0819
CHARGE=1
MSLEVEL=2
RT=0
SOURCE_INSTRUMENT=qTOF
FILENAME=CCMSLIB00000079973.ms
IONMODE=Positive
ORGANISM=Natural
NAME=MLS002206281-01!4-phenylpyridine
PI=GNPS
DATACOLLECTOR=GNPS
SMILES=c1ccc(cc1)c1ccncc1
INCHI=InChI=1S/C11H9N/c1-2-4-10(5-3-1)11-6-8-12-9-7-11/h1-9H
FORMULA=C11H9N
PUBMED=N/A
SUBMITUSER=BIOADREM
LIBRARYQUALITY=0
SPECTRUMID=CCMSLIB00000079973
SCANS=2168
ID=CCMSLIB00000079973
101.0385761284 	 2.45
102.0464011605 	 5.81
103.0542261926 	 15.75
104.0494751657 	 6.13
114.0338251015 	 2.65
115.0542261926 	 3.29
117.0573001978 	 4.65
126.0464011605 	 2.71
127.0542261926 	 18.92
128.0620512247 	 100
130.0651252299 	 4.39
141.0573001978 	 2.84
154.0651252299 	 26.4
156.0807752941 	 147.39
END IONS

BEGIN IONS
PEPMASS=433.1758
CHARGE=1
MSLEVEL=2
RT=0
SOURCE_INSTRUMENT=qTOF
FILENAME=CCMSLIB00000079974.ms
IONMODE=Positive
ORGANISM=Natural
NAME=MLS001158369-01!
PI=GNPS
DATACOLLECTOR=GNPS
SMILES=C1Cc2c3ccc(cc3oc(=O)c2C1)OCC(=O)N1C[C@H]2C[C@@H](C1)c1cccc(=O)n1C2
INCHI=InChI=1S/C25H24N2O5/c28-23-6-2-5-21-16-9-15(12-27(21)23)11-26(13-16)24(29)14-31-17-7-8-19-18-3-1-4-20(18)25(30)32-22(19)10-17/h2,5-8,10,15-16H,1,3-4,9,11-14H2/t15-,16+/m1/s1
FORMULA=C25H24N2O5
PUBMED=N/A
SUBMITUSER=BIOADREM
LIBRARYQUALITY=0
SPECTRUMID=CCMSLIB00000079974
SCANS=2169
ID=CCMSLIB00000079974
104.0494751657 	 0.73
109.0522148199 	 3.38
117.0573001978 	 0.69
118.0624451552 	 0.63
122.060039852 	 2.21
128.0620512247 	 1.65
129.0698762568 	 2.12
131.0491408147 	 0.59
131.085526321 	 0.64
132.0443897878 	 1.98
133.0522148199 	 2.24
134.060039852 	 7.36
135.0651848094 	 0.83
144.0780952194 	 0.61
145.0522148199 	 0.66
145.0886003262 	 0.77
146.060039852 	 30.92
147.0678648841 	 17.29
148.0756899162 	 9.86
157.0647908789 	 1.77
158.0573597773 	 0.95
160.0756899162 	 17.45
161.0808348736 	 2.16
162.0886599057 	 1.73
163.0964849378 	 0.63
172.0756899162 	 3.85
173.0835149483 	 16.48
174.0675305331 	 3.91
174.0886599057 	 3.24
175.0865889535 	 0.82
185.059705501 	 5.66
187.0753555652 	 6.89
188.0706045383 	 2.58
189.1022390177 	 100
190.1073839751 	 16.69
191.1178890819 	 14.15
203.1178890819 	 3.5
215.0702701873 	 14.76
217.0971536398 	 1.03
231.112803704 	 3.45
232.1206287361 	 4.84
264.1104579803 	 0.83
268.0968192888 	 1.14
405.1808832692 	 8.45
433.1757978913 	 107.65
END IONS

BEGIN IONS
PEPMASS=503.229
CHARGE=1
MSLEVEL=2
RT=0
SOURCE_INSTRUMENT=qTOF
FILENAME=CCMSLIB00000079975.ms
IONMODE=Positive
ORGANISM=Natural
NAME=MLS001141042-01!
PI=GNPS
DATACOLLECTOR=GNPS
SMILES=CC(C)C[C@@H](C(=N[C@H](c1ccccc1)C(=O)O)O)N1C(=O)[C@]2(C)c3c(CCN2C1=O)c1ccccc1[nH]3
INCHI=InChI=1S/C28H30N4O5/c1-16(2)15-21(24(33)30-22(25(34)35)17-9-5-4-6-10-17)32-26(36)28(3)23-19(13-14-31(28)27(32)37)18-11-7-8-12-20(18)29-23/h4-12,16,21-22,29H,13-15H2,1-3H3,(H,30,33)(H,34,35)/t21-,22+,28-/m0/s1
FORMULA=C28H30N4O5
PUBMED=N/A
SUBMITUSER=BIOADREM
LIBRARYQUALITY=0
SPECTRUMID=CCMSLIB00000079975
SCANS=2170
ID=CCMSLIB00000079975
144.0807752941 	 33.17
168.0807752941 	 2.58
169.0760242672 	 0.91
171.0916743314 	 1.64
183.0916743314 	 2.29
185.1073243956 	 25.91
197.1073243956 	 1.18
211.0865889535 	 17.63
213.1022390177 	 4.15
228.1144807257 	 6.9
229.1182830124 	 1.11
238.0988306615 	 2.09
240.113138055 	 78.12
241.0859202515 	 22.51
254.1301307899 	 21.08
256.1093953478 	 100
257.1131976345 	 20.76
268.1080526771 	 10.11
282.125045412 	 6.16
296.1757383118 	 21.28
306.1600882476 	 0.95
324.1706529339 	 52.23
353.1621591998 	 0.63
412.1992729876 	 0.54
439.2101720249 	 0.58
503.2288960943 	 0
END IONS

BEGIN IONS
PEPMASS=421.1646
CHARGE=1
MSLEVEL=2
RT=0
SOURCE_INSTRUMENT=qTOF
FILENAME=CCMSLIB00000079976.ms
IONMODE=Positive
ORGANISM=Natural
NAME=MLS000697596-01!
PI=GNPS
DATACOLLECTOR=GNPS
SMILES=CC(=CCc1c(=O)c2c(cc3c(C=CC(C)(C)O3)c2O)oc1c1ccc(cc1O)O)C
INCHI=InChI=1S/C25H24O6/c1-13(2)5-7-17-23(29)21-20(30-24(17)15-8-6-14(26)11-18(15)27)12-19-16(22(21)28)9-10-25(3,4)31-19/h5-6,8-12,26-28H,7H2,1-4H3
FORMULA=C25H24O6
PUBMED=N/A
SUBMITUSER=BIOADREM
LIBRARYQUALITY=0
SPECTRUMID=CCMSLIB00000079976
SCANS=2171
ID=CCMSLIB00000079976
103.0542261926 	 0.44
129.0698762568 	 0.315
131.0491408147 	 0.345
145.0284053726 	 1.33
147.0440554368 	 2.595
157.0647908789 	 0.405
159.0440554368 	 3.41
173.0233199947 	 2.385
185.059705501 	 1.69
191.033884681 	 1.76
203.033884681 	 1.56
213.0546201231 	 14.625
217.0495347452 	 2.035
217.1011763852 	 0.225
231.0651848094 	 0.525
241.0495347452 	 2.975
245.0960910073 	 0.365
253.0495347452 	 1.625
255.0651848094 	 1.785
257.0444493673 	 1.34
266.0573597773 	 1.855
267.0651848094 	 2.055
267.1015703157 	 1.81
273.0910056294 	 0.32
277.0859202515 	 2.205
279.0651848094 	 2.105
280.0730098415 	 2.67
281.0808348736 	 2.135
283.0600994315 	 1.645
291.1015703157 	 1.975
295.0600994315 	 3.635
295.0964849378 	 9.77
296.0679244636 	 1.205
304.0730098415 	 1.065
305.0808348736 	 0.34
307.0600994315 	 1.87
308.0679244636 	 2.02
309.0757494957 	 0.285
309.112135002 	 1.445
311.0550140536 	 24.04
319.0964849378 	 5.355
321.0757494957 	 0.505
322.0835745278 	 0.84
323.0550140536 	 7.77
323.0913995599 	 6.12
324.0628390857 	 1.545
332.0679244636 	 5.635
333.0757494957 	 0.635
335.0550140536 	 8.585
336.0628390857 	 0.3
337.0706641178 	 0.95
337.1070496241 	 4.735
347.0913995599 	 24.205
348.099224592 	 4.055
349.0706641178 	 8.785
350.0784891499 	 12.15
351.086314182 	 0.75
365.1019642462 	 100
366.1097892783 	 10.21
421.164564503 	 3.12
END IONS

BEGIN IONS
PEPMASS=359.077
CHARGE=1
MSLEVEL=2
RT=0
SOURCE_INSTRUMENT=qTOF
FILENAME=CCMSLIB00000079978.ms
IONMODE=Positive
ORGANISM=Natural
NAME=MLS000563148-01!
PI=GNPS
DATACOLLECTOR=GNPS
SMILES=Cc1cc(c(C=O)c2c1C(=O)Oc1c(C)c(cc(c1O2)C(=O)O)OC)O
INCHI=InChI=1S/C18H14O8/c1-7-4-11(20)10(6-19)15-13(7)18(23)26-14-8(2)12(24-3)5-9(17(21)22)16(14)25-15/h4-6,20H,1-3H3,(H,21,22)
FORMULA=C18H14O8
PUBMED=N/A
SUBMITUSER=BIOADREM
LIBRARYQUALITY=0
SPECTRUMID=CCMSLIB00000079978
SCANS=2173
ID=CCMSLIB00000079978
128.0620512247 	 12.11
140.0620512247 	 9.15
157.0647908789 	 9.29
158.072615911 	 13.59
177.0182346168 	 12.31
184.0518804689 	 12.99
185.059705501 	 8.34
189.0910056294 	 10.63
197.059705501 	 22.21
201.0546201231 	 15.34
212.046795091 	 8.34
213.0546201231 	 7.74
214.0624451552 	 40.85
216.0417097131 	 16.62
217.0859202515 	 23.15
225.0546201231 	 10.16
227.0702701873 	 29.14
230.0573597773 	 23.89
241.0495347452 	 9.29
242.0573597773 	 100
243.0651848094 	 44.08
244.0730098415 	 17.43
253.0495347452 	 29.21
254.0573597773 	 17.36
255.0651848094 	 20.79
257.0444493673 	 9.96
257.0808348736 	 21.53
258.0522743994 	 13.46
259.0600994315 	 7.94
270.0522743994 	 60.7
271.0600994315 	 41.99
272.0679244636 	 15.01
273.0757494957 	 66.89
285.0757494957 	 90.51
287.0913995599 	 8.88
298.0471890215 	 20.86
313.0706641178 	 34.93
315.086314182 	 41.92
359.0761434262 	 0
END IONS

BEGIN IONS
PEPMASS=405.1711
CHARGE=1
MSLEVEL=2
RT=0
SOURCE_INSTRUMENT=qTOF
FILENAME=CCMSLIB00000079979.ms
IONMODE=Positive
ORGANISM=Natural
NAME=MLS001049119-01!
PI=GNPS
DATACOLLECTOR=GNPS
SMILES=CC1(C)C=Cc2c(c3CCC(C)(C)Oc3c3c(=O)c(coc23)c2ccc(cc2)O)O1
INCHI=InChI=1S/C25H24O5/c1-24(2)11-9-16-21(29-24)17-10-12-25(3,4)30-23(17)19-20(27)18(13-28-22(16)19)14-5-7-15(26)8-6-14/h5-9,11,13,26H,10,12H2,1-4H3
FORMULA=C25H24O5
PUBMED=N/A
SUBMITUSER=BIOADREM
LIBRARYQUALITY=0
SPECTRUMID=CCMSLIB00000079979
SCANS=2174
ID=CCMSLIB00000079979
103.0542261926 	 0.69
107.0491408147 	 0.88
117.0698762568 	 1.12
121.0284053726 	 2.07
129.0698762568 	 0.97
131.0491408147 	 1.59
131.085526321 	 0.84
135.0440554368 	 3.3
157.0647908789 	 1.9
159.0440554368 	 11.82
171.0440554368 	 3.67
177.0182346168 	 0.66
185.059705501 	 5.48
187.0753555652 	 6.74
213.0546201231 	 47.89
231.0651848094 	 1.67
232.0882659752 	 1.56
247.1117410715 	 0.7
260.0831805973 	 0.73
275.1066556936 	 1.29
277.0859202515 	 0.65
278.0937452836 	 0.89
283.0600994315 	 1.44
289.0859202515 	 1.38
291.0651848094 	 1.05
292.0730098415 	 1.49
293.0808348736 	 0.79
295.0600994315 	 16.66
303.1015703157 	 6.33
305.0808348736 	 1.91
306.0886599057 	 2.63
307.0600994315 	 3.3
309.0757494957 	 0.58
317.0808348736 	 1.1
320.0679244636 	 0.75
321.0757494957 	 2.66
321.112135002 	 1.2
331.0964849378 	 50.75
332.1043099699 	 13.08
333.0757494957 	 5.83
334.0835745278 	 10.29
349.1070496241 	 100
350.1148746562 	 54.47
405.1696498809 	 1.05
END IONS

BEGIN IONS
PEPMASS=328.155
CHARGE=1
MSLEVEL=2
RT=0
SOURCE_INSTRUMENT=qTOF
FILENAME=CCMSLIB00000079980.ms
IONMODE=Positive
ORGANISM=Natural
NAME=MLS000736729-01!
PI=GNPS
DATACOLLECTOR=GNPS
SMILES=CN1CCc2cc(c(c3c4cc(c(cc4CC1c23)O)OC)OC)O
INCHI=InChI=1S/C19H21NO4/c1-20-5-4-10-7-15(22)19(24-3)18-12-9-16(23-2)14(21)8-11(12)6-13(20)17(10)18/h7-9,13,21-22H,4-6H2,1-3H3
FORMULA=C19H21NO4
PUBMED=N/A
SUBMITUSER=BIOADREM
LIBRARYQUALITY=0
SPECTRUMID=CCMSLIB00000079980
SCANS=2175
ID=CCMSLIB00000079980
141.0698762568 	 1.32
165.0698762568 	 11.86
166.0777012889 	 4.66
169.0647908789 	 1.7
176.0620512247 	 2.63
177.0698762568 	 37.19
180.0933513531 	 1.34
181.0647908789 	 2.22
181.1011763852 	 1.35
183.0804409431 	 2.59
191.085526321 	 3.48
193.0647908789 	 5.45
194.072615911 	 44.35
204.0569658468 	 1.37
205.0647908789 	 55.18
208.0882659752 	 1.27
210.0675305331 	 1.5
211.0753555652 	 12.06
219.0804409431 	 2.7
221.059705501 	 4.18
222.0675305331 	 56.38
223.0753555652 	 12.77
225.0910056294 	 3.86
226.0988306615 	 3.51
233.059705501 	 16.26
237.0910056294 	 100
239.0702701873 	 25.55
247.0753555652 	 1.75
249.0546201231 	 1.33
250.0624451552 	 5.18
251.0702701873 	 6.05
253.0859202515 	 2.64
254.0937452836 	 10.03
264.0780952194 	 1.44
265.0859202515 	 76.81
266.0937452836 	 15.46
267.0651848094 	 17.56
282.0886599057 	 16.7
297.112135002 	 19.12
328.1543341677 	 0
END IONS

BEGIN IONS
PEPMASS=544.2476
CHARGE=1
MSLEVEL=2
RT=0
SOURCE_INSTRUMENT=qTOF
FILENAME=CCMSLIB00000079981.ms
IONMODE=Positive
ORGANISM=Natural
NAME=MLS001142766-01!(2S)-2-[[1-[(2S)-4-methyl-2-[(4-methylphenyl)sulfonylamino]pentanoyl]piperidine-4-carbonyl]amino]-3-phenylpropanoic acid
PI=GNPS
DATACOLLECTOR=GNPS
SMILES=CC(C)C[C@@H](C(=O)N1CCC(CC1)C(=N[C@@H](Cc1ccccc1)C(=O)O)O)NS(=O)(=O)c1ccc(C)cc1
INCHI=InChI=1S/C28H37N3O6S/c1-19(2)17-24(30-38(36,37)23-11-9-20(3)10-12-23)27(33)31-15-13-22(14-16-31)26(32)29-25(28(34)35)18-21-7-5-4-6-8-21/h4-12,19,22,24-25,30H,13-18H2,1-3H3,(H,29,32)(H,34,35)/t24-,25-/m0/s1
FORMULA=C28H37N3O6S
PUBMED=N/A
SUBMITUSER=BIOADREM
LIBRARYQUALITY=0
SPECTRUMID=CCMSLIB00000079981
SCANS=2176
ID=CCMSLIB00000079981
103.0542261926 	 0.78
112.0756899162 	 90.28
120.0807752941 	 10.22
139.0178406863 	 3.05
140.0706045383 	 1.04
146.060039852 	 0.91
149.059705501 	 0.59
154.032110542 	 0.64
155.0161261268 	 100
156.0205803405 	 8.91
166.0862546025 	 1.42
184.0426752283 	 16.39
198.0583252925 	 3.77
224.1069900446 	 0.75
231.1491892103 	 11.16
240.1052754851 	 51.94
241.1097296988 	 8.83
259.1441038324 	 2.47
277.1546685187 	 41.02
279.1577425239 	 1.11
333.1683072102 	 0.71
351.1736894013 	 3.7
379.1686040234 	 2.12
498.2421033175 	 3.62
544.2475826259 	 0.34
END IONS

BEGIN IONS
PEPMASS=513.166
CHARGE=1
MSLEVEL=2
RT=0
SOURCE_INSTRUMENT=qTOF
FILENAME=CCMSLIB00000079982.ms
IONMODE=Positive
ORGANISM=Natural
NAME=MLS001140844-01!3-(5-hydroxy-1H-indol-3-yl)-2-[2-(2-oxo-4-phenylchromen-7-yl)oxypropanoylamino]propanoic acid
PI=GNPS
DATACOLLECTOR=GNPS
SMILES=CC(C(=NC(Cc1c[nH]c2ccc(cc12)O)C(=O)O)O)Oc1ccc2c(cc(=O)oc2c1)c1ccccc1
INCHI=InChI=1S/C29H24N2O7/c1-16(28(34)31-25(29(35)36)11-18-15-30-24-10-7-19(32)12-23(18)24)37-20-8-9-21-22(17-5-3-2-4-6-17)14-27(33)38-26(21)13-20/h2-10,12-16,25,30,32H,11H2,1H3,(H,31,34)(H,35,36)
FORMULA=C29H24N2O7
PUBMED=N/A
SUBMITUSER=BIOADREM
LIBRARYQUALITY=0
SPECTRUMID=CCMSLIB00000079982
SCANS=2177
ID=CCMSLIB00000079982
115.0542261926 	 3.41
122.060039852 	 3.06
131.0491408147 	 5.12
134.060039852 	 11.01
146.060039852 	 100
148.0756899162 	 11.91
158.060039852 	 24.69
159.0651848094 	 4.31
160.0756899162 	 12.74
162.0549544741 	 26.44
165.0698762568 	 9.85
166.0777012889 	 3.02
169.0647908789 	 4.01
170.060039852 	 3.04
174.0787639214 	 21.82
175.0865889535 	 31.6
178.0777012889 	 5.6
179.0815035756 	 3.11
181.1011763852 	 3.92
184.0756899162 	 13.77
186.0549544741 	 35.22
186.0913399804 	 10.4
187.0600994315 	 4.64
194.072615911 	 4.4
201.1022390177 	 11.8
203.0576941283 	 3.04
204.0655191604 	 43.73
209.0960910073 	 5.23
213.0784295704 	 3.04
213.1022390177 	 4.82
215.0815035756 	 6.96
219.0804409431 	 3.28
221.059705501 	 5.41
221.0960910073 	 4.11
223.0713328198 	 4.88
230.1049786719 	 12.8
237.0910056294 	 20.55
238.0948079161 	 5.36
239.0702701873 	 19.09
240.074072474 	 4.09
265.0859202515 	 62.53
266.0897225382 	 9.67
396.1230340393 	 3.06
467.1601478271 	 11.23
513.1656271355 	 0
END IONS

BEGIN IONS
PEPMASS=399.1922
CHARGE=1
MSLEVEL=2
RT=0
SOURCE_INSTRUMENT=qTOF
FILENAME=CCMSLIB00000079983.ms
IONMODE=Positive
ORGANISM=Natural
NAME=MLS001158953-01!3-(3,5-dimethyl-7-oxofuro[3,2-g]chromen-6-yl)-N-(2-morpholin-4-ylethyl)propanamide
PI=GNPS
DATACOLLECTOR=GNPS
SMILES=Cc1coc2cc3c(cc12)c(C)c(CCC(=NCCN1CCOCC1)O)c(=O)o3
INCHI=InChI=1S/C22H26N2O5/c1-14-13-28-19-12-20-18(11-17(14)19)15(2)16(22(26)29-20)3-4-21(25)23-5-6-24-7-9-27-10-8-24/h11-13H,3-10H2,1-2H3,(H,23,25)
FORMULA=C22H26N2O5
PUBMED=N/A
SUBMITUSER=BIOADREM
LIBRARYQUALITY=0
SPECTRUMID=CCMSLIB00000079983
SCANS=2178
ID=CCMSLIB00000079983
98.060039852 	 0.77
114.0913399804 	 5.13
115.0542261926 	 0.5
127.0542261926 	 0.23
128.0620512247 	 1.31
129.0698762568 	 0.79
141.0698762568 	 0.33
143.085526321 	 1.91
145.0647908789 	 0.2
153.0698762568 	 0.84
155.085526321 	 0.94
171.0804409431 	 2.09
172.0842432298 	 0.24
183.0804409431 	 0.47
184.0518804689 	 0.21
185.0960910073 	 0.29
198.0675305331 	 0.22
199.0753555652 	 14.67
200.0791578519 	 1.88
213.0910056294 	 0.75
227.0702701873 	 100
228.074072474 	 30.41
241.0859202515 	 18.61
268.0968192888 	 15.3
269.0808348736 	 11.5
312.1230340393 	 60.04
399.1914479555 	 2.93
END IONS

BEGIN IONS
PEPMASS=504.1648
CHARGE=1
MSLEVEL=2
RT=0
SOURCE_INSTRUMENT=qTOF
FILENAME=CCMSLIB00000079984.ms
IONMODE=Positive
ORGANISM=Natural
NAME=MLS001140714-01!(2S)-3-(4-hydroxyphenyl)-2-[[2-[4-(4-methoxyphenyl)-8-methyl-2-oxochromen-7-yl]oxyacetyl]amino]propanoic acid
PI=GNPS
DATACOLLECTOR=GNPS
SMILES=Cc1c(ccc2c(cc(=O)oc12)c1ccc(cc1)OC)OCC(=N[C@@H](Cc1ccc(cc1)O)C(=O)O)O
INCHI=InChI=1S/C28H25NO8/c1-16-24(36-15-25(31)29-23(28(33)34)13-17-3-7-19(30)8-4-17)12-11-21-22(14-26(32)37-27(16)21)18-5-9-20(35-2)10-6-18/h3-12,14,23,30H,13,15H2,1-2H3,(H,29,31)(H,33,34)/t23-/m0/s1
FORMULA=C28H25NO8
PUBMED=N/A
SUBMITUSER=BIOADREM
LIBRARYQUALITY=0
SPECTRUMID=CCMSLIB00000079984
SCANS=2179
ID=CCMSLIB00000079984
103.0542261926 	 2.95
107.0491408147 	 10.13
119.0491408147 	 11.23
120.0807752941 	 7.9
121.0647908789 	 17.69
123.0440554368 	 7.63
130.0651252299 	 3.09
131.0491408147 	 9.45
133.0647908789 	 26.97
136.0756899162 	 20.85
146.060039852 	 11.1
148.0756899162 	 94.19
151.0389700589 	 5.84
166.0777012889 	 7.87
177.0784295704 	 25.49
178.0777012889 	 6.46
194.072615911 	 12.33
206.072615911 	 10.75
209.0960910073 	 20.23
222.0675305331 	 6.08
224.0831805973 	 3.3
237.0910056294 	 67.4
239.072950262 	 2.92
239.1066556936 	 4.81
254.0937452836 	 8.52
265.0886003262 	 10.24
267.1015703157 	 5.19
268.0756899162 	 6.25
282.0886599057 	 9.07
283.0991650125 	 80.04
295.0991650125 	 100
323.0940796346 	 11.71
324.099224592 	 5.81
341.1046443209 	 3.02
458.1598134761 	 16.56
459.1676385082 	 8.35
504.1652927845 	 13.09
END IONS

BEGIN IONS
PEPMASS=445.2817
CHARGE=1
MSLEVEL=2
RT=0
SOURCE_INSTRUMENT=qTOF
FILENAME=CCMSLIB00000079985.ms
IONMODE=Positive
ORGANISM=Natural
NAME=MLS001141064-01!N-[(2S)-1-[(2-methoxyphenyl)methylamino]-3-methyl-1-oxobutan-2-yl]-1-[(2S)-pyrrolidine-2-carbonyl]piperidine-4-carboxamide
PI=GNPS
DATACOLLECTOR=GNPS
SMILES=CC(C)[C@@H](C(=NCc1ccccc1OC)O)N=C(C1CCN(CC1)C(=O)[C@@H]1CCCN1)O
INCHI=InChI=1S/C24H36N4O4/c1-16(2)21(23(30)26-15-18-7-4-5-9-20(18)32-3)27-22(29)17-10-13-28(14-11-17)24(31)19-8-6-12-25-19/h4-5,7,9,16-17,19,21,25H,6,8,10-15H2,1-3H3,(H,26,30)(H,27,29)/t19-,21-/m0/s1
FORMULA=C24H36N4O4
PUBMED=N/A
SUBMITUSER=BIOADREM
LIBRARYQUALITY=0
SPECTRUMID=CCMSLIB00000079985
SCANS=2180
ID=CCMSLIB00000079985
112.0756899162 	 97.85
121.0647908789 	 100
138.0913399804 	 8.58
183.1491892103 	 23.93
211.1441038324 	 24.18
237.1597538966 	 19.01
280.2019530623 	 8.94
308.1968676844 	 4.9
445.2809316648 	 9.02
END IONS

BEGIN IONS
PEPMASS=591.261
CHARGE=1
MSLEVEL=2
RT=0
SOURCE_INSTRUMENT=qTOF
FILENAME=CCMSLIB00000079986.ms
IONMODE=Positive
ORGANISM=Natural
NAME=MLS001140664-01!
PI=GNPS
DATACOLLECTOR=GNPS
SMILES=CC(C)c1ccc(cc1)C1c2c(C[C@H]3C(=O)N(c4ccccc4C(=O)N4CCC(CC4)C(=O)O)C(=O)N13)c1ccccc1[nH]2
INCHI=InChI=1S/C35H34N4O5/c1-20(2)21-11-13-22(14-12-21)31-30-26(24-7-3-5-9-27(24)36-30)19-29-33(41)39(35(44)38(29)31)28-10-6-4-8-25(28)32(40)37-17-15-23(16-18-37)34(42)43/h3-14,20,23,29,31,36H,15-19H2,1-2H3,(H,42,43)/t29-,31?/m0/s1
FORMULA=C35H34N4O5
PUBMED=N/A
SUBMITUSER=BIOADREM
LIBRARYQUALITY=0
SPECTRUMID=CCMSLIB00000079986
SCANS=2181
ID=CCMSLIB00000079986
105.0698762568 	 0.83
133.1011763852 	 4.21
146.0236543457 	 4.84
147.0790982724 	 0.64
208.0756899162 	 12.29
209.0794922029 	 1.54
217.0886003262 	 3.4
218.0964253583 	 100
219.1015703157 	 18.18
230.0964253583 	 2.59
236.0706045383 	 34.05
237.074406825 	 4.61
250.1226401088 	 2.17
257.1199004546 	 0.66
258.0913399804 	 3.09
259.1355505188 	 0.98
260.1433755509 	 4.95
261.151200583 	 13.11
271.0865889535 	 0.63
272.1433755509 	 13.55
273.1022390177 	 1.53
273.1471778376 	 3.24
274.1226401088 	 0.97
278.1175547309 	 6.8
279.1213570176 	 2.3
287.1542745882 	 0.63
299.0815035756 	 0.9
300.138290173 	 4.13
301.1420924597 	 1.15
302.1175547309 	 0.72
315.1491892103 	 3.54
342.0886599057 	 0.59
358.1100640498 	 0.62
359.1152090072 	 0.82
376.1206287361 	 2.51
377.1284537682 	 7.26
378.1322560549 	 2.37
391.1804893387 	 1.79
392.1842916254 	 0.72
401.1648392745 	 0.73
404.1479061191 	 0.61
419.1754039608 	 22.42
420.1792062475 	 6.55
434.1863029981 	 3.92
462.1812176202 	 28.48
591.2601962227 	 0
END IONS

BEGIN IONS
PEPMASS=399.1931
CHARGE=1
MSLEVEL=2
RT=0
SOURCE_INSTRUMENT=qTOF
FILENAME=CCMSLIB00000079987.ms
IONMODE=Positive
ORGANISM=Natural
NAME=MLS001140566-01!1-[2-[(4-methyl-6-oxo-7,8,9,10-tetrahydrobenzo[c]chromen-3-yl)oxy]acetyl]piperidine-4-carboxamide
PI=GNPS
DATACOLLECTOR=GNPS
SMILES=Cc1c(ccc2c3CCCCc3c(=O)oc12)OCC(=O)N1CCC(CC1)C(=N)O
INCHI=InChI=1S/C22H26N2O5/c1-13-18(28-12-19(25)24-10-8-14(9-11-24)21(23)26)7-6-16-15-4-2-3-5-17(15)22(27)29-20(13)16/h6-7,14H,2-5,8-12H2,1H3,(H2,23,26)
FORMULA=C22H26N2O5
PUBMED=N/A
SUBMITUSER=BIOADREM
LIBRARYQUALITY=0
SPECTRUMID=CCMSLIB00000079987
SCANS=2182
ID=CCMSLIB00000079987
96.0807752941 	 4.91
97.0886003262 	 2.89
112.0756899162 	 27.71
124.0756899162 	 4.32
125.0835149483 	 6.04
126.0913399804 	 6.24
127.0865889535 	 85.12
129.1022390177 	 7.7
141.1022390177 	 25.47
142.0777012889 	 8.09
149.059705501 	 16.31
154.0862546025 	 4.13
157.1011763852 	 6.08
169.0971536398 	 3.8
170.1049786719 	 3.05
173.0920682619 	 3.93
174.0675305331 	 3.12
175.0753555652 	 2.4
185.0960910073 	 10.46
186.099893294 	 2.79
187.1117410715 	 5.49
215.1066556936 	 70.44
216.1104579803 	 12.87
229.0859202515 	 10.85
243.1015703157 	 100
244.1053726024 	 16.93
271.0964849378 	 35.61
300.1230340393 	 4.22
326.1750696098 	 20.21
354.1699842319 	 38.3
382.164898854 	 7.21
399.1914479555 	 14.81
END IONS

BEGIN IONS
PEPMASS=497.218
CHARGE=1
MSLEVEL=2
RT=0
SOURCE_INSTRUMENT=qTOF
FILENAME=CCMSLIB00000079988.ms
IONMODE=Positive
ORGANISM=Natural
NAME=MLS000863641-01!
PI=GNPS
DATACOLLECTOR=GNPS
SMILES=C/C=C/C=C/C(=O)C1=C([C@@]2(C)[C@H](C(=O)/C=C/C=C/C)[C@H]([C@@H]1C(C)(C2=O)O)[C@@]1(C)C(=O)C(=C(O)O1)C)O
INCHI=InChI=1S/C28H32O8/c1-7-9-11-13-16(29)18-20-21(28(6)22(31)15(3)24(33)36-28)19(17(30)14-12-10-8-2)26(4,23(18)32)25(34)27(20,5)35/h7-14,19-21,32-33,35H,1-6H3/b9-7+,10-8+,13-11+,14-12+/t19-,20-,21-,26-,27?,28+/m1/s1
FORMULA=C28H32O8
PUBMED=N/A
SUBMITUSER=BIOADREM
LIBRARYQUALITY=0
SPECTRUMID=CCMSLIB00000079988
SCANS=2183
ID=CCMSLIB00000079988
106.0260596489 	 2.06
131.033884681 	 4.4
149.059705501 	 2.29
168.0417097131 	 6.22
212.0890538362 	 27.5
229.0917934904 	 8.52
239.0702701873 	 2.53
241.0917934904 	 2.26
254.0996185225 	 25.32
255.1074435546 	 6.5
265.0859202515 	 2.64
287.0913995599 	 4.86
331.1692559504 	 2.49
352.151654093 	 2.18
466.1622187793 	 4.2
497.216994004 	 0
END IONS

BEGIN IONS
PEPMASS=475.2247
CHARGE=1
MSLEVEL=2
RT=0
SOURCE_INSTRUMENT=qTOF
FILENAME=CCMSLIB00000079989.ms
IONMODE=Positive
ORGANISM=Natural
NAME=MLS001032285-01!
PI=GNPS
DATACOLLECTOR=GNPS
SMILES=C=C(C)COc1ccc2c(C)c(CCC(=O)N3C[C@H]4C[C@@H](C3)c3cccc(=O)n3C4)c(=O)oc2c1
INCHI=InChI=1S/C28H30N2O5/c1-17(2)16-34-21-7-8-22-18(3)23(28(33)35-25(22)12-21)9-10-26(31)29-13-19-11-20(15-29)24-5-4-6-27(32)30(24)14-19/h4-8,12,19-20H,1,9-11,13-16H2,2-3H3/t19-,20+/m1/s1
FORMULA=C28H30N2O5
PUBMED=N/A
SUBMITUSER=BIOADREM
LIBRARYQUALITY=0
SPECTRUMID=CCMSLIB00000079989
SCANS=2184
ID=CCMSLIB00000079989
141.0698762568 	 0.23
143.085526321 	 0.84
156.0933513531 	 0.39
158.072615911 	 0.49
159.0804409431 	 0.47
161.059705501 	 0.8
163.0389700589 	 0.37
169.1011763852 	 1.24
170.1049786719 	 0.2
171.0804409431 	 0.44
171.1168264494 	 1.15
172.0882659752 	 0.28
173.059705501 	 0.91
173.0960910073 	 0.44
179.085526321 	 0.38
181.1011763852 	 0.36
182.072615911 	 0.32
184.0882659752 	 0.23
187.1117410715 	 1.1
189.0546201231 	 3.8
197.0960910073 	 3.81
198.099893294 	 0.87
199.1117410715 	 0.71
201.0546201231 	 6.51
202.0624451552 	 2.6
203.0702701873 	 0.84
211.1117410715 	 0.47
215.1066556936 	 4.5
216.1104579803 	 0.76
225.0910056294 	 2.1
226.0948079161 	 0.58
231.0651848094 	 0.26
243.1015703157 	 100
244.1053726024 	 23.57
257.1172203799 	 7.95
285.112135002 	 40.05
475.2227480839 	 1.77
END IONS

BEGIN IONS
PEPMASS=359.161
CHARGE=1
MSLEVEL=2
RT=0
SOURCE_INSTRUMENT=qTOF
FILENAME=CCMSLIB00000079990.ms
IONMODE=Positive
ORGANISM=Natural
NAME=MLS001140359-01!1-[2-(4,7-dimethyl-2-oxochromen-5-yl)oxyacetyl]piperidine-4-carboxamide
PI=GNPS
DATACOLLECTOR=GNPS
SMILES=Cc1cc(c2c(C)cc(=O)oc2c1)OCC(=O)N1CCC(CC1)C(=N)O
INCHI=InChI=1S/C19H22N2O5/c1-11-7-14(18-12(2)9-17(23)26-15(18)8-11)25-10-16(22)21-5-3-13(4-6-21)19(20)24/h7-9,13H,3-6,10H2,1-2H3,(H2,20,24)
FORMULA=C19H22N2O5
PUBMED=N/A
SUBMITUSER=BIOADREM
LIBRARYQUALITY=0
SPECTRUMID=CCMSLIB00000079990
SCANS=2185
ID=CCMSLIB00000079990
96.0807752941 	 13.73
97.0522148199 	 2.86
97.0886003262 	 2.95
98.060039852 	 12.81
110.060039852 	 6.5
112.0756899162 	 26.36
115.0542261926 	 3.69
117.0658535114 	 11.2
118.0736785435 	 3.59
119.0491408147 	 4.1
119.085526321 	 5.94
124.0730098415 	 8.99
127.0865889535 	 53.5
128.0620512247 	 4.52
129.0698762568 	 12.17
131.085526321 	 3.96
133.0647908789 	 5.39
139.0865889535 	 3.55
144.0569658468 	 3.36
145.0647908789 	 30.65
146.0685931656 	 5.62
147.0804409431 	 15.39
148.0882659752 	 4.79
159.0804409431 	 5.53
161.059705501 	 7.7
162.0675305331 	 10.65
163.0713328198 	 3.73
167.085526321 	 3.18
169.1011763852 	 8.62
170.020974271 	 3.18
173.059705501 	 14.7
175.0753555652 	 48.02
176.0791578519 	 10.6
190.0624451552 	 19.86
191.0662474419 	 12.63
203.0702701873 	 100
204.074072474 	 8.8
213.0505973777 	 5.53
231.0651848094 	 21.01
314.1386841035 	 16.13
341.1495831408 	 3.36
342.1335987256 	 13.59
359.1601478271 	 5.62
END IONS

BEGIN IONS
PEPMASS=388.0881
CHARGE=1
MSLEVEL=2
RT=0
SOURCE_INSTRUMENT=qTOF
FILENAME=CCMSLIB00000079991.ms
IONMODE=Positive
ORGANISM=Natural
NAME=MLS001076850-01!
PI=GNPS
DATACOLLECTOR=GNPS
SMILES=c1cc2[C@@H]3C[C@H](CN(C3)C(=S)N=C(c3ccc(cc3)Cl)O)Cn2c(=O)c1
INCHI=InChI=1S/C19H18ClN3O2S/c20-15-6-4-13(5-7-15)18(25)21-19(26)22-9-12-8-14(11-22)16-2-1-3-17(24)23(16)10-12/h1-7,12,14H,8-11H2,(H,21,25,26)/t12-,14-/m1/s1
FORMULA=C19H18ClN3O2S
PUBMED=N/A
SUBMITUSER=BIOADREM
LIBRARYQUALITY=0
SPECTRUMID=CCMSLIB00000079991
SCANS=2186
ID=CCMSLIB00000079991
103.0542261926 	 0.66
104.0494751657 	 0.36
110.9996038063 	 1.93
117.0573001978 	 0.4
118.0651252299 	 0.32
120.0807752941 	 0.37
129.0101684926 	 0.62
130.0651252299 	 0.62
132.0443897878 	 1.12
132.0807752941 	 0.42
133.0522148199 	 2.53
134.060039852 	 0.61
138.9945184284 	 30.51
144.0807752941 	 0.54
145.0522148199 	 0.55
146.060039852 	 3.07
146.0964253583 	 1.23
147.0678648841 	 1.3
148.0756899162 	 47
150.0787639214 	 1.48
156.0807752941 	 0.74
158.060039852 	 1.27
159.0678648841 	 1.16
160.0756899162 	 15.72
162.0913399804 	 1.57
174.0913399804 	 12.42
191.1178890819 	 100
233.0727687494 	 14.45
388.0881012376 	 0.26
END IONS

BEGIN IONS
PEPMASS=521.2542
CHARGE=1
MSLEVEL=2
RT=0
SOURCE_INSTRUMENT=qTOF
FILENAME=CCMSLIB00000079992.ms
IONMODE=Positive
ORGANISM=Natural
NAME=MLS001141319-01!
PI=GNPS
DATACOLLECTOR=GNPS
SMILES=COc1ccc(c(c1)c1c2c(cc(C(=O)NC3CCN(CC3)Cc3ccccc3)[nH]1)c1ccccc1n2)OC
INCHI=InChI=1S/C32H32N4O3/c1-38-23-12-13-29(39-2)26(18-23)31-30-25(24-10-6-7-11-27(24)34-30)19-28(35-31)32(37)33-22-14-16-36(17-15-22)20-21-8-4-3-5-9-21/h3-13,18-19,22,35H,14-17,20H2,1-2H3,(H,33,37)
FORMULA=C32H32N4O3
PUBMED=N/A
SUBMITUSER=BIOADREM
LIBRARYQUALITY=0
SPECTRUMID=CCMSLIB00000079992
SCANS=2187
ID=CCMSLIB00000079992
120.0807752941 	 1.62
155.060374203 	 18.56
172.1120754225 	 8.02
174.1277254867 	 100
186.0549544741 	 3.17
243.0916743314 	 3.2
248.1069900446 	 4.49
260.0944139856 	 2.21
263.0940796346 	 7.65
270.0787639214 	 1.67
272.0944139856 	 13.33
273.0658535114 	 13.88
274.0651252299 	 2.14
274.1100640498 	 1.68
275.072950262 	 1.42
275.1178890819 	 4.4
276.1019046667 	 11.47
285.1022390177 	 1.49
288.0893286077 	 28.08
290.0964253583 	 1.65
302.1049786719 	 2.97
303.112803704 	 87.42
305.1158777092 	 2.6
315.100227645 	 2.23
316.0968192888 	 1.43
321.1233683903 	 44.57
323.1264423955 	 2.52
330.1237027413 	 7.81
331.1103984008 	 10.54
332.1155433582 	 4.68
333.1233683903 	 1.56
334.1186173634 	 2.38
348.1342674276 	 5.79
349.1209630871 	 11.66
365.1284537682 	 2.16
367.1441038324 	 2.11
386.1499174918 	 1.51
395.1754039608 	 8.98
414.1812176202 	 4.72
415.1890426523 	 3.06
416.1883143708 	 1.89
431.2077667217 	 2.72
438.1812176202 	 4.99
439.1764665933 	 1.65
503.244152228 	 5.2
504.2519772601 	 2.61
521.2547169143 	 50.52
END IONS

BEGIN IONS
PEPMASS=594.272
CHARGE=1
MSLEVEL=2
RT=0
SOURCE_INSTRUMENT=qTOF
FILENAME=CCMSLIB00000079993.ms
IONMODE=Positive
ORGANISM=Natural
NAME=MLS001140881-01!
PI=GNPS
DATACOLLECTOR=GNPS
SMILES=COc1cccc(c1)C1c2c(C[C@H]3C(=O)N(c4ccccc4C(=NCCCN4CCOCC4)O)C(=O)N13)c1ccccc1[nH]2
INCHI=InChI=1S/C34H35N5O5/c1-43-23-9-6-8-22(20-23)31-30-26(24-10-2-4-12-27(24)36-30)21-29-33(41)39(34(42)38(29)31)28-13-5-3-11-25(28)32(40)35-14-7-15-37-16-18-44-19-17-37/h2-6,8-13,20,29,31,36H,7,14-19,21H2,1H3,(H,35,40)/t29-,31?/m0/s1
FORMULA=C34H35N5O5
PUBMED=N/A
SUBMITUSER=BIOADREM
LIBRARYQUALITY=0
SPECTRUMID=CCMSLIB00000079993
SCANS=2188
ID=CCMSLIB00000079993
120.0443897878 	 2.25
121.0647908789 	 9.67
130.0651252299 	 2.2
146.0236543457 	 19.85
175.0502034472 	 7.28
187.0865889535 	 1.81
201.0294680051 	 8.72
203.0815035756 	 54.4
214.0974879908 	 2
217.0886003262 	 4.7
218.0964253583 	 39.03
219.100227645 	 7.89
233.0835149483 	 2.45
234.0913399804 	 6.79
235.0627795062 	 2.24
235.0951422671 	 1.98
238.0862546025 	 23.8
239.0900568892 	 3.58
242.0924026129 	 2.3
247.0991650125 	 10.03
248.1069900446 	 60.5
249.113472406 	 51.22
250.1212974381 	 24.67
258.087317235 	 41.14
260.1069900446 	 46.56
261.1107923313 	 8.76
262.0862546025 	 2.6
266.0811692246 	 38.38
267.0849715113 	 7.31
275.1178890819 	 1.94
288.1019046667 	 23
289.1057069534 	 4.55
303.112803704 	 17.26
341.1006215755 	 5.28
374.1009559265 	 1.95
379.1441038324 	 2.69
389.1284537682 	 3.09
392.1115206128 	 1.84
407.1390184545 	 34.4
408.1428207412 	 8.85
422.1499174918 	 11.6
423.1465091356 	 4.26
449.1621591998 	 2.98
450.1448321139 	 76.73
507.2026813438 	 100
594.27109526 	 34.88
END IONS

BEGIN IONS
PEPMASS=367.129
CHARGE=1
MSLEVEL=2
RT=0
SOURCE_INSTRUMENT=qTOF
FILENAME=CCMSLIB00000079994.ms
IONMODE=Positive
ORGANISM=Natural
NAME=MLS001139239-01!(2S)-N-(3-methoxyphenyl)-5-oxo-1-(3-oxo-1H-2-benzofuran-1-yl)pyrrolidine-2-carboxamide
PI=GNPS
DATACOLLECTOR=GNPS
SMILES=COc1cccc(c1)N=C([C@@H]1CCC(=O)N1C1c2ccccc2C(=O)O1)O
INCHI=InChI=1S/C20H18N2O5/c1-26-13-6-4-5-12(11-13)21-18(24)16-9-10-17(23)22(16)19-14-7-2-3-8-15(14)20(25)27-19/h2-8,11,16,19H,9-10H2,1H3,(H,21,24)/t16-,19?/m0/s1
FORMULA=C20H18N2O5
PUBMED=N/A
SUBMITUSER=BIOADREM
LIBRARYQUALITY=0
SPECTRUMID=CCMSLIB00000079994
SCANS=2189
ID=CCMSLIB00000079994
105.0334907505 	 18.34
132.0417097131 	 0.7
133.0284053726 	 100
170.0573597773 	 1.4
195.0651848094 	 1.06
198.0522743994 	 0.5
210.0886599057 	 1.19
238.0862546025 	 16.25
276.099224592 	 0.47
367.1288476987 	 0
END IONS

BEGIN IONS
PEPMASS=238.0864
CHARGE=1
MSLEVEL=2
RT=0
SOURCE_INSTRUMENT=qTOF
FILENAME=CCMSLIB00000079995.ms
IONMODE=Positive
ORGANISM=Natural
NAME=MLS000850648-01!4-hydroxy-3-phenyl-1H-quinolin-2-one
PI=GNPS
DATACOLLECTOR=GNPS
SMILES=c1ccc(cc1)c1c(c2ccccc2nc1O)O
INCHI=InChI=1S/C15H11NO2/c17-14-11-8-4-5-9-12(11)16-15(18)13(14)10-6-2-1-3-7-10/h1-9H,(H2,16,17,18)
FORMULA=C15H11NO2
PUBMED=N/A
SUBMITUSER=BIOADREM
LIBRARYQUALITY=0
SPECTRUMID=CCMSLIB00000079995
SCANS=2190
ID=CCMSLIB00000079995
104.0494751657 	 0.65
105.0334907505 	 0.37
117.0334907505 	 0.43
132.0443897878 	 2.78
139.0542261926 	 2
145.0284053726 	 0.84
164.0620512247 	 3.1
165.0698762568 	 100
168.0569658468 	 1.94
177.0573001978 	 1.38
183.0804409431 	 0.26
191.072950262 	 14.49
192.0807752941 	 23.4
202.0651252299 	 0.38
219.0678648841 	 7.13
220.0756899162 	 50.23
238.0862546025 	 22.1
END IONS

BEGIN IONS
PEPMASS=395.208
CHARGE=1
MSLEVEL=2
RT=0
SOURCE_INSTRUMENT=qTOF
FILENAME=CCMSLIB00000079996.ms
IONMODE=Positive
ORGANISM=Natural
NAME=MLS001141002-01!
PI=GNPS
DATACOLLECTOR=GNPS
SMILES=CC(C)[C@@H](C(=NC1CC1)O)N1C(=O)[C@]2(C)c3c(CCN2C1=O)c1ccccc1[nH]3
INCHI=InChI=1S/C22H26N4O3/c1-12(2)17(19(27)23-13-8-9-13)26-20(28)22(3)18-15(10-11-25(22)21(26)29)14-6-4-5-7-16(14)24-18/h4-7,12-13,17,24H,8-11H2,1-3H3,(H,23,27)/t17-,22-/m0/s1
FORMULA=C22H26N4O3
PUBMED=N/A
SUBMITUSER=BIOADREM
LIBRARYQUALITY=0
SPECTRUMID=CCMSLIB00000079996
SCANS=2191
ID=CCMSLIB00000079996
96.0807752941 	 0.47
98.060039852 	 0.84
117.0698762568 	 0.74
124.0756899162 	 1.47
142.0651252299 	 0.52
144.0807752941 	 71.18
168.0807752941 	 7.25
183.0916743314 	 4.99
185.1073243956 	 100
195.0916743314 	 0.7
196.0756899162 	 0.63
211.0865889535 	 13.18
213.1022390177 	 6.11
228.113138055 	 1.11
238.0974879908 	 0.59
239.0815035756 	 1.62
240.0767525487 	 2.21
240.1144807257 	 2.31
241.0845775808 	 3.75
256.1080526771 	 8.85
277.1223057578 	 0.61
282.1614309183 	 52.49
292.1457808541 	 1.25
310.1563455404 	 77.66
395.2077667217 	 0
END IONS

BEGIN IONS
PEPMASS=478.2227
CHARGE=1
MSLEVEL=2
RT=0
SOURCE_INSTRUMENT=qTOF
FILENAME=CCMSLIB00000079997.ms
IONMODE=Positive
ORGANISM=Natural
NAME=MLS001158389-01!1-[2-(4-butyl-8-methyl-2-oxochromen-7-yl)oxyacetyl]-4-phenylpiperidine-4-carboxylic acid
PI=GNPS
DATACOLLECTOR=GNPS
SMILES=CCCCc1cc(=O)oc2c(C)c(ccc12)OCC(=O)N1CCC(CC1)(c1ccccc1)C(=O)O
INCHI=InChI=1S/C28H31NO6/c1-3-4-8-20-17-25(31)35-26-19(2)23(12-11-22(20)26)34-18-24(30)29-15-13-28(14-16-29,27(32)33)21-9-6-5-7-10-21/h5-7,9-12,17H,3-4,8,13-16,18H2,1-2H3,(H,32,33)
FORMULA=C28H31NO6
PUBMED=N/A
SUBMITUSER=BIOADREM
LIBRARYQUALITY=0
SPECTRUMID=CCMSLIB00000079997
SCANS=2192
ID=CCMSLIB00000079997
103.0542261926 	 3.42
115.0542261926 	 3.61
117.0698762568 	 4.71
118.0777012889 	 1.53
129.0698762568 	 2.63
131.0491408147 	 1.29
133.1011763852 	 1.63
141.0698762568 	 2.35
142.0777012889 	 2.31
143.085526321 	 19.61
144.0569658468 	 4.23
144.0807752941 	 6.58
145.0647908789 	 1.56
145.0886003262 	 1.49
155.085526321 	 1.27
158.0964253583 	 48.46
159.1042503904 	 13.73
160.1120754225 	 13.39
162.0675305331 	 3.92
171.0804409431 	 2.18
172.1120754225 	 13.63
173.0960910073 	 3.55
186.0913399804 	 5.08
187.0991650125 	 100
189.1273911357 	 2.28
190.0624451552 	 2.25
190.1226401088 	 8.44
200.1069900446 	 3.93
204.1019046667 	 13.22
217.1223057578 	 10.15
218.1175547309 	 36.63
233.1172203799 	 3.52
245.1172203799 	 28.49
273.112135002 	 4.75
290.1386841035 	 1.73
432.2169344245 	 6.33
478.2224137329 	 9.32
END IONS

BEGIN IONS
PEPMASS=405.181
CHARGE=1
MSLEVEL=2
RT=0
SOURCE_INSTRUMENT=qTOF
FILENAME=CCMSLIB00000079998.ms
IONMODE=Positive
ORGANISM=Natural
NAME=MLS001159079-01!N-[2-(1H-indol-3-yl)ethyl]-2-(3,4,8-trimethyl-2-oxochromen-7-yl)oxyacetamide
PI=GNPS
DATACOLLECTOR=GNPS
SMILES=Cc1c(C)c(=O)oc2c(C)c(ccc12)OCC(=NCCc1c[nH]c2ccccc12)O
INCHI=InChI=1S/C24H24N2O4/c1-14-15(2)24(28)30-23-16(3)21(9-8-18(14)23)29-13-22(27)25-11-10-17-12-26-20-7-5-4-6-19(17)20/h4-9,12,26H,10-11,13H2,1-3H3,(H,25,27)
FORMULA=C24H24N2O4
PUBMED=N/A
SUBMITUSER=BIOADREM
LIBRARYQUALITY=0
SPECTRUMID=CCMSLIB00000079998
SCANS=2193
ID=CCMSLIB00000079998
103.0542261926 	 0.76
115.0542261926 	 2.46
116.0620512247 	 0.62
117.0698762568 	 5.16
121.0647908789 	 1.6
127.0542261926 	 1.47
129.0698762568 	 1.06
130.0651252299 	 1.13
142.0651252299 	 1.16
143.072950262 	 12.01
144.0807752941 	 100
149.0960910073 	 0.75
156.0807752941 	 1.22
157.0886003262 	 0.28
159.0804409431 	 1.22
161.0960910073 	 0.62
162.0675305331 	 0.57
170.060039852 	 0.25
172.0756899162 	 0.33
177.0910056294 	 0.57
184.0756899162 	 0.46
185.0835149483 	 1.59
205.0859202515 	 12.05
217.0859202515 	 1.93
245.0808348736 	 0.23
262.1073839751 	 0.98
405.1808832692 	 0
END IONS

BEGIN IONS
PEPMASS=356.186
CHARGE=1
MSLEVEL=2
RT=0
SOURCE_INSTRUMENT=qTOF
FILENAME=CCMSLIB00000079999.ms
IONMODE=Positive
ORGANISM=Natural
NAME=MLS000111916-01!
PI=GNPS
DATACOLLECTOR=GNPS
SMILES=CN1CCc2cc(c(c3c4cc(c(cc4CC1c23)OC)OC)OC)OC
INCHI=InChI=1S/C21H25NO4/c1-22-7-6-12-9-18(25-4)21(26-5)20-14-11-17(24-3)16(23-2)10-13(14)8-15(22)19(12)20/h9-11,15H,6-8H2,1-5H3
FORMULA=C21H25NO4
PUBMED=N/A
SUBMITUSER=BIOADREM
LIBRARYQUALITY=0
SPECTRUMID=CCMSLIB00000079999
SCANS=2194
ID=CCMSLIB00000079999
190.0777012889 	 1.97
191.085526321 	 8.09
195.0804409431 	 1.73
203.085526321 	 3.6
206.072615911 	 2.25
207.0804409431 	 9.1
208.0882659752 	 7.08
218.072615911 	 2.92
219.0804409431 	 9.29
220.0882659752 	 16.21
221.0960910073 	 8
222.0675305331 	 1.83
223.0753555652 	 3.04
223.1117410715 	 9.56
224.0831805973 	 5.94
233.0960910073 	 6.86
234.0675305331 	 2.47
235.0753555652 	 12.81
236.0831805973 	 33.84
237.0910056294 	 10.51
239.1066556936 	 7.47
247.0753555652 	 3.63
248.0831805973 	 4.05
249.0910056294 	 11.6
250.0988306615 	 7.51
251.1066556936 	 44.19
252.0780952194 	 8.43
261.0910056294 	 2.83
263.0702701873 	 4.38
263.1066556936 	 5.16
264.0780952194 	 6.48
265.0859202515 	 3.12
266.0937452836 	 2.5
267.1015703157 	 23.82
277.0859202515 	 6.5
278.0937452836 	 5.13
279.1015703157 	 85.75
282.125045412 	 2.55
293.1172203799 	 2.37
294.125045412 	 100
295.0964849378 	 75.62
310.1199600341 	 38.57
325.1434351304 	 13.01
356.1856342961 	 0
END IONS

BEGIN IONS
PEPMASS=355.0816
CHARGE=1
MSLEVEL=2
RT=0
SOURCE_INSTRUMENT=qTOF
FILENAME=CCMSLIB00000080000.ms
IONMODE=Positive
ORGANISM=Natural
NAME=MLS000766244-01!
PI=GNPS
DATACOLLECTOR=GNPS
SMILES=COc1ccc(c2c(=O)c3c(cc4c(C5C=COC5O4)c3oc12)OC)O
INCHI=InChI=1S/C19H14O7/c1-22-10-4-3-9(20)14-16(21)15-11(23-2)7-12-13(18(15)26-17(10)14)8-5-6-24-19(8)25-12/h3-8,19-20H,1-2H3
FORMULA=C19H14O7
PUBMED=N/A
SUBMITUSER=BIOADREM
LIBRARYQUALITY=0
SPECTRUMID=CCMSLIB00000080000
SCANS=2195
ID=CCMSLIB00000080000
185.059705501 	 0.56
195.0440554368 	 0.5
213.0546201231 	 1.72
240.0417097131 	 1.06
241.0495347452 	 1.96
265.0495347452 	 0.47
268.0366243352 	 4.41
269.0444493673 	 16.23
271.0237139252 	 0.48
283.0600994315 	 1.06
296.0315389573 	 20.8
297.0393639894 	 100
307.0237139252 	 0.43
311.0550140536 	 8.32
312.0628390857 	 5.19
325.0342786115 	 67.92
327.086314182 	 3.36
339.0499286757 	 1.23
340.0577537078 	 17.16
355.0812288041 	 16.77
END IONS

BEGIN IONS
PEPMASS=197.081
CHARGE=1
MSLEVEL=2
RT=0
SOURCE_INSTRUMENT=qTOF
FILENAME=CCMSLIB00000080001.ms
IONMODE=Positive
ORGANISM=Natural
NAME=MLS002695995-01!
PI=GNPS
DATACOLLECTOR=GNPS
SMILES=CCOC(=O)c1c(C)cc(cc1O)O
INCHI=InChI=1S/C10H12O4/c1-3-14-10(13)9-6(2)4-7(11)5-8(9)12/h4-5,11-12H,3H2,1-2H3
FORMULA=C10H12O4
PUBMED=N/A
SUBMITUSER=BIOADREM
LIBRARYQUALITY=0
SPECTRUMID=CCMSLIB00000080001
SCANS=2196
ID=CCMSLIB00000080001
95.0491408147 	 2.08
123.0440554368 	 7.33
150.0311450268 	 1.96
151.0389700589 	 100
197.0808348736 	 0
END IONS

BEGIN IONS
PEPMASS=410.16
CHARGE=1
MSLEVEL=2
RT=0
SOURCE_INSTRUMENT=qTOF
FILENAME=CCMSLIB00000080002.ms
IONMODE=Positive
ORGANISM=Natural
NAME=MLS001140973-01!4-[[[2-(6-oxobenzo[c]chromen-3-yl)oxyacetyl]amino]methyl]cyclohexane-1-carboxylic acid
PI=GNPS
DATACOLLECTOR=GNPS
SMILES=c1ccc2c(c1)c1ccc(cc1oc2=O)OCC(=NC[C@H]1CC[C@@H](CC1)C(=O)O)O
INCHI=InChI=1S/C23H23NO6/c25-21(24-12-14-5-7-15(8-6-14)22(26)27)13-29-16-9-10-18-17-3-1-2-4-19(17)23(28)30-20(18)11-16/h1-4,9-11,14-15H,5-8,12-13H2,(H,24,25)(H,26,27)/t14-,15-
FORMULA=C23H23NO6
PUBMED=N/A
SUBMITUSER=BIOADREM
LIBRARYQUALITY=0
SPECTRUMID=CCMSLIB00000080002
SCANS=2197
ID=CCMSLIB00000080002
115.0542261926 	 1.19
139.0542261926 	 8.02
141.0698762568 	 4.58
143.0491408147 	 3.49
152.0620512247 	 2.09
153.0698762568 	 13.31
156.0569658468 	 1.24
167.0491408147 	 25.67
169.0647908789 	 14.01
171.0440554368 	 4.66
179.0491408147 	 1.09
184.0518804689 	 3.27
195.0440554368 	 13.73
197.059705501 	 29.68
212.046795091 	 30.19
213.0546201231 	 55.07
225.0546201231 	 100
253.0495347452 	 20.13
270.0760838467 	 46.64
364.1543341677 	 10.21
410.1598134761 	 0
END IONS

BEGIN IONS
PEPMASS=192.102
CHARGE=1
MSLEVEL=2
RT=0
SOURCE_INSTRUMENT=qTOF
FILENAME=CCMSLIB00000080003.ms
IONMODE=Positive
ORGANISM=Natural
NAME=MLS002706489-01!
PI=GNPS
DATACOLLECTOR=GNPS
SMILES=CN1CCc2cc3c(cc2C1)OCO3
INCHI=InChI=1S/C11H13NO2/c1-12-3-2-8-4-10-11(14-7-13-10)5-9(8)6-12/h4-5H,2-3,6-7H2,1H3
FORMULA=C11H13NO2
PUBMED=N/A
SUBMITUSER=BIOADREM
LIBRARYQUALITY=0
SPECTRUMID=CCMSLIB00000080003
SCANS=2198
ID=CCMSLIB00000080003
103.0542261926 	 14.33
105.0698762568 	 22.87
133.0647908789 	 10.47
135.0440554368 	 12.4
149.059705501 	 100
192.1019046667 	 0
END IONS

BEGIN IONS
PEPMASS=222.1119
CHARGE=1
MSLEVEL=2
RT=0
SOURCE_INSTRUMENT=qTOF
FILENAME=CCMSLIB00000080004.ms
IONMODE=Positive
ORGANISM=Natural
NAME=MLS001049023-01!6,7-dimethoxy-2-methyl-3,4-dihydroisoquinolin-1-one
PI=GNPS
DATACOLLECTOR=GNPS
SMILES=CN1CCc2cc(c(cc2C1=O)OC)OC
INCHI=InChI=1S/C12H15NO3/c1-13-5-4-8-6-10(15-2)11(16-3)7-9(8)12(13)14/h6-7H,4-5H2,1-3H3
FORMULA=C12H15NO3
PUBMED=N/A
SUBMITUSER=BIOADREM
LIBRARYQUALITY=0
SPECTRUMID=CCMSLIB00000080004
SCANS=2199
ID=CCMSLIB00000080004
103.0542261926 	 10.27
105.0698762568 	 13.16
107.0491408147 	 7.81
109.0647908789 	 2.14
118.0413157826 	 10.27
119.0491408147 	 13.43
120.0569658468 	 3.14
121.0647908789 	 15.14
123.0440554368 	 2.78
131.0491408147 	 3.24
133.0284053726 	 3.41
133.0647908789 	 13.14
134.072615911 	 26.7
135.0440554368 	 21.41
135.0804409431 	 10.81
137.059705501 	 2.38
146.060039852 	 2.24
147.0440554368 	 2.08
149.059705501 	 5.78
150.0675305331 	 72.86
160.0756899162 	 3.27
161.0835149483 	 2.49
163.0753555652 	 9.16
165.0910056294 	 100
175.0389700589 	 2.51
178.0862546025 	 4.22
188.0706045383 	 5.81
194.1175547309 	 3.08
204.1019046667 	 5.84
206.0811692246 	 15.62
222.112469353 	 16.89
END IONS

BEGIN IONS
PEPMASS=409.2238
CHARGE=1
MSLEVEL=2
RT=0
SOURCE_INSTRUMENT=qTOF
FILENAME=CCMSLIB00000080005.ms
IONMODE=Positive
ORGANISM=Natural
NAME=MLS001142708-01!
PI=GNPS
DATACOLLECTOR=GNPS
SMILES=C[C@@H](C(=NC1CCCCC1)O)N1C(=O)[C@]2(C)c3c(CCN2C1=O)c1ccccc1[nH]3
INCHI=InChI=1S/C23H28N4O3/c1-14(20(28)24-15-8-4-3-5-9-15)27-21(29)23(2)19-17(12-13-26(23)22(27)30)16-10-6-7-11-18(16)25-19/h6-7,10-11,14-15,25H,3-5,8-9,12-13H2,1-2H3,(H,24,28)/t14-,23-/m0/s1
FORMULA=C23H28N4O3
PUBMED=N/A
SUBMITUSER=BIOADREM
LIBRARYQUALITY=0
SPECTRUMID=CCMSLIB00000080005
SCANS=2200
ID=CCMSLIB00000080005
117.0698762568 	 0.58
118.0651252299 	 0.21
142.0651252299 	 0.33
144.0807752941 	 15.84
156.0807752941 	 0.46
168.0807752941 	 6.91
170.060039852 	 0.38
170.0964253583 	 1.28
183.0916743314 	 4.56
185.1073243956 	 25.25
195.0916743314 	 0.44
196.0756899162 	 0.4
211.0865889535 	 25.51
213.1022390177 	 2.88
239.0815035756 	 2.75
239.1178890819 	 0.71
254.1287881192 	 100
265.0971536398 	 0.26
282.1237027413 	 34.29
310.1186173634 	 0.46
409.2234167859 	 0.58
END IONS

BEGIN IONS
PEPMASS=413.2084
CHARGE=1
MSLEVEL=2
RT=0
SOURCE_INSTRUMENT=qTOF
FILENAME=CCMSLIB00000080006.ms
IONMODE=Positive
ORGANISM=Natural
NAME=MLS001032269-01!N-(2-morpholin-4-ylethyl)-3-(3,5,9-trimethyl-7-oxofuro[3,2-g]chromen-6-yl)propanamide
PI=GNPS
DATACOLLECTOR=GNPS
SMILES=Cc1coc2c(C)c3c(cc12)c(C)c(CCC(=NCCN1CCOCC1)O)c(=O)o3
INCHI=InChI=1S/C23H28N2O5/c1-14-13-29-21-16(3)22-19(12-18(14)21)15(2)17(23(27)30-22)4-5-20(26)24-6-7-25-8-10-28-11-9-25/h12-13H,4-11H2,1-3H3,(H,24,26)
FORMULA=C23H28N2O5
PUBMED=N/A
SUBMITUSER=BIOADREM
LIBRARYQUALITY=0
SPECTRUMID=CCMSLIB00000080006
SCANS=2201
ID=CCMSLIB00000080006
98.060039852 	 0.82
114.0913399804 	 6.36
115.0542261926 	 0.2
129.0698762568 	 0.42
141.0698762568 	 1.01
142.0777012889 	 1.01
143.0815035756 	 0.29
153.0698762568 	 0.47
154.0777012889 	 1.81
155.0815035756 	 0.32
157.1011763852 	 1.51
158.1049786719 	 0.22
167.085526321 	 0.48
169.0647908789 	 0.3
169.1011763852 	 0.63
170.072615911 	 0.57
182.072615911 	 0.99
185.0960910073 	 2.57
186.099893294 	 0.68
197.0960910073 	 0.87
198.0675305331 	 0.74
199.1117410715 	 0.36
212.0831805973 	 0.26
213.0910056294 	 19.53
214.0948079161 	 2.65
227.1066556936 	 0.61
229.0859202515 	 0.23
241.0859202515 	 100
242.0897225382 	 31.92
255.1015703157 	 14.77
257.1046443209 	 0.22
282.112469353 	 10.32
283.0964849378 	 13
285.099558943 	 0.65
326.1386841035 	 59.65
395.1965333334 	 0.26
413.2070980197 	 4.58
END IONS

BEGIN IONS
PEPMASS=435.203
CHARGE=1
MSLEVEL=2
RT=0
SOURCE_INSTRUMENT=qTOF
FILENAME=CCMSLIB00000080007.ms
IONMODE=Positive
ORGANISM=Natural
NAME=MLS001141091-01!
PI=GNPS
DATACOLLECTOR=GNPS
SMILES=CC(C)[C@@H](C(=NCc1ccco1)O)N1C(=O)[C@]2(C)c3c(CCN2C1=O)c1ccccc1[nH]3
INCHI=InChI=1S/C24H26N4O4/c1-14(2)19(21(29)25-13-15-7-6-12-32-15)28-22(30)24(3)20-17(10-11-27(24)23(28)31)16-8-4-5-9-18(16)26-20/h4-9,12,14,19,26H,10-11,13H2,1-3H3,(H,25,29)/t19-,24-/m0/s1
FORMULA=C24H26N4O4
PUBMED=N/A
SUBMITUSER=BIOADREM
LIBRARYQUALITY=0
SPECTRUMID=CCMSLIB00000080007
SCANS=2202
ID=CCMSLIB00000080007
130.0651252299 	 2.22
144.0807752941 	 58.26
156.0807752941 	 2.62
168.0807752941 	 8.23
183.0916743314 	 6.99
185.1073243956 	 73.05
196.1120754225 	 1.92
211.0865889535 	 27.09
213.1022390177 	 6.03
224.1069900446 	 5.69
239.0815035756 	 4.05
241.0845775808 	 5.09
256.1080526771 	 8.42
267.1491892103 	 1.9
280.1444381834 	 2.38
282.1600882476 	 49.15
295.1315277734 	 1.66
308.1393528055 	 9.28
310.1550028697 	 100
362.1863029981 	 2.99
390.1812176202 	 5.45
435.2026813438 	 0
END IONS

BEGIN IONS
PEPMASS=436.1755
CHARGE=1
MSLEVEL=2
RT=0
SOURCE_INSTRUMENT=qTOF
FILENAME=CCMSLIB00000080008.ms
IONMODE=Positive
ORGANISM=Natural
NAME=MLS001076817-01!(2S)-2-[[2-[(3-methyl-6-oxo-7,8,9,10-tetrahydrobenzo[c]chromen-1-yl)oxy]acetyl]amino]-3-phenylpropanoic acid
PI=GNPS
DATACOLLECTOR=GNPS
SMILES=Cc1cc(c2c3CCCCc3c(=O)oc2c1)OCC(=N[C@@H](Cc1ccccc1)C(=O)O)O
INCHI=InChI=1S/C25H25NO6/c1-15-11-20(23-17-9-5-6-10-18(17)25(30)32-21(23)12-15)31-14-22(27)26-19(24(28)29)13-16-7-3-2-4-8-16/h2-4,7-8,11-12,19H,5-6,9-10,13-14H2,1H3,(H,26,27)(H,28,29)/t19-/m0/s1
FORMULA=C25H25NO6
PUBMED=N/A
SUBMITUSER=BIOADREM
LIBRARYQUALITY=0
SPECTRUMID=CCMSLIB00000080008
SCANS=2203
ID=CCMSLIB00000080008
103.0542261926 	 6.63
105.0698762568 	 11.1
117.0573001978 	 5.17
120.0807752941 	 24.11
121.0647908789 	 4.45
130.0651252299 	 10.67
132.0807752941 	 61.46
137.059705501 	 6.21
145.0647908789 	 3.75
147.0440554368 	 4.12
148.0518804689 	 2.36
149.059705501 	 2.7
153.0698762568 	 2.56
155.085526321 	 2.59
156.0933513531 	 4.28
159.0804409431 	 5.43
161.059705501 	 4.42
165.0698762568 	 2.44
169.0647908789 	 4.3
171.0804409431 	 2.92
172.0882659752 	 5.6
173.059705501 	 2.27
174.0675305331 	 4.51
177.0546201231 	 5.19
178.0862546025 	 2.32
182.072615911 	 2.91
183.0804409431 	 5.99
184.0882659752 	 6.78
185.0960910073 	 4.3
187.0753555652 	 3.49
187.1117410715 	 6.16
199.1117410715 	 6.03
200.0831805973 	 7.3
201.0910056294 	 3.26
203.1066556936 	 2.6
211.0753555652 	 2.28
213.0546201231 	 3.97
213.0910056294 	 4.19
215.0702701873 	 38.64
215.1066556936 	 40.62
227.0702701873 	 6.19
228.0780952194 	 13.1
229.0859202515 	 23.48
230.0937452836 	 18.93
231.1015703157 	 39.99
243.1015703157 	 100
271.0964849378 	 15.77
289.1070496241 	 2.36
390.1699842319 	 2.25
436.1754635403 	 3.36
END IONS

BEGIN IONS
PEPMASS=354.143
CHARGE=1
MSLEVEL=2
RT=0
SOURCE_INSTRUMENT=qTOF
FILENAME=CCMSLIB00000080009.ms
IONMODE=Positive
ORGANISM=Natural
NAME=MLS001159203-01!
PI=GNPS
DATACOLLECTOR=GNPS
SMILES=c1cc(cc(c1)N=C(N1C[C@H]2C[C@@H](C1)c1cccc(=O)n1C2)O)C(=O)O
INCHI=InChI=1S/C19H19N3O4/c23-17-6-2-5-16-14-7-12(10-22(16)17)9-21(11-14)19(26)20-15-4-1-3-13(8-15)18(24)25/h1-6,8,12,14H,7,9-11H2,(H,20,26)(H,24,25)/t12-,14+/m1/s1
FORMULA=C19H19N3O4
PUBMED=N/A
SUBMITUSER=BIOADREM
LIBRARYQUALITY=0
SPECTRUMID=CCMSLIB00000080009
SCANS=2204
ID=CCMSLIB00000080009
105.0573001978 	 1.22
106.0651252299 	 1.14
117.0573001978 	 1.2
118.0287397236 	 1.2
120.0443897878 	 4.31
130.0651252299 	 1.67
131.072950262 	 1.77
132.0443897878 	 8.45
132.0807752941 	 2.4
133.0522148199 	 4.62
134.060039852 	 3.56
142.0651252299 	 2.92
145.0522148199 	 0.94
146.0236543457 	 100
146.060039852 	 23.69
148.0756899162 	 10.57
156.0807752941 	 1.18
158.060039852 	 6.26
159.0678648841 	 4
160.0756899162 	 43.79
172.0756899162 	 8.22
174.0913399804 	 23.59
188.0706045383 	 2.59
189.1022390177 	 21
217.0971536398 	 41.75
235.1077183261 	 1.97
336.1342674276 	 65.01
354.1448321139 	 1.87
END IONS

BEGIN IONS
PEPMASS=422.1598
CHARGE=1
MSLEVEL=2
RT=0
SOURCE_INSTRUMENT=qTOF
FILENAME=CCMSLIB00000080010.ms
IONMODE=Positive
ORGANISM=Natural
NAME=MLS001146464-01!(2S)-2-[[2-[(6-methyl-4-oxo-2,3-dihydro-1H-cyclopenta[c]chromen-7-yl)oxy]acetyl]amino]-3-phenylpropanoic acid
PI=GNPS
DATACOLLECTOR=GNPS
SMILES=Cc1c(ccc2c3CCCc3c(=O)oc12)OCC(=N[C@@H](Cc1ccccc1)C(=O)O)O
INCHI=InChI=1S/C24H23NO6/c1-14-20(11-10-17-16-8-5-9-18(16)24(29)31-22(14)17)30-13-21(26)25-19(23(27)28)12-15-6-3-2-4-7-15/h2-4,6-7,10-11,19H,5,8-9,12-13H2,1H3,(H,25,26)(H,27,28)/t19-/m0/s1
FORMULA=C24H23NO6
PUBMED=N/A
SUBMITUSER=BIOADREM
LIBRARYQUALITY=0
SPECTRUMID=CCMSLIB00000080010
SCANS=2205
ID=CCMSLIB00000080010
103.0542261926 	 7.84
105.0698762568 	 23.86
107.0491408147 	 1.4
115.0542261926 	 8.49
120.0807752941 	 23.17
127.0542261926 	 1.31
128.0620512247 	 18.93
130.0651252299 	 15.81
131.0491408147 	 2.08
132.0807752941 	 78.09
141.0698762568 	 3.2
143.085526321 	 11.78
145.0647908789 	 8.26
145.1011763852 	 3.67
147.0804409431 	 10.36
150.0913399804 	 2.47
153.0698762568 	 2.99
155.085526321 	 2.14
158.072615911 	 10.08
161.059705501 	 8.62
171.0804409431 	 38.16
173.0960910073 	 6.5
174.0675305331 	 1.94
178.0862546025 	 1.63
186.0675305331 	 1.43
187.0753555652 	 8.44
188.0831805973 	 12.61
189.0910056294 	 5.48
199.0753555652 	 1.81
201.0910056294 	 90.24
215.0702701873 	 5.35
216.0780952194 	 32.47
217.0859202515 	 100
229.0859202515 	 59.92
275.0913995599 	 2.7
319.1328704441 	 2.46
376.1543341677 	 6.44
422.1598134761 	 0.32
END IONS

BEGIN IONS
PEPMASS=492.225
CHARGE=1
MSLEVEL=2
RT=0
SOURCE_INSTRUMENT=qTOF
FILENAME=CCMSLIB00000080011.ms
IONMODE=Positive
ORGANISM=Natural
NAME=MLS001159168-01!(2R)-3-(1H-indol-3-yl)-2-[[(2S)-3-methyl-2-[(3-oxo-2,4-dihydroquinoxaline-1-carbonyl)amino]pentanoyl]amino]propanoic acid
PI=GNPS
DATACOLLECTOR=GNPS
SMILES=CCC(C)[C@@H](C(=N[C@H](Cc1c[nH]c2ccccc12)C(=O)O)O)N=C(N1CC(=Nc2ccccc12)O)O
INCHI=InChI=1S/C26H29N5O5/c1-3-15(2)23(30-26(36)31-14-22(32)28-19-10-6-7-11-21(19)31)24(33)29-20(25(34)35)12-16-13-27-18-9-5-4-8-17(16)18/h4-11,13,15,20,23,27H,3,12,14H2,1-2H3,(H,28,32)(H,29,33)(H,30,36)(H,34,35)/t15?,20-,23+/m1/s1
FORMULA=C26H29N5O5
PUBMED=N/A
SUBMITUSER=BIOADREM
LIBRARYQUALITY=0
SPECTRUMID=CCMSLIB00000080011
SCANS=2206
ID=CCMSLIB00000080011
112.0756899162 	 0.58
119.060374203 	 13.84
120.0655191604 	 0.56
121.0760242672 	 47.27
130.0651252299 	 9.34
132.0443897878 	 0.59
132.0807752941 	 2.5
142.0651252299 	 1.41
144.0807752941 	 3.57
146.060039852 	 5.49
147.0552888251 	 100
148.0604337825 	 14.97
149.0709388893 	 5.53
158.060039852 	 0.59
158.0811692246 	 1.74
159.0916743314 	 9.35
164.0818379266 	 3.03
165.086982884 	 0.77
169.0760242672 	 0.6
170.060039852 	 2.92
171.0651848094 	 0.95
175.0502034472 	 68.47
185.0709388893 	 4.59
188.0706045383 	 13.85
189.0757494957 	 1.94
192.0767525487 	 17.76
193.0818975061 	 3.23
215.0815035756 	 0.83
215.1152090072 	 0.73
218.0924026129 	 0.64
232.1444381834 	 2.79
260.1393528055 	 48.13
261.1444977629 	 10.39
298.152322795 	 6.67
492.2241450674 	 0
END IONS

BEGIN IONS
PEPMASS=190.05
CHARGE=1
MSLEVEL=2
RT=0
SOURCE_INSTRUMENT=qTOF
FILENAME=CCMSLIB00000080012.ms
IONMODE=Positive
ORGANISM=Natural
NAME=MLS002172436-01!4-oxo-1H-quinoline-2-carboxylic acid
PI=GNPS
DATACOLLECTOR=GNPS
SMILES=c1ccc2c(c1)c(=O)cc(C(=O)O)[nH]2
INCHI=InChI=1S/C10H7NO3/c12-9-5-8(10(13)14)11-7-4-2-1-3-6(7)9/h1-5H,(H,11,12)(H,13,14)
FORMULA=C10H7NO3
PUBMED=N/A
SUBMITUSER=BIOADREM
LIBRARYQUALITY=0
SPECTRUMID=CCMSLIB00000080012
SCANS=2207
ID=CCMSLIB00000080012
100.0154949626 	 2.06
116.0494751657 	 100
126.0311450268 	 1.26
134.060039852 	 1.9
144.0443897878 	 60.74
162.0549544741 	 44.43
190.0498690962 	 0
END IONS

BEGIN IONS
PEPMASS=380.197
CHARGE=1
MSLEVEL=2
RT=0
SOURCE_INSTRUMENT=qTOF
FILENAME=CCMSLIB00000080013.ms
IONMODE=Positive
ORGANISM=Natural
NAME=MLS001075531-01!
PI=GNPS
DATACOLLECTOR=GNPS
SMILES=c1ccc(cc1)CN=C(CCC(=O)N1C[C@H]2C[C@@H](C1)c1cccc(=O)n1C2)O
INCHI=InChI=1S/C22H25N3O3/c26-20(23-12-16-5-2-1-3-6-16)9-10-21(27)24-13-17-11-18(15-24)19-7-4-8-22(28)25(19)14-17/h1-8,17-18H,9-15H2,(H,23,26)/t17-,18+/m1/s1
FORMULA=C22H25N3O3
PUBMED=N/A
SUBMITUSER=BIOADREM
LIBRARYQUALITY=0
SPECTRUMID=CCMSLIB00000080013
SCANS=2208
ID=CCMSLIB00000080013
132.0807752941 	 0.7
134.060039852 	 0.44
146.060039852 	 1.46
148.0756899162 	 8.4
160.0756899162 	 8.99
172.0756899162 	 0.75
174.0913399804 	 1.16
190.0862546025 	 2.78
191.1178890819 	 34.8
227.1178890819 	 1.7
245.1284537682 	 100
255.112803704 	 1.19
273.1233683903 	 78.69
380.1968676844 	 0
END IONS

BEGIN IONS
PEPMASS=301.0346
CHARGE=1
MSLEVEL=2
RT=0
SOURCE_INSTRUMENT=qTOF
FILENAME=CCMSLIB00000080014.ms
IONMODE=Positive
ORGANISM=Natural
NAME=MLS000876948-01!4,5,7-trihydroxy-9,10-dioxoanthracene-2-carboxylic acid
PI=GNPS
DATACOLLECTOR=GNPS
SMILES=c1c(cc(c2c1C(=O)c1cc(cc(c1C2=O)O)O)O)C(=O)O
INCHI=InChI=1S/C15H8O7/c16-6-3-8-12(10(18)4-6)14(20)11-7(13(8)19)1-5(15(21)22)2-9(11)17/h1-4,16-18H,(H,21,22)
FORMULA=C15H8O7
PUBMED=N/A
SUBMITUSER=BIOADREM
LIBRARYQUALITY=0
SPECTRUMID=CCMSLIB00000080014
SCANS=2209
ID=CCMSLIB00000080014
113.0385761284 	 9.85
115.0542261926 	 24.9
119.0491408147 	 13.9
131.0491408147 	 30.89
147.0440554368 	 13.13
153.0334907505 	 12.36
155.0491408147 	 17.57
157.0284053726 	 9.85
165.0182346168 	 23.75
171.0440554368 	 47.68
175.0389700589 	 24.71
187.0389700589 	 13.9
191.033884681 	 9.65
199.0389700589 	 100
203.033884681 	 91.89
215.033884681 	 15.44
227.033884681 	 70.46
231.0287993031 	 34.94
255.0287993031 	 56.76
257.0444493673 	 17.57
259.0237139252 	 68.34
273.0393639894 	 10.62
283.0237139252 	 34.75
301.0342786115 	 137.84
END IONS

BEGIN IONS
PEPMASS=288.1394
CHARGE=1
MSLEVEL=2
RT=0
SOURCE_INSTRUMENT=qTOF
FILENAME=CCMSLIB00000080015.ms
IONMODE=Positive
ORGANISM=Natural
NAME=MLS002703411-01!
PI=GNPS
DATACOLLECTOR=GNPS
SMILES=c1ccc(cc1)CC(=O)N(c1ccccc1)c1ccccc1
INCHI=InChI=1S/C20H17NO/c22-20(16-17-10-4-1-5-11-17)21(18-12-6-2-7-13-18)19-14-8-3-9-15-19/h1-15H,16H2
FORMULA=C20H17NO
PUBMED=N/A
SUBMITUSER=BIOADREM
LIBRARYQUALITY=0
SPECTRUMID=CCMSLIB00000080015
SCANS=2210
ID=CCMSLIB00000080015
127.0542261926 	 0.42
143.085526321 	 0.94
153.0698762568 	 2.86
154.0651252299 	 1.48
155.072950262 	 1.8
170.0964253583 	 100
270.1277254867 	 0.54
288.138290173 	 2.51
END IONS

BEGIN IONS
PEPMASS=464.2285
CHARGE=1
MSLEVEL=2
RT=0
SOURCE_INSTRUMENT=qTOF
FILENAME=CCMSLIB00000080016.ms
IONMODE=Positive
ORGANISM=Natural
NAME=MLS001158491-01!(2S)-2-[6-(1,2-dihydroimidazo[1,2-a]benzimidazole-3-carbonylamino)hexanoylamino]-3-phenylpropanoic acid
PI=GNPS
DATACOLLECTOR=GNPS
SMILES=c1ccc(cc1)C[C@@H](C(=O)O)N=C(CCCCCN=C(N1CCn2c3ccccc3nc12)O)O
INCHI=InChI=1S/C25H29N5O4/c31-22(27-20(23(32)33)17-18-9-3-1-4-10-18)13-5-2-8-14-26-25(34)30-16-15-29-21-12-7-6-11-19(21)28-24(29)30/h1,3-4,6-7,9-12,20H,2,5,8,13-17H2,(H,26,34)(H,27,31)(H,32,33)/t20-/m0/s1
FORMULA=C25H29N5O4
PUBMED=N/A
SUBMITUSER=BIOADREM
LIBRARYQUALITY=0
SPECTRUMID=CCMSLIB00000080016
SCANS=2211
ID=CCMSLIB00000080016
103.0542261926 	 0.46
105.0447241388 	 0.26
118.0525491709 	 0.65
119.060374203 	 5.62
120.0807752941 	 10.16
132.0556231761 	 1.15
133.0760242672 	 1.18
149.059705501 	 0.3
160.0869233045 	 100
166.0862546025 	 4.95
255.1604225986 	 2.06
259.1441038324 	 0.52
317.1608165291 	 0.79
464.2292304453 	 1.19
END IONS

BEGIN IONS
PEPMASS=304.1552
CHARGE=1
MSLEVEL=2
RT=0
SOURCE_INSTRUMENT=qTOF
FILENAME=CCMSLIB00000080017.ms
IONMODE=Positive
ORGANISM=Natural
NAME=MLS001048924-01!methyl 3-benzoyloxy-8-methyl-8-azabicyclo[3.2.1]octane-4-carboxylate
PI=GNPS
DATACOLLECTOR=GNPS
SMILES=CN1C2CCC1C(C(C2)OC(=O)c1ccccc1)C(=O)OC
INCHI=InChI=1S/C17H21NO4/c1-18-12-8-9-13(18)15(17(20)21-2)14(10-12)22-16(19)11-6-4-3-5-7-11/h3-7,12-15H,8-10H2,1-2H3
FORMULA=C17H21NO4
PUBMED=N/A
SUBMITUSER=BIOADREM
LIBRARYQUALITY=0
SPECTRUMID=CCMSLIB00000080017
SCANS=2212
ID=CCMSLIB00000080017
95.072950262 	 0.57
96.0807752941 	 2.46
97.0647908789 	 1.73
105.0334907505 	 45.07
106.0651252299 	 0.63
107.072950262 	 3
108.0807752941 	 10.23
109.0647908789 	 0.53
110.060039852 	 0.49
117.0573001978 	 1.49
118.0413157826 	 4.03
119.0491408147 	 15.66
121.0647908789 	 1
122.0964253583 	 12.49
123.0804409431 	 0.75
125.059705501 	 3.03
132.0807752941 	 2.14
133.0647908789 	 0.85
134.060039852 	 0.3
135.0678648841 	 3.26
138.0549544741 	 0.58
150.0913399804 	 23.09
151.0753555652 	 1.1
152.0706045383 	 1.36
154.0862546025 	 4.34
182.1175547309 	 100
304.1543341677 	 5.76
END IONS

BEGIN IONS
PEPMASS=487.2226
CHARGE=1
MSLEVEL=2
RT=0
SOURCE_INSTRUMENT=qTOF
FILENAME=CCMSLIB00000080018.ms
IONMODE=Positive
ORGANISM=Natural
NAME=MLS001160497-01!
PI=GNPS
DATACOLLECTOR=GNPS
SMILES=Cc1c(C)oc2c(C)c3c(cc12)c(C)c(CCC(=O)N1C[C@H]2C[C@@H](C1)c1cccc(=O)n1C2)c(=O)o3
INCHI=InChI=1S/C29H30N2O5/c1-15-18(4)35-27-17(3)28-23(11-22(15)27)16(2)21(29(34)36-28)8-9-25(32)30-12-19-10-20(14-30)24-6-5-7-26(33)31(24)13-19/h5-7,11,19-20H,8-10,12-14H2,1-4H3/t19-,20+/m1/s1
FORMULA=C29H30N2O5
PUBMED=N/A
SUBMITUSER=BIOADREM
LIBRARYQUALITY=0
SPECTRUMID=CCMSLIB00000080018
SCANS=2213
ID=CCMSLIB00000080018
143.085526321 	 0.31
148.0756899162 	 1.16
155.085526321 	 0.29
168.0933513531 	 0.25
171.0804409431 	 0.22
171.1168264494 	 0.48
184.0882659752 	 0.33
191.1178890819 	 3.74
196.0882659752 	 0.44
199.1117410715 	 1.2
210.1039160394 	 0.25
211.1117410715 	 0.53
212.0831805973 	 0.95
226.0988306615 	 0.32
227.1066556936 	 17.07
228.1104579803 	 2.76
241.1223057578 	 0.75
242.1261080445 	 0.22
255.1015703157 	 100
256.1053726024 	 32.75
257.1073243956 	 3.42
269.1172203799 	 24.88
270.1210226666 	 3.99
271.1229744598 	 0.46
297.112135002 	 48.32
299.1178890819 	 1.31
487.2227480839 	 1.63
END IONS

BEGIN IONS
PEPMASS=197.072
CHARGE=1
MSLEVEL=2
RT=0
SOURCE_INSTRUMENT=qTOF
FILENAME=CCMSLIB00000080019.ms
IONMODE=Positive
ORGANISM=Natural
NAME=MLS000737174-01!
PI=GNPS
DATACOLLECTOR=GNPS
SMILES=c1ccc2c(c1)nc1cccc(c1n2)O
INCHI=InChI=1S/C12H8N2O/c15-11-7-3-6-10-12(11)14-9-5-2-1-4-8(9)13-10/h1-7,15H
FORMULA=C12H8N2O
PUBMED=N/A
SUBMITUSER=BIOADREM
LIBRARYQUALITY=0
SPECTRUMID=CCMSLIB00000080019
SCANS=2214
ID=CCMSLIB00000080019
98.0151010321 	 0.34
102.0338251015 	 1.65
113.0385761284 	 0.64
115.0542261926 	 7.25
125.0385761284 	 2.13
128.0494751657 	 1.88
140.0494751657 	 2.74
141.0573001978 	 1.69
143.060374203 	 1.27
152.0494751657 	 10.17
153.0447241388 	 5.65
156.0443897878 	 0.49
167.060374203 	 1.69
168.0681992351 	 56.7
169.0760242672 	 100
171.0552888251 	 1.07
179.060374203 	 28.69
197.0709388893 	 36.96
END IONS

BEGIN IONS
PEPMASS=355.082
CHARGE=1
MSLEVEL=2
RT=0
SOURCE_INSTRUMENT=qTOF
FILENAME=CCMSLIB00000080020.ms
IONMODE=Positive
ORGANISM=Natural
NAME=MLS000877007-01!2-(1,5-dihydroxy-3,4-dioxonaphthalen-2-yl)-3-methoxy-5-methylbenzoic acid
PI=GNPS
DATACOLLECTOR=GNPS
SMILES=Cc1cc(c(c(c1)OC)C1=C(C(=O)c2c(cccc2O)C1=O)O)C(=O)O
INCHI=InChI=1S/C19H14O7/c1-8-6-10(19(24)25)14(12(7-8)26-2)15-16(21)9-4-3-5-11(20)13(9)17(22)18(15)23/h3-7,20,23H,1-2H3,(H,24,25)
FORMULA=C19H14O7
PUBMED=N/A
SUBMITUSER=BIOADREM
LIBRARYQUALITY=0
SPECTRUMID=CCMSLIB00000080020
SCANS=2215
ID=CCMSLIB00000080020
165.0698762568 	 4
166.0777012889 	 2.52
178.0777012889 	 4.5
179.085526321 	 6.69
181.0647908789 	 2.13
182.072615911 	 5.14
194.072615911 	 9.19
207.0804409431 	 2.86
209.059705501 	 5.04
210.0675305331 	 7.42
212.046795091 	 1.83
221.059705501 	 4.67
222.0675305331 	 10.44
223.0389700589 	 2.54
225.0910056294 	 3.7
235.0753555652 	 7.62
238.0624451552 	 11.71
249.0546201231 	 4.45
250.0624451552 	 6.89
251.0702701873 	 7.12
253.0859202515 	 4.93
263.0702701873 	 7.81
265.0495347452 	 7.34
266.0573597773 	 14.76
278.0573597773 	 1.81
279.0651848094 	 7.32
281.0808348736 	 2.02
291.0651848094 	 2.97
294.0522743994 	 100
309.0757494957 	 17.9
319.0600994315 	 15.19
320.0679244636 	 4.84
337.0706641178 	 8.22
355.0812288041 	 0
END IONS

BEGIN IONS
PEPMASS=470.1632
CHARGE=1
MSLEVEL=2
RT=0
SOURCE_INSTRUMENT=qTOF
FILENAME=CCMSLIB00000080021.ms
IONMODE=Positive
ORGANISM=Natural
NAME=MLS001141340-01!(2R)-3-benzylsulfanyl-2-[[2-(7-methyl-2-oxo-4-propylchromen-5-yl)oxyacetyl]amino]propanoic acid
PI=GNPS
DATACOLLECTOR=GNPS
SMILES=CCCc1cc(=O)oc2cc(C)cc(c12)OCC(=N[C@@H](CSCc1ccccc1)C(=O)O)O
INCHI=InChI=1S/C25H27NO6S/c1-3-7-18-12-23(28)32-21-11-16(2)10-20(24(18)21)31-13-22(27)26-19(25(29)30)15-33-14-17-8-5-4-6-9-17/h4-6,8-12,19H,3,7,13-15H2,1-2H3,(H,26,27)(H,29,30)/t19-/m0/s1
FORMULA=C25H27NO6S
PUBMED=N/A
SUBMITUSER=BIOADREM
LIBRARYQUALITY=0
SPECTRUMID=CCMSLIB00000080021
SCANS=2216
ID=CCMSLIB00000080021
105.0698762568 	 4.52
115.0542261926 	 16.33
116.0130896594 	 3.76
117.0698762568 	 7.74
128.0620512247 	 6.2
129.0698762568 	 7.83
131.085526321 	 4.39
133.0647908789 	 3.76
143.085526321 	 4.21
145.0647908789 	 4.25
155.085526321 	 5.16
161.0960910073 	 4.93
162.0185689678 	 3.71
162.0675305331 	 6.92
171.0804409431 	 5.7
172.0882659752 	 7.47
173.0960910073 	 7.06
175.0753555652 	 21.27
177.0546201231 	 26.24
187.1117410715 	 7.56
189.0546201231 	 16.2
190.0624451552 	 23.12
201.0546201231 	 54.71
203.0702701873 	 100
203.1066556936 	 20.72
217.0859202515 	 39.91
218.0937452836 	 18.64
219.1015703157 	 55.29
231.1015703157 	 40.05
243.1015703157 	 4.07
259.0964849378 	 9.95
277.1070496241 	 7.1
346.1285133477 	 6.56
470.1631842945 	 1.81
END IONS

BEGIN IONS
PEPMASS=486.173
CHARGE=1
MSLEVEL=2
RT=0
SOURCE_INSTRUMENT=qTOF
FILENAME=CCMSLIB00000080022.ms
IONMODE=Positive
ORGANISM=Natural
NAME=MLS001142798-01!(2S)-2-[[1-[(2S)-2-[(4-methylphenyl)sulfonylamino]-4-methylsulfanylbutanoyl]piperidine-4-carbonyl]amino]propanoic acid
PI=GNPS
DATACOLLECTOR=GNPS
SMILES=Cc1ccc(cc1)S(=O)(=O)N[C@@H](CCSC)C(=O)N1CCC(CC1)C(=N[C@@H](C)C(=O)O)O
INCHI=InChI=1S/C21H31N3O6S2/c1-14-4-6-17(7-5-14)32(29,30)23-18(10-13-31-3)20(26)24-11-8-16(9-12-24)19(25)22-15(2)21(27)28/h4-7,15-16,18,23H,8-13H2,1-3H3,(H,22,25)(H,27,28)/t15-,18-/m0/s1
FORMULA=C21H31N3O6S2
PUBMED=N/A
SUBMITUSER=BIOADREM
LIBRARYQUALITY=0
SPECTRUMID=CCMSLIB00000080022
SCANS=2217
ID=CCMSLIB00000080022
102.0338251015 	 5.62
109.0760242672 	 6.72
112.0756899162 	 47.19
123.0916743314 	 5.75
151.0991650125 	 6.11
155.0161261268 	 60.02
165.1022390177 	 5.75
166.1100640498 	 11.86
176.0679244636 	 5.99
182.0811692246 	 6.6
199.1077183261 	 21.52
201.1233683903 	 72.86
202.1260109272 	 13.81
203.1264423955 	 5.62
210.0556452178 	 13.94
210.1158401714 	 6.72
211.0661503246 	 8.07
238.0929962393 	 6.72
258.0616961109 	 100
259.0661503246 	 18.83
260.0647701161 	 13.69
261.0613617599 	 5.62
282.1482029323 	 27.26
283.1560279644 	 9.9
284.1552996829 	 11.61
293.0875765104 	 8.44
293.0954390803 	 5.75
321.1352925223 	 6.6
336.1410090644 	 5.87
367.1270360219 	 6.85
392.1672238149 	 10.15
393.1664955334 	 5.99
438.1693323049 	 75.31
439.1719748418 	 22.62
486.1727031233 	 0
END IONS

BEGIN IONS
PEPMASS=401.209
CHARGE=1
MSLEVEL=2
RT=0
SOURCE_INSTRUMENT=qTOF
FILENAME=CCMSLIB00000080023.ms
IONMODE=Positive
ORGANISM=Natural
NAME=MLS000737091-01!
PI=GNPS
DATACOLLECTOR=GNPS
SMILES=COc1ccc2c3CCN4CC5CC(C(C(C5CC4c3[nH]c2c1)C(=O)O)OC)O
INCHI=InChI=1S/C22H28N2O5/c1-28-12-3-4-13-14-5-6-24-10-11-7-18(25)21(29-2)19(22(26)27)15(11)9-17(24)20(14)23-16(13)8-12/h3-4,8,11,15,17-19,21,23,25H,5-7,9-10H2,1-2H3,(H,26,27)
FORMULA=C22H28N2O5
PUBMED=N/A
SUBMITUSER=BIOADREM
LIBRARYQUALITY=0
SPECTRUMID=CCMSLIB00000080023
SCANS=2218
ID=CCMSLIB00000080023
115.0542261926 	 1.69
130.0651252299 	 3.34
131.072950262 	 7.38
132.0780952194 	 1.49
142.0651252299 	 1.53
143.072950262 	 6.85
144.0807752941 	 2.25
146.060039852 	 1.51
147.0804409431 	 1.4
148.0756899162 	 1.58
159.0678648841 	 13.21
160.0756899162 	 5.02
161.0835149483 	 3.11
162.0913399804 	 1.98
173.0835149483 	 3.17
174.0913399804 	 100
175.0964849378 	 13.23
176.1043099699 	 1.07
178.0862546025 	 3.54
186.0913399804 	 1.12
187.0991650125 	 1.58
188.1069900446 	 6.43
196.0968192888 	 1.64
199.0964849378 	 1.13
200.1069900446 	 2.47
210.112469353 	 1.33
212.1069900446 	 1.9
214.1073839751 	 1.07
222.112469353 	 1.64
224.1069900446 	 1.37
228.1230340393 	 7.52
236.1069900446 	 1.54
237.1148150767 	 1.32
238.1226401088 	 1.81
240.1230340393 	 17.76
248.1069900446 	 1.03
250.1226401088 	 1.59
251.1277850662 	 1.79
253.1308590714 	 1.5
264.138290173 	 1.01
274.1226401088 	 1.11
276.138290173 	 1.12
278.1539402372 	 1.08
322.1437694814 	 2.02
334.1437694814 	 1.3
340.1543341677 	 1.88
352.1543341677 	 1.08
354.1699842319 	 1.81
369.1808832692 	 1.06
372.1805489182 	 1.68
383.1965333334 	 1.13
401.2070980197 	 17.83
END IONS

BEGIN IONS
PEPMASS=243.066
CHARGE=1
MSLEVEL=2
RT=0
SOURCE_INSTRUMENT=qTOF
FILENAME=CCMSLIB00000080024.ms
IONMODE=Positive
ORGANISM=Natural
NAME=MLS001049096-01!3-hydroxy-8-methoxybenzo[c]chromen-6-one
PI=GNPS
DATACOLLECTOR=GNPS
SMILES=COc1ccc2c3ccc(cc3oc(=O)c2c1)O
INCHI=InChI=1S/C14H10O4/c1-17-9-3-5-10-11-4-2-8(15)6-13(11)18-14(16)12(10)7-9/h2-7,15H,1H3
FORMULA=C14H10O4
PUBMED=N/A
SUBMITUSER=BIOADREM
LIBRARYQUALITY=0
SPECTRUMID=CCMSLIB00000080024
SCANS=2219
ID=CCMSLIB00000080024
102.0464011605 	 2.25
103.0542261926 	 1.47
115.0542261926 	 8.15
125.0385761284 	 1.6
127.0542261926 	 2.39
128.0620512247 	 100
139.0542261926 	 8.58
141.0698762568 	 6.16
144.0569658468 	 12
155.0491408147 	 18.46
156.0569658468 	 47.35
159.0440554368 	 1.57
159.0804409431 	 2.01
167.0491408147 	 2.04
168.0569658468 	 15.83
169.0647908789 	 4.07
171.0440554368 	 3.96
171.0804409431 	 12.71
172.0518804689 	 10.72
184.0518804689 	 69.05
187.0753555652 	 5.27
199.0753555652 	 13.66
200.046795091 	 8.5
228.0417097131 	 1.63
243.0651848094 	 7.96
END IONS

BEGIN IONS
PEPMASS=436.1747
CHARGE=1
MSLEVEL=2
RT=0
SOURCE_INSTRUMENT=qTOF
FILENAME=CCMSLIB00000080025.ms
IONMODE=Positive
ORGANISM=Natural
NAME=MLS001076815-01!(2S)-2-[[2-[(4-methyl-6-oxo-7,8,9,10-tetrahydrobenzo[c]chromen-3-yl)oxy]acetyl]amino]-3-phenylpropanoic acid
PI=GNPS
DATACOLLECTOR=GNPS
SMILES=Cc1c(ccc2c3CCCCc3c(=O)oc12)OCC(=N[C@@H](Cc1ccccc1)C(=O)O)O
INCHI=InChI=1S/C25H25NO6/c1-15-21(12-11-18-17-9-5-6-10-19(17)25(30)32-23(15)18)31-14-22(27)26-20(24(28)29)13-16-7-3-2-4-8-16/h2-4,7-8,11-12,20H,5-6,9-10,13-14H2,1H3,(H,26,27)(H,28,29)/t20-/m0/s1
FORMULA=C25H25NO6
PUBMED=N/A
SUBMITUSER=BIOADREM
LIBRARYQUALITY=0
SPECTRUMID=CCMSLIB00000080025
SCANS=2220
ID=CCMSLIB00000080025
103.0542261926 	 11.02
105.0698762568 	 23.97
115.0542261926 	 9.13
117.0573001978 	 12.69
119.0491408147 	 3.27
120.0807752941 	 25.47
121.0647908789 	 6.06
123.0440554368 	 4.54
129.0698762568 	 8.4
130.0651252299 	 22.04
132.0807752941 	 95.34
141.0698762568 	 2.68
142.0777012889 	 11.5
147.0440554368 	 3.3
149.059705501 	 51.09
155.085526321 	 2.02
157.1011763852 	 5.71
159.0804409431 	 2.54
161.0835149483 	 2.77
167.085526321 	 2.19
169.1011763852 	 2.14
170.072615911 	 2.06
172.0882659752 	 2.25
173.0960910073 	 2.18
174.0675305331 	 6.05
175.1117410715 	 2.2
178.0862546025 	 2.62
185.0960910073 	 32.82
187.0753555652 	 2.84
187.1117410715 	 3.08
201.0910056294 	 4.9
202.0988306615 	 6.6
203.1066556936 	 3.41
215.1066556936 	 100
229.0859202515 	 9.03
230.0937452836 	 34.59
231.1015703157 	 92.78
243.1015703157 	 79.03
390.1699842319 	 6.57
436.1754635403 	 1.13
END IONS

BEGIN IONS
PEPMASS=402.1828
CHARGE=1
MSLEVEL=2
RT=0
SOURCE_INSTRUMENT=qTOF
FILENAME=CCMSLIB00000080026.ms
IONMODE=Positive
ORGANISM=Natural
NAME=MLS001142432-01!
PI=GNPS
DATACOLLECTOR=GNPS
SMILES=COc1cccc(c1)c1c2c(cc(C(=O)NCC3CCCO3)[nH]1)c1ccccc1n2
INCHI=InChI=1S/C24H23N3O3/c1-29-16-7-4-6-15(12-16)22-23-19(18-9-2-3-10-20(18)26-23)13-21(27-22)24(28)25-14-17-8-5-11-30-17/h2-4,6-7,9-10,12-13,17,27H,5,8,11,14H2,1H3,(H,25,28)
FORMULA=C24H23N3O3
PUBMED=N/A
SUBMITUSER=BIOADREM
LIBRARYQUALITY=0
SPECTRUMID=CCMSLIB00000080026
SCANS=2221
ID=CCMSLIB00000080026
214.0651252299 	 0.33
216.0807752941 	 0.29
217.0886003262 	 0.67
229.0760242672 	 2.29
230.0838492993 	 31.92
241.0760242672 	 1.82
242.0838492993 	 10.64
243.0916743314 	 6.28
244.0994993635 	 2.24
245.1073243956 	 1.15
255.0916743314 	 0.53
256.0994993635 	 0.24
258.0787639214 	 51.08
271.0865889535 	 0.33
272.0944139856 	 4.08
273.1022390177 	 100
285.0896629587 	 0.3
291.112803704 	 63.11
300.113138055 	 6.53
301.0971536398 	 10.22
318.1237027413 	 0.55
319.1077183261 	 8.51
384.1706529339 	 0.74
402.1812176202 	 9.58
END IONS

BEGIN IONS
PEPMASS=345.134
CHARGE=1
MSLEVEL=2
RT=0
SOURCE_INSTRUMENT=qTOF
FILENAME=CCMSLIB00000080027.ms
IONMODE=Positive
ORGANISM=Natural
NAME=MLS000697642-01!
PI=GNPS
DATACOLLECTOR=GNPS
SMILES=COCOc1cc(c(C(=O)/C=C/c2ccccc2)c(c1)OCOC)O
INCHI=InChI=1S/C19H20O6/c1-22-12-24-15-10-17(21)19(18(11-15)25-13-23-2)16(20)9-8-14-6-4-3-5-7-14/h3-11,21H,12-13H2,1-2H3/b9-8+
FORMULA=C19H20O6
PUBMED=N/A
SUBMITUSER=BIOADREM
LIBRARYQUALITY=0
SPECTRUMID=CCMSLIB00000080027
SCANS=2222
ID=CCMSLIB00000080027
102.0464011605 	 1.26
103.0542261926 	 62.02
109.0284053726 	 10.89
115.0542261926 	 2.06
123.0076699305 	 0.65
123.0440554368 	 0.72
125.059705501 	 1.61
128.0620512247 	 0.54
131.0491408147 	 100
137.0233199947 	 1.76
138.0311450268 	 1.12
143.0491408147 	 0.67
149.0233199947 	 1.22
153.0546201231 	 11.46
165.0182346168 	 8.3
167.033884681 	 11.9
179.033884681 	 0.68
187.0753555652 	 0.79
197.0444493673 	 1.89
345.1332643746 	 0
END IONS

BEGIN IONS
PEPMASS=319.097
CHARGE=1
MSLEVEL=2
RT=0
SOURCE_INSTRUMENT=qTOF
FILENAME=CCMSLIB00000080028.ms
IONMODE=Positive
ORGANISM=Natural
NAME=MLS002637723-01!
PI=GNPS
DATACOLLECTOR=GNPS
SMILES=c1ccc(cc1)OC(=O)c1ccccc1C(=O)Oc1ccccc1
INCHI=InChI=1S/C20H14O4/c21-19(23-15-9-3-1-4-10-15)17-13-7-8-14-18(17)20(22)24-16-11-5-2-6-12-16/h1-14H
FORMULA=C20H14O4
PUBMED=N/A
SUBMITUSER=BIOADREM
LIBRARYQUALITY=0
SPECTRUMID=CCMSLIB00000080028
SCANS=2223
ID=CCMSLIB00000080028
115.0542261926 	 1.8
141.0698762568 	 6.29
152.0620512247 	 8.8
153.0698762568 	 14.36
169.0647908789 	 1.98
197.059705501 	 10.13
225.0546201231 	 100
319.0964849378 	 0
END IONS

BEGIN IONS
PEPMASS=208.097
CHARGE=1
MSLEVEL=2
RT=0
SOURCE_INSTRUMENT=qTOF
FILENAME=CCMSLIB00000080029.ms
IONMODE=Positive
ORGANISM=Natural
NAME=MLS000060711-01!
PI=GNPS
DATACOLLECTOR=GNPS
SMILES=CC(=NC(Cc1ccccc1)C(=O)O)O
INCHI=InChI=1S/C11H13NO3/c1-8(13)12-10(11(14)15)7-9-5-3-2-4-6-9/h2-6,10H,7H2,1H3,(H,12,13)(H,14,15)
FORMULA=C11H13NO3
PUBMED=N/A
SUBMITUSER=BIOADREM
LIBRARYQUALITY=0
SPECTRUMID=CCMSLIB00000080029
SCANS=2224
ID=CCMSLIB00000080029
103.0542261926 	 53.15
107.0491408147 	 8.65
119.072950262 	 7.57
120.0807752941 	 100
131.0491408147 	 8.29
133.0522148199 	 3.42
208.0968192888 	 0
END IONS

BEGIN IONS
PEPMASS=471.156
CHARGE=1
MSLEVEL=2
RT=0
SOURCE_INSTRUMENT=qTOF
FILENAME=CCMSLIB00000080030.ms
IONMODE=Positive
ORGANISM=Natural
NAME=MLS001159065-01!(2S)-3-(1H-indol-3-yl)-2-[[2-(4-methyl-6-oxobenzo[c]chromen-3-yl)oxyacetyl]amino]propanoic acid
PI=GNPS
DATACOLLECTOR=GNPS
SMILES=Cc1c(ccc2c3ccccc3c(=O)oc12)OCC(=N[C@@H](Cc1c[nH]c2ccccc12)C(=O)O)O
INCHI=InChI=1S/C27H22N2O6/c1-15-23(11-10-19-18-7-2-3-8-20(18)27(33)35-25(15)19)34-14-24(30)29-22(26(31)32)12-16-13-28-21-9-5-4-6-17(16)21/h2-11,13,22,28H,12,14H2,1H3,(H,29,30)(H,31,32)/t22-/m0/s1
FORMULA=C27H22N2O6
PUBMED=N/A
SUBMITUSER=BIOADREM
LIBRARYQUALITY=0
SPECTRUMID=CCMSLIB00000080030
SCANS=2225
ID=CCMSLIB00000080030
103.0542261926 	 2.38
115.0542261926 	 11.88
117.0573001978 	 3.49
118.0651252299 	 17.73
128.0494751657 	 2.31
129.0698762568 	 3.94
130.0651252299 	 100
132.0807752941 	 5.6
142.0651252299 	 12.58
143.072950262 	 18.83
144.0807752941 	 39.96
146.060039852 	 25.91
152.0620512247 	 6.03
153.0698762568 	 2.38
156.0807752941 	 11.85
158.0838492993 	 55.58
160.0756899162 	 3.48
170.060039852 	 39.46
171.0916743314 	 25.18
181.0647908789 	 36.58
183.0916743314 	 10.49
184.0756899162 	 5.96
185.0709388893 	 10.24
188.0706045383 	 27.1
195.0804409431 	 1.64
199.0865889535 	 9.06
200.0944139856 	 9.33
209.059705501 	 5.79
211.0753555652 	 4.66
223.0753555652 	 1.9
227.0702701873 	 4.89
239.0702701873 	 22
266.0811692246 	 2.3
425.1495831408 	 5.25
471.1550624492 	 0
END IONS

BEGIN IONS
PEPMASS=387.1918
CHARGE=1
MSLEVEL=2
RT=0
SOURCE_INSTRUMENT=qTOF
FILENAME=CCMSLIB00000080031.ms
IONMODE=Positive
ORGANISM=Natural
NAME=MLS001159058-01!1-[2-(7-methyl-2-oxo-4-propylchromen-5-yl)oxyacetyl]piperidine-4-carboxamide
PI=GNPS
DATACOLLECTOR=GNPS
SMILES=CCCc1cc(=O)oc2cc(C)cc(c12)OCC(=O)N1CCC(CC1)C(=N)O
INCHI=InChI=1S/C21H26N2O5/c1-3-4-15-11-19(25)28-17-10-13(2)9-16(20(15)17)27-12-18(24)23-7-5-14(6-8-23)21(22)26/h9-11,14H,3-8,12H2,1-2H3,(H2,22,26)
FORMULA=C21H26N2O5
PUBMED=N/A
SUBMITUSER=BIOADREM
LIBRARYQUALITY=0
SPECTRUMID=CCMSLIB00000080031
SCANS=2226
ID=CCMSLIB00000080031
96.0807752941 	 5.82
98.060039852 	 16.27
110.060039852 	 13.7
112.0756899162 	 39.08
119.085526321 	 5.86
124.0756899162 	 9.95
126.0913399804 	 4.68
127.0865889535 	 61.38
129.0698762568 	 6.87
129.1022390177 	 4.64
141.1022390177 	 100
142.0777012889 	 10.29
147.0804409431 	 9.91
157.0971536398 	 5.99
158.072615911 	 5.02
161.059705501 	 14.5
161.0960910073 	 6.41
165.0546201231 	 5.73
169.0971536398 	 12.35
172.0882659752 	 14.54
173.0960910073 	 6.37
175.0753555652 	 28.2
175.1117410715 	 19.81
177.0546201231 	 25.3
187.1117410715 	 6.07
188.0831805973 	 21.63
189.0546201231 	 8.98
189.0910056294 	 29.43
190.0624451552 	 7.46
191.0662474419 	 6.03
199.0753555652 	 7.84
203.0702701873 	 53.29
203.1066556936 	 53.5
204.1104579803 	 5.1
217.0859202515 	 9.06
231.1015703157 	 88.15
232.1053726024 	 11.38
233.1172203799 	 5.44
259.0964849378 	 25.97
300.1230340393 	 6.07
342.1699842319 	 18.34
370.164898854 	 6.49
387.1914479555 	 9.91
END IONS

BEGIN IONS
PEPMASS=440.164
CHARGE=1
MSLEVEL=2
RT=0
SOURCE_INSTRUMENT=qTOF
FILENAME=CCMSLIB00000080032.ms
IONMODE=Positive
ORGANISM=Natural
NAME=MLS001146633-01!
PI=GNPS
DATACOLLECTOR=GNPS
SMILES=COc1ccc(/C=C/C(=NC(=S)N2C[C@H]3C[C@H](C2)c2cccc(=O)n2C3)O)cc1OC
INCHI=InChI=1S/C23H25N3O4S/c1-29-19-8-6-15(11-20(19)30-2)7-9-21(27)24-23(31)25-12-16-10-17(14-25)18-4-3-5-22(28)26(18)13-16/h3-9,11,16-17H,10,12-14H2,1-2H3,(H,24,27,31)/b9-7+/t16-,17-/m1/s1
FORMULA=C23H25N3O4S
PUBMED=N/A
SUBMITUSER=BIOADREM
LIBRARYQUALITY=0
SPECTRUMID=CCMSLIB00000080032
SCANS=2227
ID=CCMSLIB00000080032
103.0542261926 	 1.11
107.0491408147 	 0.49
119.0491408147 	 1.21
132.0569658468 	 2.94
133.0284053726 	 2.55
133.0681616973 	 2.09
146.0362304047 	 0.88
147.0440554368 	 2.1
148.0552512873 	 9.35
160.0552512873 	 3.44
161.059705501 	 1.71
163.0787263836 	 28.18
164.0818379266 	 5.09
176.0501659094 	 3.72
189.0546201231 	 0.48
191.0736410057 	 100
192.0767525487 	 16.31
233.0794922029 	 6.41
440.1638529965 	 0
END IONS

BEGIN IONS
PEPMASS=565.209
CHARGE=1
MSLEVEL=2
RT=0
SOURCE_INSTRUMENT=qTOF
FILENAME=CCMSLIB00000080033.ms
IONMODE=Positive
ORGANISM=Natural
NAME=MLS001140673-01!
PI=GNPS
DATACOLLECTOR=GNPS
SMILES=COc1cccc(c1)C1c2c(C[C@H]3C(=O)N(c4ccccc4C(=O)N4CCC[C@H]4C(=O)O)C(=O)N13)c1ccccc1[nH]2
INCHI=InChI=1S/C32H28N4O6/c1-42-19-9-6-8-18(16-19)28-27-22(20-10-2-4-12-23(20)33-27)17-26-30(38)36(32(41)35(26)28)24-13-5-3-11-21(24)29(37)34-15-7-14-25(34)31(39)40/h2-6,8-13,16,25-26,28,33H,7,14-15,17H2,1H3,(H,39,40)/t25-,26-,28?/m0/s1
FORMULA=C32H28N4O6
PUBMED=N/A
SUBMITUSER=BIOADREM
LIBRARYQUALITY=0
SPECTRUMID=CCMSLIB00000080033
SCANS=2228
ID=CCMSLIB00000080033
121.0647908789 	 11.72
146.0236543457 	 11.27
204.0807752941 	 2.39
206.0964253583 	 5.36
207.1015703157 	 1.6
217.0886003262 	 13.77
218.0964253583 	 72
219.1015703157 	 14.36
233.0835149483 	 5.41
234.0913399804 	 13.2
235.0964849378 	 2.61
238.0862546025 	 45.03
245.0835149483 	 2.84
246.0913399804 	 2.58
247.0991650125 	 16.98
248.1069900446 	 100
249.1148150767 	 51.01
260.1069900446 	 80.5
261.112135002 	 12.38
262.0862546025 	 8.31
263.0913995599 	 1.48
266.0811692246 	 43.9
275.1178890819 	 2.3
288.1019046667 	 12.71
289.1070496241 	 4.19
290.0838492993 	 6.47
303.112803704 	 15.56
351.1491892103 	 1.46
374.1022985972 	 3.16
375.1101236293 	 1.7
376.1206287361 	 1.87
379.1441038324 	 5.59
389.1284537682 	 4.17
390.1335987256 	 1.69
392.1155433582 	 3.25
407.1390184545 	 40.38
408.1441634119 	 12.85
422.1512601625 	 8.62
423.1577425239 	 3.1
450.1461747846 	 36.79
451.152657146 	 12.73
565.2081606522 	 0
END IONS

BEGIN IONS
PEPMASS=469.224
CHARGE=1
MSLEVEL=2
RT=0
SOURCE_INSTRUMENT=qTOF
FILENAME=CCMSLIB00000080034.ms
IONMODE=Positive
ORGANISM=Natural
NAME=MLS001158574-01!(3S)-N-[(2S)-3-(1H-indol-3-yl)-1-(4-methoxyanilino)-1-oxopropan-2-yl]-1,2,3,4-tetrahydroisoquinoline-3-carboxamide
PI=GNPS
DATACOLLECTOR=GNPS
SMILES=COc1ccc(cc1)NC(=O)[C@H](Cc1c[nH]c2ccccc12)N=C([C@@H]1Cc2ccccc2CN1)O
INCHI=InChI=1S/C28H28N4O3/c1-35-22-12-10-21(11-13-22)31-28(34)26(15-20-17-29-24-9-5-4-8-23(20)24)32-27(33)25-14-18-6-2-3-7-19(18)16-30-25/h2-13,17,25-26,29-30H,14-16H2,1H3,(H,31,34)(H,32,33)/t25-,26-/m0/s1
FORMULA=C28H28N4O3
PUBMED=N/A
SUBMITUSER=BIOADREM
LIBRARYQUALITY=0
SPECTRUMID=CCMSLIB00000080034
SCANS=2229
ID=CCMSLIB00000080034
103.0542261926 	 1.29
105.0698762568 	 1.11
115.0542261926 	 3.19
117.0573001978 	 5.54
118.0651252299 	 0.89
130.0651252299 	 37.04
132.0807752941 	 100
142.0651252299 	 2.11
144.0807752941 	 2.29
148.0756899162 	 2.13
158.060039852 	 0.26
159.0916743314 	 49.26
169.0760242672 	 1
170.060039852 	 2.58
172.0756899162 	 0.58
176.0706045383 	 1.34
187.0865889535 	 39.81
265.1335391461 	 1.16
293.1284537682 	 2.31
469.2234167859 	 0
END IONS

BEGIN IONS
PEPMASS=386.1881
CHARGE=1
MSLEVEL=2
RT=0
SOURCE_INSTRUMENT=qTOF
FILENAME=CCMSLIB00000080035.ms
IONMODE=Positive
ORGANISM=Natural
NAME=MLS001140556-01!
PI=GNPS
DATACOLLECTOR=GNPS
SMILES=Cc1ccc(cc1)c1c2c(cc(C(=O)NCC3CCCO3)[nH]1)c1ccccc1n2
INCHI=InChI=1S/C24H23N3O2/c1-15-8-10-16(11-9-15)22-23-19(18-6-2-3-7-20(18)26-23)13-21(27-22)24(28)25-14-17-5-4-12-29-17/h2-3,6-11,13,17,27H,4-5,12,14H2,1H3,(H,25,28)
FORMULA=C24H23N3O2
PUBMED=N/A
SUBMITUSER=BIOADREM
LIBRARYQUALITY=0
SPECTRUMID=CCMSLIB00000080035
SCANS=2230
ID=CCMSLIB00000080035
204.0807752941 	 0.22
229.0886003262 	 0.37
230.0964253583 	 3.77
231.1042503904 	 1.07
255.0916743314 	 2.32
256.0994993635 	 18.14
258.1151494277 	 66.7
284.1195661036 	 8.22
285.1022390177 	 15.02
302.1301307899 	 0.35
303.112803704 	 9.43
368.1757383118 	 1.07
386.1863029981 	 9.19
END IONS

BEGIN IONS
PEPMASS=255.1017
CHARGE=1
MSLEVEL=2
RT=0
SOURCE_INSTRUMENT=qTOF
FILENAME=CCMSLIB00000080036.ms
IONMODE=Positive
ORGANISM=Natural
NAME=MLS001049039-01!(E)-1-(4-hydroxyphenyl)-3-(4-methoxyphenyl)prop-2-en-1-one
PI=GNPS
DATACOLLECTOR=GNPS
SMILES=COc1ccc(cc1)/C=C/C(=O)c1ccc(cc1)O
INCHI=InChI=1S/C16H14O3/c1-19-15-9-2-12(3-10-15)4-11-16(18)13-5-7-14(17)8-6-13/h2-11,17H,1H3/b11-4+
FORMULA=C16H14O3
PUBMED=N/A
SUBMITUSER=BIOADREM
LIBRARYQUALITY=0
SPECTRUMID=CCMSLIB00000080036
SCANS=2231
ID=CCMSLIB00000080036
103.0542261926 	 35.42
105.0698762568 	 10.46
109.0284053726 	 5.49
117.0334907505 	 3.39
118.0413157826 	 39.28
119.0491408147 	 4.15
121.0284053726 	 89.19
133.0647908789 	 100
147.0440554368 	 8.3
161.059705501 	 56.46
255.1015703157 	 3.8
END IONS

BEGIN IONS
PEPMASS=437.135
CHARGE=1
MSLEVEL=2
RT=0
SOURCE_INSTRUMENT=qTOF
FILENAME=CCMSLIB00000080037.ms
IONMODE=Positive
ORGANISM=Natural
NAME=MLS001140885-01!3-(5-hydroxy-1H-indol-3-yl)-2-[2-(2-oxochromen-7-yl)oxypropanoylamino]propanoic acid
PI=GNPS
DATACOLLECTOR=GNPS
SMILES=CC(C(=NC(Cc1c[nH]c2ccc(cc12)O)C(=O)O)O)Oc1ccc2ccc(=O)oc2c1
INCHI=InChI=1S/C23H20N2O7/c1-12(31-16-5-2-13-3-7-21(27)32-20(13)10-16)22(28)25-19(23(29)30)8-14-11-24-18-6-4-15(26)9-17(14)18/h2-7,9-12,19,24,26H,8H2,1H3,(H,25,28)(H,29,30)
FORMULA=C23H20N2O7
PUBMED=N/A
SUBMITUSER=BIOADREM
LIBRARYQUALITY=0
SPECTRUMID=CCMSLIB00000080037
SCANS=2232
ID=CCMSLIB00000080037
103.0542261926 	 7.06
105.0698762568 	 6.44
107.0491408147 	 6.58
115.0542261926 	 7.93
117.0334907505 	 6.2
118.0651252299 	 5.72
120.0569658468 	 4.85
121.0647908789 	 4.18
131.0491408147 	 6.82
132.0569658468 	 3.27
133.0647908789 	 5.67
134.060039852 	 19.7
145.0284053726 	 8.84
145.0647908789 	 3.7
146.060039852 	 100
147.0651848094 	 7.21
148.0518804689 	 4.71
148.0756899162 	 13.41
156.0807752941 	 3.41
158.060039852 	 26
159.0678648841 	 13.6
160.0756899162 	 21.96
161.059705501 	 16.72
162.0549544741 	 18.89
163.0753555652 	 32.72
170.060039852 	 6.63
171.0678648841 	 6.1
172.0756899162 	 3.6
174.0787639214 	 35.51
175.0865889535 	 26.09
176.0553484046 	 3.65
184.0756899162 	 12.59
186.0549544741 	 35.51
186.0913399804 	 11
187.0600994315 	 6.1
189.0546201231 	 62.09
190.0584224098 	 11.68
201.1022390177 	 6.01
202.1100640498 	 3.36
204.0655191604 	 22.25
213.1022390177 	 3.94
214.0862546025 	 8.41
229.1011763852 	 4.04
230.1049786719 	 11
233.0768121282 	 7.26
391.1288476987 	 4.85
392.1254393425 	 3.41
437.1343270071 	 0
END IONS

BEGIN IONS
PEPMASS=417.2859
CHARGE=1
MSLEVEL=2
RT=0
SOURCE_INSTRUMENT=qTOF
FILENAME=CCMSLIB00000080038.ms
IONMODE=Positive
ORGANISM=Natural
NAME=MLS001141004-01!1-[(2S)-2-amino-4-methylpentanoyl]-N-[(2S)-1-[(4-methylphenyl)methylamino]-1-oxopropan-2-yl]piperidine-4-carboxamide
PI=GNPS
DATACOLLECTOR=GNPS
SMILES=CC(C)C[C@@H](C(=O)N1CCC(CC1)C(=N[C@@H](C)C(=NCc1ccc(C)cc1)O)O)N
INCHI=InChI=1S/C23H36N4O3/c1-15(2)13-20(24)23(30)27-11-9-19(10-12-27)22(29)26-17(4)21(28)25-14-18-7-5-16(3)6-8-18/h5-8,15,17,19-20H,9-14,24H2,1-4H3,(H,25,28)(H,26,29)/t17-,20-/m0/s1
FORMULA=C23H36N4O3
PUBMED=N/A
SUBMITUSER=BIOADREM
LIBRARYQUALITY=0
SPECTRUMID=CCMSLIB00000080038
SCANS=2233
ID=CCMSLIB00000080038
105.0698762568 	 48.35
112.0756899162 	 100
122.0964253583 	 1.63
129.1022390177 	 0.54
155.1178890819 	 16.11
183.112803704 	 23.55
286.191388376 	 0.4
304.2019530623 	 27.32
417.2860170427 	 2.2
END IONS

BEGIN IONS
PEPMASS=495.1681
CHARGE=1
MSLEVEL=2
RT=0
SOURCE_INSTRUMENT=qTOF
FILENAME=CCMSLIB00000080039.ms
IONMODE=Positive
ORGANISM=Natural
NAME=MLS001032277-01!
PI=GNPS
DATACOLLECTOR=GNPS
SMILES=C=C(C)COc1cc2c(cc1Cl)c(C)c(CC(=O)N1C[C@H]3C[C@@H](C1)c1cccc(=O)n1C3)c(=O)o2
INCHI=InChI=1S/C27H27ClN2O5/c1-15(2)14-34-24-10-23-19(8-21(24)28)16(3)20(27(33)35-23)9-26(32)29-11-17-7-18(13-29)22-5-4-6-25(31)30(22)12-17/h4-6,8,10,17-18H,1,7,9,11-14H2,2-3H3/t17-,18+/m1/s1
FORMULA=C27H27ClN2O5
PUBMED=N/A
SUBMITUSER=BIOADREM
LIBRARYQUALITY=0
SPECTRUMID=CCMSLIB00000080039
SCANS=2234
ID=CCMSLIB00000080039
146.060039852 	 2.29
147.0651848094 	 1.23
148.0756899162 	 11.35
149.0808348736 	 1.86
157.1011763852 	 0.49
160.0518804689 	 0.46
167.085526321 	 0.52
169.1011763852 	 1.22
170.1049786719 	 0.49
179.085526321 	 0.54
182.0704230257 	 0.68
185.0920682619 	 1.13
189.099558943 	 1.31
190.1100640498 	 0.78
191.1178890819 	 57.48
195.0189033188 	 1.69
195.0804409431 	 1.09
196.0882659752 	 1.65
197.0107439357 	 0.72
197.0960910073 	 2.53
198.1039160394 	 0.85
203.0622040631 	 0.76
205.0607681335 	 0.62
207.0207331789 	 3.63
208.0245354656 	 0.57
209.0152538705 	 0.67
213.0910056294 	 4.42
214.0948079161 	 0.91
217.0944735651 	 0.85
223.0138179409 	 12.29
224.0194500877 	 2.04
224.0831805973 	 0.71
225.0101684926 	 3.59
226.0179935247 	 0.59
231.0571186852 	 3.42
232.0609209719 	 0.61
233.0575126157 	 1.15
235.015647801 	 8.41
236.0194500877 	 0.97
241.0859202515 	 4.24
242.0937452836 	 1.82
249.0676833715 	 1.93
250.0009075309 	 0.58
250.0714856582 	 0.64
251.008732563 	 1.03
251.0622040631 	 0.7
259.0520333073 	 2.34
260.055835594 	 0.59
261.0465539989 	 0.5
277.0625979936 	 100
278.0664002803 	 15.48
279.0571186852 	 26.32
305.0575126157 	 6.24
306.0635077877 	 1.52
307.0520333073 	 2.42
495.1681256976 	 4.48
END IONS

BEGIN IONS
PEPMASS=360.1443
CHARGE=1
MSLEVEL=2
RT=0
SOURCE_INSTRUMENT=qTOF
FILENAME=CCMSLIB00000080040.ms
IONMODE=Positive
ORGANISM=Natural
NAME=MLS001141329-01!1-[2-(4,8-dimethyl-2-oxochromen-7-yl)oxyacetyl]piperidine-4-carboxylic acid
PI=GNPS
DATACOLLECTOR=GNPS
SMILES=Cc1cc(=O)oc2c(C)c(ccc12)OCC(=O)N1CCC(CC1)C(=O)O
INCHI=InChI=1S/C19H21NO6/c1-11-9-17(22)26-18-12(2)15(4-3-14(11)18)25-10-16(21)20-7-5-13(6-8-20)19(23)24/h3-4,9,13H,5-8,10H2,1-2H3,(H,23,24)
FORMULA=C19H21NO6
PUBMED=N/A
SUBMITUSER=BIOADREM
LIBRARYQUALITY=0
SPECTRUMID=CCMSLIB00000080040
SCANS=2235
ID=CCMSLIB00000080040
96.0807752941 	 2.44
99.0440554368 	 7.55
112.0756899162 	 7.11
114.0549544741 	 11.38
117.0698762568 	 7.38
119.085526321 	 2.41
124.0756899162 	 4.59
126.0913399804 	 20.69
128.0706045383 	 80.48
130.0862546025 	 3.76
142.0862546025 	 100
145.0647908789 	 23.6
147.0804409431 	 5
162.0675305331 	 6.55
172.0968192888 	 2.56
175.0753555652 	 15.9
190.0624451552 	 6.17
203.0702701873 	 47.47
231.0651848094 	 3.35
314.1386841035 	 5.35
360.1441634119 	 5.85
END IONS

BEGIN IONS
PEPMASS=470.145
CHARGE=1
MSLEVEL=2
RT=0
SOURCE_INSTRUMENT=qTOF
FILENAME=CCMSLIB00000080041.ms
IONMODE=Positive
ORGANISM=Natural
NAME=MLS001157964-01!(2S)-1-[2-[[(2Z)-2-[(3,4-dimethoxyphenyl)methylidene]-3-oxo-1-benzofuran-6-yl]oxy]acetyl]-4-hydroxypyrrolidine-2-carboxylic acid
PI=GNPS
DATACOLLECTOR=GNPS
SMILES=COc1ccc(cc1OC)/C=C\1/C(=O)c2ccc(cc2O1)OCC(=O)N1CC(C[C@H]1C(=O)O)O
INCHI=InChI=1S/C24H23NO9/c1-31-18-6-3-13(7-20(18)32-2)8-21-23(28)16-5-4-15(10-19(16)34-21)33-12-22(27)25-11-14(26)9-17(25)24(29)30/h3-8,10,14,17,26H,9,11-12H2,1-2H3,(H,29,30)/b21-8-/t14?,17-/m0/s1
FORMULA=C24H23NO9
PUBMED=N/A
SUBMITUSER=BIOADREM
LIBRARYQUALITY=0
SPECTRUMID=CCMSLIB00000080041
SCANS=2236
ID=CCMSLIB00000080041
110.060039852 	 3.5
114.0549544741 	 14.96
116.0706045383 	 17.61
121.0284053726 	 3.47
126.0549544741 	 3.95
128.0706045383 	 3.95
137.0233199947 	 16.78
137.059705501 	 5.23
144.0655191604 	 26.4
148.0518804689 	 7.19
163.0389700589 	 14.88
163.0753555652 	 3.41
172.0604337825 	 8.52
199.0753555652 	 6.71
214.0624451552 	 3.83
227.1066556936 	 12.38
237.0546201231 	 13
238.0624451552 	 20.46
243.1015703157 	 14.85
251.0702701873 	 4.22
253.0495347452 	 7.21
255.0651848094 	 12.29
265.0495347452 	 11.73
266.0573597773 	 42.93
267.0651848094 	 28.95
268.0730098415 	 5.4
269.0444493673 	 4.31
270.0522743994 	 4.31
279.0651848094 	 5.94
281.0808348736 	 6.65
283.0600994315 	 26.07
284.0679244636 	 26.25
295.0600994315 	 5.64
296.0679244636 	 6.65
298.0471890215 	 3.8
298.0835745278 	 10.96
299.0913995599 	 100
301.0944735651 	 3.95
310.0835745278 	 26.07
311.0913995599 	 26.48
313.0706641178 	 12.14
339.086314182 	 6
357.0968788683 	 3.74
396.1441634119 	 5.26
470.1445573424 	 43.47
END IONS

BEGIN IONS
PEPMASS=492.121
CHARGE=1
MSLEVEL=2
RT=0
SOURCE_INSTRUMENT=qTOF
FILENAME=CCMSLIB00000080042.ms
IONMODE=Positive
ORGANISM=Natural
NAME=MLS001141245-01!3-(4-chlorophenyl)-2-[[2-(8-methyl-2-oxo-4-phenylchromen-7-yl)oxyacetyl]amino]propanoic acid
PI=GNPS
DATACOLLECTOR=GNPS
SMILES=Cc1c(ccc2c(cc(=O)oc12)c1ccccc1)OCC(=NC(Cc1ccc(cc1)Cl)C(=O)O)O
INCHI=InChI=1S/C27H22ClNO6/c1-16-23(12-11-20-21(14-25(31)35-26(16)20)18-5-3-2-4-6-18)34-15-24(30)29-22(27(32)33)13-17-7-9-19(28)10-8-17/h2-12,14,22H,13,15H2,1H3,(H,29,30)(H,32,33)
FORMULA=C27H22ClNO6
PUBMED=N/A
SUBMITUSER=BIOADREM
LIBRARYQUALITY=0
SPECTRUMID=CCMSLIB00000080042
SCANS=2237
ID=CCMSLIB00000080042
103.0542261926 	 4.85
118.0651252299 	 2.35
119.072950262 	 2.69
125.0152538705 	 3.84
130.0651252299 	 16.52
131.072950262 	 13.17
139.0309039347 	 13.05
154.041802972 	 14.11
164.0261529078 	 5.41
165.0676833715 	 4
166.041802972 	 60.36
178.0777012889 	 21.29
179.085526321 	 44.08
181.0625979936 	 2.03
181.0989834999 	 2.45
184.0523676583 	 2.61
189.0698762568 	 1.94
190.0755084036 	 2.18
194.0704230257 	 5.34
195.0445426262 	 2.59
195.0782480578 	 1.72
197.0965781967 	 4.67
206.072615911 	 4.09
207.0804409431 	 94.61
208.0860730899 	 17.94
209.059705501 	 1.79
209.093898122 	 3.88
212.0472822804 	 3
224.0831805973 	 9.33
225.0914928188 	 1.76
235.0753555652 	 8.96
236.080987712 	 2.04
237.0910056294 	 5.34
251.068077302 	 1.81
252.0780952194 	 10.19
253.0864074409 	 59.14
265.0859202515 	 100
266.0915523983 	 20.19
293.0808348736 	 4.01
446.1153618456 	 2.89
492.120841154 	 1.74
END IONS

BEGIN IONS
PEPMASS=316.155
CHARGE=1
MSLEVEL=2
RT=0
SOURCE_INSTRUMENT=qTOF
FILENAME=CCMSLIB00000080043.ms
IONMODE=Positive
ORGANISM=Natural
NAME=MLS001158943-01!N-cyclopropyl-3-(7-methoxy-4,8-dimethyl-2-oxochromen-3-yl)propanamide
PI=GNPS
DATACOLLECTOR=GNPS
SMILES=Cc1c2ccc(c(C)c2oc(=O)c1CCC(=NC1CC1)O)OC
INCHI=InChI=1S/C18H21NO4/c1-10-13-6-8-15(22-3)11(2)17(13)23-18(21)14(10)7-9-16(20)19-12-4-5-12/h6,8,12H,4-5,7,9H2,1-3H3,(H,19,20)
FORMULA=C18H21NO4
PUBMED=N/A
SUBMITUSER=BIOADREM
LIBRARYQUALITY=0
SPECTRUMID=CCMSLIB00000080043
SCANS=2238
ID=CCMSLIB00000080043
103.0542261926 	 0.27
105.0698762568 	 1.16
115.0542261926 	 1.06
116.0620512247 	 0.3
117.0698762568 	 0.42
128.0620512247 	 1.74
129.0698762568 	 1.94
130.0777012889 	 0.67
131.0491408147 	 1.17
131.085526321 	 0.6
132.0569658468 	 0.33
133.1011763852 	 0.21
135.0804409431 	 0.33
141.0698762568 	 1.25
142.0777012889 	 0.76
143.0491408147 	 1.02
143.085526321 	 0.83
144.0569658468 	 0.28
145.0647908789 	 1.46
146.072615911 	 2.02
157.0647908789 	 0.78
158.072615911 	 4.4
159.0804409431 	 0.84
160.0882659752 	 0.44
161.0960910073 	 2.56
171.0804409431 	 0.28
173.059705501 	 0.74
173.0960910073 	 1.57
174.0675305331 	 6.21
188.0831805973 	 1.1
189.0910056294 	 11.57
201.0546201231 	 0.36
203.1066556936 	 1.11
216.0780952194 	 0.63
217.0859202515 	 100
231.1015703157 	 7.46
259.0964849378 	 1.78
316.1543341677 	 0
END IONS

BEGIN IONS
PEPMASS=499.127
CHARGE=1
MSLEVEL=2
RT=0
SOURCE_INSTRUMENT=qTOF
FILENAME=CCMSLIB00000080044.ms
IONMODE=Positive
ORGANISM=Natural
NAME=MLS001140886-01!2-[[2-(6-chloro-2-oxo-4-propylchromen-7-yl)oxyacetyl]amino]-3-(5-hydroxy-1H-indol-3-yl)propanoic acid
PI=GNPS
DATACOLLECTOR=GNPS
SMILES=CCCc1cc(=O)oc2cc(c(cc12)Cl)OCC(=NC(Cc1c[nH]c2ccc(cc12)O)C(=O)O)O
INCHI=InChI=1S/C25H23ClN2O7/c1-2-3-13-7-24(31)35-21-10-22(18(26)9-17(13)21)34-12-23(30)28-20(25(32)33)6-14-11-27-19-5-4-15(29)8-16(14)19/h4-5,7-11,20,27,29H,2-3,6,12H2,1H3,(H,28,30)(H,32,33)
FORMULA=C25H23ClN2O7
PUBMED=N/A
SUBMITUSER=BIOADREM
LIBRARYQUALITY=0
SPECTRUMID=CCMSLIB00000080044
SCANS=2239
ID=CCMSLIB00000080044
106.0651252299 	 1.52
117.0573001978 	 4.74
118.0651252299 	 3.2
130.0651252299 	 3.65
131.0491408147 	 5.68
132.0807752941 	 2.43
133.0522148199 	 3.73
134.060039852 	 6.18
142.0651252299 	 4.03
143.0702701873 	 1.98
144.0443897878 	 1.4
145.0647908789 	 1.72
146.060039852 	 100
147.0651848094 	 13.82
148.0730098415 	 2.96
158.060039852 	 19.85
159.0678648841 	 6.26
160.0756899162 	 18.86
161.0808348736 	 4.25
162.0549544741 	 15.26
163.0600994315 	 1.92
165.0465539989 	 1.49
170.060039852 	 4.89
171.0678648841 	 3.17
172.0756899162 	 8.82
173.0709388893 	 8.76
174.0787639214 	 54.19
175.0839088788 	 9.79
186.0549544741 	 34.71
187.0865889535 	 15.46
188.0944139856 	 5.15
197.0682588146 	 3.69
198.0787639214 	 2.97
199.0627795062 	 8.59
199.0865889535 	 12.43
200.0679244636 	 2.7
201.0658535114 	 9.61
215.0815035756 	 9.14
216.0893286077 	 9.76
221.0363832431 	 2.08
223.0520333073 	 1.85
243.073738123 	 2.27
251.0469479294 	 4.65
453.121175505 	 12.13
499.1266548134 	 0
END IONS

BEGIN IONS
PEPMASS=299.127
CHARGE=1
MSLEVEL=2
RT=0
SOURCE_INSTRUMENT=qTOF
FILENAME=CCMSLIB00000080045.ms
IONMODE=Positive
ORGANISM=Natural
NAME=MLS001049137-01!(E)-1-(2,4-dimethoxyphenyl)-3-(4-methoxyphenyl)prop-2-en-1-one
PI=GNPS
DATACOLLECTOR=GNPS
SMILES=COc1ccc(cc1)/C=C/C(=O)c1ccc(cc1OC)OC
INCHI=InChI=1S/C18H18O4/c1-20-14-7-4-13(5-8-14)6-11-17(19)16-10-9-15(21-2)12-18(16)22-3/h4-12H,1-3H3/b11-6+
FORMULA=C18H18O4
PUBMED=N/A
SUBMITUSER=BIOADREM
LIBRARYQUALITY=0
SPECTRUMID=CCMSLIB00000080045
SCANS=2240
ID=CCMSLIB00000080045
103.0542261926 	 0.33
105.0334907505 	 0.89
107.0127553084 	 2.7
107.0491408147 	 0.78
109.0647908789 	 3.3
118.0413157826 	 2.49
119.0491408147 	 0.52
121.0647908789 	 0.76
122.0362304047 	 10.44
133.0647908789 	 7.38
135.0440554368 	 4.91
137.059705501 	 1.27
150.0311450268 	 8.27
161.059705501 	 6.9
165.0546201231 	 100
191.0702701873 	 0.61
299.1277850662 	 0.56
END IONS

BEGIN IONS
PEPMASS=288.124
CHARGE=1
MSLEVEL=2
RT=0
SOURCE_INSTRUMENT=qTOF
FILENAME=CCMSLIB00000080046.ms
IONMODE=Positive
ORGANISM=Natural
NAME=MLS000876747-01!N-[(1S)-1-(4-methoxy-6-oxopyran-2-yl)-2-phenylethyl]acetamide
PI=GNPS
DATACOLLECTOR=GNPS
SMILES=CC(=N[C@@H](Cc1ccccc1)c1cc(cc(=O)o1)OC)O
INCHI=InChI=1S/C16H17NO4/c1-11(18)17-14(8-12-6-4-3-5-7-12)15-9-13(20-2)10-16(19)21-15/h3-7,9-10,14H,8H2,1-2H3,(H,17,18)/t14-/m0/s1
FORMULA=C16H17NO4
PUBMED=N/A
SUBMITUSER=BIOADREM
LIBRARYQUALITY=0
SPECTRUMID=CCMSLIB00000080046
SCANS=2241
ID=CCMSLIB00000080046
111.0440554368 	 6.72
112.0393044099 	 17.45
122.0236543457 	 6.57
125.0233199947 	 52.19
126.0549544741 	 8.25
127.0389700589 	 9.93
140.034219032 	 28.69
141.0698762568 	 7.59
147.0440554368 	 4.01
152.0620512247 	 13.28
153.0698762568 	 20.58
154.0498690962 	 22.12
155.0576941283 	 100
168.0780952194 	 8.83
169.0647908789 	 5.47
170.072615911 	 19.42
185.0960910073 	 35.77
196.0604337825 	 4.38
217.0495347452 	 20.88
229.0859202515 	 7.45
246.112469353 	 7.74
288.1230340393 	 0
END IONS

BEGIN IONS
PEPMASS=262.1438
CHARGE=1
MSLEVEL=2
RT=0
SOURCE_INSTRUMENT=qTOF
FILENAME=CCMSLIB00000080047.ms
IONMODE=Positive
ORGANISM=Natural
NAME=MLS002695240-01!
PI=GNPS
DATACOLLECTOR=GNPS
SMILES=CN1C2CCC1CC(C2)OC(=O)c1cccc(c1)O
INCHI=InChI=1S/C15H19NO3/c1-16-11-5-6-12(16)9-14(8-11)19-15(18)10-3-2-4-13(17)7-10/h2-4,7,11-12,14,17H,5-6,8-9H2,1H3
FORMULA=C15H19NO3
PUBMED=N/A
SUBMITUSER=BIOADREM
LIBRARYQUALITY=0
SPECTRUMID=CCMSLIB00000080047
SCANS=2242
ID=CCMSLIB00000080047
95.085526321 	 3.23
107.085526321 	 0.79
108.0807752941 	 3.06
109.0886003262 	 2.7
124.1120754225 	 100
262.1437694814 	 31.21
END IONS

BEGIN IONS
PEPMASS=414.203
CHARGE=1
MSLEVEL=2
RT=0
SOURCE_INSTRUMENT=qTOF
FILENAME=CCMSLIB00000080048.ms
IONMODE=Positive
ORGANISM=Natural
NAME=MLS001141387-01!(2S)-1-[6-[(10aS)-1,3-dioxo-10,10a-dihydro-5H-imidazo[1,5-b]isoquinolin-2-yl]hexanoyl]pyrrolidine-2-carboxylic acid
PI=GNPS
DATACOLLECTOR=GNPS
SMILES=C(CCC(=O)N1CCC[C@H]1C(=O)O)CCN1C(=O)[C@@H]2Cc3ccccc3CN2C1=O
INCHI=InChI=1S/C22H27N3O5/c26-19(23-12-6-9-17(23)21(28)29)10-2-1-5-11-24-20(27)18-13-15-7-3-4-8-16(15)14-25(18)22(24)30/h3-4,7-8,17-18H,1-2,5-6,9-14H2,(H,28,29)/t17-,18-/m0/s1
FORMULA=C22H27N3O5
PUBMED=N/A
SUBMITUSER=BIOADREM
LIBRARYQUALITY=0
SPECTRUMID=CCMSLIB00000080048
SCANS=2243
ID=CCMSLIB00000080048
103.0542261926 	 9.97
108.9920198663 	 5.39
116.0706045383 	 33.67
117.0698762568 	 9.87
130.0651252299 	 94.51
131.0702701873 	 15.36
132.0807752941 	 43.85
133.0859202515 	 8.85
146.0573597773 	 8.65
158.060039852 	 7.12
159.0651848094 	 10.89
160.0756899162 	 5.6
161.0835149483 	 5.49
175.0865889535 	 12.11
185.0682588146 	 10.27
187.0865889535 	 80.37
188.0917339109 	 12.11
196.0756899162 	 11.29
201.0658535114 	 12.72
202.0709984688 	 6.1
203.0815035756 	 100
204.086648533 	 7.83
212.1307994919 	 13.94
213.0698762568 	 8.65
215.085526321 	 18.21
221.1131976345 	 5.09
238.1226401088 	 7.53
245.1046443209 	 4.98
271.1441038324 	 11.29
297.1273911357 	 10.78
299.1390184545 	 18.01
315.137955822 	 12.11
413.1945219607 	 5.8
414.2023469928 	 0
END IONS

BEGIN IONS
PEPMASS=539.27
CHARGE=1
MSLEVEL=2
RT=0
SOURCE_INSTRUMENT=qTOF
FILENAME=CCMSLIB00000080049.ms
IONMODE=Positive
ORGANISM=Natural
NAME=MLS001142756-01!tert-butyl N-[(2S)-1-[4-[[(2S)-1-[(4-fluorophenyl)methylamino]-1-oxopropan-2-yl]carbamoyl]piperidin-1-yl]-4-methylsulfanyl-1-oxobutan-2-yl]carbamate
PI=GNPS
DATACOLLECTOR=GNPS
SMILES=C[C@@H](C(=NCc1ccc(cc1)F)O)N=C(C1CCN(CC1)C(=O)[C@H](CCSC)N=C(O)OC(C)(C)C)O
INCHI=InChI=1S/C26H39FN4O5S/c1-17(22(32)28-16-18-6-8-20(27)9-7-18)29-23(33)19-10-13-31(14-11-19)24(34)21(12-15-37-5)30-25(35)36-26(2,3)4/h6-9,17,19,21H,10-16H2,1-5H3,(H,28,32)(H,29,33)(H,30,35)/t17-,21-/m0/s1
FORMULA=C26H39FN4O5S
PUBMED=N/A
SUBMITUSER=BIOADREM
LIBRARYQUALITY=0
SPECTRUMID=CCMSLIB00000080049
SCANS=2244
ID=CCMSLIB00000080049
99.1168264494 	 0.76
104.0528459841 	 4.79
109.0448043605 	 5.78
112.0756899162 	 100
130.0684960483 	 0.97
152.0870035262 	 1.31
155.1178890819 	 11.28
156.1183036546 	 2.28
166.0862546025 	 1.05
167.0815035756 	 2.87
183.112803704 	 20.2
184.1154462409 	 3.47
197.1084672498 	 9.15
210.1237027413 	 1.84
238.1550028697 	 3.39
266.1499174918 	 1.33
286.1583736881 	 0.89
308.176881166 	 36.71
309.1761528845 	 12.86
314.1532883102 	 2.39
334.1595165423 	 0.76
343.1638736387 	 0.83
346.187348735 	 1.09
374.1822633571 	 0.79
391.2139949538 	 8.45
422.1908166707 	 0.82
439.2173657722 	 6.76
539.2697952732 	 0
END IONS

BEGIN IONS
PEPMASS=414.149
CHARGE=1
MSLEVEL=2
RT=0
SOURCE_INSTRUMENT=qTOF
FILENAME=CCMSLIB00000080050.ms
IONMODE=Positive
ORGANISM=Natural
NAME=MLS001076854-01!
PI=GNPS
DATACOLLECTOR=GNPS
SMILES=COc1cc(cc(c1)OC)C(=NC(=S)N1C[C@H]2C[C@H](C1)c1cccc(=O)n1C2)O
INCHI=InChI=1S/C21H23N3O4S/c1-27-16-7-14(8-17(9-16)28-2)20(26)22-21(29)23-10-13-6-15(12-23)18-4-3-5-19(25)24(18)11-13/h3-5,7-9,13,15H,6,10-12H2,1-2H3,(H,22,26,29)/t13-,15-/m1/s1
FORMULA=C21H23N3O4S
PUBMED=N/A
SUBMITUSER=BIOADREM
LIBRARYQUALITY=0
SPECTRUMID=CCMSLIB00000080050
SCANS=2245
ID=CCMSLIB00000080050
103.057597011 	 0.64
104.0494751657 	 0.74
107.0127553084 	 2.59
107.0491408147 	 4.98
109.0647908789 	 2.93
112.0215458557 	 0.82
117.0573001978 	 1.19
118.0651252299 	 1.1
120.0807752941 	 0.68
122.0362304047 	 31.06
125.059705501 	 0.82
130.0651252299 	 0.82
132.0443897878 	 3.42
132.0807752941 	 0.89
133.0522148199 	 2.85
134.060039852 	 1.5
137.059705501 	 33.79
143.0763210804 	 0.64
144.0807752941 	 0.87
145.0522148199 	 1.35
146.060039852 	 4.15
146.0937452836 	 3.2
148.0756899162 	 43.23
149.0808348736 	 3.18
155.0702701873 	 11.07
158.060039852 	 3.77
159.0678648841 	 3.88
160.0756899162 	 32.51
161.0808348736 	 9.37
165.0546201231 	 75.53
167.0610649467 	 1.27
172.0756899162 	 4.98
173.0808348736 	 1.18
174.0913399804 	 25.01
176.0944139856 	 1.05
191.1178890819 	 100
205.0529055636 	 0.7
233.071629633 	 29.73
234.0760838467 	 5.43
414.1482029323 	 0
END IONS

BEGIN IONS
PEPMASS=295.1812
CHARGE=1
MSLEVEL=2
RT=0
SOURCE_INSTRUMENT=qTOF
FILENAME=CCMSLIB00000080051.ms
IONMODE=Positive
ORGANISM=Natural
NAME=MLS002637808-01!(5-ethenyl-1-azabicyclo[2.2.2]octan-2-yl)-quinolin-4-ylmethanol
PI=GNPS
DATACOLLECTOR=GNPS
SMILES=C=CC1CN2CCC1CC2C(c1ccnc2ccccc12)O
INCHI=InChI=1S/C19H22N2O/c1-2-13-12-21-10-8-14(13)11-18(21)19(22)16-7-9-20-17-6-4-3-5-15(16)17/h2-7,9,13-14,18-19,22H,1,8,10-12H2
FORMULA=C19H22N2O
PUBMED=N/A
SUBMITUSER=BIOADREM
LIBRARYQUALITY=0
SPECTRUMID=CCMSLIB00000080051
SCANS=2246
ID=CCMSLIB00000080051
108.0807752941 	 8.88
110.0964253583 	 8.12
115.0542261926 	 9.54
128.0494751657 	 17.52
129.0573001978 	 8.5
130.0651252299 	 64.86
131.072950262 	 9.92
134.0964253583 	 9.92
136.1120754225 	 10.96
142.0651252299 	 31.46
143.072950262 	 27.35
144.0807752941 	 20.26
154.0651252299 	 39.35
155.072950262 	 11.86
156.0807752941 	 70.38
158.060039852 	 12.71
159.0678648841 	 10.53
166.0651252299 	 11.2
166.1226401088 	 14.79
167.072950262 	 39.3
168.0807752941 	 51.91
170.0964253583 	 7.32
172.0756899162 	 8.03
180.0807752941 	 23.71
182.0964253583 	 13.56
184.0756899162 	 19.6
192.0807752941 	 11.2
194.0964253583 	 18.19
196.1120754225 	 11.95
197.1073243956 	 14.6
204.0807752941 	 11.67
205.0886003262 	 8.12
206.0964253583 	 16.58
220.1120754225 	 12.75
223.1229744598 	 17.38
235.1229744598 	 19.51
248.1433755509 	 12.09
266.1539402372 	 5.67
277.1699246524 	 100
295.1804893387 	 312.05
END IONS

BEGIN IONS
PEPMASS=324.145
CHARGE=1
MSLEVEL=2
RT=0
SOURCE_INSTRUMENT=qTOF
FILENAME=CCMSLIB00000080052.ms
IONMODE=Positive
ORGANISM=Natural
NAME=MLS002693953-01!N-(8-hydroxy-6-methoxy-2-phenyl-4,4a,6,7,8,8a-hexahydropyrano[3,2-d][1,3]dioxin-7-yl)acetamide
PI=GNPS
DATACOLLECTOR=GNPS
SMILES=CC(=NC1C(C2C(COC(c3ccccc3)O2)OC1OC)O)O
INCHI=InChI=1S/C16H21NO6/c1-9(18)17-12-13(19)14-11(22-16(12)20-2)8-21-15(23-14)10-6-4-3-5-7-10/h3-7,11-16,19H,8H2,1-2H3,(H,17,18)
FORMULA=C16H21NO6
PUBMED=N/A
SUBMITUSER=BIOADREM
LIBRARYQUALITY=0
SPECTRUMID=CCMSLIB00000080052
SCANS=2247
ID=CCMSLIB00000080052
96.0443897878 	 15.86
97.0522148199 	 6.23
98.060039852 	 25.12
100.0393044099 	 6.12
108.0443897878 	 11.1
109.0284053726 	 14.51
110.0362304047 	 3.3
112.0756899162 	 5.2
114.0549544741 	 4.98
116.0706045383 	 2.38
121.0647908789 	 5.2
124.0393044099 	 5.85
126.0549544741 	 100
138.0549544741 	 34.43
140.034219032 	 2.44
144.0655191604 	 16.08
149.059705501 	 25.34
150.0549544741 	 4.6
158.0811692246 	 6.33
168.0655191604 	 6.12
186.0760838467 	 11.8
324.1441634119 	 0
END IONS

BEGIN IONS
PEPMASS=329.139
CHARGE=1
MSLEVEL=2
RT=0
SOURCE_INSTRUMENT=qTOF
FILENAME=CCMSLIB00000080053.ms
IONMODE=Positive
ORGANISM=Natural
NAME=MLS001048852-01!(E)-1,3-bis(2,4-dimethoxyphenyl)prop-2-en-1-one
PI=GNPS
DATACOLLECTOR=GNPS
SMILES=COc1ccc(/C=C/C(=O)c2ccc(cc2OC)OC)c(c1)OC
INCHI=InChI=1S/C19H20O5/c1-21-14-7-5-13(18(11-14)23-3)6-10-17(20)16-9-8-15(22-2)12-19(16)24-4/h5-12H,1-4H3/b10-6+
FORMULA=C19H20O5
PUBMED=N/A
SUBMITUSER=BIOADREM
LIBRARYQUALITY=0
SPECTRUMID=CCMSLIB00000080053
SCANS=2248
ID=CCMSLIB00000080053
103.0542261926 	 0.66
105.0334907505 	 0.8
105.0698762568 	 1.1
107.0127553084 	 3.49
107.0491408147 	 1.32
109.0647908789 	 2.46
119.0491408147 	 0.23
120.0569658468 	 0.47
121.0647908789 	 1.73
122.0362304047 	 16.1
125.059705501 	 0.57
133.0284053726 	 3.24
135.0440554368 	 5.58
135.0804409431 	 1.56
137.059705501 	 2.51
148.0518804689 	 11.06
150.0311450268 	 9.4
151.0753555652 	 3.39
165.0546201231 	 100
176.046795091 	 7.26
191.0702701873 	 9
212.0831805973 	 0.32
240.0780952194 	 0.3
255.1015703157 	 0.27
268.0730098415 	 0.22
271.0964849378 	 0.5
281.0808348736 	 0.24
283.0964849378 	 0.87
299.0913995599 	 0.8
314.1148746562 	 0.38
329.1383497525 	 0
END IONS

BEGIN IONS
PEPMASS=371.1865
CHARGE=1
MSLEVEL=2
RT=0
SOURCE_INSTRUMENT=qTOF
FILENAME=CCMSLIB00000080054.ms
IONMODE=Positive
ORGANISM=Natural
NAME=MLS000756699-01!
PI=GNPS
DATACOLLECTOR=GNPS
SMILES=CCCc1cc(=O)oc2c1c1c(C=CC(C)(C)O1)c1c2C(C(C)C(C)O1)O
INCHI=InChI=1S/C22H26O5/c1-6-7-13-10-15(23)26-21-16(13)20-14(8-9-22(4,5)27-20)19-17(21)18(24)11(2)12(3)25-19/h8-12,18,24H,6-7H2,1-5H3
FORMULA=C22H26O5
PUBMED=N/A
SUBMITUSER=BIOADREM
LIBRARYQUALITY=0
SPECTRUMID=CCMSLIB00000080054
SCANS=2249
ID=CCMSLIB00000080054
105.0698762568 	 3.33
135.0440554368 	 3.93
137.059705501 	 6.09
141.0698762568 	 3.25
161.059705501 	 3.36
185.0960910073 	 4.13
199.0753555652 	 5.68
213.0910056294 	 5.57
215.1066556936 	 3.43
227.0702701873 	 4.3
227.1066556936 	 7.88
239.1066556936 	 5.28
241.0859202515 	 6.32
241.1223057578 	 7.32
243.1015703157 	 4.18
253.0859202515 	 3.81
253.1223057578 	 4.05
255.1015703157 	 14.62
255.137955822 	 7.87
257.1172203799 	 4.02
267.1015703157 	 8.09
267.137955822 	 3.8
269.0808348736 	 3.36
269.1172203799 	 7.96
281.1172203799 	 10.51
283.0964849378 	 13.44
283.1328704441 	 9.7
285.112135002 	 5.63
293.1172203799 	 3.84
293.1536058862 	 4.89
295.0964849378 	 4.45
295.1328704441 	 4.57
296.1406954762 	 3.99
297.112135002 	 4.75
309.112135002 	 9.42
311.1277850662 	 31.97
311.1641705725 	 11.69
323.1277850662 	 5.74
324.1356100983 	 4.89
325.1798206367 	 21.53
335.1641705725 	 6.1
353.1747352588 	 100
371.1852999451 	 2.67
END IONS

BEGIN IONS
PEPMASS=327.16
CHARGE=1
MSLEVEL=2
RT=0
SOURCE_INSTRUMENT=qTOF
FILENAME=CCMSLIB00000080055.ms
IONMODE=Positive
ORGANISM=Natural
NAME=MLS000697747-01!2-methoxy-4-[(2S,3S)-7-methoxy-3-methyl-5-[(E)-prop-1-enyl]-2,3-dihydro-1-benzofuran-2-yl]phenol
PI=GNPS
DATACOLLECTOR=GNPS
SMILES=C/C=C/c1cc2[C@H](C)[C@@H](c3ccc(c(c3)OC)O)Oc2c(c1)OC
INCHI=InChI=1S/C20H22O4/c1-5-6-13-9-15-12(2)19(24-20(15)18(10-13)23-4)14-7-8-16(21)17(11-14)22-3/h5-12,19,21H,1-4H3/b6-5+/t12-,19-/m0/s1
FORMULA=C20H22O4
PUBMED=N/A
SUBMITUSER=BIOADREM
LIBRARYQUALITY=0
SPECTRUMID=CCMSLIB00000080055
SCANS=2250
ID=CCMSLIB00000080055
103.0542261926 	 60.77
107.0491408147 	 13.13
109.0647908789 	 9.64
115.0542261926 	 23.5
117.0698762568 	 14.79
119.0491408147 	 12.11
122.0362304047 	 26.18
128.0620512247 	 74.76
131.0491408147 	 43.36
132.0569658468 	 8.92
133.0647908789 	 16.61
137.059705501 	 100
141.0698762568 	 12.98
143.085526321 	 41.62
145.0647908789 	 35.46
146.072615911 	 15.01
147.0440554368 	 9.79
147.0804409431 	 7.61
148.0518804689 	 19.07
149.059705501 	 15.74
151.0753555652 	 27.34
153.0698762568 	 12.33
159.0804409431 	 19
161.059705501 	 23.42
161.0960910073 	 11.97
163.0753555652 	 28.21
171.0804409431 	 50.25
173.059705501 	 29.73
174.0675305331 	 10.15
175.0753555652 	 18.27
177.0910056294 	 19.72
187.0753555652 	 26.61
188.0831805973 	 92.02
189.0910056294 	 9.72
191.085526321 	 12.69
192.0933513531 	 12.18
203.1066556936 	 11.39
207.1168264494 	 10.08
220.0882659752 	 14.29
235.1117410715 	 26.61
237.0910056294 	 11.24
265.0859202515 	 9.28
283.0964849378 	 18.56
298.1199600341 	 9.72
327.1590851946 	 0
END IONS

BEGIN IONS
PEPMASS=339.1703
CHARGE=1
MSLEVEL=2
RT=0
SOURCE_INSTRUMENT=qTOF
FILENAME=CCMSLIB00000080056.ms
IONMODE=Positive
ORGANISM=Natural
NAME=MLS001140328-01!2-(2,3,4,7,9,10-hexahydro-[1,4]dioxepino[2,3-g]isoquinolin-8-yl)-N-phenylacetamide
PI=GNPS
DATACOLLECTOR=GNPS
SMILES=c1ccc(cc1)N=C(CN1CCc2cc3c(cc2C1)OCCCO3)O
INCHI=InChI=1S/C20H22N2O3/c23-20(21-17-5-2-1-3-6-17)14-22-8-7-15-11-18-19(12-16(15)13-22)25-10-4-9-24-18/h1-3,5-6,11-12H,4,7-10,13-14H2,(H,21,23)
FORMULA=C20H22N2O3
PUBMED=N/A
SUBMITUSER=BIOADREM
LIBRARYQUALITY=0
SPECTRUMID=CCMSLIB00000080056
SCANS=2251
ID=CCMSLIB00000080056
103.0542261926 	 2.25
105.0698762568 	 2.78
106.0651252299 	 22.84
115.0542261926 	 0.7
117.0573001978 	 1.16
119.0491408147 	 1.39
120.0807752941 	 0.62
121.0647908789 	 1.43
131.0491408147 	 2.99
132.0807752941 	 6.94
133.0647908789 	 2.1
137.059705501 	 1.04
144.0807752941 	 0.72
146.060039852 	 0.84
146.0964253583 	 0.94
147.0678648841 	 3.37
148.0756899162 	 1.76
149.059705501 	 8.65
160.0756899162 	 15.01
161.059705501 	 2.22
162.0913399804 	 0.86
172.0756899162 	 0.6
173.0835149483 	 1.43
174.0913399804 	 1.74
175.0627795062 	 1.46
176.0706045383 	 1.27
188.0706045383 	 1.08
188.1069900446 	 0.89
189.0910056294 	 3.26
191.1066556936 	 5.49
202.0862546025 	 9.04
203.0940796346 	 12.73
216.1019046667 	 7.43
218.1175547309 	 100
339.1703185829 	 1.55
END IONS

BEGIN IONS
PEPMASS=431.208
CHARGE=1
MSLEVEL=2
RT=0
SOURCE_INSTRUMENT=qTOF
FILENAME=CCMSLIB00000080057.ms
IONMODE=Positive
ORGANISM=Natural
NAME=MLS001142738-01!
PI=GNPS
DATACOLLECTOR=GNPS
SMILES=Cc1ccc(cc1)CN=C([C@H](C)N1C(=O)[C@]2(C)c3c(CCN2C1=O)c1ccccc1[nH]3)O
INCHI=InChI=1S/C25H26N4O3/c1-15-8-10-17(11-9-15)14-26-22(30)16(2)29-23(31)25(3)21-19(12-13-28(25)24(29)32)18-6-4-5-7-20(18)27-21/h4-11,16,27H,12-14H2,1-3H3,(H,26,30)/t16-,25-/m0/s1
FORMULA=C25H26N4O3
PUBMED=N/A
SUBMITUSER=BIOADREM
LIBRARYQUALITY=0
SPECTRUMID=CCMSLIB00000080057
SCANS=2252
ID=CCMSLIB00000080057
103.0542261926 	 7.99
105.0698762568 	 100
131.085526321 	 1.46
144.0807752941 	 5.57
156.0807752941 	 1.64
168.0807752941 	 2.87
169.0760242672 	 0.74
170.0964253583 	 0.5
183.0916743314 	 6.36
184.0994993635 	 1.53
185.1073243956 	 11.08
197.1073243956 	 0.82
211.0865889535 	 13.94
213.1022390177 	 1.63
239.0815035756 	 2.22
254.1287881192 	 55.5
256.1080526771 	 6.25
282.1237027413 	 8.78
289.1699246524 	 1.63
317.1648392745 	 0.5
358.191388376 	 4.37
386.1863029981 	 2.52
431.2077667217 	 0
END IONS

BEGIN IONS
PEPMASS=386.197
CHARGE=1
MSLEVEL=2
RT=0
SOURCE_INSTRUMENT=qTOF
FILENAME=CCMSLIB00000080058.ms
IONMODE=Positive
ORGANISM=Natural
NAME=MLS001142730-01!7-[2-[(4aS,8aS)-4a-hydroxy-1,3,4,5,6,7,8,8a-octahydroisoquinolin-2-yl]-2-oxoethoxy]-4,8-dimethylchromen-2-one
PI=GNPS
DATACOLLECTOR=GNPS
SMILES=Cc1cc(=O)oc2c(C)c(ccc12)OCC(=O)N1CC[C@]2(CCCC[C@H]2C1)O
INCHI=InChI=1S/C22H27NO5/c1-14-11-20(25)28-21-15(2)18(7-6-17(14)21)27-13-19(24)23-10-9-22(26)8-4-3-5-16(22)12-23/h6-7,11,16,26H,3-5,8-10,12-13H2,1-2H3/t16-,22-/m0/s1
FORMULA=C22H27NO5
PUBMED=N/A
SUBMITUSER=BIOADREM
LIBRARYQUALITY=0
SPECTRUMID=CCMSLIB00000080058
SCANS=2253
ID=CCMSLIB00000080058
95.072950262 	 3.52
103.0542261926 	 1.54
105.0698762568 	 4.58
106.0651252299 	 2.06
108.0807752941 	 50.27
109.0886003262 	 17.93
110.0964253583 	 3.04
115.0542261926 	 15.35
116.0620512247 	 3.58
117.0698762568 	 7.64
119.085526321 	 11.16
120.0933513531 	 6.77
121.1011763852 	 21.89
122.0964253583 	 28.99
134.0964253583 	 2.19
135.1042503904 	 2.54
136.1120754225 	 87.23
137.1199004546 	 82.99
138.1277254867 	 56.23
145.0647908789 	 69.51
150.1277254867 	 61.6
151.1355505188 	 22.09
164.1069900446 	 6.96
168.138290173 	 12.27
173.059705501 	 13.31
175.0753555652 	 11.31
178.1226401088 	 13.18
179.1304651409 	 100
196.1332047951 	 2.44
203.0702701873 	 97.9
231.0651848094 	 6.62
340.190719674 	 23.45
368.1856342961 	 10.25
386.1961989824 	 0
END IONS

BEGIN IONS
PEPMASS=521.24
CHARGE=1
MSLEVEL=2
RT=0
SOURCE_INSTRUMENT=qTOF
FILENAME=CCMSLIB00000080059.ms
IONMODE=Positive
ORGANISM=Natural
NAME=MLS001140501-01!(2R)-1-[(2S)-2-[[(2S)-2-(2,4-dioxo-1H-quinazolin-3-yl)-3-phenylpropanoyl]amino]-4-methylpentanoyl]pyrrolidine-2-carboxylic acid
PI=GNPS
DATACOLLECTOR=GNPS
SMILES=CC(C)C[C@@H](C(=O)N1CCC[C@@H]1C(=O)O)N=C([C@H](Cc1ccccc1)n1c(=O)c2ccccc2nc1O)O
INCHI=InChI=1S/C28H32N4O6/c1-17(2)15-21(26(35)31-14-8-13-22(31)27(36)37)29-24(33)23(16-18-9-4-3-5-10-18)32-25(34)19-11-6-7-12-20(19)30-28(32)38/h3-7,9-12,17,21-23H,8,13-16H2,1-2H3,(H,29,33)(H,30,38)(H,36,37)/t21-,22+,23-/m0/s1
FORMULA=C28H32N4O6
PUBMED=N/A
SUBMITUSER=BIOADREM
LIBRARYQUALITY=0
SPECTRUMID=CCMSLIB00000080059
SCANS=2254
ID=CCMSLIB00000080059
103.0542261926 	 4.08
120.0443897878 	 0.95
145.0396387609 	 0.81
146.0236543457 	 12.92
147.0314793778 	 1.07
163.0502034472 	 9.32
187.0542261926 	 0.63
248.0706045383 	 0.75
265.0971536398 	 100
266.1009559265 	 17.88
275.0815035756 	 2.4
293.0920682619 	 14.87
294.0958705486 	 2.74
521.2394607806 	 0
END IONS

BEGIN IONS
PEPMASS=340.1656
CHARGE=1
MSLEVEL=2
RT=0
SOURCE_INSTRUMENT=qTOF
FILENAME=CCMSLIB00000080060.ms
IONMODE=Positive
ORGANISM=Natural
NAME=MLS001075495-01!
PI=GNPS
DATACOLLECTOR=GNPS
SMILES=COc1ccccc1N=C(N1C[C@@H]2C[C@@H](C1)c1cccc(=O)n1C2)O
INCHI=InChI=1S/C19H21N3O3/c1-25-17-7-3-2-5-15(17)20-19(24)21-10-13-9-14(12-21)16-6-4-8-18(23)22(16)11-13/h2-8,13-14H,9-12H2,1H3,(H,20,24)/t13-,14-/m0/s1
FORMULA=C19H21N3O3
PUBMED=N/A
SUBMITUSER=BIOADREM
LIBRARYQUALITY=0
SPECTRUMID=CCMSLIB00000080060
SCANS=2255
ID=CCMSLIB00000080060
96.0443897878 	 0.88
106.0651252299 	 2.84
108.0443897878 	 2.76
116.0494751657 	 1.29
117.0573001978 	 3.14
118.0651252299 	 3.96
122.060039852 	 2.86
129.0698762568 	 2.35
130.0651252299 	 3.92
131.072950262 	 4.68
132.0443897878 	 10.54
132.0807752941 	 4.22
133.0522148199 	 14.65
134.060039852 	 8.91
142.0651252299 	 3.21
144.0807752941 	 2.56
145.0522148199 	 1.75
146.060039852 	 48.34
148.0756899162 	 21.07
154.0651252299 	 2.52
156.0807752941 	 5.76
158.060039852 	 10.34
159.0678648841 	 11.75
160.0756899162 	 100
171.0916743314 	 1.03
172.0756899162 	 15.95
174.0913399804 	 40.92
188.0706045383 	 3.06
189.1022390177 	 30.94
191.1178890819 	 13.61
217.0971536398 	 99.75
235.1077183261 	 4.15
340.165567556 	 3.42
END IONS

BEGIN IONS
PEPMASS=812.328
CHARGE=1
MSLEVEL=2
RT=0
SOURCE_INSTRUMENT=qTOF
FILENAME=CCMSLIB00000080061.ms
IONMODE=Positive
ORGANISM=Natural
NAME=MLS001097661-01!
PI=GNPS
DATACOLLECTOR=GNPS
SMILES=CC1=C2[C@H](C(=O)[C@]3(C)[C@@H](C[C@@H]4[C@@](CO4)(C3[C@@H]([C@](C[C@@H]1OC(=O)[C@@H]([C@H](c1ccccc1)N=C(c1ccccc1)O)O)(C2(C)C)O)OC(=O)c1ccccc1)OC(=O)C)O)O
INCHI=InChI=1S/C45H49NO13/c1-24-29(57-41(54)35(50)33(26-15-9-6-10-16-26)46-39(52)27-17-11-7-12-18-27)22-45(55)38(58-40(53)28-19-13-8-14-20-28)36-43(5,37(51)34(49)32(24)42(45,3)4)30(48)21-31-44(36,23-56-31)59-25(2)47/h6-20,29-31,33-36,38,48-50,55H,21-23H2,1-5H3,(H,46,52)/t29-,30+,31+,33-,34+,35+,36?,38-,43+,44-,45+/m0/s1
FORMULA=C45H49NO13
PUBMED=N/A
SUBMITUSER=BIOADREM
LIBRARYQUALITY=0
SPECTRUMID=CCMSLIB00000080061
SCANS=2256
ID=CCMSLIB00000080061
105.0334907505 	 100
106.0651252299 	 1.8
107.0365647557 	 0.97
118.0651252299 	 2.97
119.0491408147 	 6.38
122.060039852 	 91.79
136.0756899162 	 5.4
147.0440554368 	 2.09
164.0706045383 	 1.69
171.0804409431 	 1.05
197.0960910073 	 1.2
225.0910056294 	 1.51
240.1019046667 	 17.82
241.1097296988 	 2.8
251.0702701873 	 2.17
268.0968192888 	 2.5
269.0808348736 	 5.82
286.1073839751 	 89.5
812.3276666654 	 0
END IONS

BEGIN IONS
PEPMASS=353.175
CHARGE=1
MSLEVEL=2
RT=0
SOURCE_INSTRUMENT=qTOF
FILENAME=CCMSLIB00000080062.ms
IONMODE=Positive
ORGANISM=Natural
NAME=MLS000697600-01!
PI=GNPS
DATACOLLECTOR=GNPS
SMILES=CC1(C)C=Cc2c(ccc3C[C@@H](COc23)c2ccc(cc2OC)OC)O1
INCHI=InChI=1S/C22H24O4/c1-22(2)10-9-18-19(26-22)8-5-14-11-15(13-25-21(14)18)17-7-6-16(23-3)12-20(17)24-4/h5-10,12,15H,11,13H2,1-4H3/t15-/m0/s1
FORMULA=C22H24O4
PUBMED=N/A
SUBMITUSER=BIOADREM
LIBRARYQUALITY=0
SPECTRUMID=CCMSLIB00000080062
SCANS=2257
ID=CCMSLIB00000080062
103.0542261926 	 3.2
104.0620512247 	 3.86
105.0698762568 	 4.72
106.0413157826 	 4.32
107.0491408147 	 5.06
109.0647908789 	 4.46
115.0542261926 	 10.49
116.0620512247 	 3.35
117.0698762568 	 9.35
119.0491408147 	 7.92
119.085526321 	 7.06
121.0647908789 	 100
123.0804409431 	 3.03
128.0620512247 	 5.38
131.0491408147 	 12.38
132.0569658468 	 5.83
133.0647908789 	 6.81
134.072615911 	 8.18
135.0440554368 	 2.83
137.059705501 	 7.03
143.085526321 	 6.72
144.0933513531 	 4.12
145.0647908789 	 14.5
146.072615911 	 27.91
147.0440554368 	 42.95
147.0804409431 	 46.75
149.0960910073 	 6.41
151.0753555652 	 91.42
161.059705501 	 7.15
161.0960910073 	 9.72
162.0675305331 	 17.84
163.0753555652 	 2.46
171.0804409431 	 15.53
172.0882659752 	 5.38
173.059705501 	 21.33
174.0675305331 	 9.44
177.0910056294 	 95.8
178.0988306615 	 11.47
182.072615911 	 2.57
189.0910056294 	 54.59
197.0960910073 	 5.03
200.0831805973 	 5.03
215.1066556936 	 6.09
353.1747352588 	 0
END IONS

BEGIN IONS
PEPMASS=386.1598
CHARGE=1
MSLEVEL=2
RT=0
SOURCE_INSTRUMENT=qTOF
FILENAME=CCMSLIB00000080063.ms
IONMODE=Positive
ORGANISM=Natural
NAME=MLS001160263-01!2-[(5-hydroxy-2,2-dimethyl-4-oxo-3H-chromen-7-yl)oxy]-N-[4-(2-hydroxyethyl)phenyl]acetamide
PI=GNPS
DATACOLLECTOR=GNPS
SMILES=CC1(C)CC(=O)c2c(cc(cc2O1)OCC(=O)Nc1ccc(cc1)CCO)O
INCHI=InChI=1S/C21H23NO6/c1-21(2)11-17(25)20-16(24)9-15(10-18(20)28-21)27-12-19(26)22-14-5-3-13(4-6-14)7-8-23/h3-6,9-10,23-24H,7-8,11-12H2,1-2H3,(H,22,26)
FORMULA=C21H23NO6
PUBMED=N/A
SUBMITUSER=BIOADREM
LIBRARYQUALITY=0
SPECTRUMID=CCMSLIB00000080063
SCANS=2258
ID=CCMSLIB00000080063
103.0542261926 	 1.26
104.0494751657 	 2.07
105.0698762568 	 5.32
107.0127553084 	 1.2
111.0076699305 	 1.77
115.0542261926 	 2.02
117.0573001978 	 4.44
118.0624451552 	 1.29
119.072950262 	 4.03
120.0807752941 	 8.97
121.0647908789 	 1.09
130.0651252299 	 1.4
131.072950262 	 1.74
132.0807752941 	 30.35
135.0076699305 	 1.07
135.0804409431 	 1.33
146.0573597773 	 1.08
148.0756899162 	 1.76
150.0913399804 	 18.51
151.0389700589 	 1.74
153.0182346168 	 100
163.0389700589 	 1.27
163.0753555652 	 3.8
165.0182346168 	 10.67
167.0702701873 	 0.83
176.046795091 	 1.8
179.033884681 	 1.18
179.0702701873 	 2.09
191.0702701873 	 15.86
193.0131492389 	 2.51
209.0808348736 	 70.07
221.0808348736 	 18.34
249.0757494957 	 2.83
268.0968192888 	 1.05
312.086648533 	 1.87
330.0972132193 	 2.55
368.1492487898 	 1.46
386.1598134761 	 1.3
END IONS

BEGIN IONS
PEPMASS=437.2086
CHARGE=1
MSLEVEL=2
RT=0
SOURCE_INSTRUMENT=qTOF
FILENAME=CCMSLIB00000080064.ms
IONMODE=Positive
ORGANISM=Natural
NAME=MLS001160489-01!2-[(8,8-dimethyl-2-oxo-4-propyl-9,10-dihydropyrano[2,3-h]chromen-5-yl)oxy]-N-(pyridin-4-ylmethyl)acetamide
PI=GNPS
DATACOLLECTOR=GNPS
SMILES=CCCc1cc(=O)oc2c3CCC(C)(C)Oc3cc(c12)OCC(=NCc1ccncc1)O
INCHI=InChI=1S/C25H28N2O5/c1-4-5-17-12-22(29)31-24-18-6-9-25(2,3)32-19(18)13-20(23(17)24)30-15-21(28)27-14-16-7-10-26-11-8-16/h7-8,10-13H,4-6,9,14-15H2,1-3H3,(H,27,28)
FORMULA=C25H28N2O5
PUBMED=N/A
SUBMITUSER=BIOADREM
LIBRARYQUALITY=0
SPECTRUMID=CCMSLIB00000080064
SCANS=2259
ID=CCMSLIB00000080064
104.0494751657 	 1.62
106.0651252299 	 6.39
107.060374203 	 43.47
108.0443897878 	 18.03
119.060374203 	 13.26
120.0443897878 	 32.55
121.0760242672 	 42.13
131.060374203 	 1.28
132.0443897878 	 1.4
132.0681992351 	 1.31
135.0804409431 	 0.79
149.0709388893 	 50.64
150.0787639214 	 13.31
163.0753555652 	 0.73
175.0753555652 	 0.61
177.0910056294 	 1.13
187.0753555652 	 0.92
189.0546201231 	 0.73
189.0910056294 	 0.62
191.033884681 	 1.82
191.0702701873 	 1.79
203.0702701873 	 1.32
205.0859202515 	 10.52
217.0495347452 	 0.67
217.0859202515 	 3.23
231.0651848094 	 0.59
233.0808348736 	 22.43
245.0808348736 	 6.69
261.0757494957 	 0.66
273.0757494957 	 1.57
339.0975475703 	 0.59
353.1495831408 	 2.88
381.1444977629 	 100
437.2070980197 	 15.4
END IONS

BEGIN IONS
PEPMASS=249.1122
CHARGE=1
MSLEVEL=2
RT=0
SOURCE_INSTRUMENT=qTOF
FILENAME=CCMSLIB00000080065.ms
IONMODE=Positive
ORGANISM=Natural
NAME=MLS002638354-01!
PI=GNPS
DATACOLLECTOR=GNPS
SMILES=CC(=O)c1c(cc(c2C=CC(C)(C)Oc12)OC)O
INCHI=InChI=1S/C14H16O4/c1-8(15)12-10(16)7-11(17-4)9-5-6-14(2,3)18-13(9)12/h5-7,16H,1-4H3
FORMULA=C14H16O4
PUBMED=N/A
SUBMITUSER=BIOADREM
LIBRARYQUALITY=0
SPECTRUMID=CCMSLIB00000080065
SCANS=2260
ID=CCMSLIB00000080065
103.0542261926 	 32.86
105.0698762568 	 43.48
107.0491408147 	 19.31
115.0542261926 	 24
117.0698762568 	 35.03
119.0491408147 	 32.11
121.0284053726 	 14.63
121.0647908789 	 16.89
123.0440554368 	 19.31
128.0620512247 	 48.91
131.0491408147 	 48.16
133.0647908789 	 25.5
137.059705501 	 49.58
141.0698762568 	 12.71
143.085526321 	 21.07
145.0647908789 	 22.24
146.0362304047 	 19.98
147.0440554368 	 33.36
149.059705501 	 49.25
160.0518804689 	 13.29
161.059705501 	 100
163.0389700589 	 26.59
165.0546201231 	 24.67
171.0804409431 	 30.27
175.0753555652 	 14.05
177.0182346168 	 26
177.0546201231 	 88.96
179.0702701873 	 70.99
187.0389700589 	 20.23
188.0831805973 	 12.63
189.0546201231 	 33.53
189.0910056294 	 13.55
191.033884681 	 57.19
191.0702701873 	 26.51
192.0417097131 	 22.49
201.0546201231 	 60.37
203.1066556936 	 12.37
205.0495347452 	 50.33
207.0651848094 	 55.1
207.1015703157 	 16.89
219.0651848094 	 45.82
231.1015703157 	 23.58
249.112135002 	 16.97
END IONS

BEGIN IONS
PEPMASS=434.219
CHARGE=1
MSLEVEL=2
RT=0
SOURCE_INSTRUMENT=qTOF
FILENAME=CCMSLIB00000080066.ms
IONMODE=Positive
ORGANISM=Natural
NAME=MLS001160011-01!N-[(2S)-1-[2-(1H-indol-3-yl)ethylamino]-3-methyl-1-oxobutan-2-yl]-3-oxo-2,4-dihydroquinoxaline-1-carboxamide
PI=GNPS
DATACOLLECTOR=GNPS
SMILES=CC(C)[C@@H](C(=NCCc1c[nH]c2ccccc12)O)N=C(N1CC(=Nc2ccccc12)O)O
INCHI=InChI=1S/C24H27N5O3/c1-15(2)22(23(31)25-12-11-16-13-26-18-8-4-3-7-17(16)18)28-24(32)29-14-21(30)27-19-9-5-6-10-20(19)29/h3-10,13,15,22,26H,11-12,14H2,1-2H3,(H,25,31)(H,27,30)(H,28,32)/t22-/m0/s1
FORMULA=C24H27N5O3
PUBMED=N/A
SUBMITUSER=BIOADREM
LIBRARYQUALITY=0
SPECTRUMID=CCMSLIB00000080066
SCANS=2261
ID=CCMSLIB00000080066
115.0542261926 	 1.37
117.0698762568 	 3.78
119.060374203 	 9.55
121.0760242672 	 21.34
142.0651252299 	 0.31
143.072950262 	 4.65
144.0807752941 	 100
147.0552888251 	 62.3
149.0709388893 	 1.82
158.0964253583 	 0.33
175.0502034472 	 27.33
201.1022390177 	 1.01
218.1287881192 	 2.19
229.0971536398 	 0.64
246.1237027413 	 38.39
434.218665759 	 0
END IONS

BEGIN IONS
PEPMASS=413.2062
CHARGE=1
MSLEVEL=2
RT=0
SOURCE_INSTRUMENT=qTOF
FILENAME=CCMSLIB00000080067.ms
IONMODE=Positive
ORGANISM=Natural
NAME=MLS000736796-01!
PI=GNPS
DATACOLLECTOR=GNPS
SMILES=CC1C2CN3CCc4c5cc(c(cc5[nH]c4C3CC2C(=CO1)C(=O)OC)OC)OC
INCHI=InChI=1S/C23H28N2O5/c1-12-16-10-25-6-5-13-15-8-20(27-2)21(28-3)9-18(15)24-22(13)19(25)7-14(16)17(11-30-12)23(26)29-4/h8-9,11-12,14,16,19,24H,5-7,10H2,1-4H3
FORMULA=C23H28N2O5
PUBMED=N/A
SUBMITUSER=BIOADREM
LIBRARYQUALITY=0
SPECTRUMID=CCMSLIB00000080067
SCANS=2262
ID=CCMSLIB00000080067
108.0807752941 	 0.57
130.0651252299 	 1.28
142.0651252299 	 0.97
143.072950262 	 1.7
144.0807752941 	 3.78
146.060039852 	 3.37
158.060039852 	 9.5
159.0651848094 	 1.16
160.0756899162 	 15.21
161.0808348736 	 2.15
162.0913399804 	 4.24
170.060039852 	 0.65
171.0678648841 	 1.98
172.0756899162 	 3.14
173.0835149483 	 38.74
174.0549544741 	 7.34
174.0886599057 	 4.9
175.0600994315 	 2.8
178.0862546025 	 1.63
184.0730098415 	 0.59
186.0913399804 	 1.1
187.0964849378 	 0.57
188.0706045383 	 11.36
189.0784295704 	 22.62
190.0862546025 	 6.38
191.0913995599 	 1.34
199.0991650125 	 0.77
202.0835745278 	 1.33
204.1019046667 	 100
214.0862546025 	 1.47
215.0940796346 	 1.37
216.1019046667 	 2.47
217.1070496241 	 1.35
226.0862546025 	 0.58
227.0940796346 	 0.93
230.1175547309 	 3.36
242.1175547309 	 1.48
252.1019046667 	 0.57
259.1441038324 	 1.06
282.1488548593 	 0.64
381.1808832692 	 0.91
413.2070980197 	 2.46
END IONS

BEGIN IONS
PEPMASS=447.203
CHARGE=1
MSLEVEL=2
RT=0
SOURCE_INSTRUMENT=qTOF
FILENAME=CCMSLIB00000080068.ms
IONMODE=Positive
ORGANISM=Natural
NAME=MLS001142710-01!
PI=GNPS
DATACOLLECTOR=GNPS
SMILES=C[C@@H](C(=NCc1ccccc1OC)O)N1C(=O)[C@]2(C)c3c(CCN2C1=O)c1ccccc1[nH]3
INCHI=InChI=1S/C25H26N4O4/c1-15(22(30)26-14-16-8-4-7-11-20(16)33-3)29-23(31)25(2)21-18(12-13-28(25)24(29)32)17-9-5-6-10-19(17)27-21/h4-11,15,27H,12-14H2,1-3H3,(H,26,30)/t15-,25-/m0/s1
FORMULA=C25H26N4O4
PUBMED=N/A
SUBMITUSER=BIOADREM
LIBRARYQUALITY=0
SPECTRUMID=CCMSLIB00000080068
SCANS=2263
ID=CCMSLIB00000080068
105.0334907505 	 1.73
121.0647908789 	 100
144.0807752941 	 3.54
150.0338251015 	 0.91
156.0807752941 	 1.27
168.0780952194 	 2.82
169.0886003262 	 1.68
183.0916743314 	 7.19
184.0968192888 	 1.26
185.1073243956 	 6.45
195.0916743314 	 1.27
211.0865889535 	 15.01
213.1022390177 	 1.18
239.0815035756 	 1.64
252.113138055 	 1.15
254.1287881192 	 44.54
264.1342674276 	 1.39
280.1080526771 	 2.14
282.1237027413 	 14.19
284.1267767465 	 1.32
290.1539402372 	 0.92
295.1189517144 	 1.24
305.1648392745 	 1.3
331.1441038324 	 1.33
333.1597538966 	 1.04
340.152991497 	 1.08
374.1863029981 	 8.12
402.1812176202 	 1.88
447.2026813438 	 0
END IONS

BEGIN IONS
PEPMASS=466.106
CHARGE=1
MSLEVEL=2
RT=0
SOURCE_INSTRUMENT=qTOF
FILENAME=CCMSLIB00000080069.ms
IONMODE=Positive
ORGANISM=Natural
NAME=MLS001159063-01!3-(4-chlorophenyl)-2-[[2-(4-methyl-6-oxobenzo[c]chromen-3-yl)oxyacetyl]amino]propanoic acid
PI=GNPS
DATACOLLECTOR=GNPS
SMILES=Cc1c(ccc2c3ccccc3c(=O)oc12)OCC(=NC(Cc1ccc(cc1)Cl)C(=O)O)O
INCHI=InChI=1S/C25H20ClNO6/c1-14-21(11-10-18-17-4-2-3-5-19(17)25(31)33-23(14)18)32-13-22(28)27-20(24(29)30)12-15-6-8-16(26)9-7-15/h2-11,20H,12-13H2,1H3,(H,27,28)(H,29,30)
FORMULA=C25H20ClNO6
PUBMED=N/A
SUBMITUSER=BIOADREM
LIBRARYQUALITY=0
SPECTRUMID=CCMSLIB00000080069
SCANS=2264
ID=CCMSLIB00000080069
103.0542261926 	 3.05
115.0542261926 	 1
117.0698762568 	 2.78
118.0651252299 	 1.78
119.072950262 	 7.1
125.0152538705 	 4.79
130.0651252299 	 11.54
131.072950262 	 15.47
137.0152538705 	 0.97
139.0309039347 	 10.4
151.0309039347 	 7.89
152.0620512247 	 4.46
153.0698762568 	 14.04
154.041802972 	 14.22
155.085526321 	 3.07
165.0698762568 	 1.88
166.041802972 	 37.66
167.085526321 	 1.82
181.0652780683 	 100
183.0804409431 	 3.28
184.0523676583 	 1.68
185.059705501 	 1.26
196.0518804689 	 1.42
209.0601926904 	 9
211.0753555652 	 6.15
212.0472822804 	 1.01
213.0546201231 	 0.98
227.0707573767 	 6.46
239.0702701873 	 56.84
267.0651848094 	 1.02
466.1051910898 	 0
END IONS

BEGIN IONS
PEPMASS=351.098
CHARGE=1
MSLEVEL=2
RT=0
SOURCE_INSTRUMENT=qTOF
FILENAME=CCMSLIB00000080070.ms
IONMODE=Positive
ORGANISM=Natural
NAME=MLS001075348-01!3-[[2-(furan-2-carbonylamino)benzoyl]amino]benzoic acid
PI=GNPS
DATACOLLECTOR=GNPS
SMILES=c1ccc(c(c1)C(=Nc1cccc(c1)C(=O)O)O)NC(=O)c1ccco1
INCHI=InChI=1S/C19H14N2O5/c22-17(20-13-6-3-5-12(11-13)19(24)25)14-7-1-2-8-15(14)21-18(23)16-9-4-10-26-16/h1-11H,(H,20,22)(H,21,23)(H,24,25)
FORMULA=C19H14N2O5
PUBMED=N/A
SUBMITUSER=BIOADREM
LIBRARYQUALITY=0
SPECTRUMID=CCMSLIB00000080070
SCANS=2265
ID=CCMSLIB00000080070
95.0127553084 	 6.02
146.0236543457 	 100
158.060039852 	 1.2
214.0498690962 	 58.12
351.0975475703 	 0
END IONS

BEGIN IONS
PEPMASS=372.1442
CHARGE=1
MSLEVEL=2
RT=0
SOURCE_INSTRUMENT=qTOF
FILENAME=CCMSLIB00000080071.ms
IONMODE=Positive
ORGANISM=Natural
NAME=MLS001139443-01!(2R)-1-[2-[(6-methyl-4-oxo-2,3-dihydro-1H-cyclopenta[c]chromen-7-yl)oxy]acetyl]pyrrolidine-2-carboxylic acid
PI=GNPS
DATACOLLECTOR=GNPS
SMILES=Cc1c(ccc2c3CCCc3c(=O)oc12)OCC(=O)N1CCC[C@@H]1C(=O)O
INCHI=InChI=1S/C20H21NO6/c1-11-16(26-10-17(22)21-9-3-6-15(21)19(23)24)8-7-13-12-4-2-5-14(12)20(25)27-18(11)13/h7-8,15H,2-6,9-10H2,1H3,(H,23,24)/t15-/m1/s1
FORMULA=C20H21NO6
PUBMED=N/A
SUBMITUSER=BIOADREM
LIBRARYQUALITY=0
SPECTRUMID=CCMSLIB00000080071
SCANS=2266
ID=CCMSLIB00000080071
98.060039852 	 5.21
100.0756899162 	 11.5
105.0698762568 	 1.83
107.0491408147 	 1.83
112.0756899162 	 18.32
115.0542261926 	 4.31
116.0706045383 	 4.88
117.0698762568 	 2.79
119.085526321 	 1.65
127.0542261926 	 2.27
129.0698762568 	 3.44
130.0777012889 	 3.22
131.0491408147 	 2.76
131.085526321 	 1.52
142.0777012889 	 1.66
143.085526321 	 8.32
144.0569658468 	 1.63
145.0647908789 	 8.34
145.1011763852 	 5.19
147.0804409431 	 11.25
151.0389700589 	 1.93
153.0698762568 	 2.88
157.0733441925 	 4.69
158.072615911 	 8.59
159.0804409431 	 1.68
161.059705501 	 8.16
169.0647908789 	 1.79
171.0804409431 	 30.79
173.0960910073 	 9.23
174.0675305331 	 2.29
187.0753555652 	 9.13
188.0831805973 	 14.42
189.0910056294 	 6.19
201.0910056294 	 100
214.0624451552 	 1.61
215.0702701873 	 5.12
216.0780952194 	 24.71
217.0859202515 	 55.98
229.0859202515 	 79.28
231.0889942567 	 2.7
257.0808348736 	 2.27
275.0913995599 	 2.83
298.1437694814 	 24.82
372.1441634119 	 5.3
END IONS

BEGIN IONS
PEPMASS=453.239
CHARGE=1
MSLEVEL=2
RT=0
SOURCE_INSTRUMENT=qTOF
FILENAME=CCMSLIB00000080072.ms
IONMODE=Positive
ORGANISM=Natural
NAME=MLS001160495-01!1-[2-(6-methyl-8-oxospiro[3,4-dihydropyrano[3,2-g]chromene-2,1'-cyclohexane]-7-yl)acetyl]piperidine-4-carboxamide
PI=GNPS
DATACOLLECTOR=GNPS
SMILES=Cc1c2cc3CCC4(CCCCC4)Oc3cc2oc(=O)c1CC(=O)N1CCC(CC1)C(=N)O
INCHI=InChI=1S/C26H32N2O5/c1-16-19-13-18-5-10-26(8-3-2-4-9-26)33-21(18)15-22(19)32-25(31)20(16)14-23(29)28-11-6-17(7-12-28)24(27)30/h13,15,17H,2-12,14H2,1H3,(H2,27,30)
FORMULA=C26H32N2O5
PUBMED=N/A
SUBMITUSER=BIOADREM
LIBRARYQUALITY=0
SPECTRUMID=CCMSLIB00000080072
SCANS=2267
ID=CCMSLIB00000080072
133.0647908789 	 0.28
147.0804409431 	 0.43
159.0804409431 	 0.21
173.059705501 	 0.21
176.0791578519 	 0.26
185.059705501 	 0.62
186.0635077877 	 0.31
187.0753555652 	 0.98
191.0702701873 	 0.21
201.0546201231 	 5.24
203.0702701873 	 20.48
204.074072474 	 3.13
215.0702701873 	 6.44
217.0859202515 	 3
229.0859202515 	 1.44
241.0859202515 	 0.29
279.137955822 	 4.46
280.1417581087 	 0.7
297.1485205083 	 100
298.152322795 	 26.87
325.1434351304 	 4.77
453.2383981481 	 0
END IONS

BEGIN IONS
PEPMASS=471.096
CHARGE=1
MSLEVEL=2
RT=0
SOURCE_INSTRUMENT=qTOF
FILENAME=CCMSLIB00000080073.ms
IONMODE=Positive
ORGANISM=Natural
NAME=MLS001140715-01!2-[[2-(6-chloro-4-methyl-2-oxochromen-7-yl)oxyacetyl]amino]-3-(5-hydroxy-1H-indol-3-yl)propanoic acid
PI=GNPS
DATACOLLECTOR=GNPS
SMILES=Cc1cc(=O)oc2cc(c(cc12)Cl)OCC(=NC(Cc1c[nH]c2ccc(cc12)O)C(=O)O)O
INCHI=InChI=1S/C23H19ClN2O7/c1-11-4-22(29)33-19-8-20(16(24)7-14(11)19)32-10-21(28)26-18(23(30)31)5-12-9-25-17-3-2-13(27)6-15(12)17/h2-4,6-9,18,25,27H,5,10H2,1H3,(H,26,28)(H,30,31)
FORMULA=C23H19ClN2O7
PUBMED=N/A
SUBMITUSER=BIOADREM
LIBRARYQUALITY=0
SPECTRUMID=CCMSLIB00000080073
SCANS=2268
ID=CCMSLIB00000080073
106.0651252299 	 4.56
117.0573001978 	 6.3
118.0651252299 	 4.67
134.060039852 	 4.56
142.0651252299 	 4.78
146.060039852 	 100
148.0756899162 	 8.38
158.060039852 	 13.28
159.0678648841 	 12.77
160.0756899162 	 15.59
171.0678648841 	 5.63
172.0756899162 	 17.39
173.0709388893 	 6.53
174.0787639214 	 58.36
176.0706045383 	 3.71
186.0549544741 	 39.67
187.0627795062 	 6.87
187.0865889535 	 15.08
197.0709388893 	 4.78
198.0549544741 	 4.84
198.0787639214 	 7.43
199.0865889535 	 16.21
201.0658535114 	 23.92
204.0655191604 	 33.48
215.0815035756 	 10.52
216.0893286077 	 30.39
321.0272751198 	 3.43
409.1156029377 	 3.26
425.0898753766 	 24.82
471.095354685 	 0
END IONS

BEGIN IONS
PEPMASS=350.1828
CHARGE=1
MSLEVEL=2
RT=0
SOURCE_INSTRUMENT=qTOF
FILENAME=CCMSLIB00000080074.ms
IONMODE=Positive
ORGANISM=Natural
NAME=MLS001049080-01!2-[6-(cyclohexylamino)purin-9-yl]-5-(hydroxymethyl)oxolane-3,4-diol
PI=GNPS
DATACOLLECTOR=GNPS
SMILES=C1CCC(CC1)Nc1c2c(ncn1)n(cn2)C1C(C(C(CO)O1)O)O
INCHI=InChI=1S/C16H23N5O4/c22-6-10-12(23)13(24)16(25-10)21-8-19-11-14(17-7-18-15(11)21)20-9-4-2-1-3-5-9/h7-10,12-13,16,22-24H,1-6H2,(H,17,18,20)
FORMULA=C16H23N5O4
PUBMED=N/A
SUBMITUSER=BIOADREM
LIBRARYQUALITY=0
SPECTRUMID=CCMSLIB00000080074
SCANS=2269
ID=CCMSLIB00000080074
119.0365647557 	 4.15
136.0631138572 	 100
152.0944139856 	 0.2
218.1413641782 	 75.43
260.1519288645 	 0.29
350.1822802527 	 0.4
END IONS

BEGIN IONS
PEPMASS=341.175
CHARGE=1
MSLEVEL=2
RT=0
SOURCE_INSTRUMENT=qTOF
FILENAME=CCMSLIB00000080075.ms
IONMODE=Positive
ORGANISM=Natural
NAME=MLS002630965-01!2-hydroxy-4-methoxy-3-(3-methylbut-2-enyl)-6-(2-phenylethyl)benzoic acid
PI=GNPS
DATACOLLECTOR=GNPS
SMILES=CC(=CCc1c(cc(CCc2ccccc2)c(c1O)C(=O)O)OC)C
INCHI=InChI=1S/C21H24O4/c1-14(2)9-12-17-18(25-3)13-16(19(20(17)22)21(23)24)11-10-15-7-5-4-6-8-15/h4-9,13,22H,10-12H2,1-3H3,(H,23,24)
FORMULA=C21H24O4
PUBMED=N/A
SUBMITUSER=BIOADREM
LIBRARYQUALITY=0
SPECTRUMID=CCMSLIB00000080075
SCANS=2270
ID=CCMSLIB00000080075
105.0334907505 	 1.72
129.0698762568 	 0.76
131.0491408147 	 3.47
141.0698762568 	 2.77
152.0620512247 	 0.69
159.0440554368 	 3.82
161.059705501 	 1.04
165.0698762568 	 5.42
166.0777012889 	 11.1
168.0933513531 	 0.75
178.0777012889 	 2.98
179.085526321 	 13.65
181.0647908789 	 2.05
181.1011763852 	 6.63
183.0804409431 	 1.43
189.0546201231 	 14.55
191.085526321 	 5.51
194.072615911 	 4.65
195.0804409431 	 2.12
206.072615911 	 0.97
207.0804409431 	 2.26
209.0960910073 	 8.32
210.0675305331 	 0.76
211.0753555652 	 1.02
211.1117410715 	 2.67
213.0910056294 	 1.4
219.0804409431 	 2.48
222.0675305331 	 1.12
223.0753555652 	 1.45
224.0831805973 	 1.69
235.0753555652 	 3.22
236.0831805973 	 1.08
237.0910056294 	 8.78
239.1066556936 	 4.22
249.0910056294 	 2.61
267.1015703157 	 100
323.1641705725 	 2.7
341.1747352588 	 0
END IONS

BEGIN IONS
PEPMASS=427.2218
CHARGE=1
MSLEVEL=2
RT=0
SOURCE_INSTRUMENT=qTOF
FILENAME=CCMSLIB00000080076.ms
IONMODE=Positive
ORGANISM=Natural
NAME=MLS001158082-01!N-(2-morpholin-4-ylethyl)-3-(2,3,5,9-tetramethyl-7-oxofuro[3,2-g]chromen-6-yl)propanamide
PI=GNPS
DATACOLLECTOR=GNPS
SMILES=Cc1c(C)oc2c(C)c3c(cc12)c(C)c(CCC(=NCCN1CCOCC1)O)c(=O)o3
INCHI=InChI=1S/C24H30N2O5/c1-14-17(4)30-22-16(3)23-20(13-19(14)22)15(2)18(24(28)31-23)5-6-21(27)25-7-8-26-9-11-29-12-10-26/h13H,5-12H2,1-4H3,(H,25,27)
FORMULA=C24H30N2O5
PUBMED=N/A
SUBMITUSER=BIOADREM
LIBRARYQUALITY=0
SPECTRUMID=CCMSLIB00000080076
SCANS=2271
ID=CCMSLIB00000080076
98.060039852 	 0.41
114.0913399804 	 3.72
143.085526321 	 0.5
158.072615911 	 0.22
168.0933513531 	 0.4
171.0804409431 	 0.29
184.0882659752 	 0.5
196.0882659752 	 0.73
199.1117410715 	 1.17
210.099893294 	 0.26
211.1117410715 	 0.92
212.0831805973 	 0.9
213.086982884 	 0.4
227.1066556936 	 19.53
228.1104579803 	 2.85
241.1223057578 	 0.32
255.1015703157 	 100
256.1053726024 	 23.21
269.1172203799 	 6.32
296.1281194172 	 2.81
297.112135002 	 8.12
340.1543341677 	 31.62
427.2227480839 	 2.62
END IONS

BEGIN IONS
PEPMASS=355.1999
CHARGE=1
MSLEVEL=2
RT=0
SOURCE_INSTRUMENT=qTOF
FILENAME=CCMSLIB00000080077.ms
IONMODE=Positive
ORGANISM=Natural
NAME=MLS000737276-01!
PI=GNPS
DATACOLLECTOR=GNPS
SMILES=CCC1CN(C)C2Cc3c4ccccc4[nH]c3C(=O)CC1C2C(=O)OC
INCHI=InChI=1S/C21H26N2O3/c1-4-12-11-23(2)17-9-15-13-7-5-6-8-16(13)22-20(15)18(24)10-14(12)19(17)21(25)26-3/h5-8,12,14,17,19,22H,4,9-11H2,1-3H3
FORMULA=C21H26N2O3
PUBMED=N/A
SUBMITUSER=BIOADREM
LIBRARYQUALITY=0
SPECTRUMID=CCMSLIB00000080077
SCANS=2272
ID=CCMSLIB00000080077
119.085526321 	 10.9
122.0964253583 	 13.36
130.0651252299 	 100
138.0913399804 	 23.65
144.0807752941 	 10.39
150.0913399804 	 27.07
156.0807752941 	 15.93
164.1069900446 	 10.37
166.0651252299 	 11.4
167.072950262 	 28.5
168.0807752941 	 30.75
172.0756899162 	 23.57
180.0807752941 	 63.2
182.0964253583 	 24.26
183.0678648841 	 11.93
184.0756899162 	 23.25
192.0807752941 	 12.38
193.0886003262 	 35.6
194.060039852 	 18.61
194.0964253583 	 34.89
196.0756899162 	 50.66
207.1042503904 	 11.16
208.0756899162 	 11.03
210.0913399804 	 16.15
218.0964253583 	 10.37
220.0756899162 	 18.74
221.0835149483 	 25.87
222.0913399804 	 19.57
222.1277254867 	 35.1
226.0862546025 	 12.14
231.1042503904 	 11.88
232.1120754225 	 12.75
234.0913399804 	 17.26
235.0991650125 	 28.87
236.1433755509 	 24.63
238.0862546025 	 11.9
238.1226401088 	 20.92
246.1277254867 	 9.28
249.1148150767 	 14.74
250.1226401088 	 67.5
252.1019046667 	 15.38
264.138290173 	 30.78
281.1648392745 	 25.64
292.1332047951 	 14.05
296.1645049235 	 11.16
324.1594195456 	 12.2
355.2016187113 	 12.8
END IONS

BEGIN IONS
PEPMASS=358.1664
CHARGE=1
MSLEVEL=2
RT=0
SOURCE_INSTRUMENT=qTOF
FILENAME=CCMSLIB00000080078.ms
IONMODE=Positive
ORGANISM=Natural
NAME=MLS001141216-01!N-cyclopropyl-2-[(4,8,8-trimethyl-2-oxo-9,10-dihydropyrano[2,3-h]chromen-5-yl)oxy]acetamide
PI=GNPS
DATACOLLECTOR=GNPS
SMILES=Cc1cc(=O)oc2c3CCC(C)(C)Oc3cc(c12)OCC(=NC1CC1)O
INCHI=InChI=1S/C20H23NO5/c1-11-8-17(23)25-19-13-6-7-20(2,3)26-14(13)9-15(18(11)19)24-10-16(22)21-12-4-5-12/h8-9,12H,4-7,10H2,1-3H3,(H,21,22)
FORMULA=C20H23NO5
PUBMED=N/A
SUBMITUSER=BIOADREM
LIBRARYQUALITY=0
SPECTRUMID=CCMSLIB00000080078
SCANS=2273
ID=CCMSLIB00000080078
131.0491408147 	 2.89
133.0647908789 	 2.54
135.0440554368 	 4.12
147.0440554368 	 2.95
149.059705501 	 10.95
159.0440554368 	 2.33
161.059705501 	 7.42
163.0389700589 	 2.86
171.0440554368 	 1.74
175.0389700589 	 1.65
176.046795091 	 21.87
177.0546201231 	 13.88
187.0389700589 	 2.57
189.0546201231 	 9.76
191.033884681 	 1.15
193.0495347452 	 1.42
204.0417097131 	 3.85
205.0495347452 	 93.2
217.0495347452 	 30.8
245.0444493673 	 31.79
247.0600994315 	 3.28
302.1022985972 	 100
358.164898854 	 29.71
END IONS

BEGIN IONS
PEPMASS=434.175
CHARGE=1
MSLEVEL=2
RT=0
SOURCE_INSTRUMENT=qTOF
FILENAME=CCMSLIB00000080080.ms
IONMODE=Positive
ORGANISM=Natural
NAME=MLS001140791-01!(2S)-1-[(2S)-2-[(5-methoxy-1-methylindole-2-carbonyl)amino]-4-methylsulfanylbutanoyl]pyrrolidine-2-carboxylic acid
PI=GNPS
DATACOLLECTOR=GNPS
SMILES=Cn1c2ccc(cc2cc1C(=N[C@@H](CCSC)C(=O)N1CCC[C@H]1C(=O)O)O)OC
INCHI=InChI=1S/C21H27N3O5S/c1-23-16-7-6-14(29-2)11-13(16)12-18(23)19(25)22-15(8-10-30-3)20(26)24-9-4-5-17(24)21(27)28/h6-7,11-12,15,17H,4-5,8-10H2,1-3H3,(H,22,25)(H,27,28)/t15-,17-/m0/s1
FORMULA=C21H27N3O5S
PUBMED=N/A
SUBMITUSER=BIOADREM
LIBRARYQUALITY=0
SPECTRUMID=CCMSLIB00000080080
SCANS=2274
ID=CCMSLIB00000080080
105.0573001978 	 0.43
107.0491408147 	 0.39
108.0569658468 	 0.87
109.0647908789 	 0.41
116.0706045383 	 4.27
117.0573001978 	 4.92
119.0491408147 	 6.03
121.0647908789 	 0.66
133.0522148199 	 0.4
136.0756899162 	 2.69
137.0835149483 	 0.56
145.0522148199 	 3.41
146.060039852 	 0.66
160.0756899162 	 4.11
164.0706045383 	 0.52
168.0807752941 	 0.73
169.0886003262 	 2.91
174.0913399804 	 0.94
186.0913399804 	 0.36
187.0991650125 	 1.99
188.0706045383 	 100
189.0732470752 	 13.03
191.0815035756 	 0.38
200.1069900446 	 12.12
243.112803704 	 0.68
248.110360863 	 6.44
434.1744176828 	 0
END IONS

BEGIN IONS
PEPMASS=360.145
CHARGE=1
MSLEVEL=2
RT=0
SOURCE_INSTRUMENT=qTOF
FILENAME=CCMSLIB00000080081.ms
IONMODE=Positive
ORGANISM=Natural
NAME=MLS001139413-01!(2R)-1-[2-(4-ethyl-8-methyl-2-oxochromen-7-yl)oxyacetyl]pyrrolidine-2-carboxylic acid
PI=GNPS
DATACOLLECTOR=GNPS
SMILES=CCc1cc(=O)oc2c(C)c(ccc12)OCC(=O)N1CCC[C@@H]1C(=O)O
INCHI=InChI=1S/C19H21NO6/c1-3-12-9-17(22)26-18-11(2)15(7-6-13(12)18)25-10-16(21)20-8-4-5-14(20)19(23)24/h6-7,9,14H,3-5,8,10H2,1-2H3,(H,23,24)/t14-/m1/s1
FORMULA=C19H21NO6
PUBMED=N/A
SUBMITUSER=BIOADREM
LIBRARYQUALITY=0
SPECTRUMID=CCMSLIB00000080081
SCANS=2275
ID=CCMSLIB00000080081
98.060039852 	 7.39
100.0756899162 	 18.91
105.0698762568 	 7.84
112.0756899162 	 12.46
114.0549544741 	 2.08
115.0502034472 	 5.73
116.0620512247 	 6.56
119.0491408147 	 7.64
121.0647908789 	 5.57
128.0706045383 	 18.33
129.0698762568 	 9.06
130.0736785435 	 2.46
131.085526321 	 24.7
132.0893286077 	 3.38
133.0647908789 	 2.19
133.1011763852 	 3.21
135.0764181977 	 2.3
139.0627795062 	 2.1
142.0736785435 	 2.46
144.0569658468 	 6.06
146.072615911 	 7.84
147.0804409431 	 4.32
149.0960910073 	 3.3
156.0655191604 	 3.49
159.0804409431 	 58.21
160.0842432298 	 4.46
161.059705501 	 6.78
161.0920682619 	 18.8
162.0675305331 	 2.58
162.099893294 	 3.07
163.0713328198 	 2.44
174.0635077877 	 5.65
175.0753555652 	 1.94
176.0831805973 	 6.4
177.0910056294 	 8.67
178.0948079161 	 1.94
187.0753555652 	 3.41
189.0910056294 	 55.72
190.0624451552 	 6.51
190.0948079161 	 6.42
204.0780952194 	 6.65
205.0859202515 	 69.87
206.0897225382 	 10.83
217.0859202515 	 100
218.0897225382 	 18.64
245.0808348736 	 3.18
263.0913995599 	 2.6
286.1457976291 	 18.83
287.1475717681 	 4.15
314.1407122512 	 2.63
360.1461915596 	 3.21
END IONS

BEGIN IONS
PEPMASS=423.1917
CHARGE=1
MSLEVEL=2
RT=0
SOURCE_INSTRUMENT=qTOF
FILENAME=CCMSLIB00000080082.ms
IONMODE=Positive
ORGANISM=Natural
NAME=MLS001141223-01!N-(pyridin-4-ylmethyl)-2-[(3,4,8,8-tetramethyl-2-oxo-9,10-dihydropyrano[2,3-h]chromen-5-yl)oxy]acetamide
PI=GNPS
DATACOLLECTOR=GNPS
SMILES=Cc1c(C)c(=O)oc2c3CCC(C)(C)Oc3cc(c12)OCC(=NCc1ccncc1)O
INCHI=InChI=1S/C24H26N2O5/c1-14-15(2)23(28)30-22-17-5-8-24(3,4)31-18(17)11-19(21(14)22)29-13-20(27)26-12-16-6-9-25-10-7-16/h6-7,9-11H,5,8,12-13H2,1-4H3,(H,26,27)
FORMULA=C24H26N2O5
PUBMED=N/A
SUBMITUSER=BIOADREM
LIBRARYQUALITY=0
SPECTRUMID=CCMSLIB00000080082
SCANS=2276
ID=CCMSLIB00000080082
104.0494751657 	 2.08
106.0651252299 	 4.38
107.060374203 	 48.73
119.060374203 	 10.7
120.0443897878 	 32.07
121.0760242672 	 35.35
132.0443897878 	 0.82
134.047463793 	 0.34
135.0804409431 	 0.33
145.0647908789 	 0.57
149.0709388893 	 47.54
163.0753555652 	 1.92
173.059705501 	 0.65
175.0753555652 	 0.89
191.0702701873 	 3.65
203.0702701873 	 1.93
219.0651848094 	 24.45
231.0651848094 	 6.46
259.0600994315 	 1.83
287.1277850662 	 0.81
315.1226996883 	 0.73
367.1288476987 	 100
423.1914479555 	 12.76
END IONS

BEGIN IONS
PEPMASS=450.192
CHARGE=1
MSLEVEL=2
RT=0
SOURCE_INSTRUMENT=qTOF
FILENAME=CCMSLIB00000080083.ms
IONMODE=Positive
ORGANISM=Natural
NAME=MLS001140993-01!4-[[2-(2-oxo-3-phenylchromen-7-yl)oxypropanoylamino]methyl]cyclohexane-1-carboxylic acid
PI=GNPS
DATACOLLECTOR=GNPS
SMILES=CC(C(=NCC1CCC(CC1)C(=O)O)O)Oc1ccc2cc(c3ccccc3)c(=O)oc2c1
INCHI=InChI=1S/C26H27NO6/c1-16(24(28)27-15-17-7-9-19(10-8-17)25(29)30)32-21-12-11-20-13-22(18-5-3-2-4-6-18)26(31)33-23(20)14-21/h2-6,11-14,16-17,19H,7-10,15H2,1H3,(H,27,28)(H,29,30)
FORMULA=C26H27NO6
PUBMED=N/A
SUBMITUSER=BIOADREM
LIBRARYQUALITY=0
SPECTRUMID=CCMSLIB00000080083
SCANS=2277
ID=CCMSLIB00000080083
182.2029018025 	 1.2
183.2107268346 	 17.79
450.1911136045 	 0
END IONS

BEGIN IONS
PEPMASS=372.156
CHARGE=1
MSLEVEL=2
RT=0
SOURCE_INSTRUMENT=qTOF
FILENAME=CCMSLIB00000080084.ms
IONMODE=Positive
ORGANISM=Natural
NAME=MLS001141337-01!(2R)-1-[3-[(10aS)-1,3-dioxo-10,10a-dihydro-5H-imidazo[1,5-b]isoquinolin-2-yl]propanoyl]pyrrolidine-2-carboxylic acid
PI=GNPS
DATACOLLECTOR=GNPS
SMILES=c1ccc2CN3[C@@H](Cc2c1)C(=O)N(CCC(=O)N1CCC[C@@H]1C(=O)O)C3=O
INCHI=InChI=1S/C19H21N3O5/c23-16(20-8-3-6-14(20)18(25)26)7-9-21-17(24)15-10-12-4-1-2-5-13(12)11-22(15)19(21)27/h1-2,4-5,14-15H,3,6-11H2,(H,25,26)/t14-,15+/m1/s1
FORMULA=C19H21N3O5
PUBMED=N/A
SUBMITUSER=BIOADREM
LIBRARYQUALITY=0
SPECTRUMID=CCMSLIB00000080084
SCANS=2278
ID=CCMSLIB00000080084
117.0573001978 	 4.25
117.0698762568 	 3.57
130.0651252299 	 73.32
132.0807752941 	 66.94
146.060039852 	 3.36
158.060039852 	 42.25
160.0756899162 	 8.78
175.0865889535 	 15.91
185.0709388893 	 5.62
187.0865889535 	 91.63
203.0815035756 	 100
215.0815035756 	 30.59
229.0971536398 	 13.44
257.0920682619 	 60.36
372.1553968002 	 0
END IONS

BEGIN IONS
PEPMASS=393.207
CHARGE=1
MSLEVEL=2
RT=0
SOURCE_INSTRUMENT=qTOF
FILENAME=CCMSLIB00000080085.ms
IONMODE=Positive
ORGANISM=Natural
NAME=MLS000697599-01!
PI=GNPS
DATACOLLECTOR=GNPS
SMILES=CC(=CCOc1ccc([C@H]2Cc3ccc4c(C=CC(C)(C)O4)c3OC2)c(c1)O)C
INCHI=InChI=1S/C25H28O4/c1-16(2)10-12-27-19-6-7-20(22(26)14-19)18-13-17-5-8-23-21(24(17)28-15-18)9-11-25(3,4)29-23/h5-11,14,18,26H,12-13,15H2,1-4H3/t18-/m0/s1
FORMULA=C25H28O4
PUBMED=N/A
SUBMITUSER=BIOADREM
LIBRARYQUALITY=0
SPECTRUMID=CCMSLIB00000080085
SCANS=2279
ID=CCMSLIB00000080085
95.0491408147 	 5.64
103.0542261926 	 8.47
105.0334907505 	 1.27
105.0698762568 	 3.1
107.0491408147 	 4.19
109.0647908789 	 1.76
115.0542261926 	 3.54
119.0491408147 	 2.16
119.085526321 	 2.28
121.0647908789 	 31.41
123.0440554368 	 100
128.0620512247 	 3.15
131.0491408147 	 3.09
133.0647908789 	 3.18
133.1011763852 	 1.53
134.0362304047 	 1.58
135.0440554368 	 5.88
141.0698762568 	 2.15
142.0777012889 	 1.39
143.085526321 	 3.93
145.0647908789 	 7.68
147.0440554368 	 25.75
147.0804409431 	 37.83
149.059705501 	 88.69
153.0698762568 	 1.35
157.0647908789 	 1.46
157.1011763852 	 1.52
159.0440554368 	 1.23
161.059705501 	 8.3
161.0960910073 	 6.06
169.1011763852 	 1.61
171.0804409431 	 14.62
173.059705501 	 22.02
174.0675305331 	 7.2
182.072615911 	 1.99
185.059705501 	 2.79
187.0753555652 	 12.86
189.0910056294 	 90.77
197.0960910073 	 4.19
201.0910056294 	 3.58
203.1066556936 	 7.69
215.1066556936 	 9.53
337.1434351304 	 1.3
393.2060353872 	 0
END IONS

BEGIN IONS
PEPMASS=369.1823
CHARGE=1
MSLEVEL=2
RT=0
SOURCE_INSTRUMENT=qTOF
FILENAME=CCMSLIB00000080086.ms
IONMODE=Positive
ORGANISM=Natural
NAME=MLS000863603-01!methyl 1-methyl-2'-oxospiro[1,4a,5,5a,7,8,10,10a-octahydropyrano[3,4-f]indolizine-6,3'-1H-indole]-4-carboxylate
PI=GNPS
DATACOLLECTOR=GNPS
SMILES=CC1C2CN3CCC4(c5ccccc5N=C4O)C3CC2C(=CO1)C(=O)OC
INCHI=InChI=1S/C21H24N2O4/c1-12-14-10-23-8-7-21(16-5-3-4-6-17(16)22-20(21)25)18(23)9-13(14)15(11-27-12)19(24)26-2/h3-6,11-14,18H,7-10H2,1-2H3,(H,22,25)
FORMULA=C21H24N2O4
PUBMED=N/A
SUBMITUSER=BIOADREM
LIBRARYQUALITY=0
SPECTRUMID=CCMSLIB00000080086
SCANS=2280
ID=CCMSLIB00000080086
115.0542261926 	 2.44
117.0573001978 	 3.11
118.0651252299 	 2.75
130.0651252299 	 21.45
132.0443897878 	 7.46
132.0807752941 	 10.84
142.0651252299 	 8.46
144.0807752941 	 1.77
145.0522148199 	 1.35
146.060039852 	 1.66
154.0651252299 	 1.04
158.060039852 	 31.17
160.0756899162 	 53.24
172.0756899162 	 2.71
173.0709388893 	 2.02
173.1073243956 	 7.71
184.0756899162 	 0.96
186.0787639214 	 4.4
187.0865889535 	 10.34
199.0865889535 	 7.77
200.0944139856 	 2
201.1022390177 	 100
213.1022390177 	 5.07
215.1178890819 	 1.14
225.1022390177 	 1.52
237.1022390177 	 4.92
239.1178890819 	 9.42
241.1335391461 	 3.79
265.0971536398 	 1.92
265.1335391461 	 3.26
267.1491892103 	 16.46
283.1077183261 	 1.42
309.1597538966 	 2.17
325.1546685187 	 6.24
337.1546685187 	 11.08
341.1859686471 	 1.52
369.1808832692 	 29.82
END IONS

BEGIN IONS
PEPMASS=465.166
CHARGE=1
MSLEVEL=2
RT=0
SOURCE_INSTRUMENT=qTOF
FILENAME=CCMSLIB00000080087.ms
IONMODE=Positive
ORGANISM=Natural
NAME=MLS001158390-01!2-[2-(4,8-dimethyl-2-oxochromen-7-yl)oxypropanoylamino]-3-(5-hydroxy-1H-indol-3-yl)propanoic acid
PI=GNPS
DATACOLLECTOR=GNPS
SMILES=Cc1cc(=O)oc2c(C)c(ccc12)OC(C)C(=NC(Cc1c[nH]c2ccc(cc12)O)C(=O)O)O
INCHI=InChI=1S/C25H24N2O7/c1-12-8-22(29)34-23-13(2)21(7-5-17(12)23)33-14(3)24(30)27-20(25(31)32)9-15-11-26-19-6-4-16(28)10-18(15)19/h4-8,10-11,14,20,26,28H,9H2,1-3H3,(H,27,30)(H,31,32)
FORMULA=C25H24N2O7
PUBMED=N/A
SUBMITUSER=BIOADREM
LIBRARYQUALITY=0
SPECTRUMID=CCMSLIB00000080087
SCANS=2281
ID=CCMSLIB00000080087
103.0542261926 	 12.9
105.0698762568 	 18.55
117.0573001978 	 10.89
133.0647908789 	 10.48
145.0647908789 	 35.28
146.060039852 	 100
158.060039852 	 10.28
160.0756899162 	 22.38
162.0549544741 	 26.21
170.060039852 	 11.49
175.0865889535 	 49.8
184.0730098415 	 32.06
186.0549544741 	 61.9
186.0913399804 	 23.39
187.0964849378 	 16.33
189.0546201231 	 26.41
189.0910056294 	 20.16
191.0702701873 	 82.06
201.1022390177 	 30.04
204.0655191604 	 58.47
213.0757494957 	 16.53
215.0788235009 	 18.95
217.0859202515 	 92.94
229.0971536398 	 17.54
230.1022985972 	 29.84
374.1386841035 	 12.3
419.1601478271 	 19.35
420.1679728592 	 17.14
465.1656271355 	 0
END IONS

BEGIN IONS
PEPMASS=355.2018
CHARGE=1
MSLEVEL=2
RT=0
SOURCE_INSTRUMENT=qTOF
FILENAME=CCMSLIB00000080088.ms
IONMODE=Positive
ORGANISM=Natural
NAME=MLS000863574-01!methyl 18-hydroxy-1,3,11,12,14,15,16,17,18,19,20,21-dodecahydroyohimban-19-carboxylate
PI=GNPS
DATACOLLECTOR=GNPS
SMILES=COC(=O)C1C2CC3c4c(CCN3CC2CCC1O)c1ccccc1[nH]4
INCHI=InChI=1S/C21H26N2O3/c1-26-21(25)19-15-10-17-20-14(13-4-2-3-5-16(13)22-20)8-9-23(17)11-12(15)6-7-18(19)24/h2-5,12,15,17-19,22,24H,6-11H2,1H3
FORMULA=C21H26N2O3
PUBMED=N/A
SUBMITUSER=BIOADREM
LIBRARYQUALITY=0
SPECTRUMID=CCMSLIB00000080088
SCANS=2282
ID=CCMSLIB00000080088
103.0542261926 	 1.28
105.0698762568 	 0.72
106.0651252299 	 1.55
115.0542261926 	 4.33
117.0698762568 	 8.9
128.0494751657 	 0.84
130.0651252299 	 1.98
132.0807752941 	 0.64
134.0964253583 	 3.75
135.0804409431 	 0.57
138.0913399804 	 0.46
143.072950262 	 10.43
144.0807752941 	 100
156.0807752941 	 0.67
157.0886003262 	 0.68
158.0964253583 	 1.67
162.0913399804 	 3.03
170.0964253583 	 0.65
180.1019046667 	 1.76
182.0964253583 	 0.54
192.1019046667 	 0.73
194.1175547309 	 3.57
206.1175547309 	 0.68
207.1015703157 	 0.51
208.1120754225 	 0.61
212.1281194172 	 18.89
219.1042503904 	 0.77
224.1281194172 	 3.03
232.1120754225 	 0.62
234.1277254867 	 1.26
245.1199004546 	 0.6
248.1433755509 	 0.96
260.1433755509 	 0.94
294.1488548593 	 0.86
306.1488548593 	 0.54
308.1645049235 	 1.04
326.1750696098 	 0.7
338.1750696098 	 0.5
355.2016187113 	 9.58
END IONS

BEGIN IONS
PEPMASS=456.1202
CHARGE=1
MSLEVEL=2
RT=0
SOURCE_INSTRUMENT=qTOF
FILENAME=CCMSLIB00000080089.ms
IONMODE=Positive
ORGANISM=Natural
NAME=MLS001141248-01!3-(4-chlorophenyl)-2-[[2-[(6-oxo-7,8,9,10-tetrahydrobenzo[c]chromen-3-yl)oxy]acetyl]amino]propanoic acid
PI=GNPS
DATACOLLECTOR=GNPS
SMILES=C1CCc2c(C1)c1ccc(cc1oc2=O)OCC(=NC(Cc1ccc(cc1)Cl)C(=O)O)O
INCHI=InChI=1S/C24H22ClNO6/c25-15-7-5-14(6-8-15)11-20(23(28)29)26-22(27)13-31-16-9-10-18-17-3-1-2-4-19(17)24(30)32-21(18)12-16/h5-10,12,20H,1-4,11,13H2,(H,26,27)(H,28,29)
FORMULA=C24H22ClNO6
PUBMED=N/A
SUBMITUSER=BIOADREM
LIBRARYQUALITY=0
SPECTRUMID=CCMSLIB00000080089
SCANS=2283
ID=CCMSLIB00000080089
103.0542261926 	 10.36
107.0491408147 	 6.32
115.0542261926 	 4.49
117.0698762568 	 2.4
118.0651252299 	 4.62
119.072950262 	 6.03
125.0152538705 	 8.28
128.0620512247 	 17.08
130.0651252299 	 26.59
131.072950262 	 26.93
137.0152538705 	 2.65
139.0309039347 	 19.17
141.0698762568 	 3.44
143.085526321 	 28.09
145.0647908789 	 4.95
145.1011763852 	 4.16
151.0309039347 	 5.41
153.0698762568 	 7.33
154.041802972 	 27.21
155.085526321 	 3.49
159.0804409431 	 2.79
161.0960910073 	 3.17
166.041802972 	 100
171.0804409431 	 58.97
173.0960910073 	 10.95
183.0809281325 	 3.59
189.0910056294 	 3.32
199.0753555652 	 26.85
201.0914928188 	 33.02
212.0472822804 	 3.47
217.0859202515 	 42.32
229.0864074409 	 75.28
257.081322063 	 5.48
410.1153618456 	 8.11
456.120841154 	 0.66
END IONS

BEGIN IONS
PEPMASS=430.223
CHARGE=1
MSLEVEL=2
RT=0
SOURCE_INSTRUMENT=qTOF
FILENAME=CCMSLIB00000080090.ms
IONMODE=Positive
ORGANISM=Natural
NAME=MLS001140845-01!4-[[[2-(4-butyl-7-methyl-2-oxochromen-5-yl)oxyacetyl]amino]methyl]cyclohexane-1-carboxylic acid
PI=GNPS
DATACOLLECTOR=GNPS
SMILES=CCCCc1cc(=O)oc2cc(C)cc(c12)OCC(=NC[C@H]1CC[C@@H](CC1)C(=O)O)O
INCHI=InChI=1S/C24H31NO6/c1-3-4-5-18-12-22(27)31-20-11-15(2)10-19(23(18)20)30-14-21(26)25-13-16-6-8-17(9-7-16)24(28)29/h10-12,16-17H,3-9,13-14H2,1-2H3,(H,25,26)(H,28,29)/t16-,17-
FORMULA=C24H31NO6
PUBMED=N/A
SUBMITUSER=BIOADREM
LIBRARYQUALITY=0
SPECTRUMID=CCMSLIB00000080090
SCANS=2284
ID=CCMSLIB00000080090
112.1120754225 	 9.37
135.0804409431 	 8.91
140.1069900446 	 20.11
149.059705501 	 10.13
152.1069900446 	 6.09
153.1148150767 	 16.07
165.0546201231 	 9.6
170.1175547309 	 5.33
175.0753555652 	 15.38
177.0546201231 	 34.2
186.1039160394 	 8.07
189.0910056294 	 6.55
191.0702701873 	 25.29
203.0702701873 	 100
217.1223057578 	 23.38
227.1066556936 	 5.64
233.1172203799 	 88.04
245.1172203799 	 58.57
248.1281194172 	 4.8
273.112135002 	 37.17
276.1594195456 	 6.09
290.1386841035 	 57.12
384.2169344245 	 56.59
385.2247594566 	 23.23
430.2224137329 	 0
END IONS

BEGIN IONS
PEPMASS=410.208
CHARGE=1
MSLEVEL=2
RT=0
SOURCE_INSTRUMENT=qTOF
FILENAME=CCMSLIB00000080091.ms
IONMODE=Positive
ORGANISM=Natural
NAME=MLS001075552-01!
PI=GNPS
DATACOLLECTOR=GNPS
SMILES=COc1ccc(cc1)CN=C(CCC(=O)N1C[C@H]2C[C@H](C1)c1cccc(=O)n1C2)O
INCHI=InChI=1S/C23H27N3O4/c1-30-19-7-5-16(6-8-19)12-24-21(27)9-10-22(28)25-13-17-11-18(15-25)20-3-2-4-23(29)26(20)14-17/h2-8,17-18H,9-15H2,1H3,(H,24,27)/t17-,18-/m1/s1
FORMULA=C23H27N3O4
PUBMED=N/A
SUBMITUSER=BIOADREM
LIBRARYQUALITY=0
SPECTRUMID=CCMSLIB00000080091
SCANS=2285
ID=CCMSLIB00000080091
121.0647908789 	 100
146.060039852 	 1.02
148.0756899162 	 3.79
160.0756899162 	 4.51
172.0756899162 	 0.86
174.0913399804 	 2.2
189.1022390177 	 2.63
191.1178890819 	 23.79
245.1284537682 	 54.13
255.112803704 	 0.62
273.1233683903 	 61.58
393.1808832692 	 1.88
410.2074323707 	 0
END IONS

BEGIN IONS
PEPMASS=209.045
CHARGE=1
MSLEVEL=2
RT=0
SOURCE_INSTRUMENT=qTOF
FILENAME=CCMSLIB00000080092.ms
IONMODE=Positive
ORGANISM=Natural
NAME=MLS002207123-01!
PI=GNPS
DATACOLLECTOR=GNPS
SMILES=COc1cc2ccc(=O)oc2c(c1O)O
INCHI=InChI=1S/C10H8O5/c1-14-6-4-5-2-3-7(11)15-10(5)9(13)8(6)12/h2-4,12-13H,1H3
FORMULA=C10H8O5
PUBMED=N/A
SUBMITUSER=BIOADREM
LIBRARYQUALITY=0
SPECTRUMID=CCMSLIB00000080092
SCANS=2286
ID=CCMSLIB00000080092
107.0491408147 	 25.78
110.0362304047 	 42.24
120.0205803405 	 17.39
121.0284053726 	 14.75
123.0076699305 	 4.81
135.0440554368 	 19.41
138.0311450268 	 40.68
148.0154949626 	 6.37
149.0233199947 	 31.68
150.0311450268 	 8.54
153.0546201231 	 34.47
159.0076699305 	 5.28
163.0389700589 	 21.89
166.0260596489 	 100
177.0182346168 	 6.83
194.020974271 	 58.54
209.0444493673 	 0
END IONS

BEGIN IONS
PEPMASS=402.192
CHARGE=1
MSLEVEL=2
RT=0
SOURCE_INSTRUMENT=qTOF
FILENAME=CCMSLIB00000080093.ms
IONMODE=Positive
ORGANISM=Natural
NAME=MLS001140947-01!4-[[[2-(2-oxo-4-propylchromen-7-yl)oxyacetyl]amino]methyl]cyclohexane-1-carboxylic acid
PI=GNPS
DATACOLLECTOR=GNPS
SMILES=CCCc1cc(=O)oc2cc(ccc12)OCC(=NC[C@H]1CC[C@@H](CC1)C(=O)O)O
INCHI=InChI=1S/C22H27NO6/c1-2-3-16-10-21(25)29-19-11-17(8-9-18(16)19)28-13-20(24)23-12-14-4-6-15(7-5-14)22(26)27/h8-11,14-15H,2-7,12-13H2,1H3,(H,23,24)(H,26,27)/t14-,15-
FORMULA=C22H27NO6
PUBMED=N/A
SUBMITUSER=BIOADREM
LIBRARYQUALITY=0
SPECTRUMID=CCMSLIB00000080093
SCANS=2287
ID=CCMSLIB00000080093
95.085526321 	 4.67
105.0698762568 	 1.19
107.0491408147 	 0.88
119.085526321 	 0.74
123.0440554368 	 0.64
131.085526321 	 5
141.0698762568 	 1.89
147.0440554368 	 1.76
148.0518804689 	 1.8
149.059705501 	 1.02
149.0960910073 	 1.83
159.0804409431 	 4.31
161.059705501 	 2.06
163.0389700589 	 5.15
163.0753555652 	 1.46
174.0675305331 	 0.65
175.0389700589 	 1.84
176.046795091 	 4.58
177.0546201231 	 0.89
177.0910056294 	 1.3
187.0753555652 	 13.13
189.0910056294 	 6.58
205.0859202515 	 100
217.0859202515 	 30.96
245.0808348736 	 13.05
262.1073839751 	 42.81
356.1856342961 	 11.83
402.1911136045 	 0
END IONS

BEGIN IONS
PEPMASS=464.207
CHARGE=1
MSLEVEL=2
RT=0
SOURCE_INSTRUMENT=qTOF
FILENAME=CCMSLIB00000080094.ms
IONMODE=Positive
ORGANISM=Natural
NAME=MLS001140924-01!4-[[[2-(6-ethyl-2-oxo-4-phenylchromen-7-yl)oxyacetyl]amino]methyl]cyclohexane-1-carboxylic acid
PI=GNPS
DATACOLLECTOR=GNPS
SMILES=CCc1cc2c(cc(=O)oc2cc1OCC(=NCC1CCC(CC1)C(=O)O)O)c1ccccc1
INCHI=InChI=1S/C27H29NO6/c1-2-18-12-22-21(19-6-4-3-5-7-19)13-26(30)34-24(22)14-23(18)33-16-25(29)28-15-17-8-10-20(11-9-17)27(31)32/h3-7,12-14,17,20H,2,8-11,15-16H2,1H3,(H,28,29)(H,31,32)
FORMULA=C27H29NO6
PUBMED=N/A
SUBMITUSER=BIOADREM
LIBRARYQUALITY=0
SPECTRUMID=CCMSLIB00000080094
SCANS=2288
ID=CCMSLIB00000080094
177.0698762568 	 0.86
178.0777012889 	 1.89
191.085526321 	 0.94
195.0804409431 	 1.53
203.085526321 	 1.27
204.0933513531 	 0.94
211.1117410715 	 1.36
219.0804409431 	 0.91
221.0960910073 	 1.84
223.0753555652 	 2.13
223.1117410715 	 2.27
225.0910056294 	 1.22
236.0831805973 	 5.46
237.0910056294 	 2.94
238.0988306615 	 5.67
239.0702701873 	 2.45
249.0910056294 	 1.9
251.0702701873 	 4.51
251.1066556936 	 3.72
263.0702701873 	 0.91
264.0780952194 	 3.91
265.0859202515 	 6.02
266.0937452836 	 6.81
267.1015703157 	 100
279.1015703157 	 85.5
307.0964849378 	 13.23
324.1230340393 	 65.58
418.2012843603 	 24.82
464.2067636687 	 0
END IONS

BEGIN IONS
PEPMASS=506.1349
CHARGE=1
MSLEVEL=2
RT=0
SOURCE_INSTRUMENT=qTOF
FILENAME=CCMSLIB00000080095.ms
IONMODE=Positive
ORGANISM=Natural
NAME=MLS001141244-01!2-[[2-(3-benzyl-4-methyl-2-oxochromen-7-yl)oxyacetyl]amino]-3-(4-chlorophenyl)propanoic acid
PI=GNPS
DATACOLLECTOR=GNPS
SMILES=Cc1c2ccc(cc2oc(=O)c1Cc1ccccc1)OCC(=NC(Cc1ccc(cc1)Cl)C(=O)O)O
INCHI=InChI=1S/C28H24ClNO6/c1-17-22-12-11-21(15-25(22)36-28(34)23(17)13-18-5-3-2-4-6-18)35-16-26(31)30-24(27(32)33)14-19-7-9-20(29)10-8-19/h2-12,15,24H,13-14,16H2,1H3,(H,30,31)(H,32,33)
FORMULA=C28H24ClNO6
PUBMED=N/A
SUBMITUSER=BIOADREM
LIBRARYQUALITY=0
SPECTRUMID=CCMSLIB00000080095
SCANS=2289
ID=CCMSLIB00000080095
103.0542261926 	 3.76
105.0698762568 	 2.66
115.0542261926 	 3.04
118.0651252299 	 1.72
119.072950262 	 4.35
125.0152538705 	 9.24
130.0651252299 	 13.44
131.072950262 	 22.79
133.0647908789 	 2.47
137.0152538705 	 2.45
139.0309039347 	 12.37
145.0652780683 	 2.16
151.0309039347 	 3.28
154.041802972 	 13.72
161.059705501 	 8.96
165.0698762568 	 1.66
166.041802972 	 80.51
169.041468621 	 1.96
173.0601926904 	 2.67
178.0777012889 	 12.09
184.0523676583 	 2.52
189.0546201231 	 100
193.1011763852 	 10.64
201.0551073125 	 1.62
212.0472822804 	 2.29
221.0960910073 	 17.07
223.1122282609 	 2.14
229.0500219346 	 2.62
233.0965781967 	 1.73
249.0910056294 	 8.49
251.107142883 	 6.98
267.1015703157 	 2.38
279.1020575051 	 24.57
281.081322063 	 4.09
307.0969721272 	 2
428.0895410256 	 8.59
460.1310119098 	 3.3
506.1364912182 	 1.38
END IONS

BEGIN IONS
PEPMASS=255.1007
CHARGE=1
MSLEVEL=2
RT=0
SOURCE_INSTRUMENT=qTOF
FILENAME=CCMSLIB00000080096.ms
IONMODE=Positive
ORGANISM=Natural
NAME=MLS001048854-01!(E)-3-(4-hydroxyphenyl)-1-(4-methoxyphenyl)prop-2-en-1-one
PI=GNPS
DATACOLLECTOR=GNPS
SMILES=COc1ccc(cc1)C(=O)/C=C/c1ccc(cc1)O
INCHI=InChI=1S/C16H14O3/c1-19-15-9-5-13(6-10-15)16(18)11-4-12-2-7-14(17)8-3-12/h2-11,17H,1H3/b11-4+
FORMULA=C16H14O3
PUBMED=N/A
SUBMITUSER=BIOADREM
LIBRARYQUALITY=0
SPECTRUMID=CCMSLIB00000080096
SCANS=2290
ID=CCMSLIB00000080096
103.0542261926 	 1.07
107.0491408147 	 10.8
118.0413157826 	 5.71
119.0491408147 	 95.17
135.0440554368 	 88.39
141.0698762568 	 1.35
147.0440554368 	 100
161.059705501 	 6.82
165.0698762568 	 5.77
166.0777012889 	 2.92
169.0647908789 	 1.01
183.0804409431 	 2.57
194.072615911 	 5.01
195.0804409431 	 0.99
209.0960910073 	 2.13
237.0910056294 	 2.51
255.1015703157 	 4.55
END IONS

BEGIN IONS
PEPMASS=261.113
CHARGE=1
MSLEVEL=2
RT=0
SOURCE_INSTRUMENT=qTOF
FILENAME=CCMSLIB00000080097.ms
IONMODE=Positive
ORGANISM=Natural
NAME=MLS002472923-01!7-methoxy-8-(3-methyl-2-oxobutyl)chromen-2-one
PI=GNPS
DATACOLLECTOR=GNPS
SMILES=CC(C)C(=O)Cc1c(ccc2ccc(=O)oc12)OC
INCHI=InChI=1S/C15H16O4/c1-9(2)12(16)8-11-13(18-3)6-4-10-5-7-14(17)19-15(10)11/h4-7,9H,8H2,1-3H3
FORMULA=C15H16O4
PUBMED=N/A
SUBMITUSER=BIOADREM
LIBRARYQUALITY=0
SPECTRUMID=CCMSLIB00000080097
SCANS=2291
ID=CCMSLIB00000080097
102.0464011605 	 2.42
103.0542261926 	 28.45
105.0698762568 	 1.3
115.0542261926 	 2.78
117.0334907505 	 0.51
117.0698762568 	 1.2
118.0413157826 	 1.4
119.0491408147 	 0.44
127.0542261926 	 0.45
128.0620512247 	 2.21
129.0698762568 	 0.94
131.0491408147 	 100
143.0491408147 	 0.49
144.0569658468 	 0.43
145.0647908789 	 2.64
147.0440554368 	 1.72
157.0647908789 	 0.65
159.0440554368 	 4.07
161.059705501 	 3.08
171.0440554368 	 0.93
172.0518804689 	 0.44
173.059705501 	 1.86
175.0389700589 	 1.27
177.0546201231 	 0.67
185.059705501 	 2.23
186.0311450268 	 0.56
189.0546201231 	 31.45
201.0546201231 	 1.1
203.0702701873 	 1.02
219.0651848094 	 0.86
261.112135002 	 0
END IONS

BEGIN IONS
PEPMASS=386.16
CHARGE=1
MSLEVEL=2
RT=0
SOURCE_INSTRUMENT=qTOF
FILENAME=CCMSLIB00000080098.ms
IONMODE=Positive
ORGANISM=Natural
NAME=MLS001032327-01!2-[(5-hydroxy-2,2-dimethyl-4-oxo-3H-chromen-7-yl)oxy]-N-[(4-methoxyphenyl)methyl]acetamide
PI=GNPS
DATACOLLECTOR=GNPS
SMILES=CC1(C)CC(=O)c2c(cc(cc2O1)OCC(=NCc1ccc(cc1)OC)O)O
INCHI=InChI=1S/C21H23NO6/c1-21(2)10-17(24)20-16(23)8-15(9-18(20)28-21)27-12-19(25)22-11-13-4-6-14(26-3)7-5-13/h4-9,23H,10-12H2,1-3H3,(H,22,25)
FORMULA=C21H23NO6
PUBMED=N/A
SUBMITUSER=BIOADREM
LIBRARYQUALITY=0
SPECTRUMID=CCMSLIB00000080098
SCANS=2292
ID=CCMSLIB00000080098
106.0413157826 	 0.94
111.0076699305 	 0.76
121.0647908789 	 100
123.0440554368 	 0.54
135.0804409431 	 0.62
151.0389700589 	 1.26
153.0182346168 	 33.76
163.0753555652 	 0.74
165.0182346168 	 2.13
167.0702701873 	 0.39
176.046795091 	 1.13
179.033884681 	 0.56
191.0702701873 	 6.83
193.0131492389 	 1.12
209.0808348736 	 25.58
221.0808348736 	 4.01
249.0757494957 	 1.04
278.1022985972 	 0.32
386.1598134761 	 0
END IONS

BEGIN IONS
PEPMASS=359.1601
CHARGE=1
MSLEVEL=2
RT=0
SOURCE_INSTRUMENT=qTOF
FILENAME=CCMSLIB00000080099.ms
IONMODE=Positive
ORGANISM=Natural
NAME=MLS001140572-01!1-[2-(4-ethyl-2-oxochromen-7-yl)oxyacetyl]piperidine-4-carboxamide
PI=GNPS
DATACOLLECTOR=GNPS
SMILES=CCc1cc(=O)oc2cc(ccc12)OCC(=O)N1CCC(CC1)C(=N)O
INCHI=InChI=1S/C19H22N2O5/c1-2-12-9-18(23)26-16-10-14(3-4-15(12)16)25-11-17(22)21-7-5-13(6-8-21)19(20)24/h3-4,9-10,13H,2,5-8,11H2,1H3,(H2,20,24)
FORMULA=C19H22N2O5
PUBMED=N/A
SUBMITUSER=BIOADREM
LIBRARYQUALITY=0
SPECTRUMID=CCMSLIB00000080099
SCANS=2293
ID=CCMSLIB00000080099
96.0807752941 	 14.11
98.060039852 	 8.18
105.0698762568 	 2.82
110.060039852 	 10.8
112.0756899162 	 8.34
115.0542261926 	 6.95
116.0620512247 	 3.68
117.0698762568 	 45.77
119.085526321 	 5.85
124.0756899162 	 7.53
125.0835149483 	 13.09
127.0865889535 	 33.13
135.0804409431 	 6.13
141.1022390177 	 30.72
145.0647908789 	 20.49
146.0685931656 	 3.68
147.0440554368 	 6.46
147.0804409431 	 14.48
161.059705501 	 4.7
169.0971536398 	 3.03
173.059705501 	 70.84
174.0635077877 	 6.18
175.0753555652 	 41.8
187.0753555652 	 4.13
191.0702701873 	 8.22
203.0702701873 	 100
217.0859202515 	 4.62
229.0859202515 	 3.44
243.0975475703 	 4.95
244.0968192888 	 10.06
272.0917339109 	 11
286.1437694814 	 40.49
314.1386841035 	 61.64
324.1230340393 	 3.03
342.1335987256 	 10.06
359.1601478271 	 2.33
END IONS

BEGIN IONS
PEPMASS=193.0489
CHARGE=1
MSLEVEL=2
RT=0
SOURCE_INSTRUMENT=qTOF
FILENAME=CCMSLIB00000080100.ms
IONMODE=Positive
ORGANISM=Natural
NAME=MLS002154074-01!
PI=GNPS
DATACOLLECTOR=GNPS
SMILES=COc1cc2ccc(=O)oc2cc1O
INCHI=InChI=1S/C10H8O4/c1-13-9-4-6-2-3-10(12)14-8(6)5-7(9)11/h2-5,11H,1H3
FORMULA=C10H8O4
PUBMED=N/A
SUBMITUSER=BIOADREM
LIBRARYQUALITY=0
SPECTRUMID=CCMSLIB00000080100
SCANS=2294
ID=CCMSLIB00000080100
104.0256657184 	 3.62
109.0647908789 	 3.02
117.0334907505 	 3.62
121.0284053726 	 14.76
122.0362304047 	 70.29
133.0284053726 	 100
137.059705501 	 35.14
149.0233199947 	 5.5
149.059705501 	 3.82
150.0311450268 	 91.75
161.0233199947 	 10.87
178.0260596489 	 75.12
193.0495347452 	 21.06
END IONS

BEGIN IONS
PEPMASS=373.165
CHARGE=1
MSLEVEL=2
RT=0
SOURCE_INSTRUMENT=qTOF
FILENAME=CCMSLIB00000080101.ms
IONMODE=Positive
ORGANISM=Natural
NAME=MLS000876835-01!6-hydroxy-2-(1-hydroxy-3-methylbutyl)-1-methoxy-8-methyl-10H-benzo[b][1,5]benzodioxocin-12-one
PI=GNPS
DATACOLLECTOR=GNPS
SMILES=CC(C)CC(c1ccc2c(c1OC)C(=O)OCc1cc(C)cc(c1O2)O)O
INCHI=InChI=1S/C21H24O6/c1-11(2)7-15(22)14-5-6-17-18(20(14)25-4)21(24)26-10-13-8-12(3)9-16(23)19(13)27-17/h5-6,8-9,11,15,22-23H,7,10H2,1-4H3
FORMULA=C21H24O6
PUBMED=N/A
SUBMITUSER=BIOADREM
LIBRARYQUALITY=0
SPECTRUMID=CCMSLIB00000080101
SCANS=2295
ID=CCMSLIB00000080101
165.0698762568 	 4.12
170.072615911 	 2.98
182.072615911 	 3.04
198.0675305331 	 6.14
227.0702701873 	 5.07
254.0573597773 	 12.48
269.0808348736 	 100
272.0679244636 	 4.56
373.164564503 	 0
END IONS

BEGIN IONS
PEPMASS=369.1828
CHARGE=1
MSLEVEL=2
RT=0
SOURCE_INSTRUMENT=qTOF
FILENAME=CCMSLIB00000080102.ms
IONMODE=Positive
ORGANISM=Natural
NAME=MLS000728610-01!
PI=GNPS
DATACOLLECTOR=GNPS
SMILES=C[C@H]1[C@H]2CN3CC[C@@]4(c5ccccc5N=C4O)[C@@H]3C[C@@H]2C(=CO1)C(=O)OC
INCHI=InChI=1S/C21H24N2O4/c1-12-14-10-23-8-7-21(16-5-3-4-6-17(16)22-20(21)25)18(23)9-13(14)15(11-27-12)19(24)26-2/h3-6,11-14,18H,7-10H2,1-2H3,(H,22,25)/t12-,13-,14+,18-,21+/m0/s1
FORMULA=C21H24N2O4
PUBMED=N/A
SUBMITUSER=BIOADREM
LIBRARYQUALITY=0
SPECTRUMID=CCMSLIB00000080102
SCANS=2296
ID=CCMSLIB00000080102
104.0494751657 	 0.6
105.0698762568 	 0.63
106.0651252299 	 0.5
115.0542261926 	 6.86
117.0573001978 	 6.37
118.0651252299 	 5.01
122.0964253583 	 0.35
124.0393044099 	 6.39
130.0651252299 	 1.74
132.0443897878 	 13.33
132.0807752941 	 21.66
140.0494751657 	 1.42
142.0651252299 	 22.48
145.0522148199 	 1.53
150.0913399804 	 1.42
158.060039852 	 3.02
160.0756899162 	 100
178.0862546025 	 13.83
187.0865889535 	 3.04
201.1022390177 	 9.63
213.1022390177 	 1
239.1178890819 	 0.42
265.1335391461 	 0.55
291.1491892103 	 0.48
309.1597538966 	 8.61
337.1546685187 	 9.36
369.1808832692 	 17.21
END IONS

BEGIN IONS
PEPMASS=233.129
CHARGE=1
MSLEVEL=2
RT=0
SOURCE_INSTRUMENT=qTOF
FILENAME=CCMSLIB00000080103.ms
IONMODE=Positive
ORGANISM=Natural
NAME=MLS001049008-01!2-(dimethylamino)-1-(5-methoxy-1H-indol-3-yl)ethanone
PI=GNPS
DATACOLLECTOR=GNPS
SMILES=CN(C)CC(=O)c1c[nH]c2ccc(cc12)OC
INCHI=InChI=1S/C13H16N2O2/c1-15(2)8-13(16)11-7-14-12-5-4-9(17-3)6-10(11)12/h4-7,14H,8H2,1-3H3
FORMULA=C13H16N2O2
PUBMED=N/A
SUBMITUSER=BIOADREM
LIBRARYQUALITY=0
SPECTRUMID=CCMSLIB00000080103
SCANS=2297
ID=CCMSLIB00000080103
103.0542261926 	 2.1
117.0573001978 	 53.77
128.0494751657 	 1.31
130.0651252299 	 3.82
132.0443897878 	 3.88
144.0443897878 	 1.54
145.0522148199 	 100
160.0756899162 	 75.84
233.1284537682 	 0
END IONS

BEGIN IONS
PEPMASS=514.223
CHARGE=1
MSLEVEL=2
RT=0
SOURCE_INSTRUMENT=qTOF
FILENAME=CCMSLIB00000080104.ms
IONMODE=Positive
ORGANISM=Natural
NAME=MLS001140907-01!1-[3-(4-methyl-2-oxo-6,7,8,9-tetrahydro-[1]benzofuro[3,2-g]chromen-3-yl)propanoyl]-4-phenylpiperidine-4-carboxylic acid
PI=GNPS
DATACOLLECTOR=GNPS
SMILES=Cc1c(CCC(=O)N2CCC(CC2)(c2ccccc2)C(=O)O)c(=O)oc2cc3c(cc12)c1CCCCc1o3
INCHI=InChI=1S/C31H31NO6/c1-19-21(29(34)38-26-18-27-24(17-23(19)26)22-9-5-6-10-25(22)37-27)11-12-28(33)32-15-13-31(14-16-32,30(35)36)20-7-3-2-4-8-20/h2-4,7-8,17-18H,5-6,9-16H2,1H3,(H,35,36)
FORMULA=C31H31NO6
PUBMED=N/A
SUBMITUSER=BIOADREM
LIBRARYQUALITY=0
SPECTRUMID=CCMSLIB00000080104
SCANS=2298
ID=CCMSLIB00000080104
211.1117410715 	 0.27
239.1066556936 	 4.44
254.1287881192 	 0.2
267.1015703157 	 100
282.1237027413 	 3.53
310.1186173634 	 9.7
514.2296243758 	 0.09
END IONS

BEGIN IONS
PEPMASS=348.196
CHARGE=1
MSLEVEL=2
RT=0
SOURCE_INSTRUMENT=qTOF
FILENAME=CCMSLIB00000080105.ms
IONMODE=Positive
ORGANISM=Natural
NAME=MLS000863643-01!3,5-dimethyl-3-(4-methylpent-3-enyl)-11H-pyrano[3,2-a]carbazol-9-ol
PI=GNPS
DATACOLLECTOR=GNPS
SMILES=CC(=CCCC1(C)C=Cc2c3c(cc(C)c2O1)c1ccc(cc1[nH]3)O)C
INCHI=InChI=1S/C23H25NO2/c1-14(2)6-5-10-23(4)11-9-18-21-19(12-15(3)22(18)26-23)17-8-7-16(25)13-20(17)24-21/h6-9,11-13,24-25H,5,10H2,1-4H3
FORMULA=C23H25NO2
PUBMED=N/A
SUBMITUSER=BIOADREM
LIBRARYQUALITY=0
SPECTRUMID=CCMSLIB00000080105
SCANS=2299
ID=CCMSLIB00000080105
183.0678648841 	 6.46
184.0756899162 	 2.72
196.0756899162 	 3.67
197.0835149483 	 3.54
198.0913399804 	 8.34
207.0678648841 	 0.87
210.0913399804 	 3.69
212.0706045383 	 4.59
220.0756899162 	 1.44
221.0835149483 	 5.34
222.0913399804 	 2.83
224.1069900446 	 3.03
225.0784295704 	 1.54
226.0862546025 	 17.79
233.0835149483 	 0.94
234.0913399804 	 1.65
236.0706045383 	 4.55
236.1069900446 	 3.59
237.0784295704 	 7.31
238.1226401088 	 2.31
247.0991650125 	 3.87
248.1069900446 	 1.94
249.0784295704 	 5.57
249.1148150767 	 1.9
250.0862546025 	 10.28
251.0940796346 	 5.44
262.0862546025 	 1.15
262.1226401088 	 0.78
263.0940796346 	 4.1
264.1019046667 	 100
266.1175547309 	 9.14
277.1097296988 	 2.96
278.1175547309 	 2.89
290.1175547309 	 1.28
292.1332047951 	 3.93
348.1958050519 	 0
END IONS

BEGIN IONS
PEPMASS=473.2088
CHARGE=1
MSLEVEL=2
RT=0
SOURCE_INSTRUMENT=qTOF
FILENAME=CCMSLIB00000080106.ms
IONMODE=Positive
ORGANISM=Natural
NAME=MLS001160410-01!
PI=GNPS
DATACOLLECTOR=GNPS
SMILES=Cc1c(C)oc2cc3c(cc12)c(C)c(CCC(=O)N1C[C@H]2C[C@@H](C1)c1cccc(=O)n1C2)c(=O)o3
INCHI=InChI=1S/C28H28N2O5/c1-15-17(3)34-24-11-25-22(10-21(15)24)16(2)20(28(33)35-25)7-8-26(31)29-12-18-9-19(14-29)23-5-4-6-27(32)30(23)13-18/h4-6,10-11,18-19H,7-9,12-14H2,1-3H3/t18-,19+/m1/s1
FORMULA=C28H28N2O5
PUBMED=N/A
SUBMITUSER=BIOADREM
LIBRARYQUALITY=0
SPECTRUMID=CCMSLIB00000080106
SCANS=2300
ID=CCMSLIB00000080106
129.0698762568 	 0.28
141.0698762568 	 0.48
142.0777012889 	 0.4
143.085526321 	 0.26
148.0756899162 	 1.21
154.0777012889 	 0.3
157.0647908789 	 0.27
157.1011763852 	 0.44
167.085526321 	 0.22
169.1011763852 	 0.24
170.072615911 	 0.26
185.0960910073 	 1.5
191.1178890819 	 3.67
196.0882659752 	 0.26
198.0675305331 	 0.57
199.1117410715 	 0.35
213.0910056294 	 8.85
214.0948079161 	 1.6
227.1066556936 	 0.86
241.0859202515 	 100
242.0897225382 	 25.65
243.0916743314 	 2.26
255.1015703157 	 22.3
256.1053726024 	 4.19
257.1073243956 	 0.55
283.0964849378 	 41.9
285.1022390177 	 0.9
473.2070980197 	 1.55
END IONS

BEGIN IONS
PEPMASS=352.2031
CHARGE=1
MSLEVEL=2
RT=0
SOURCE_INSTRUMENT=qTOF
FILENAME=CCMSLIB00000080107.ms
IONMODE=Positive
ORGANISM=Natural
NAME=MLS001142775-01!
PI=GNPS
DATACOLLECTOR=GNPS
SMILES=CC(C)c1ccc(cc1)NC(=O)N1C[C@H]2C[C@@H](C1)c1cccc(=O)n1C2
INCHI=InChI=1S/C21H25N3O2/c1-14(2)16-6-8-18(9-7-16)22-21(26)23-11-15-10-17(13-23)19-4-3-5-20(25)24(19)12-15/h3-9,14-15,17H,10-13H2,1-2H3,(H,22,26)/t15-,17+/m1/s1
FORMULA=C21H25N3O2
PUBMED=N/A
SUBMITUSER=BIOADREM
LIBRARYQUALITY=0
SPECTRUMID=CCMSLIB00000080107
SCANS=2301
ID=CCMSLIB00000080107
96.0443897878 	 1.07
104.0494751657 	 1.31
105.0698762568 	 1.53
106.0651252299 	 3.17
107.085526321 	 0.63
108.0443897878 	 2.26
115.0542261926 	 1.22
116.0494751657 	 1.16
117.0573001978 	 3.5
118.0651252299 	 2.1
120.0807752941 	 0.88
122.060039852 	 0.87
128.0494751657 	 0.75
129.0698762568 	 1.21
130.0651252299 	 5.4
131.072950262 	 3.69
132.0443897878 	 8.12
132.0807752941 	 4.05
133.0522148199 	 8.78
134.060039852 	 9.19
134.0964253583 	 2.63
142.0651252299 	 2.47
144.0807752941 	 2.93
145.0522148199 	 1.13
146.060039852 	 54.25
148.0756899162 	 34.98
154.0651252299 	 2.49
156.0807752941 	 3.56
158.060039852 	 13.8
159.0678648841 	 8.84
160.0756899162 	 97.07
162.0913399804 	 4.67
171.0916743314 	 0.88
172.0756899162 	 13.74
174.0913399804 	 45.53
188.0706045383 	 4.47
189.1022390177 	 35.86
217.0971536398 	 100
352.2019530623 	 5.27
END IONS

BEGIN IONS
PEPMASS=381.1453
CHARGE=1
MSLEVEL=2
RT=0
SOURCE_INSTRUMENT=qTOF
FILENAME=CCMSLIB00000080108.ms
IONMODE=Positive
ORGANISM=Natural
NAME=MLS001140564-01!1-[2-(6-oxobenzo[c]chromen-3-yl)oxyacetyl]piperidine-4-carboxamide
PI=GNPS
DATACOLLECTOR=GNPS
SMILES=c1ccc2c(c1)c1ccc(cc1oc2=O)OCC(=O)N1CCC(CC1)C(=N)O
INCHI=InChI=1S/C21H20N2O5/c22-20(25)13-7-9-23(10-8-13)19(24)12-27-14-5-6-16-15-3-1-2-4-17(15)21(26)28-18(16)11-14/h1-6,11,13H,7-10,12H2,(H2,22,25)
FORMULA=C21H20N2O5
PUBMED=N/A
SUBMITUSER=BIOADREM
LIBRARYQUALITY=0
SPECTRUMID=CCMSLIB00000080108
SCANS=2302
ID=CCMSLIB00000080108
96.0807752941 	 3.45
97.0886003262 	 2.05
98.060039852 	 3.5
110.060039852 	 3.61
111.0678648841 	 2.53
112.0756899162 	 11.12
115.0542261926 	 3.61
124.0756899162 	 7.86
125.0835149483 	 8.96
126.0913399804 	 5.11
139.0542261926 	 25.41
140.0580284793 	 4.36
141.0698762568 	 7.05
141.1022390177 	 17.71
143.0491408147 	 2.1
152.0620512247 	 4.39
153.0698762568 	 22.66
154.0736785435 	 5.49
155.0491408147 	 3.31
167.0491408147 	 75.37
168.0529431014 	 10.74
169.0647908789 	 14.83
170.072615911 	 5.01
195.0440554368 	 29.23
197.059705501 	 44.52
198.0635077877 	 5.57
212.046795091 	 9.23
223.0502034472 	 26.92
224.0553484046 	 4.33
225.0546201231 	 100
226.0584224098 	 14.83
237.0910056294 	 2.18
253.0495347452 	 5.95
267.0889942567 	 2.99
279.0975475703 	 2.29
282.0760838467 	 5.33
294.0760838467 	 10.44
295.0839088788 	 3.07
308.1281194172 	 17.17
309.1359444493 	 4.04
336.1230340393 	 21.1
363.1339330766 	 2.31
381.1444977629 	 1.88
END IONS

BEGIN IONS
PEPMASS=467.2671
CHARGE=1
MSLEVEL=2
RT=0
SOURCE_INSTRUMENT=qTOF
FILENAME=CCMSLIB00000080109.ms
IONMODE=Positive
ORGANISM=Natural
NAME=MLS001140519-01!1-[(2S)-2-aminopropanoyl]-N-[(2S)-1-[(4-methoxyphenyl)methylamino]-1-oxo-3-phenylpropan-2-yl]piperidine-4-carboxamide
PI=GNPS
DATACOLLECTOR=GNPS
SMILES=C[C@@H](C(=O)N1CCC(CC1)C(=N[C@@H](Cc1ccccc1)C(=NCc1ccc(cc1)OC)O)O)N
INCHI=InChI=1S/C26H34N4O4/c1-18(27)26(33)30-14-12-21(13-15-30)24(31)29-23(16-19-6-4-3-5-7-19)25(32)28-17-20-8-10-22(34-2)11-9-20/h3-11,18,21,23H,12-17,27H2,1-2H3,(H,28,32)(H,29,31)/t18-,23-/m0/s1
FORMULA=C26H34N4O4
PUBMED=N/A
SUBMITUSER=BIOADREM
LIBRARYQUALITY=0
SPECTRUMID=CCMSLIB00000080109
SCANS=2303
ID=CCMSLIB00000080109
106.0413157826 	 0.54
107.0491408147 	 0.54
112.0756899162 	 36.15
121.0647908789 	 100
129.0698762568 	 0.72
132.0807752941 	 0.27
138.0913399804 	 0.34
146.0964253583 	 4.07
147.1042503904 	 0.9
166.0862546025 	 0.53
231.1491892103 	 6.65
259.1441038324 	 4.52
285.1597538966 	 3.13
302.1863029981 	 5.02
330.1812176202 	 2.57
378.2176031265 	 0.31
396.2281678128 	 2.99
467.2652816006 	 0.78
END IONS

BEGIN IONS
PEPMASS=293.129
CHARGE=1
MSLEVEL=2
RT=0
SOURCE_INSTRUMENT=qTOF
FILENAME=CCMSLIB00000080110.ms
IONMODE=Positive
ORGANISM=Natural
NAME=MLS000728638-01!2-(1H-indol-3-yl)-2-oxo-N-[(1R)-1-phenylethyl]acetamide
PI=GNPS
DATACOLLECTOR=GNPS
SMILES=C[C@H](c1ccccc1)NC(=O)C(=O)c1c[nH]c2ccccc12
INCHI=InChI=1S/C18H16N2O2/c1-12(13-7-3-2-4-8-13)20-18(22)17(21)15-11-19-16-10-6-5-9-14(15)16/h2-12,19H,1H3,(H,20,22)/t12-/m1/s1
FORMULA=C18H16N2O2
PUBMED=N/A
SUBMITUSER=BIOADREM
LIBRARYQUALITY=0
SPECTRUMID=CCMSLIB00000080110
SCANS=2304
ID=CCMSLIB00000080110
105.0698762568 	 70.73
116.0494751657 	 12.33
144.0443897878 	 100
198.0787639214 	 1.91
204.0807752941 	 5.54
232.0756899162 	 3.24
233.0835149483 	 13.79
250.1100640498 	 2.17
293.1284537682 	 0
END IONS

BEGIN IONS
PEPMASS=346.129
CHARGE=1
MSLEVEL=2
RT=0
SOURCE_INSTRUMENT=qTOF
FILENAME=CCMSLIB00000080111.ms
IONMODE=Positive
ORGANISM=Natural
NAME=MLS001139298-01!(2S)-1-[2-(4-ethyl-2-oxochromen-7-yl)oxyacetyl]pyrrolidine-2-carboxylic acid
PI=GNPS
DATACOLLECTOR=GNPS
SMILES=CCc1cc(=O)oc2cc(ccc12)OCC(=O)N1CCC[C@H]1C(=O)O
INCHI=InChI=1S/C18H19NO6/c1-2-11-8-17(21)25-15-9-12(5-6-13(11)15)24-10-16(20)19-7-3-4-14(19)18(22)23/h5-6,8-9,14H,2-4,7,10H2,1H3,(H,22,23)/t14-/m0/s1
FORMULA=C18H19NO6
PUBMED=N/A
SUBMITUSER=BIOADREM
LIBRARYQUALITY=0
SPECTRUMID=CCMSLIB00000080111
SCANS=2305
ID=CCMSLIB00000080111
98.060039852 	 9.48
100.0756899162 	 12.98
105.0698762568 	 7.01
107.0491408147 	 4.94
115.0542261926 	 16.29
117.0698762568 	 100
119.085526321 	 13.18
128.0706045383 	 11.5
129.0698762568 	 6.17
131.0491408147 	 4
135.0804409431 	 10.46
136.0882659752 	 2.71
145.0647908789 	 46.25
147.0440554368 	 15.89
147.0804409431 	 22.66
149.059705501 	 3.75
160.0518804689 	 4.24
162.0675305331 	 9.28
173.059705501 	 98.67
175.0389700589 	 9.67
175.0753555652 	 47.63
187.1117410715 	 2.71
203.0702701873 	 98.08
243.1101236293 	 3.55
272.1281194172 	 28.87
300.1230340393 	 5.08
346.1285133477 	 0
END IONS

BEGIN IONS
PEPMASS=477.214
CHARGE=1
MSLEVEL=2
RT=0
SOURCE_INSTRUMENT=qTOF
FILENAME=CCMSLIB00000080112.ms
IONMODE=Positive
ORGANISM=Natural
NAME=MLS001142423-01!
PI=GNPS
DATACOLLECTOR=GNPS
SMILES=C[C@@H](C(=NCc1ccccc1OC)O)N1C(=O)[C@]2(C)c3c(CCN2C1=O)c1cc(ccc1[nH]3)OC
INCHI=InChI=1S/C26H28N4O5/c1-15(23(31)27-14-16-7-5-6-8-21(16)35-4)30-24(32)26(2)22-18(11-12-29(26)25(30)33)19-13-17(34-3)9-10-20(19)28-22/h5-10,13,15,28H,11-12,14H2,1-4H3,(H,27,31)/t15-,26-/m0/s1
FORMULA=C26H28N4O5
PUBMED=N/A
SUBMITUSER=BIOADREM
LIBRARYQUALITY=0
SPECTRUMID=CCMSLIB00000080112
SCANS=2306
ID=CCMSLIB00000080112
121.0647908789 	 100
123.0651848094 	 1.4
174.0913399804 	 3.54
184.0604337825 	 0.73
186.0913399804 	 2.34
198.0886599057 	 2.19
200.1069900446 	 0.7
213.1022390177 	 3.39
214.1073839751 	 1.78
215.1152090072 	 9.24
225.099558943 	 0.9
226.0736785435 	 0.8
227.1178890819 	 1.12
241.0971536398 	 10.01
242.0964253583 	 1.9
243.1101236293 	 2.64
253.0971536398 	 1.57
267.112803704 	 0.78
268.1444381834 	 0.69
269.0920682619 	 2.32
270.0913399804 	 0.71
270.1237027413 	 0.7
282.1210226666 	 1.57
283.1315277734 	 0.86
284.1393528055 	 43.38
285.1444977629 	 8.68
292.1332047951 	 0.72
296.1393528055 	 1.87
297.1444977629 	 1.04
310.1186173634 	 2.21
312.1342674276 	 10
313.1335391461 	 3.53
320.1519288645 	 0.78
324.125714114 	 2.4
325.1295164007 	 1.2
335.1754039608 	 1.75
339.1491892103 	 0.73
351.1451664649 	 0.69
361.1632218323 	 1.26
369.1557311512 	 2.15
389.1495831408 	 1.19
389.1733925881 	 0.76
404.1968676844 	 6.58
432.1917823065 	 1.08
477.2132460301 	 0
END IONS

BEGIN IONS
PEPMASS=230.1031
CHARGE=1
MSLEVEL=2
RT=0
SOURCE_INSTRUMENT=qTOF
FILENAME=CCMSLIB00000080113.ms
IONMODE=Positive
ORGANISM=Natural
NAME=MLS001048873-01!N-(furan-2-ylmethyl)-9-methylpurin-6-amine
PI=GNPS
DATACOLLECTOR=GNPS
SMILES=Cn1cnc2c(NCc3ccco3)ncnc12
INCHI=InChI=1S/C11H11N5O/c1-16-7-15-9-10(13-6-14-11(9)16)12-5-8-3-2-4-17-8/h2-4,6-7H,5H2,1H3,(H,12,13,14)
FORMULA=C11H11N5O
PUBMED=N/A
SUBMITUSER=BIOADREM
LIBRARYQUALITY=0
SPECTRUMID=CCMSLIB00000080113
SCANS=2307
ID=CCMSLIB00000080113
106.0413157826 	 14.2
108.0569658468 	 5.62
133.0522148199 	 93.01
135.0678648841 	 17.94
150.0787639214 	 15.81
159.0678648841 	 2.39
160.0756899162 	 2.84
162.0787639214 	 100
176.0944139856 	 1.2
187.0852462828 	 3.85
202.1087213791 	 11.62
212.0930713149 	 1.27
230.1036360012 	 2.39
END IONS

BEGIN IONS
PEPMASS=507.2647
CHARGE=1
MSLEVEL=2
RT=0
SOURCE_INSTRUMENT=qTOF
FILENAME=CCMSLIB00000080114.ms
IONMODE=Positive
ORGANISM=Natural
NAME=MLS001142660-01!1-[1-[(2S)-3-methyl-2-[(4-methylphenyl)sulfonylamino]pentanoyl]piperidine-4-carbonyl]piperidine-4-carboxamide
PI=GNPS
DATACOLLECTOR=GNPS
SMILES=CCC(C)[C@@H](C(=O)N1CCC(CC1)C(=O)N1CCC(CC1)C(=N)O)NS(=O)(=O)c1ccc(C)cc1
INCHI=InChI=1S/C25H38N4O5S/c1-4-18(3)22(27-35(33,34)21-7-5-17(2)6-8-21)25(32)29-15-11-20(12-16-29)24(31)28-13-9-19(10-14-28)23(26)30/h5-8,18-20,22,27H,4,9-16H2,1-3H3,(H2,26,30)/t18?,22-/m0/s1
FORMULA=C25H38N4O5S
PUBMED=N/A
SUBMITUSER=BIOADREM
LIBRARYQUALITY=0
SPECTRUMID=CCMSLIB00000080114
SCANS=2308
ID=CCMSLIB00000080114
107.0491408147 	 0.76
110.060039852 	 1.81
111.0916743314 	 0.76
112.0756899162 	 73.94
129.1022390177 	 94.51
139.0212115047 	 2.15
140.0706045383 	 0.75
155.0161261268 	 100
172.0426752283 	 3.36
184.0426752283 	 21.6
223.1481265778 	 3.91
240.1052754851 	 35.88
240.1746756793 	 87.4
267.1525600287 	 1.42
351.1736894013 	 0.99
397.1791687097 	 1.22
507.2635670411 	 1.22
END IONS

BEGIN IONS
PEPMASS=385.1755
CHARGE=1
MSLEVEL=2
RT=0
SOURCE_INSTRUMENT=qTOF
FILENAME=CCMSLIB00000080115.ms
IONMODE=Positive
ORGANISM=Natural
NAME=MLS001159932-01!
PI=GNPS
DATACOLLECTOR=GNPS
SMILES=COc1cc(cc(c1OC)OC)C(=O)N1C[C@H]2C[C@@H](C1)c1cccc(=O)n1C2
INCHI=InChI=1S/C21H24N2O5/c1-26-17-8-14(9-18(27-2)20(17)28-3)21(25)22-10-13-7-15(12-22)16-5-4-6-19(24)23(16)11-13/h4-6,8-9,13,15H,7,10-12H2,1-3H3/t13-,15+/m1/s1
FORMULA=C21H24N2O5
PUBMED=N/A
SUBMITUSER=BIOADREM
LIBRARYQUALITY=0
SPECTRUMID=CCMSLIB00000080115
SCANS=2309
ID=CCMSLIB00000080115
95.0491408147 	 0.61
96.0569658468 	 0.63
107.0127553084 	 0.39
108.0569658468 	 0.56
109.0284053726 	 0.78
109.0647908789 	 1.98
111.0804409431 	 0.77
113.0233199947 	 0.52
113.059705501 	 0.47
121.0284053726 	 0.64
122.0362304047 	 2.83
124.0518804689 	 4.54
128.046795091 	 0.44
134.0362304047 	 0.31
137.0233199947 	 1.88
139.0753555652 	 8.16
141.0182346168 	 0.41
151.0389700589 	 2.47
152.046795091 	 14.65
156.0417097131 	 1.58
167.0702701873 	 6.49
195.0651848094 	 100
385.1757978913 	 1.6
END IONS

BEGIN IONS
PEPMASS=439.198
CHARGE=1
MSLEVEL=2
RT=0
SOURCE_INSTRUMENT=qTOF
FILENAME=CCMSLIB00000080116.ms
IONMODE=Positive
ORGANISM=Natural
NAME=MLS001159163-01!(2S)-2-[[(2S)-3-methyl-2-[(3-oxo-2,4-dihydroquinoxaline-1-carbonyl)amino]butanoyl]amino]-3-phenylpropanoic acid
PI=GNPS
DATACOLLECTOR=GNPS
SMILES=CC(C)[C@@H](C(=N[C@@H](Cc1ccccc1)C(=O)O)O)N=C(N1CC(=Nc2ccccc12)O)O
INCHI=InChI=1S/C23H26N4O5/c1-14(2)20(21(29)25-17(22(30)31)12-15-8-4-3-5-9-15)26-23(32)27-13-19(28)24-16-10-6-7-11-18(16)27/h3-11,14,17,20H,12-13H2,1-2H3,(H,24,28)(H,25,29)(H,26,32)(H,30,31)/t17-,20-/m0/s1
FORMULA=C23H26N4O5
PUBMED=N/A
SUBMITUSER=BIOADREM
LIBRARYQUALITY=0
SPECTRUMID=CCMSLIB00000080116
SCANS=2310
ID=CCMSLIB00000080116
98.060039852 	 0.9
119.060374203 	 15.59
120.0807752941 	 8.71
121.0760242672 	 24.6
133.0158293136 	 0.48
146.060039852 	 2.95
147.0552888251 	 100
149.0709388893 	 5.45
174.1277254867 	 0.63
175.0502034472 	 42.76
201.1022390177 	 1.5
203.0689275166 	 0.59
217.1335391461 	 1.82
218.1287881192 	 4.44
229.0971536398 	 1.61
230.1049786719 	 0.86
245.1284537682 	 6.75
246.1237027413 	 56.71
275.1264423955 	 0.73
439.1975959659 	 0
END IONS

BEGIN IONS
PEPMASS=250.0879
CHARGE=1
MSLEVEL=2
RT=0
SOURCE_INSTRUMENT=qTOF
FILENAME=CCMSLIB00000080117.ms
IONMODE=Positive
ORGANISM=Natural
NAME=MLS001048869-01!2-anilinonaphthalene-1,4-dione
PI=GNPS
DATACOLLECTOR=GNPS
SMILES=c1ccc(cc1)NC1=CC(=O)c2ccccc2C1=O
INCHI=InChI=1S/C16H11NO2/c18-15-10-14(17-11-6-2-1-3-7-11)16(19)13-9-5-4-8-12(13)15/h1-10,17H
FORMULA=C16H11NO2
PUBMED=N/A
SUBMITUSER=BIOADREM
LIBRARYQUALITY=0
SPECTRUMID=CCMSLIB00000080117
SCANS=2311
ID=CCMSLIB00000080117
101.0385761284 	 5.72
102.0464011605 	 2.89
103.0542261926 	 8.16
104.0494751657 	 4.92
105.0334907505 	 100
116.0494751657 	 35.51
117.0573001978 	 7.59
118.0651252299 	 4.71
119.0491408147 	 3.85
129.0334907505 	 54.55
131.0491408147 	 3.82
133.0284053726 	 29.33
144.0443897878 	 46.28
146.060039852 	 4.63
147.0440554368 	 93.42
151.0542261926 	 5.53
153.0698762568 	 5.16
162.0549544741 	 30.16
165.0698762568 	 14.6
166.0777012889 	 10.56
176.0620512247 	 17.86
177.0698762568 	 20.11
181.0647908789 	 9.47
192.0807752941 	 6.82
193.0886003262 	 13.96
194.0964253583 	 19.2
196.0756899162 	 7.65
203.072950262 	 20.91
204.0807752941 	 84.81
207.0678648841 	 18.8
220.0756899162 	 37.57
221.0835149483 	 12.91
222.0913399804 	 72.57
232.0756899162 	 51.66
233.0835149483 	 33.74
249.0784295704 	 46.82
250.0862546025 	 143.74
END IONS

BEGIN IONS
PEPMASS=445.2237
CHARGE=1
MSLEVEL=2
RT=0
SOURCE_INSTRUMENT=qTOF
FILENAME=CCMSLIB00000080118.ms
IONMODE=Positive
ORGANISM=Natural
NAME=MLS001142433-01!
PI=GNPS
DATACOLLECTOR=GNPS
SMILES=COc1cccc(c1)c1c2c(cc(C(=O)NCCCN3CCOCC3)[nH]1)c1ccccc1n2
INCHI=InChI=1S/C26H28N4O3/c1-32-19-7-4-6-18(16-19)24-25-21(20-8-2-3-9-22(20)28-25)17-23(29-24)26(31)27-10-5-11-30-12-14-33-15-13-30/h2-4,6-9,16-17,29H,5,10-15H2,1H3,(H,27,31)
FORMULA=C26H28N4O3
PUBMED=N/A
SUBMITUSER=BIOADREM
LIBRARYQUALITY=0
SPECTRUMID=CCMSLIB00000080118
SCANS=2312
ID=CCMSLIB00000080118
230.0838492993 	 5.59
242.0838492993 	 1.56
255.0916743314 	 0.29
258.0787639214 	 8.56
273.1022390177 	 100
291.112803704 	 59.15
300.1144807257 	 6.22
301.0971536398 	 17.83
319.1077183261 	 17.95
330.125045412 	 17.02
358.1563455404 	 83.55
445.2234167859 	 5.79
END IONS

BEGIN IONS
PEPMASS=371.1614
CHARGE=1
MSLEVEL=2
RT=0
SOURCE_INSTRUMENT=qTOF
FILENAME=CCMSLIB00000080119.ms
IONMODE=Positive
ORGANISM=Natural
NAME=MLS001140570-01!1-[2-[(4-oxo-2,3-dihydro-1H-cyclopenta[c]chromen-7-yl)oxy]acetyl]piperidine-4-carboxamide
PI=GNPS
DATACOLLECTOR=GNPS
SMILES=C1Cc2c3ccc(cc3oc(=O)c2C1)OCC(=O)N1CCC(CC1)C(=N)O
INCHI=InChI=1S/C20H22N2O5/c21-19(24)12-6-8-22(9-7-12)18(23)11-26-13-4-5-15-14-2-1-3-16(14)20(25)27-17(15)10-13/h4-5,10,12H,1-3,6-9,11H2,(H2,21,24)
FORMULA=C20H22N2O5
PUBMED=N/A
SUBMITUSER=BIOADREM
LIBRARYQUALITY=0
SPECTRUMID=CCMSLIB00000080119
SCANS=2313
ID=CCMSLIB00000080119
96.0807752941 	 16.21
97.0886003262 	 4.5
98.060039852 	 5.94
110.060039852 	 9.25
112.0756899162 	 15.74
115.0542261926 	 3.78
124.0756899162 	 13.31
125.0835149483 	 9.2
127.0865889535 	 50.84
128.0620512247 	 18.56
129.0698762568 	 30.32
130.0736785435 	 2.87
131.085526321 	 7.54
133.0647908789 	 3.95
144.0569658468 	 4.56
145.0647908789 	 5.39
147.0440554368 	 3.95
147.0804409431 	 3.09
156.0569658468 	 2.46
157.0647908789 	 28.09
158.0685931656 	 2.68
159.0804409431 	 17.98
169.0647908789 	 4.2
171.0804409431 	 2.46
174.0675305331 	 7.37
185.059705501 	 54.76
186.0635077877 	 7.35
187.0753555652 	 58.27
188.0791578519 	 10.77
202.0624451552 	 8.75
203.0702701873 	 5.39
215.0702701873 	 100
216.074072474 	 17.34
243.0651848094 	 12.12
255.1015703157 	 3.76
256.0968192888 	 8.89
272.0917339109 	 6.46
283.0964849378 	 6.71
284.0917339109 	 12.23
298.1437694814 	 22.51
326.1386841035 	 39.33
354.1335987256 	 10.3
371.1601478271 	 6.1
END IONS

BEGIN IONS
PEPMASS=257.0805
CHARGE=1
MSLEVEL=2
RT=0
SOURCE_INSTRUMENT=qTOF
FILENAME=CCMSLIB00000080120.ms
IONMODE=Positive
ORGANISM=Natural
NAME=MLS000697612-01!
PI=GNPS
DATACOLLECTOR=GNPS
SMILES=c1cc(ccc1C1CC(=O)c2ccc(cc2O1)O)O
INCHI=InChI=1S/C15H12O4/c16-10-3-1-9(2-4-10)14-8-13(18)12-6-5-11(17)7-15(12)19-14/h1-7,14,16-17H,8H2
FORMULA=C15H12O4
PUBMED=N/A
SUBMITUSER=BIOADREM
LIBRARYQUALITY=0
SPECTRUMID=CCMSLIB00000080120
SCANS=2314
ID=CCMSLIB00000080120
96.0205803405 	 6.37
109.0284053726 	 5.21
117.0334907505 	 5.79
119.0491408147 	 13.67
127.0542261926 	 6.03
137.0233199947 	 100
146.0362304047 	 6.95
147.0440554368 	 21.78
148.0518804689 	 9.62
155.085526321 	 8.23
176.046795091 	 4.63
213.0546201231 	 10.2
257.0808348736 	 4.4
END IONS

BEGIN IONS
PEPMASS=467.229
CHARGE=1
MSLEVEL=2
RT=0
SOURCE_INSTRUMENT=qTOF
FILENAME=CCMSLIB00000080121.ms
IONMODE=Positive
ORGANISM=Natural
NAME=MLS001158378-01!(2S)-2-[[(2S)-3-methyl-2-[[(2S)-3-oxo-2-propan-2-yl-2,4-dihydroquinoxaline-1-carbonyl]amino]butanoyl]amino]-2-phenylacetic acid
PI=GNPS
DATACOLLECTOR=GNPS
SMILES=CC(C)[C@@H](C(=N[C@@H](c1ccccc1)C(=O)O)O)N=C(N1c2ccccc2N=C([C@@H]1C(C)C)O)O
INCHI=InChI=1S/C25H30N4O5/c1-14(2)19(22(30)27-20(24(32)33)16-10-6-5-7-11-16)28-25(34)29-18-13-9-8-12-17(18)26-23(31)21(29)15(3)4/h5-15,19-21H,1-4H3,(H,26,31)(H,27,30)(H,28,34)(H,32,33)/t19-,20-,21-/m0/s1
FORMULA=C25H30N4O5
PUBMED=N/A
SUBMITUSER=BIOADREM
LIBRARYQUALITY=0
SPECTRUMID=CCMSLIB00000080121
SCANS=2315
ID=CCMSLIB00000080121
106.0287397236 	 1.68
106.0651252299 	 2.02
107.060374203 	 4.44
108.0681992351 	 5.7
117.0447241388 	 1.07
119.060374203 	 27.06
132.0443897878 	 4.25
133.0396387609 	 27.47
135.0552888251 	 27.13
146.0964253583 	 3.12
147.0552888251 	 100
148.0604337825 	 10.43
161.034553383 	 29.81
161.0709388893 	 6.03
163.1229744598 	 92.41
171.0916743314 	 0.76
173.1073243956 	 2.33
175.0502034472 	 2.77
175.0865889535 	 9.18
176.0917339109 	 0.93
189.1022390177 	 31.86
191.1178890819 	 3.35
199.0865889535 	 0.59
217.0971536398 	 69.07
231.112803704 	 3.68
260.1757383118 	 13.12
261.1808832692 	 4.27
271.1441038324 	 0.58
288.1706529339 	 43.42
289.1757978913 	 10.55
467.2288960943 	 0
END IONS

BEGIN IONS
PEPMASS=190.123
CHARGE=1
MSLEVEL=2
RT=0
SOURCE_INSTRUMENT=qTOF
FILENAME=CCMSLIB00000080122.ms
IONMODE=Positive
ORGANISM=Natural
NAME=MLS000728631-01!
PI=GNPS
DATACOLLECTOR=GNPS
SMILES=CCC1(CC)c2ccccc2N=C1O
INCHI=InChI=1S/C12H15NO/c1-3-12(4-2)9-7-5-6-8-10(9)13-11(12)14/h5-8H,3-4H2,1-2H3,(H,13,14)
FORMULA=C12H15NO
PUBMED=N/A
SUBMITUSER=BIOADREM
LIBRARYQUALITY=0
SPECTRUMID=CCMSLIB00000080122
SCANS=2316
ID=CCMSLIB00000080122
103.0542261926 	 1.11
104.0494751657 	 1.75
106.0651252299 	 1.68
115.0542261926 	 1.9
117.0573001978 	 2.87
118.0651252299 	 5.01
128.0494751657 	 14.81
130.0651252299 	 2.34
133.0522148199 	 3.45
139.0542261926 	 0.36
142.0651252299 	 1
143.072950262 	 3.48
146.060039852 	 100
156.0807752941 	 5.3
157.0886003262 	 1.88
160.0756899162 	 0.9
161.0835149483 	 12.4
172.1120754225 	 2.56
190.1226401088 	 0
END IONS

BEGIN IONS
PEPMASS=381.109
CHARGE=1
MSLEVEL=2
RT=0
SOURCE_INSTRUMENT=qTOF
FILENAME=CCMSLIB00000080123.ms
IONMODE=Positive
ORGANISM=Natural
NAME=MLS001140206-01!(2S)-N-(1,3-benzodioxol-5-yl)-5-oxo-1-(3-oxo-1H-2-benzofuran-1-yl)pyrrolidine-2-carboxamide
PI=GNPS
DATACOLLECTOR=GNPS
SMILES=c1ccc2c(c1)C(N1[C@@H](CCC1=O)C(=Nc1ccc3c(c1)OCO3)O)OC2=O
INCHI=InChI=1S/C20H16N2O6/c23-17-8-6-14(18(24)21-11-5-7-15-16(9-11)27-10-26-15)22(17)19-12-3-1-2-4-13(12)20(25)28-19/h1-5,7,9,14,19H,6,8,10H2,(H,21,24)/t14-,19?/m0/s1
FORMULA=C20H16N2O6
PUBMED=N/A
SUBMITUSER=BIOADREM
LIBRARYQUALITY=0
SPECTRUMID=CCMSLIB00000080123
SCANS=2317
ID=CCMSLIB00000080123
105.0334907505 	 15.34
133.0284053726 	 100
142.0651252299 	 0.62
170.060039852 	 1.22
198.0549544741 	 0.93
224.0706045383 	 0.66
252.0655191604 	 10.59
381.1081122566 	 0
END IONS

BEGIN IONS
PEPMASS=510.2632
CHARGE=1
MSLEVEL=2
RT=0
SOURCE_INSTRUMENT=qTOF
FILENAME=CCMSLIB00000080124.ms
IONMODE=Positive
ORGANISM=Natural
NAME=MLS001142600-01!2-[[1-[(2S)-3-methyl-2-[(4-methylphenyl)sulfonylamino]butanoyl]piperidine-4-carbonyl]amino]heptanoic acid
PI=GNPS
DATACOLLECTOR=GNPS
SMILES=CCCCCC(C(=O)O)N=C(C1CCN(CC1)C(=O)[C@H](C(C)C)NS(=O)(=O)c1ccc(C)cc1)O
INCHI=InChI=1S/C25H39N3O6S/c1-5-6-7-8-21(25(31)32)26-23(29)19-13-15-28(16-14-19)24(30)22(17(2)3)27-35(33,34)20-11-9-18(4)10-12-20/h9-12,17,19,21-22,27H,5-8,13-16H2,1-4H3,(H,26,29)(H,31,32)/t21?,22-/m0/s1
FORMULA=C25H39N3O6S
PUBMED=N/A
SUBMITUSER=BIOADREM
LIBRARYQUALITY=0
SPECTRUMID=CCMSLIB00000080124
SCANS=2318
ID=CCMSLIB00000080124
100.1120754225 	 3.65
112.0756899162 	 77.92
130.0862546025 	 1.85
139.0212115047 	 6.32
141.0209146915 	 0.51
146.1175547309 	 1.75
155.0161261268 	 100
156.0205803405 	 10.96
159.0314793778 	 0.7
166.1226401088 	 0.68
211.1804893387 	 5.64
226.0896254209 	 60.53
228.0841461125 	 2.94
229.0971536398 	 0.77
237.163776642 	 0.92
239.1754039608 	 1.28
240.1832289929 	 0.72
255.1743413283 	 1.13
257.1859686471 	 29.94
337.1580393371 	 2.2
365.1529539592 	 1.22
464.2577533817 	 2.17
510.2632326901 	 0.12
END IONS

BEGIN IONS
PEPMASS=189.1401
CHARGE=1
MSLEVEL=2
RT=0
SOURCE_INSTRUMENT=qTOF
FILENAME=CCMSLIB00000080125.ms
IONMODE=Positive
ORGANISM=Natural
NAME=MLS000737867-01!1,2,3,4,6,7,8,9-octahydrophenazine
PI=GNPS
DATACOLLECTOR=GNPS
SMILES=C1CCc2c(C1)nc1CCCCc1n2
INCHI=InChI=1S/C12H16N2/c1-2-6-10-9(5-1)13-11-7-3-4-8-12(11)14-10/h1-8H2
FORMULA=C12H16N2
PUBMED=N/A
SUBMITUSER=BIOADREM
LIBRARYQUALITY=0
SPECTRUMID=CCMSLIB00000080125
SCANS=2319
ID=CCMSLIB00000080125
95.060374203 	 0.52
106.0651252299 	 3.36
107.072950262 	 4.79
108.0807752941 	 2.37
117.0573001978 	 0.69
117.0698762568 	 1.16
118.0651252299 	 1.15
119.060374203 	 2.28
122.0838492993 	 0.38
130.0651252299 	 0.7
131.060374203 	 0.77
132.0681992351 	 2.2
133.0760242672 	 10.67
135.0916743314 	 5.03
143.072950262 	 0.52
144.0807752941 	 1.68
145.0760242672 	 3.69
146.0838492993 	 5.01
147.0916743314 	 11.81
148.0994993635 	 3.98
157.0886003262 	 0.45
159.0916743314 	 4.11
160.0994993635 	 1.53
161.1073243956 	 100
173.1073243956 	 7.27
174.1151494277 	 3.27
189.138624524 	 181.55
END IONS

BEGIN IONS
PEPMASS=280.145
CHARGE=1
MSLEVEL=2
RT=0
SOURCE_INSTRUMENT=qTOF
FILENAME=CCMSLIB00000080126.ms
IONMODE=Positive
ORGANISM=Natural
NAME=MLS001049068-01!2-amino-3-(1H-indol-3-yl)-N-phenylpropanamide
PI=GNPS
DATACOLLECTOR=GNPS
SMILES=c1ccc(cc1)N=C(C(Cc1c[nH]c2ccccc12)N)O
INCHI=InChI=1S/C17H17N3O/c18-15(17(21)20-13-6-2-1-3-7-13)10-12-11-19-16-9-5-4-8-14(12)16/h1-9,11,15,19H,10,18H2,(H,20,21)
FORMULA=C17H17N3O
PUBMED=N/A
SUBMITUSER=BIOADREM
LIBRARYQUALITY=0
SPECTRUMID=CCMSLIB00000080126
SCANS=2320
ID=CCMSLIB00000080126
103.0542261926 	 2.59
104.0494751657 	 1.7
105.0698762568 	 2.36
106.0651252299 	 0.67
115.0542261926 	 22.36
117.0573001978 	 33.69
118.0651252299 	 11.62
120.0443897878 	 1.1
128.0494751657 	 2.9
130.0651252299 	 55.7
132.0807752941 	 100
142.0651252299 	 37.32
146.060039852 	 1.26
159.0916743314 	 77.03
280.1444381834 	 0
END IONS

BEGIN IONS
PEPMASS=267.109
CHARGE=1
MSLEVEL=2
RT=0
SOURCE_INSTRUMENT=qTOF
FILENAME=CCMSLIB00000080127.ms
IONMODE=Positive
ORGANISM=Natural
NAME=MLS001074702-01!
PI=GNPS
DATACOLLECTOR=GNPS
SMILES=c1cn(c2c1c(N)ncn2)[C@H]1[C@@H]([C@@H]([C@@H](CO)O1)O)O
INCHI=InChI=1S/C11H14N4O4/c12-9-5-1-2-15(10(5)14-4-13-9)11-8(18)7(17)6(3-16)19-11/h1-2,4,6-8,11,16-18H,3H2,(H2,12,13,14)/t6-,7-,8-,11-/m1/s1
FORMULA=C11H14N4O4
PUBMED=N/A
SUBMITUSER=BIOADREM
LIBRARYQUALITY=0
SPECTRUMID=CCMSLIB00000080127
SCANS=2321
ID=CCMSLIB00000080127
118.0399731119 	 18.52
119.0451180693 	 3.02
135.0665222134 	 100
137.0556827556 	 2.24
267.1087809586 	 0
END IONS

BEGIN IONS
PEPMASS=344.15
CHARGE=1
MSLEVEL=2
RT=0
SOURCE_INSTRUMENT=qTOF
FILENAME=CCMSLIB00000080128.ms
IONMODE=Positive
ORGANISM=Natural
NAME=MLS002153887-01!(7S)-7-amino-10-hydroxy-1,2,3-trimethoxy-6,7-dihydro-5H-benzo[a]heptalen-9-one
PI=GNPS
DATACOLLECTOR=GNPS
SMILES=COc1cc2CC[C@@H](c3cc(=O)c(ccc3c2c(c1OC)OC)O)N
INCHI=InChI=1S/C19H21NO5/c1-23-16-8-10-4-6-13(20)12-9-15(22)14(21)7-5-11(12)17(10)19(25-3)18(16)24-2/h5,7-9,13H,4,6,20H2,1-3H3,(H,21,22)/t13-/m0/s1
FORMULA=C19H21NO5
PUBMED=N/A
SUBMITUSER=BIOADREM
LIBRARYQUALITY=0
SPECTRUMID=CCMSLIB00000080128
SCANS=2322
ID=CCMSLIB00000080128
123.0440554368 	 37.75
136.0393044099 	 40.75
197.0960910073 	 59.25
198.0675305331 	 43
199.0753555652 	 34.5
207.0804409431 	 34.5
209.059705501 	 44.5
211.0753555652 	 42.5
213.0546201231 	 47.75
221.059705501 	 48.25
223.0753555652 	 33.75
226.0624451552 	 91.75
227.0702701873 	 100
235.0753555652 	 55.25
242.0937452836 	 41.75
243.0651848094 	 54.75
250.0624451552 	 41.25
250.0862546025 	 38.75
251.0702701873 	 46.75
257.0808348736 	 43
263.0702701873 	 43.5
265.0859202515 	 55.75
266.0937452836 	 37.5
273.112135002 	 38.75
280.0968192888 	 71
281.0808348736 	 96.75
283.0964849378 	 38.5
286.1073839751 	 62
287.0913995599 	 81.5
298.1073839751 	 66.25
301.1070496241 	 51.25
314.1022985972 	 39.75
329.1257736935 	 36.5
344.1492487898 	 0
END IONS

BEGIN IONS
PEPMASS=377.154
CHARGE=1
MSLEVEL=2
RT=0
SOURCE_INSTRUMENT=qTOF
FILENAME=CCMSLIB00000080129.ms
IONMODE=Positive
ORGANISM=Natural
NAME=MLS001140789-01!(3R)-N-cyclohexyl-6,7-dimethoxy-5-oxo-3,9b-dihydro-2H-[1,3]thiazolo[2,3-a]isoindole-3-carboxamide
PI=GNPS
DATACOLLECTOR=GNPS
SMILES=COc1ccc2c(c1OC)C(=O)N1[C@@H](CSC21)C(=NC1CCCCC1)O
INCHI=InChI=1S/C19H24N2O4S/c1-24-14-9-8-12-15(16(14)25-2)18(23)21-13(10-26-19(12)21)17(22)20-11-6-4-3-5-7-11/h8-9,11,13,19H,3-7,10H2,1-2H3,(H,20,22)/t13-,19?/m0/s1
FORMULA=C19H24N2O4S
PUBMED=N/A
SUBMITUSER=BIOADREM
LIBRARYQUALITY=0
SPECTRUMID=CCMSLIB00000080129
SCANS=2323
ID=CCMSLIB00000080129
136.0215458557 	 0.56
146.060039852 	 1.41
148.0393044099 	 1.01
161.0293708878 	 1.67
164.0164604778 	 0.62
165.0546201231 	 0.59
175.0627795062 	 2.8
176.0256657184 	 0.53
176.0706045383 	 1.79
178.032110542 	 1.76
180.0205803405 	 0.68
181.031776191 	 0.5
188.0164604778 	 0.65
189.0242855099 	 3.01
190.032110542 	 0.82
190.0413157826 	 0.87
190.0862546025 	 0.87
191.0576941283 	 3.13
192.0113750999 	 6.37
192.0655191604 	 7.65
193.019200132 	 1.18
202.0498690962 	 1.54
204.0113750999 	 1.72
205.019200132 	 1.55
206.0270251641 	 15.39
206.0811692246 	 5.69
207.0348501962 	 22.62
209.0266908131 	 1.92
217.019200132 	 0.96
218.0270251641 	 1.84
219.0314793778 	 0.77
220.0426752283 	 1.4
222.0583252925 	 22.94
223.0627795062 	 3.08
235.0297648183 	 1.05
236.0250137914 	 0.57
248.0375898504 	 0.67
250.0532399146 	 100
251.0576941283 	 13.58
277.0641389519 	 1.53
377.1529539592 	 0
END IONS

BEGIN IONS
PEPMASS=409.2219
CHARGE=1
MSLEVEL=2
RT=0
SOURCE_INSTRUMENT=qTOF
FILENAME=CCMSLIB00000080130.ms
IONMODE=Positive
ORGANISM=Natural
NAME=MLS001142924-01!
PI=GNPS
DATACOLLECTOR=GNPS
SMILES=Cc1ccc(c(C)c1)N=C(CCN=C(N1C[C@H]2C[C@@H](C1)c1cccc(=O)n1C2)O)O
INCHI=InChI=1S/C23H28N4O3/c1-15-6-7-19(16(2)10-15)25-21(28)8-9-24-23(30)26-12-17-11-18(14-26)20-4-3-5-22(29)27(20)13-17/h3-7,10,17-18H,8-9,11-14H2,1-2H3,(H,24,30)(H,25,28)/t17-,18+/m1/s1
FORMULA=C23H28N4O3
PUBMED=N/A
SUBMITUSER=BIOADREM
LIBRARYQUALITY=0
SPECTRUMID=CCMSLIB00000080130
SCANS=2324
ID=CCMSLIB00000080130
105.0698762568 	 1.66
107.072950262 	 1.17
120.0807752941 	 1.36
122.0964253583 	 23.27
130.0651252299 	 0.59
132.0443897878 	 1.23
132.0807752941 	 0.96
133.0522148199 	 1.86
134.060039852 	 1.64
143.072950262 	 2.08
144.0807752941 	 0.45
146.060039852 	 6.9
146.0964253583 	 4.48
148.0756899162 	 25.38
156.0807752941 	 0.58
158.060039852 	 3.2
158.0964253583 	 9.23
159.0678648841 	 0.94
160.0756899162 	 16.16
172.0756899162 	 3.01
174.0913399804 	 8.74
176.1069900446 	 4.67
188.0706045383 	 1.09
189.1022390177 	 13.01
191.1178890819 	 70.12
217.0971536398 	 100
219.112803704 	 9.96
234.1237027413 	 71.39
246.1237027413 	 54.46
260.1393528055 	 0.77
288.1342674276 	 32.42
409.2234167859 	 0.56
END IONS

BEGIN IONS
PEPMASS=281.0907
CHARGE=1
MSLEVEL=2
RT=0
SOURCE_INSTRUMENT=qTOF
FILENAME=CCMSLIB00000080131.ms
IONMODE=Positive
ORGANISM=Natural
NAME=MLS000575003-01!
PI=GNPS
DATACOLLECTOR=GNPS
SMILES=Cn1ccc2c3ccccc3n3c2c1c(c(=O)c3=O)OC
INCHI=InChI=1S/C16H12N2O3/c1-17-8-7-10-9-5-3-4-6-11(9)18-12(10)13(17)15(21-2)14(19)16(18)20/h3-8H,1-2H3
FORMULA=C16H12N2O3
PUBMED=N/A
SUBMITUSER=BIOADREM
LIBRARYQUALITY=0
SPECTRUMID=CCMSLIB00000080131
SCANS=2325
ID=CCMSLIB00000080131
115.0542261926 	 2.49
117.0573001978 	 3.99
132.0807752941 	 5.36
142.0651252299 	 1.96
154.0651252299 	 12.15
155.072950262 	 13.73
159.0916743314 	 2.6
181.0760242672 	 25.19
182.0838492993 	 100
192.0681992351 	 10.51
195.0552888251 	 1.46
220.0631138572 	 4.58
237.0658535114 	 2.96
251.0451180693 	 2.3
265.0607681335 	 4.22
266.0685931656 	 67.58
281.0920682619 	 4.67
END IONS

BEGIN IONS
PEPMASS=418.1776
CHARGE=1
MSLEVEL=2
RT=0
SOURCE_INSTRUMENT=qTOF
FILENAME=CCMSLIB00000080132.ms
IONMODE=Positive
ORGANISM=Natural
NAME=MLS001158201-01!(3R)-N-[(2S)-1-[(2S)-2-(hydroxymethyl)pyrrolidin-1-yl]-1-oxopropan-2-yl]-2,2-dimethyl-5-oxo-3,9b-dihydro-[1,3]thiazolo[2,3-a]isoindole-3-carboxamide
PI=GNPS
DATACOLLECTOR=GNPS
SMILES=C[C@@H](C(=O)N1CCC[C@H]1CO)N=C([C@@H]1C(C)(C)SC2c3ccccc3C(=O)N12)O
INCHI=InChI=1S/C21H27N3O4S/c1-12(18(27)23-10-6-7-13(23)11-25)22-17(26)16-21(2,3)29-20-15-9-5-4-8-14(15)19(28)24(16)20/h4-5,8-9,12-13,16,20,25H,6-7,10-11H2,1-3H3,(H,22,26)/t12-,13-,16+,20?/m0/s1
FORMULA=C21H27N3O4S
PUBMED=N/A
SUBMITUSER=BIOADREM
LIBRARYQUALITY=0
SPECTRUMID=CCMSLIB00000080132
SCANS=2326
ID=CCMSLIB00000080132
102.0913399804 	 14.12
112.0756899162 	 1.27
115.057597011 	 1.31
132.0443897878 	 6.94
134.060039852 	 0.62
149.0055614405 	 0.67
159.0638421387 	 0.53
160.0756899162 	 2.72
177.0368615689 	 0.53
186.0913399804 	 0.84
218.0634106704 	 100
219.0672129571 	 13.12
221.0630763194 	 0.59
246.0583252925 	 4.52
247.0621275792 	 0.92
289.1005244582 	 2.78
400.1689383744 	 1.25
401.1767634065 	 0.63
418.1795030607 	 0.78
END IONS

BEGIN IONS
PEPMASS=381.1809
CHARGE=1
MSLEVEL=2
RT=0
SOURCE_INSTRUMENT=qTOF
FILENAME=CCMSLIB00000080133.ms
IONMODE=Positive
ORGANISM=Natural
NAME=MLS001157815-01!N-[4-(7-methyl-2,3,4,7,9,10-hexahydro-[1,4]dioxepino[2,3-g]isoquinoline-8-carbonyl)phenyl]acetamide
PI=GNPS
DATACOLLECTOR=GNPS
SMILES=CC1c2cc3c(cc2CCN1C(=O)c1ccc(cc1)N=C(C)O)OCCCO3
INCHI=InChI=1S/C22H24N2O4/c1-14-19-13-21-20(27-10-3-11-28-21)12-17(19)8-9-24(14)22(26)16-4-6-18(7-5-16)23-15(2)25/h4-7,12-14H,3,8-11H2,1-2H3,(H,23,25)
FORMULA=C22H24N2O4
PUBMED=N/A
SUBMITUSER=BIOADREM
LIBRARYQUALITY=0
SPECTRUMID=CCMSLIB00000080133
SCANS=2327
ID=CCMSLIB00000080133
115.0542261926 	 0.72
117.0698762568 	 1.26
120.0443897878 	 100
121.0284053726 	 17.24
133.0647908789 	 0.43
145.0647908789 	 1.64
149.059705501 	 0.74
162.0549544741 	 90.54
177.0910056294 	 1.72
218.1175547309 	 0.56
381.1808832692 	 0.55
END IONS

BEGIN IONS
PEPMASS=338.1873
CHARGE=1
MSLEVEL=2
RT=0
SOURCE_INSTRUMENT=qTOF
FILENAME=CCMSLIB00000080134.ms
IONMODE=Positive
ORGANISM=Natural
NAME=MLS001142765-01!
PI=GNPS
DATACOLLECTOR=GNPS
SMILES=CCc1ccccc1N=C(N1C[C@H]2C[C@@H](C1)c1cccc(=O)n1C2)O
INCHI=InChI=1S/C20H23N3O2/c1-2-15-6-3-4-7-17(15)21-20(25)22-11-14-10-16(13-22)18-8-5-9-19(24)23(18)12-14/h3-9,14,16H,2,10-13H2,1H3,(H,21,25)/t14-,16+/m1/s1
FORMULA=C20H23N3O2
PUBMED=N/A
SUBMITUSER=BIOADREM
LIBRARYQUALITY=0
SPECTRUMID=CCMSLIB00000080134
SCANS=2328
ID=CCMSLIB00000080134
96.0443897878 	 0.97
103.0542261926 	 1.16
104.0494751657 	 1.55
106.0651252299 	 2.31
108.0443897878 	 1.41
115.0542261926 	 1
117.0573001978 	 5.33
118.0651252299 	 3.47
120.0807752941 	 3.8
122.060039852 	 1.8
128.0494751657 	 1.18
129.0698762568 	 2.49
130.0651252299 	 8.1
131.072950262 	 4.24
132.0443897878 	 9.72
132.0807752941 	 5.48
133.0522148199 	 17.53
134.060039852 	 7.44
141.0573001978 	 0.99
142.0651252299 	 5.39
143.072950262 	 1.41
144.0807752941 	 3.59
145.0522148199 	 2.67
146.060039852 	 51.09
148.0756899162 	 40.95
154.0651252299 	 1.23
156.0807752941 	 4.37
158.060039852 	 11.77
159.0678648841 	 8.42
160.0756899162 	 94.43
170.060039852 	 0.95
172.0756899162 	 14.48
174.0913399804 	 48.51
188.0706045383 	 6.02
189.1022390177 	 29.69
199.0865889535 	 1.51
217.0971536398 	 100
338.1863029981 	 3.89
END IONS

BEGIN IONS
PEPMASS=478.209
CHARGE=1
MSLEVEL=2
RT=0
SOURCE_INSTRUMENT=qTOF
FILENAME=CCMSLIB00000080135.ms
IONMODE=Positive
ORGANISM=Natural
NAME=MLS001157907-01!(2R)-3-(1H-indol-3-yl)-2-[[(2S)-3-methyl-2-[(3-oxo-2,4-dihydroquinoxaline-1-carbonyl)amino]butanoyl]amino]propanoic acid
PI=GNPS
DATACOLLECTOR=GNPS
SMILES=CC(C)[C@@H](C(=N[C@H](Cc1c[nH]c2ccccc12)C(=O)O)O)N=C(N1CC(=Nc2ccccc12)O)O
INCHI=InChI=1S/C25H27N5O5/c1-14(2)22(29-25(35)30-13-21(31)27-18-9-5-6-10-20(18)30)23(32)28-19(24(33)34)11-15-12-26-17-8-4-3-7-16(15)17/h3-10,12,14,19,22,26H,11,13H2,1-2H3,(H,27,31)(H,28,32)(H,29,35)(H,33,34)/t19-,22+/m1/s1
FORMULA=C25H27N5O5
PUBMED=N/A
SUBMITUSER=BIOADREM
LIBRARYQUALITY=0
SPECTRUMID=CCMSLIB00000080135
SCANS=2329
ID=CCMSLIB00000080135
98.060039852 	 1.62
117.0573001978 	 1
118.0651252299 	 2.97
119.060374203 	 7.43
121.0760242672 	 31.28
130.0651252299 	 7.06
131.0702701873 	 1.32
132.0807752941 	 2.37
142.0651252299 	 0.99
144.0807752941 	 1.71
146.060039852 	 7.55
147.0552888251 	 100
149.0709388893 	 3.03
158.060039852 	 1.35
158.0811692246 	 2.35
159.0916743314 	 11.52
160.0869233045 	 1.43
170.060039852 	 3.76
171.0678648841 	 1.13
175.0502034472 	 45.14
185.0709388893 	 4.65
188.0706045383 	 13.67
197.0920682619 	 0.85
201.1022390177 	 1.13
203.1178890819 	 1.62
218.1287881192 	 2.05
229.0971536398 	 2.41
246.1237027413 	 72.85
274.1186173634 	 2.04
478.2084950032 	 0
END IONS

BEGIN IONS
PEPMASS=419.1344
CHARGE=1
MSLEVEL=2
RT=0
SOURCE_INSTRUMENT=qTOF
FILENAME=CCMSLIB00000080136.ms
IONMODE=Positive
ORGANISM=Natural
NAME=MLS000863619-01!5-hydroxy-6,7,8-trimethoxy-2-(3,4,5-trimethoxyphenyl)chromen-4-one
PI=GNPS
DATACOLLECTOR=GNPS
SMILES=COc1cc(cc(c1OC)OC)c1cc(=O)c2c(c(c(c(c2o1)OC)OC)OC)O
INCHI=InChI=1S/C21H22O9/c1-24-13-7-10(8-14(25-2)17(13)26-3)12-9-11(22)15-16(23)19(27-4)21(29-6)20(28-5)18(15)30-12/h7-9,23H,1-6H3
FORMULA=C21H22O9
PUBMED=N/A
SUBMITUSER=BIOADREM
LIBRARYQUALITY=0
SPECTRUMID=CCMSLIB00000080136
SCANS=2330
ID=CCMSLIB00000080136
113.0233199947 	 2.49
151.0025845526 	 2.46
169.0131492389 	 19.43
178.9974991747 	 2.49
197.008063861 	 33.3
275.0550140536 	 2.9
299.0550140536 	 3.64
300.0628390857 	 7.95
310.0471890215 	 5.56
313.0342786115 	 3.49
314.0421036436 	 2.92
315.086314182 	 2.84
325.0342786115 	 3.75
326.0421036436 	 3.17
327.0499286757 	 4.61
328.0577537078 	 20.43
329.0655787399 	 6.53
331.0448432978 	 5.38
338.0421036436 	 2.7
341.0291932336 	 5.57
343.0448432978 	 9.9
343.0812288041 	 6.64
344.0526683299 	 4.35
345.060493362 	 5.63
346.0683183941 	 11.41
355.0448432978 	 4.75
356.0526683299 	 13.11
357.060493362 	 3.96
357.0968788683 	 4.07
358.1047039004 	 5.58
359.0397579199 	 23.42
361.0917934904 	 8.42
362.0996185225 	 2.58
371.0761434262 	 40.14
372.0839684583 	 8.79
373.0554079841 	 11.86
374.0632330162 	 7.42
375.0710580483 	 2.92
385.0917934904 	 4.81
386.0996185225 	 4.13
389.0867081125 	 100
390.0945331446 	 20.24
403.1023581767 	 8.13
404.1101832088 	 7.98
419.1336583051 	 24.09
END IONS

BEGIN IONS
PEPMASS=498.1758
CHARGE=1
MSLEVEL=2
RT=0
SOURCE_INSTRUMENT=qTOF
FILENAME=CCMSLIB00000080137.ms
IONMODE=Positive
ORGANISM=Natural
NAME=MLS001157994-01!1-[2-[[(2Z)-3-oxo-2-[(2,3,4-trimethoxyphenyl)methylidene]-1-benzofuran-6-yl]oxy]acetyl]piperidine-4-carboxylic acid
PI=GNPS
DATACOLLECTOR=GNPS
SMILES=COc1ccc(/C=C\2/C(=O)c3ccc(cc3O2)OCC(=O)N2CCC(CC2)C(=O)O)c(c1OC)OC
INCHI=InChI=1S/C26H27NO9/c1-32-19-7-4-16(24(33-2)25(19)34-3)12-21-23(29)18-6-5-17(13-20(18)36-21)35-14-22(28)27-10-8-15(9-11-27)26(30)31/h4-7,12-13,15H,8-11,14H2,1-3H3,(H,30,31)/b21-12-
FORMULA=C26H27NO9
PUBMED=N/A
SUBMITUSER=BIOADREM
LIBRARYQUALITY=0
SPECTRUMID=CCMSLIB00000080137
SCANS=2331
ID=CCMSLIB00000080137
96.0807752941 	 1.74
99.0440554368 	 5
112.0756899162 	 2.02
128.0706045383 	 55.52
142.0862546025 	 100
163.0389700589 	 5.82
170.0811692246 	 15.67
178.0624451552 	 6.79
239.0702701873 	 2.39
253.0495347452 	 2.84
265.0522148199 	 1.71
267.0651848094 	 4.32
281.0444493673 	 2.89
282.0522743994 	 2.26
283.0627795062 	 2.58
285.0757494957 	 3.93
295.0600994315 	 7.61
296.0679244636 	 3.29
297.0757494957 	 7.53
298.0709984688 	 2.53
299.0550140536 	 1.72
300.099224592 	 3.16
308.0679244636 	 1.8
309.0757494957 	 1.95
311.0550140536 	 1.68
313.0706641178 	 8.9
314.0784891499 	 2.68
325.0706641178 	 1.79
326.0784891499 	 2.67
328.0941392141 	 7.53
329.1019642462 	 12.98
340.0941392141 	 4.32
341.1019642462 	 9.28
369.0968788683 	 2.86
406.1285133477 	 2
422.1234279698 	 3.93
434.1234279698 	 2.86
436.139078034 	 3.44
437.1469030661 	 2.97
450.1183425919 	 3.51
452.1339926561 	 8.54
464.1339926561 	 5.01
465.1418176882 	 3.16
466.1496427203 	 4.94
468.1289072782 	 4.71
480.1652927845 	 1.9
483.1523823745 	 5.1
498.1758574708 	 71.16
END IONS

BEGIN IONS
PEPMASS=422.16
CHARGE=1
MSLEVEL=2
RT=0
SOURCE_INSTRUMENT=qTOF
FILENAME=CCMSLIB00000080138.ms
IONMODE=Positive
ORGANISM=Natural
NAME=MLS001075314-01!1-[2-(4-methyl-2-oxochromen-7-yl)oxyacetyl]-4-phenylpiperidine-4-carboxylic acid
PI=GNPS
DATACOLLECTOR=GNPS
SMILES=Cc1cc(=O)oc2cc(ccc12)OCC(=O)N1CCC(CC1)(c1ccccc1)C(=O)O
INCHI=InChI=1S/C24H23NO6/c1-16-13-22(27)31-20-14-18(7-8-19(16)20)30-15-21(26)25-11-9-24(10-12-25,23(28)29)17-5-3-2-4-6-17/h2-8,13-14H,9-12,15H2,1H3,(H,28,29)
FORMULA=C24H23NO6
PUBMED=N/A
SUBMITUSER=BIOADREM
LIBRARYQUALITY=0
SPECTRUMID=CCMSLIB00000080138
SCANS=2332
ID=CCMSLIB00000080138
103.0542261926 	 4.53
105.0698762568 	 3.17
110.060039852 	 1.99
115.0542261926 	 10.51
116.0620512247 	 3.46
117.0698762568 	 6
121.0647908789 	 1.44
128.0620512247 	 22.34
130.0777012889 	 3.64
131.0491408147 	 6.81
133.0647908789 	 3.24
141.0698762568 	 3.46
142.0777012889 	 5.28
143.085526321 	 48.21
144.0569658468 	 5.98
145.0886003262 	 2.16
158.0964253583 	 46.69
159.0440554368 	 14.9
159.1042503904 	 20.87
160.1120754225 	 11.58
161.059705501 	 13.19
161.1199004546 	 2.48
171.0804409431 	 2.63
172.1120754225 	 11.53
177.0546201231 	 3.53
187.0991650125 	 100
189.0546201231 	 38.76
190.1226401088 	 5.41
200.1069900446 	 2.91
201.1148150767 	 8.48
202.1226401088 	 5.03
217.0495347452 	 11.91
218.1175547309 	 14.11
234.0760838467 	 5.11
247.1202943851 	 1.74
348.1594195456 	 1.98
376.1543341677 	 15.85
422.1598134761 	 0
END IONS

BEGIN IONS
PEPMASS=452.17
CHARGE=1
MSLEVEL=2
RT=0
SOURCE_INSTRUMENT=qTOF
FILENAME=CCMSLIB00000080139.ms
IONMODE=Positive
ORGANISM=Natural
NAME=MLS001157850-01!(2S)-2-phenyl-2-[[2-[(4,8,8-trimethyl-2-oxo-9,10-dihydropyrano[2,3-h]chromen-5-yl)oxy]acetyl]amino]acetic acid
PI=GNPS
DATACOLLECTOR=GNPS
SMILES=Cc1cc(=O)oc2c3CCC(C)(C)Oc3cc(c12)OCC(=N[C@@H](c1ccccc1)C(=O)O)O
INCHI=InChI=1S/C25H25NO7/c1-14-11-20(28)32-23-16-9-10-25(2,3)33-17(16)12-18(21(14)23)31-13-19(27)26-22(24(29)30)15-7-5-4-6-8-15/h4-8,11-12,22H,9-10,13H2,1-3H3,(H,26,27)(H,29,30)/t22-/m0/s1
FORMULA=C25H25NO7
PUBMED=N/A
SUBMITUSER=BIOADREM
LIBRARYQUALITY=0
SPECTRUMID=CCMSLIB00000080139
SCANS=2333
ID=CCMSLIB00000080139
106.0651252299 	 7.82
107.0491408147 	 9.19
117.0573001978 	 3.19
118.0651252299 	 48.9
119.0491408147 	 6.85
121.0647908789 	 1.03
131.0491408147 	 1.34
133.0647908789 	 1.59
134.060039852 	 7
135.0440554368 	 15.35
146.060039852 	 53.81
147.0440554368 	 45.83
149.059705501 	 3.76
159.0440554368 	 1.63
161.059705501 	 2.83
163.0389700589 	 3.94
164.0706045383 	 2.43
175.0389700589 	 1.2
177.0546201231 	 8.5
189.0546201231 	 9.29
205.0495347452 	 100
217.0495347452 	 30.21
244.0604337825 	 1.31
245.0444493673 	 36.31
261.112135002 	 5.28
262.0709984688 	 11.39
273.112135002 	 5.3
301.1070496241 	 2.8
318.1335987256 	 4.22
350.1022985972 	 5.32
396.1077779056 	 29.11
452.1703781624 	 2.25
END IONS

BEGIN IONS
PEPMASS=219.139
CHARGE=1
MSLEVEL=2
RT=0
SOURCE_INSTRUMENT=qTOF
FILENAME=CCMSLIB00000080140.ms
IONMODE=Positive
ORGANISM=Natural
NAME=MLS002473104-01!(2R)-6-(2-hydroxyethyl)-2,5,7-trimethyl-2,3-dihydroinden-1-one
PI=GNPS
DATACOLLECTOR=GNPS
SMILES=Cc1cc2C[C@@H](C)C(=O)c2c(C)c1CCO
INCHI=InChI=1S/C14H18O2/c1-8-6-11-7-9(2)14(16)13(11)10(3)12(8)4-5-15/h6,9,15H,4-5,7H2,1-3H3/t9-/m1/s1
FORMULA=C14H18O2
PUBMED=N/A
SUBMITUSER=BIOADREM
LIBRARYQUALITY=0
SPECTRUMID=CCMSLIB00000080140
SCANS=2334
ID=CCMSLIB00000080140
103.0542261926 	 7.06
105.0698762568 	 24.77
115.0542261926 	 29.46
116.0620512247 	 18.06
117.0698762568 	 16.66
119.085526321 	 7.76
127.0542261926 	 9.79
128.0620512247 	 63.48
129.0698762568 	 72.76
130.0777012889 	 40.61
131.085526321 	 33.7
133.1011763852 	 13.84
141.0698762568 	 37.69
142.0777012889 	 27.62
143.085526321 	 89.8
144.0569658468 	 5.23
144.0933513531 	 24.8
145.1011763852 	 59.17
152.0620512247 	 12.39
153.0698762568 	 62.46
154.0777012889 	 27.08
155.085526321 	 21.92
157.0647908789 	 19.16
157.1011763852 	 11.12
158.072615911 	 23.69
158.1090014173 	 14.86
159.0804409431 	 42.22
159.1168264494 	 9.41
160.1246514815 	 3.61
167.085526321 	 22.33
168.0933513531 	 41.02
170.072615911 	 4.62
170.1090014173 	 4.31
171.0804409431 	 100
172.0882659752 	 25.5
173.0960910073 	 79.82
173.1324765136 	 16.85
183.1168264494 	 22.55
185.0960910073 	 10.17
186.1039160394 	 50.87
187.1117410715 	 14.03
188.1195661036 	 3.45
201.1273911357 	 49.32
219.137955822 	 11.43
END IONS

BEGIN IONS
PEPMASS=422.2073
CHARGE=1
MSLEVEL=2
RT=0
SOURCE_INSTRUMENT=qTOF
FILENAME=CCMSLIB00000080141.ms
IONMODE=Positive
ORGANISM=Natural
NAME=MLS001158973-01!N-(3-imidazol-1-ylpropyl)-3-(2,3,5,9-tetramethyl-7-oxofuro[3,2-g]chromen-6-yl)propanamide
PI=GNPS
DATACOLLECTOR=GNPS
SMILES=Cc1c(C)oc2c(C)c3c(cc12)c(C)c(CCC(=NCCCn1ccnc1)O)c(=O)o3
INCHI=InChI=1S/C24H27N3O4/c1-14-17(4)30-22-16(3)23-20(12-19(14)22)15(2)18(24(29)31-23)6-7-21(28)26-8-5-10-27-11-9-25-13-27/h9,11-13H,5-8,10H2,1-4H3,(H,26,28)
FORMULA=C24H27N3O4
PUBMED=N/A
SUBMITUSER=BIOADREM
LIBRARYQUALITY=0
SPECTRUMID=CCMSLIB00000080141
SCANS=2335
ID=CCMSLIB00000080141
112.0756899162 	 0.79
143.085526321 	 0.73
156.0933513531 	 0.29
166.0777012889 	 0.23
168.0933513531 	 0.56
169.0971536398 	 0.26
171.1168264494 	 0.6
181.0647908789 	 0.24
181.1011763852 	 0.21
183.0804409431 	 0.26
184.0882659752 	 0.63
185.0960910073 	 0.23
195.0790982724 	 0.21
196.0882659752 	 1.23
197.0920682619 	 0.32
198.1039160394 	 0.35
199.1117410715 	 2.54
200.1155433582 	 0.41
210.1025733687 	 0.27
211.1117410715 	 1.26
212.0831805973 	 1.37
213.086982884 	 0.48
213.1273911357 	 0.22
226.0988306615 	 0.61
227.1066556936 	 25.45
228.1104579803 	 3.85
241.1223057578 	 1.02
255.1015703157 	 100
256.1080526771 	 32.36
268.1332047951 	 0.79
269.1172203799 	 17.05
296.1281194172 	 24.25
297.112135002 	 33.81
298.1186173634 	 7.69
336.1594195456 	 0.28
354.1699842319 	 56.79
422.2074323707 	 0.31
END IONS

BEGIN IONS
PEPMASS=479.193
CHARGE=1
MSLEVEL=2
RT=0
SOURCE_INSTRUMENT=qTOF
FILENAME=CCMSLIB00000080142.ms
IONMODE=Positive
ORGANISM=Natural
NAME=MLS001140709-01!(2S)-1-[(2S)-2-[[(2S)-2-(2,4-dioxo-1H-quinazolin-3-yl)-3-phenylpropanoyl]amino]propanoyl]pyrrolidine-2-carboxylic acid
PI=GNPS
DATACOLLECTOR=GNPS
SMILES=C[C@@H](C(=O)N1CCC[C@H]1C(=O)O)N=C([C@H](Cc1ccccc1)n1c(=O)c2ccccc2nc1O)O
INCHI=InChI=1S/C25H26N4O6/c1-15(22(31)28-13-7-12-19(28)24(33)34)26-21(30)20(14-16-8-3-2-4-9-16)29-23(32)17-10-5-6-11-18(17)27-25(29)35/h2-6,8-11,15,19-20H,7,12-14H2,1H3,(H,26,30)(H,27,35)(H,33,34)/t15-,19-,20-/m0/s1
FORMULA=C25H26N4O6
PUBMED=N/A
SUBMITUSER=BIOADREM
LIBRARYQUALITY=0
SPECTRUMID=CCMSLIB00000080142
SCANS=2336
ID=CCMSLIB00000080142
103.0542261926 	 4.55
116.0706045383 	 10.69
120.0443897878 	 1.12
146.0236543457 	 17.03
147.0552888251 	 0.91
163.0502034472 	 10.9
205.0845775808 	 0.91
237.1022390177 	 0.99
265.0971536398 	 100
266.1009559265 	 16.62
275.0815035756 	 2.24
293.0920682619 	 21.85
294.0958705486 	 5.59
479.192510588 	 0
END IONS

BEGIN IONS
PEPMASS=340.166
CHARGE=1
MSLEVEL=2
RT=0
SOURCE_INSTRUMENT=qTOF
FILENAME=CCMSLIB00000080143.ms
IONMODE=Positive
ORGANISM=Natural
NAME=MLS001075496-01!
PI=GNPS
DATACOLLECTOR=GNPS
SMILES=COc1ccc(cc1)NC(=O)N1C[C@@H]2C[C@@H](C1)c1cccc(=O)n1C2
INCHI=InChI=1S/C19H21N3O3/c1-25-16-7-5-15(6-8-16)20-19(24)21-10-13-9-14(12-21)17-3-2-4-18(23)22(17)11-13/h2-8,13-14H,9-12H2,1H3,(H,20,24)/t13-,14-/m0/s1
FORMULA=C19H21N3O3
PUBMED=N/A
SUBMITUSER=BIOADREM
LIBRARYQUALITY=0
SPECTRUMID=CCMSLIB00000080143
SCANS=2337
ID=CCMSLIB00000080143
103.0542261926 	 0.96
104.0494751657 	 1.7
105.0573001978 	 0.7
106.0651252299 	 2.56
108.0443897878 	 2.49
110.060039852 	 0.9
115.0542261926 	 1.15
116.0494751657 	 1.06
117.0573001978 	 3.29
118.0651252299 	 2.93
120.0807752941 	 1.04
122.060039852 	 4.59
129.0698762568 	 2.09
130.0651252299 	 5.18
131.072950262 	 3.98
132.0443897878 	 11.03
132.0807752941 	 3.38
133.0522148199 	 14.47
134.060039852 	 6.99
142.0651252299 	 3.38
144.0807752941 	 2.74
145.0522148199 	 1.46
146.060039852 	 47.99
148.0756899162 	 32.93
156.0807752941 	 4.11
158.060039852 	 8.75
159.0678648841 	 7.79
160.0756899162 	 94.37
162.0913399804 	 2.9
172.0756899162 	 14.96
174.0913399804 	 42.13
188.0706045383 	 6.74
189.1022390177 	 36.48
191.1178890819 	 18.93
199.0865889535 	 1.38
217.0971536398 	 100
235.1077183261 	 3.07
340.165567556 	 3.52
END IONS

BEGIN IONS
PEPMASS=414.1042
CHARGE=1
MSLEVEL=2
RT=0
SOURCE_INSTRUMENT=qTOF
FILENAME=CCMSLIB00000080144.ms
IONMODE=Positive
ORGANISM=Natural
NAME=MLS001146623-01!
PI=GNPS
DATACOLLECTOR=GNPS
SMILES=c1cc2[C@@H]3C[C@H](CN(C3)C(=S)N=C(/C=C/c3ccc(cc3)Cl)O)Cn2c(=O)c1
INCHI=InChI=1S/C21H20ClN3O2S/c22-17-7-4-14(5-8-17)6-9-19(26)23-21(28)24-11-15-10-16(13-24)18-2-1-3-20(27)25(18)12-15/h1-9,15-16H,10-13H2,(H,23,26,28)/b9-6+/t15-,16-/m1/s1
FORMULA=C21H20ClN3O2S
PUBMED=N/A
SUBMITUSER=BIOADREM
LIBRARYQUALITY=0
SPECTRUMID=CCMSLIB00000080144
SCANS=2338
ID=CCMSLIB00000080144
101.0385761284 	 2.37
102.0464011605 	 9.34
105.0573001978 	 1.16
112.0215458557 	 1.32
132.0443897878 	 3.76
133.0522148199 	 3.51
134.060039852 	 1.46
137.0167948288 	 50.51
140.0164604778 	 1.59
142.0651252299 	 1.09
146.060039852 	 5.06
146.0964253583 	 1.28
148.0756899162 	 46.05
158.060039852 	 4.12
159.0678648841 	 1.24
160.0756899162 	 29.52
165.0117094509 	 75.86
172.0756899162 	 2.93
174.0913399804 	 22.54
185.0709388893 	 1.17
191.1178890819 	 100
216.113138055 	 2.52
233.0743097077 	 57.66
250.1008588092 	 15.95
414.1037513018 	 0.65
END IONS

BEGIN IONS
PEPMASS=221.118
CHARGE=1
MSLEVEL=2
RT=0
SOURCE_INSTRUMENT=qTOF
FILENAME=CCMSLIB00000080145.ms
IONMODE=Positive
ORGANISM=Natural
NAME=MLS000697723-01!
PI=GNPS
DATACOLLECTOR=GNPS
SMILES=CC(=CCc1c(ccc(C(=O)C)c1O)O)C
INCHI=InChI=1S/C13H16O3/c1-8(2)4-5-11-12(15)7-6-10(9(3)14)13(11)16/h4,6-7,15-16H,5H2,1-3H3
FORMULA=C13H16O3
PUBMED=N/A
SUBMITUSER=BIOADREM
LIBRARYQUALITY=0
SPECTRUMID=CCMSLIB00000080145
SCANS=2339
ID=CCMSLIB00000080145
119.0491408147 	 16.72
123.0440554368 	 1.63
129.0334907505 	 1.13
147.0440554368 	 100
149.059705501 	 1.53
165.0546201231 	 49.63
221.1172203799 	 0
END IONS

BEGIN IONS
PEPMASS=183.102
CHARGE=1
MSLEVEL=2
RT=0
SOURCE_INSTRUMENT=qTOF
FILENAME=CCMSLIB00000080146.ms
IONMODE=Positive
ORGANISM=Natural
NAME=MLS002706482-01!
PI=GNPS
DATACOLLECTOR=GNPS
SMILES=CC1CC2CCCC(=O)C2=C(O)O1
INCHI=InChI=1S/C10H14O3/c1-6-5-7-3-2-4-8(11)9(7)10(12)13-6/h6-7,12H,2-5H2,1H3
FORMULA=C10H14O3
PUBMED=N/A
SUBMITUSER=BIOADREM
LIBRARYQUALITY=0
SPECTRUMID=CCMSLIB00000080146
SCANS=2340
ID=CCMSLIB00000080146
95.0491408147 	 41.42
109.0284053726 	 15.56
123.0440554368 	 100
141.0546201231 	 20.14
183.1015703157 	 0
END IONS

BEGIN IONS
PEPMASS=305.102
CHARGE=1
MSLEVEL=2
RT=0
SOURCE_INSTRUMENT=qTOF
FILENAME=CCMSLIB00000080147.ms
IONMODE=Positive
ORGANISM=Natural
NAME=MLS000877013-01!4-(2,3-dihydroxy-3-methylbutoxy)furo[3,2-g]chromen-7-one
PI=GNPS
DATACOLLECTOR=GNPS
SMILES=CC(C)(C(COc1c2ccc(=O)oc2cc2c1cco2)O)O
INCHI=InChI=1S/C16H16O6/c1-16(2,19)13(17)8-21-15-9-3-4-14(18)22-12(9)7-11-10(15)5-6-20-11/h3-7,13,17,19H,8H2,1-2H3
FORMULA=C16H16O6
PUBMED=N/A
SUBMITUSER=BIOADREM
LIBRARYQUALITY=0
SPECTRUMID=CCMSLIB00000080147
SCANS=2341
ID=CCMSLIB00000080147
103.0542261926 	 1.44
119.0491408147 	 6.74
131.0491408147 	 24.33
147.0440554368 	 93.71
159.0440554368 	 21.09
175.0389700589 	 5.53
203.033884681 	 100
305.1019642462 	 1.63
END IONS

BEGIN IONS
PEPMASS=211.0879
CHARGE=1
MSLEVEL=2
RT=0
SOURCE_INSTRUMENT=qTOF
FILENAME=CCMSLIB00000080148.ms
IONMODE=Positive
ORGANISM=Natural
NAME=MLS000768124-01!2-methoxyphenazine
PI=GNPS
DATACOLLECTOR=GNPS
SMILES=COc1ccc2c(c1)nc1ccccc1n2
INCHI=InChI=1S/C13H10N2O/c1-16-9-6-7-12-13(8-9)15-11-5-3-2-4-10(11)14-12/h2-8H,1H3
FORMULA=C13H10N2O
PUBMED=N/A
SUBMITUSER=BIOADREM
LIBRARYQUALITY=0
SPECTRUMID=CCMSLIB00000080148
SCANS=2342
ID=CCMSLIB00000080148
114.0464011605 	 0.65
117.0573001978 	 0.75
118.0525491709 	 0.39
129.0447241388 	 0.57
140.0494751657 	 2.72
141.0573001978 	 2.77
142.0525491709 	 2.67
144.0681992351 	 0.23
167.060374203 	 3.21
168.0681992351 	 100
183.0916743314 	 1.02
196.0631138572 	 13.26
211.0865889535 	 23.59
END IONS

BEGIN IONS
PEPMASS=355.1652
CHARGE=1
MSLEVEL=2
RT=0
SOURCE_INSTRUMENT=qTOF
FILENAME=CCMSLIB00000080149.ms
IONMODE=Positive
ORGANISM=Natural
NAME=MLS001162678-01!
PI=GNPS
DATACOLLECTOR=GNPS
SMILES=COc1ccc(cc1OC)C(=O)N1C[C@H]2C[C@@H](C1)c1cccc(=O)n1C2
INCHI=InChI=1S/C20H22N2O4/c1-25-17-7-6-14(9-18(17)26-2)20(24)21-10-13-8-15(12-21)16-4-3-5-19(23)22(16)11-13/h3-7,9,13,15H,8,10-12H2,1-2H3/t13-,15+/m1/s1
FORMULA=C20H22N2O4
PUBMED=N/A
SUBMITUSER=BIOADREM
LIBRARYQUALITY=0
SPECTRUMID=CCMSLIB00000080149
SCANS=2343
ID=CCMSLIB00000080149
98.0362304047 	 0.42
107.0127553084 	 0.61
107.0491408147 	 0.46
109.0284053726 	 0.96
109.0647908789 	 2.74
111.0076699305 	 0.96
119.0127553084 	 0.22
121.0284053726 	 2.07
122.0362304047 	 4.79
126.0311450268 	 1.86
135.0440554368 	 0.35
137.059705501 	 8.07
165.0546201231 	 100
355.165233205 	 1.92
END IONS

BEGIN IONS
PEPMASS=408.1436
CHARGE=1
MSLEVEL=2
RT=0
SOURCE_INSTRUMENT=qTOF
FILENAME=CCMSLIB00000080150.ms
IONMODE=Positive
ORGANISM=Natural
NAME=MLS001075493-01!(2S)-2-[[2-[(7-methyl-4-oxo-2,3-dihydro-1H-cyclopenta[c]chromen-9-yl)oxy]acetyl]amino]-2-phenylacetic acid
PI=GNPS
DATACOLLECTOR=GNPS
SMILES=Cc1cc(c2c3CCCc3c(=O)oc2c1)OCC(=N[C@@H](c1ccccc1)C(=O)O)O
INCHI=InChI=1S/C23H21NO6/c1-13-10-17(20-15-8-5-9-16(15)23(28)30-18(20)11-13)29-12-19(25)24-21(22(26)27)14-6-3-2-4-7-14/h2-4,6-7,10-11,21H,5,8-9,12H2,1H3,(H,24,25)(H,26,27)/t21-/m0/s1
FORMULA=C23H21NO6
PUBMED=N/A
SUBMITUSER=BIOADREM
LIBRARYQUALITY=0
SPECTRUMID=CCMSLIB00000080150
SCANS=2344
ID=CCMSLIB00000080150
103.0542261926 	 2.68
105.0698762568 	 5.55
107.0491408147 	 18.62
117.0698762568 	 2.32
128.0620512247 	 4.13
129.0698762568 	 2.49
135.0440554368 	 19.58
141.0698762568 	 2.85
142.0777012889 	 9.22
145.0647908789 	 8.61
145.1011763852 	 3.63
147.0440554368 	 2.89
147.0804409431 	 2.6
153.0698762568 	 2.29
154.0777012889 	 1.62
155.085526321 	 4.51
158.072615911 	 11.77
159.0804409431 	 4.92
161.059705501 	 3.36
169.0647908789 	 8.19
170.072615911 	 9.94
171.0804409431 	 6.52
173.059705501 	 3.4
173.0960910073 	 7.46
185.0960910073 	 7.8
186.0675305331 	 3.24
187.0753555652 	 4.12
188.0831805973 	 5.19
189.0910056294 	 7.86
199.0753555652 	 2.27
201.0910056294 	 31.98
214.0624451552 	 6.04
215.0702701873 	 100
216.0780952194 	 42.01
217.0859202515 	 73.22
229.0859202515 	 66.37
257.0808348736 	 12
274.1073839751 	 29.04
408.1441634119 	 3.46
END IONS

BEGIN IONS
PEPMASS=385.176
CHARGE=1
MSLEVEL=2
RT=0
SOURCE_INSTRUMENT=qTOF
FILENAME=CCMSLIB00000080151.ms
IONMODE=Positive
ORGANISM=Natural
NAME=MLS001140571-01!1-[2-[(6-methyl-4-oxo-2,3-dihydro-1H-cyclopenta[c]chromen-7-yl)oxy]acetyl]piperidine-4-carboxamide
PI=GNPS
DATACOLLECTOR=GNPS
SMILES=Cc1c(ccc2c3CCCc3c(=O)oc12)OCC(=O)N1CCC(CC1)C(=N)O
INCHI=InChI=1S/C21H24N2O5/c1-12-17(27-11-18(24)23-9-7-13(8-10-23)20(22)25)6-5-15-14-3-2-4-16(14)21(26)28-19(12)15/h5-6,13H,2-4,7-11H2,1H3,(H2,22,25)
FORMULA=C21H24N2O5
PUBMED=N/A
SUBMITUSER=BIOADREM
LIBRARYQUALITY=0
SPECTRUMID=CCMSLIB00000080151
SCANS=2345
ID=CCMSLIB00000080151
96.0807752941 	 7.97
97.0886003262 	 2.23
98.060039852 	 3.3
110.060039852 	 7.34
112.0756899162 	 22.83
117.0698762568 	 2.79
124.0756899162 	 9.04
125.0835149483 	 3.8
126.0913399804 	 8.26
127.0865889535 	 79.31
128.0620512247 	 16.68
129.0658535114 	 2.47
141.1022390177 	 38.7
143.085526321 	 8.44
144.0893286077 	 2.29
145.1011763852 	 4.37
147.0804409431 	 4.79
155.085526321 	 4.96
158.072615911 	 3.63
171.0804409431 	 26.55
172.0842432298 	 3.54
173.0960910073 	 8.56
186.0635077877 	 3.95
188.0831805973 	 9.33
201.0910056294 	 100
216.0780952194 	 15.7
229.0859202515 	 76.19
230.0897225382 	 15.46
257.0808348736 	 15.84
269.1172203799 	 4.76
294.1488548593 	 2.2
297.112135002 	 2.53
312.1594195456 	 15.22
340.1543341677 	 28.54
368.1492487898 	 4.7
385.1757978913 	 0
END IONS

BEGIN IONS
PEPMASS=402.155
CHARGE=1
MSLEVEL=2
RT=0
SOURCE_INSTRUMENT=qTOF
FILENAME=CCMSLIB00000080152.ms
IONMODE=Positive
ORGANISM=Natural
NAME=MLS001160293-01!N-(3,5-dimethoxyphenyl)-2-[(5-hydroxy-2,2-dimethyl-4-oxo-3H-chromen-7-yl)oxy]acetamide
PI=GNPS
DATACOLLECTOR=GNPS
SMILES=CC1(C)CC(=O)c2c(cc(cc2O1)OCC(=Nc1cc(cc(c1)OC)OC)O)O
INCHI=InChI=1S/C21H23NO7/c1-21(2)10-17(24)20-16(23)8-15(9-18(20)29-21)28-11-19(25)22-12-5-13(26-3)7-14(6-12)27-4/h5-9,23H,10-11H2,1-4H3,(H,22,25)
FORMULA=C21H23NO7
PUBMED=N/A
SUBMITUSER=BIOADREM
LIBRARYQUALITY=0
SPECTRUMID=CCMSLIB00000080152
SCANS=2346
ID=CCMSLIB00000080152
104.0494751657 	 1.03
106.0651252299 	 3.89
107.0491408147 	 0.85
108.0443897878 	 0.65
109.0647908789 	 1.8
119.0365647557 	 1.11
120.0443897878 	 0.9
121.0522148199 	 4.46
122.060039852 	 1.63
123.0678648841 	 3
124.0756899162 	 1.02
125.0233199947 	 0.81
125.059705501 	 0.99
134.060039852 	 27.91
135.0076699305 	 2.31
135.0804409431 	 1.95
136.0756899162 	 25.05
137.0233199947 	 1.32
137.059705501 	 1.6
138.0913399804 	 0.89
150.0549544741 	 0.68
151.0627795062 	 4.99
152.0706045383 	 1.56
153.0182346168 	 52.99
163.0753555652 	 3.3
164.0706045383 	 1
165.0182346168 	 13.12
166.0862546025 	 100
176.046795091 	 0.94
179.033884681 	 0.68
191.0702701873 	 8.48
193.0131492389 	 16.91
194.0811692246 	 17.05
209.0808348736 	 16.08
221.0808348736 	 14.48
249.0757494957 	 2.2
260.0917339109 	 1.12
318.0972132193 	 0.77
328.0815631551 	 1
346.0921278414 	 2.66
402.1547280982 	 0
END IONS

BEGIN IONS
PEPMASS=365.186
CHARGE=1
MSLEVEL=2
RT=0
SOURCE_INSTRUMENT=qTOF
FILENAME=CCMSLIB00000080153.ms
IONMODE=Positive
ORGANISM=Natural
NAME=MLS001140466-01!(6,7-dimethoxy-3,4-dihydro-1H-isoquinolin-2-yl)-(2,3-dimethyl-1H-indol-5-yl)methanone
PI=GNPS
DATACOLLECTOR=GNPS
SMILES=Cc1c(C)[nH]c2ccc(cc12)C(=O)N1CCc2cc(c(cc2C1)OC)OC
INCHI=InChI=1S/C22H24N2O3/c1-13-14(2)23-19-6-5-16(9-18(13)19)22(25)24-8-7-15-10-20(26-3)21(27-4)11-17(15)12-24/h5-6,9-11,23H,7-8,12H2,1-4H3
FORMULA=C22H24N2O3
PUBMED=N/A
SUBMITUSER=BIOADREM
LIBRARYQUALITY=0
SPECTRUMID=CCMSLIB00000080153
SCANS=2347
ID=CCMSLIB00000080153
103.0542261926 	 1.27
107.0491408147 	 0.26
115.0542261926 	 1.7
117.0698762568 	 1.78
120.0807752941 	 5.34
121.0647908789 	 0.26
127.0542261926 	 0.7
128.0494751657 	 1.87
129.0573001978 	 0.78
131.072950262 	 0.51
133.0522148199 	 0.31
134.060039852 	 0.37
135.0804409431 	 0.54
142.0651252299 	 0.72
143.072950262 	 7.61
144.0807752941 	 32.4
146.060039852 	 1.67
147.0678648841 	 0.75
148.0756899162 	 8.48
158.060039852 	 0.7
159.0678648841 	 2.31
160.0756899162 	 1.69
162.0549544741 	 1.3
162.0913399804 	 6.31
172.0756899162 	 100
174.0549544741 	 2.28
176.0706045383 	 3.72
187.0627795062 	 1.61
189.0784295704 	 5.85
190.0498690962 	 2.95
202.0862546025 	 0.48
204.0655191604 	 1.98
205.0733441925 	 5.15
220.0968192888 	 4.52
365.1859686471 	 0.11
END IONS

BEGIN IONS
PEPMASS=533.112
CHARGE=1
MSLEVEL=2
RT=0
SOURCE_INSTRUMENT=qTOF
FILENAME=CCMSLIB00000080154.ms
IONMODE=Positive
ORGANISM=Natural
NAME=MLS001157755-01!2-[[2-(6-chloro-2-oxo-4-phenylchromen-7-yl)oxyacetyl]amino]-3-(5-hydroxy-1H-indol-3-yl)propanoic acid
PI=GNPS
DATACOLLECTOR=GNPS
SMILES=c1ccc(cc1)c1cc(=O)oc2cc(c(cc12)Cl)OCC(=NC(Cc1c[nH]c2ccc(cc12)O)C(=O)O)O
INCHI=InChI=1S/C28H21ClN2O7/c29-21-10-20-18(15-4-2-1-3-5-15)11-27(34)38-24(20)12-25(21)37-14-26(33)31-23(28(35)36)8-16-13-30-22-7-6-17(32)9-19(16)22/h1-7,9-13,23,30,32H,8,14H2,(H,31,33)(H,35,36)
FORMULA=C28H21ClN2O7
PUBMED=N/A
SUBMITUSER=BIOADREM
LIBRARYQUALITY=0
SPECTRUMID=CCMSLIB00000080154
SCANS=2348
ID=CCMSLIB00000080154
115.0542261926 	 1.66
118.0651252299 	 2
131.0491408147 	 4.26
132.0807752941 	 1.57
133.0522148199 	 2.82
134.060039852 	 8.94
142.0651252299 	 2.13
145.0647908789 	 1.54
146.060039852 	 100
147.0651848094 	 11.79
148.0756899162 	 3.76
158.060039852 	 22.45
159.0651848094 	 11.26
160.0756899162 	 24.21
161.0808348736 	 2.28
162.0549544741 	 17.54
165.0698762568 	 1.62
169.0760242672 	 2.06
170.060039852 	 5.27
171.0678648841 	 1.82
172.0756899162 	 5.97
173.0709388893 	 6.11
174.0787639214 	 49.33
185.0709388893 	 1.3
186.0549544741 	 33.84
187.0600994315 	 4.43
187.0865889535 	 11.44
193.0647908789 	 1.35
194.072615911 	 2.29
197.0709388893 	 2.52
199.0627795062 	 7.36
199.0865889535 	 11.93
200.0706045383 	 4.66
201.0658535114 	 10.28
205.0706641178 	 3.49
215.0815035756 	 9.25
216.0893286077 	 14.15
222.0675305331 	 1.31
227.0258185568 	 1.81
255.0207331789 	 1.91
257.0363832431 	 1.92
265.0971536398 	 1.34
285.0312978652 	 5.49
487.1055254408 	 10.82
488.1133504729 	 5.13
490.1051910898 	 1.38
533.1110047492 	 0
END IONS

BEGIN IONS
PEPMASS=400.212
CHARGE=1
MSLEVEL=2
RT=0
SOURCE_INSTRUMENT=qTOF
FILENAME=CCMSLIB00000080155.ms
IONMODE=Positive
ORGANISM=Natural
NAME=MLS001142936-01!7-[2-[(4aS,8aS)-4a-hydroxy-1,3,4,5,6,7,8,8a-octahydroisoquinolin-2-yl]-2-oxoethoxy]-4-ethyl-8-methylchromen-2-one
PI=GNPS
DATACOLLECTOR=GNPS
SMILES=CCc1cc(=O)oc2c(C)c(ccc12)OCC(=O)N1CC[C@]2(CCCC[C@H]2C1)O
INCHI=InChI=1S/C23H29NO5/c1-3-16-12-21(26)29-22-15(2)19(8-7-18(16)22)28-14-20(25)24-11-10-23(27)9-5-4-6-17(23)13-24/h7-8,12,17,27H,3-6,9-11,13-14H2,1-2H3/t17-,23-/m0/s1
FORMULA=C23H29NO5
PUBMED=N/A
SUBMITUSER=BIOADREM
LIBRARYQUALITY=0
SPECTRUMID=CCMSLIB00000080155
SCANS=2349
ID=CCMSLIB00000080155
105.0698762568 	 10.02
108.0807752941 	 40.61
109.0886003262 	 13.91
110.0964253583 	 3.69
115.0542261926 	 2.18
116.0620512247 	 4.55
119.085526321 	 5.97
120.0933513531 	 7.58
121.1011763852 	 14.1
122.0964253583 	 18.5
128.0620512247 	 1.87
129.0698762568 	 8.61
131.085526321 	 7.96
133.1011763852 	 2.2
134.0964253583 	 2.61
136.1120754225 	 76.01
137.1199004546 	 88.13
138.1277254867 	 56.5
144.0569658468 	 2.17
146.072615911 	 2.51
150.1277254867 	 60.95
151.1355505188 	 25.35
157.0647908789 	 2.04
159.0804409431 	 44.16
161.0960910073 	 12.08
164.1069900446 	 11.82
168.138290173 	 13.4
174.0675305331 	 3.02
177.0910056294 	 2.1
178.1226401088 	 15.52
179.1304651409 	 100
187.0753555652 	 2.47
189.0910056294 	 41.19
196.1332047951 	 5.53
205.0859202515 	 9.74
217.0859202515 	 70.34
245.0808348736 	 5.51
262.1073839751 	 13.08
354.2063697382 	 19.02
382.2012843603 	 13.08
400.2118490466 	 0
END IONS

BEGIN IONS
PEPMASS=405.1817
CHARGE=1
MSLEVEL=2
RT=0
SOURCE_INSTRUMENT=qTOF
FILENAME=CCMSLIB00000080156.ms
IONMODE=Positive
ORGANISM=Natural
NAME=MLS001157879-01!N-[2-(1H-indol-3-yl)ethyl]-2-(3,4,7-trimethyl-2-oxochromen-5-yl)oxyacetamide
PI=GNPS
DATACOLLECTOR=GNPS
SMILES=Cc1cc(c2c(C)c(C)c(=O)oc2c1)OCC(=NCCc1c[nH]c2ccccc12)O
INCHI=InChI=1S/C24H24N2O4/c1-14-10-20(23-15(2)16(3)24(28)30-21(23)11-14)29-13-22(27)25-9-8-17-12-26-19-7-5-4-6-18(17)19/h4-7,10-12,26H,8-9,13H2,1-3H3,(H,25,27)
FORMULA=C24H24N2O4
PUBMED=N/A
SUBMITUSER=BIOADREM
LIBRARYQUALITY=0
SPECTRUMID=CCMSLIB00000080156
SCANS=2350
ID=CCMSLIB00000080156
103.0542261926 	 1.44
105.0698762568 	 0.73
115.0542261926 	 6.26
117.0698762568 	 7.62
119.085526321 	 0.31
121.0647908789 	 1.21
127.0542261926 	 1.33
129.0698762568 	 1.23
130.0651252299 	 2.73
131.072950262 	 1.68
137.059705501 	 0.3
142.0651252299 	 1.74
143.072950262 	 17.13
144.0807752941 	 100
147.0804409431 	 0.29
149.0960910073 	 0.65
156.0807752941 	 1.9
158.0838492993 	 0.72
159.0804409431 	 2.13
161.059705501 	 2.61
173.1073243956 	 0.81
175.0753555652 	 1.59
176.0831805973 	 7.96
183.0916743314 	 0.25
184.0756899162 	 0.49
189.0910056294 	 2.21
201.1022390177 	 0.27
204.0780952194 	 1.47
205.0859202515 	 9.48
217.0859202515 	 2.16
245.0808348736 	 0.6
262.1073839751 	 0.95
288.1230340393 	 0.26
405.1808832692 	 0.07
END IONS

BEGIN IONS
PEPMASS=324.1719
CHARGE=1
MSLEVEL=2
RT=0
SOURCE_INSTRUMENT=qTOF
FILENAME=CCMSLIB00000080157.ms
IONMODE=Positive
ORGANISM=Natural
NAME=MLS001075335-01!
PI=GNPS
DATACOLLECTOR=GNPS
SMILES=Cc1cccc(c1)N=C(N1C[C@H]2C[C@@H](C1)c1cccc(=O)n1C2)O
INCHI=InChI=1S/C19H21N3O2/c1-13-4-2-5-16(8-13)20-19(24)21-10-14-9-15(12-21)17-6-3-7-18(23)22(17)11-14/h2-8,14-15H,9-12H2,1H3,(H,20,24)/t14-,15+/m1/s1
FORMULA=C19H21N3O2
PUBMED=N/A
SUBMITUSER=BIOADREM
LIBRARYQUALITY=0
SPECTRUMID=CCMSLIB00000080157
SCANS=2351
ID=CCMSLIB00000080157
103.0542261926 	 0.89
104.0494751657 	 1.99
105.0573001978 	 1.15
106.0651252299 	 4.45
108.0443897878 	 1.62
115.0542261926 	 2.45
116.0494751657 	 1.09
117.0573001978 	 4.72
118.0651252299 	 3.25
120.0807752941 	 0.75
122.060039852 	 0.98
129.0698762568 	 2.61
130.0651252299 	 4.71
131.072950262 	 5.34
132.0443897878 	 9.52
132.0807752941 	 4.01
133.0522148199 	 17.52
134.060039852 	 11.03
141.0573001978 	 0.64
142.0651252299 	 4.65
144.0807752941 	 3.13
145.0522148199 	 2.23
146.060039852 	 51.39
148.0756899162 	 28.48
154.0651252299 	 2.14
156.0807752941 	 3.67
158.060039852 	 10.94
159.0678648841 	 8.34
160.0756899162 	 100
171.0916743314 	 0.85
172.0756899162 	 15.72
174.0913399804 	 44.39
189.1022390177 	 26.75
199.0865889535 	 1.66
217.0971536398 	 87.19
324.1706529339 	 2.5
END IONS

BEGIN IONS
PEPMASS=388.176
CHARGE=1
MSLEVEL=2
RT=0
SOURCE_INSTRUMENT=qTOF
FILENAME=CCMSLIB00000080158.ms
IONMODE=Positive
ORGANISM=Natural
NAME=MLS001140440-01!4-[[[2-(4,8-dimethyl-2-oxochromen-7-yl)oxyacetyl]amino]methyl]cyclohexane-1-carboxylic acid
PI=GNPS
DATACOLLECTOR=GNPS
SMILES=Cc1cc(=O)oc2c(C)c(ccc12)OCC(=NC[C@H]1CC[C@@H](CC1)C(=O)O)O
INCHI=InChI=1S/C21H25NO6/c1-12-9-19(24)28-20-13(2)17(8-7-16(12)20)27-11-18(23)22-10-14-3-5-15(6-4-14)21(25)26/h7-9,14-15H,3-6,10-11H2,1-2H3,(H,22,23)(H,25,26)/t14-,15-
FORMULA=C21H25NO6
PUBMED=N/A
SUBMITUSER=BIOADREM
LIBRARYQUALITY=0
SPECTRUMID=CCMSLIB00000080158
SCANS=2352
ID=CCMSLIB00000080158
107.085526321 	 1.11
115.0542261926 	 3.5
117.0698762568 	 2.18
119.085526321 	 2.94
121.0647908789 	 0.71
132.0569658468 	 2.45
133.0647908789 	 0.57
135.0804409431 	 3.32
145.0647908789 	 15.88
147.0804409431 	 3.67
161.059705501 	 1.91
173.059705501 	 3.57
175.0753555652 	 6.42
191.0702701873 	 100
203.0702701873 	 48.66
231.0651848094 	 10.48
248.0917339109 	 23.2
342.1699842319 	 6.33
388.1754635403 	 0
END IONS

BEGIN IONS
PEPMASS=535.256
CHARGE=1
MSLEVEL=2
RT=0
SOURCE_INSTRUMENT=qTOF
FILENAME=CCMSLIB00000080159.ms
IONMODE=Positive
ORGANISM=Natural
NAME=MLS001140693-01!1-[(2S)-2-[[(2S)-2-(2,4-dioxo-1H-quinazolin-3-yl)-3-phenylpropanoyl]amino]-3-methylpentanoyl]piperidine-4-carboxylic acid
PI=GNPS
DATACOLLECTOR=GNPS
SMILES=CCC(C)[C@@H](C(=O)N1CCC(CC1)C(=O)O)N=C([C@H](Cc1ccccc1)n1c(=O)c2ccccc2nc1O)O
INCHI=InChI=1S/C29H34N4O6/c1-3-18(2)24(27(36)32-15-13-20(14-16-32)28(37)38)31-25(34)23(17-19-9-5-4-6-10-19)33-26(35)21-11-7-8-12-22(21)30-29(33)39/h4-12,18,20,23-24H,3,13-17H2,1-2H3,(H,30,39)(H,31,34)(H,37,38)/t18?,23-,24-/m0/s1
FORMULA=C29H34N4O6
PUBMED=N/A
SUBMITUSER=BIOADREM
LIBRARYQUALITY=0
SPECTRUMID=CCMSLIB00000080159
SCANS=2353
ID=CCMSLIB00000080159
103.0542261926 	 3.36
112.0756899162 	 5.89
130.0862546025 	 17.01
131.0491408147 	 0.29
145.0396387609 	 0.46
146.0236543457 	 11.62
163.0502034472 	 4.43
247.0865889535 	 1.96
265.0971536398 	 100
275.0815035756 	 1.18
293.0920682619 	 14.7
343.0924621924 	 0.28
535.2551108448 	 0
END IONS

BEGIN IONS
PEPMASS=409.224
CHARGE=1
MSLEVEL=2
RT=0
SOURCE_INSTRUMENT=qTOF
FILENAME=CCMSLIB00000080160.ms
IONMODE=Positive
ORGANISM=Natural
NAME=MLS001142920-01!
PI=GNPS
DATACOLLECTOR=GNPS
SMILES=CCc1ccc(cc1)NC(=O)CCN=C(N1C[C@H]2C[C@@H](C1)c1cccc(=O)n1C2)O
INCHI=InChI=1S/C23H28N4O3/c1-2-16-6-8-19(9-7-16)25-21(28)10-11-24-23(30)26-13-17-12-18(15-26)20-4-3-5-22(29)27(20)14-17/h3-9,17-18H,2,10-15H2,1H3,(H,24,30)(H,25,28)/t17-,18+/m1/s1
FORMULA=C23H28N4O3
PUBMED=N/A
SUBMITUSER=BIOADREM
LIBRARYQUALITY=0
SPECTRUMID=CCMSLIB00000080160
SCANS=2354
ID=CCMSLIB00000080160
105.0698762568 	 0.84
118.0651252299 	 0.39
120.0807752941 	 3.01
122.0964253583 	 19.08
130.0651252299 	 0.56
131.072950262 	 0.6
132.0443897878 	 1.24
132.0807752941 	 0.64
133.0522148199 	 1.56
134.060039852 	 1.16
134.0964253583 	 0.6
146.060039852 	 9.39
146.0964253583 	 5.81
148.0756899162 	 22.29
158.060039852 	 2.6
158.0964253583 	 7.63
159.0678648841 	 1.18
160.0756899162 	 21.29
162.0913399804 	 0.78
172.0756899162 	 4.41
174.0913399804 	 10.72
176.1069900446 	 3.23
188.0706045383 	 2.77
189.1022390177 	 17.97
191.1178890819 	 52.33
201.1022390177 	 0.79
216.113138055 	 0.74
217.0971536398 	 100
219.112803704 	 5.74
234.1237027413 	 73.41
246.1237027413 	 40.65
260.1393528055 	 0.5
288.1342674276 	 28.77
409.2234167859 	 0
END IONS

BEGIN IONS
PEPMASS=271.0606
CHARGE=1
MSLEVEL=2
RT=0
SOURCE_INSTRUMENT=qTOF
FILENAME=CCMSLIB00000080161.ms
IONMODE=Positive
ORGANISM=Natural
NAME=MLS000863576-01!(2Z)-2-[(3,4-dihydroxyphenyl)methylidene]-6-hydroxy-1-benzofuran-3-one
PI=GNPS
DATACOLLECTOR=GNPS
SMILES=c1cc(c(cc1/C=C\1/C(=O)c2ccc(cc2O1)O)O)O
INCHI=InChI=1S/C15H10O5/c16-9-2-3-10-13(7-9)20-14(15(10)19)6-8-1-4-11(17)12(18)5-8/h1-7,16-18H/b14-6-
FORMULA=C15H10O5
PUBMED=N/A
SUBMITUSER=BIOADREM
LIBRARYQUALITY=0
SPECTRUMID=CCMSLIB00000080161
SCANS=2355
ID=CCMSLIB00000080161
105.0334907505 	 11.47
107.0491408147 	 17.11
115.0542261926 	 26.18
117.0334907505 	 11.4
117.0698762568 	 6.19
121.0284053726 	 11.77
127.0542261926 	 8.46
133.0284053726 	 6.68
135.0440554368 	 14.9
137.0233199947 	 100
141.0698762568 	 49.48
144.0569658468 	 11.16
145.0647908789 	 9.99
147.0440554368 	 19.37
149.0233199947 	 7.91
151.0542261926 	 9.93
153.0698762568 	 4.35
155.0491408147 	 10.79
159.0804409431 	 5.33
161.0233199947 	 15.33
168.0569658468 	 25.75
169.0647908789 	 40.71
175.0389700589 	 5.4
181.0647908789 	 8.03
183.0440554368 	 5.33
187.0753555652 	 7.48
197.059705501 	 81.61
200.046795091 	 13
201.0546201231 	 8.77
213.0546201231 	 12.02
215.0702701873 	 43.72
225.0546201231 	 76.82
253.0495347452 	 17.35
271.0600994315 	 21.34
END IONS

BEGIN IONS
PEPMASS=301.0707
CHARGE=1
MSLEVEL=2
RT=0
SOURCE_INSTRUMENT=qTOF
FILENAME=CCMSLIB00000080162.ms
IONMODE=Positive
ORGANISM=Natural
NAME=MLS000877008-01!5,7-dihydroxy-2-(4-hydroxyphenyl)-3-methoxychromen-4-one
PI=GNPS
DATACOLLECTOR=GNPS
SMILES=COc1c(=O)c2c(cc(cc2oc1c1ccc(cc1)O)O)O
INCHI=InChI=1S/C16H12O6/c1-21-16-14(20)13-11(19)6-10(18)7-12(13)22-15(16)8-2-4-9(17)5-3-8/h2-7,17-19H,1H3
FORMULA=C16H12O6
PUBMED=N/A
SUBMITUSER=BIOADREM
LIBRARYQUALITY=0
SPECTRUMID=CCMSLIB00000080162
SCANS=2356
ID=CCMSLIB00000080162
108.0205803405 	 5.26
115.0542261926 	 1.54
121.0284053726 	 12.81
128.0620512247 	 2.44
136.0154949626 	 7.12
137.0233199947 	 6.25
149.0233199947 	 1.54
153.0182346168 	 5.29
165.0182346168 	 2.09
173.059705501 	 2.12
177.0182346168 	 2.21
184.0518804689 	 15.19
185.059705501 	 2.35
193.0131492389 	 4.59
195.0440554368 	 2.27
202.0624451552 	 1.69
211.0389700589 	 1.95
212.046795091 	 9.24
213.0546201231 	 15.89
215.033884681 	 4.79
229.0495347452 	 27.45
230.0573597773 	 4.82
239.033884681 	 2.24
240.0417097131 	 4.39
241.0495347452 	 5.69
257.0444493673 	 6.51
258.0522743994 	 31.61
269.0444493673 	 4.07
285.0393639894 	 86.32
286.0471890215 	 100
301.0706641178 	 16.36
END IONS

BEGIN IONS
PEPMASS=411.1921
CHARGE=1
MSLEVEL=2
RT=0
SOURCE_INSTRUMENT=qTOF
FILENAME=CCMSLIB00000080163.ms
IONMODE=Positive
ORGANISM=Natural
NAME=MLS001159036-01!N-[3-(2-oxopyrrolidin-1-yl)propyl]-2-(3,4,9-trimethyl-7-oxofuro[2,3-f]chromen-8-yl)acetamide
PI=GNPS
DATACOLLECTOR=GNPS
SMILES=Cc1cc2c(c(C)c(CC(=NCCCN3CCCC3=O)O)c(=O)o2)c2c1c(C)co2
INCHI=InChI=1S/C23H26N2O5/c1-13-10-17-21(22-20(13)14(2)12-29-22)15(3)16(23(28)30-17)11-18(26)24-7-5-9-25-8-4-6-19(25)27/h10,12H,4-9,11H2,1-3H3,(H,24,26)
FORMULA=C23H26N2O5
PUBMED=N/A
SUBMITUSER=BIOADREM
LIBRARYQUALITY=0
SPECTRUMID=CCMSLIB00000080163
SCANS=2357
ID=CCMSLIB00000080163
98.060039852 	 2.2
126.0913399804 	 6.48
170.0811692246 	 1.13
186.099893294 	 1.11
213.0910056294 	 14.83
214.0948079161 	 1.56
241.0859202515 	 100
242.0897225382 	 19.45
249.151200583 	 2.45
269.0808348736 	 5.72
271.1328704441 	 8.23
336.1356100983 	 1.15
411.1914479555 	 11
END IONS

BEGIN IONS
PEPMASS=349.151
CHARGE=1
MSLEVEL=2
RT=0
SOURCE_INSTRUMENT=qTOF
FILENAME=CCMSLIB00000080164.ms
IONMODE=Positive
ORGANISM=Natural
NAME=MLS000766209-01!
PI=GNPS
DATACOLLECTOR=GNPS
SMILES=CC1=C(C2=C(C(COC(=N)O)C3(C4C(CN23)N4C)OC)C(=O)C1=N)O
INCHI=InChI=1S/C16H20N4O5/c1-6-10(17)13(22)9-7(5-25-15(18)23)16(24-3)14-8(19(14)2)4-20(16)11(9)12(6)21/h7-8,14,17,21H,4-5H2,1-3H3,(H2,18,23)
FORMULA=C16H20N4O5
PUBMED=N/A
SUBMITUSER=BIOADREM
LIBRARYQUALITY=0
SPECTRUMID=CCMSLIB00000080164
SCANS=2358
ID=CCMSLIB00000080164
131.060374203 	 3.74
132.0807752941 	 4.07
134.060039852 	 2.29
144.0780952194 	 2.37
145.0760242672 	 5.44
146.0838492993 	 3.4
147.0916743314 	 3.07
158.0811692246 	 3.74
159.0552888251 	 4.04
161.0709388893 	 2.78
169.0760242672 	 4.34
170.0712732403 	 3.97
171.0552888251 	 3.26
173.0709388893 	 5.6
174.0760838467 	 3.12
175.0865889535 	 13.65
176.0706045383 	 5.26
184.0869233045 	 4.01
185.0709388893 	 7.3
186.0760838467 	 4.18
187.0865889535 	 3.32
189.0658535114 	 3.91
197.0709388893 	 3.08
199.0865889535 	 2.5
201.0658535114 	 2.34
201.1022390177 	 2.61
202.0709984688 	 5.23
203.0815035756 	 11.81
204.0893286077 	 3.47
212.0818379266 	 4.45
213.0896629587 	 5.4
214.0736785435 	 24.88
215.0815035756 	 16.18
217.0607681335 	 7.23
227.0815035756 	 8.85
228.113138055 	 5.83
229.0971536398 	 8.47
230.0924026129 	 4.23
232.0842432298 	 5.52
240.0767525487 	 11.33
241.0845775808 	 42.51
242.0924026129 	 12.61
243.0975475703 	 12.26
256.1080526771 	 100
258.1210226666 	 4.2
349.1506457733 	 0
END IONS

BEGIN IONS
PEPMASS=399.156
CHARGE=1
MSLEVEL=2
RT=0
SOURCE_INSTRUMENT=qTOF
FILENAME=CCMSLIB00000080165.ms
IONMODE=Positive
ORGANISM=Natural
NAME=MLS001160273-01!N-(4-acetamidophenyl)-2-[(5-hydroxy-2,2-dimethyl-4-oxo-3H-chromen-7-yl)oxy]acetamide
PI=GNPS
DATACOLLECTOR=GNPS
SMILES=CC(=Nc1ccc(cc1)NC(=O)COc1cc(c2C(=O)CC(C)(C)Oc2c1)O)O
INCHI=InChI=1S/C21H22N2O6/c1-12(24)22-13-4-6-14(7-5-13)23-19(27)11-28-15-8-16(25)20-17(26)10-21(2,3)29-18(20)9-15/h4-9,25H,10-11H2,1-3H3,(H,22,24)(H,23,27)
FORMULA=C21H22N2O6
PUBMED=N/A
SUBMITUSER=BIOADREM
LIBRARYQUALITY=0
SPECTRUMID=CCMSLIB00000080165
SCANS=2359
ID=CCMSLIB00000080165
106.0651252299 	 2.97
107.060374203 	 4.67
108.0655191604 	 2.68
109.0733441925 	 5.77
121.0760242672 	 59.61
122.060039852 	 3.2
132.0681992351 	 2.22
133.0760242672 	 2.48
135.0103500052 	 2.06
136.0842432298 	 2.06
148.0631138572 	 2.54
149.0709388893 	 72.53
151.0839088788 	 21.37
153.0182346168 	 100
155.021308622 	 3.16
161.0682588146 	 2.68
163.0865889535 	 19.67
165.0182346168 	 17.75
171.0287993031 	 5.51
173.0682588146 	 6.39
176.0427723456 	 2.54
179.0702701873 	 6.49
191.0788235009 	 21.92
192.0780952194 	 4.44
193.0131492389 	 10.38
194.0533370319 	 2.71
209.0808348736 	 52.07
210.0886599057 	 6.82
211.0839088788 	 3.16
221.0808348736 	 34.62
222.0846371603 	 5.25
249.0757494957 	 4.6
275.1026329482 	 2.9
299.1026329482 	 2.38
301.0818975061 	 21.14
315.0975475703 	 2.58
325.0818975061 	 3.16
343.0924621924 	 23.1
357.1444977629 	 14.58
399.1550624492 	 0
END IONS

BEGIN IONS
PEPMASS=464.2068
CHARGE=1
MSLEVEL=2
RT=0
SOURCE_INSTRUMENT=qTOF
FILENAME=CCMSLIB00000080167.ms
IONMODE=Positive
ORGANISM=Natural
NAME=MLS001158021-01!1-[2-(8-methyl-2-oxo-4-propylchromen-7-yl)oxyacetyl]-4-phenylpiperidine-4-carboxylic acid
PI=GNPS
DATACOLLECTOR=GNPS
SMILES=CCCc1cc(=O)oc2c(C)c(ccc12)OCC(=O)N1CCC(CC1)(c1ccccc1)C(=O)O
INCHI=InChI=1S/C27H29NO6/c1-3-7-19-16-24(30)34-25-18(2)22(11-10-21(19)25)33-17-23(29)28-14-12-27(13-15-28,26(31)32)20-8-5-4-6-9-20/h4-6,8-11,16H,3,7,12-15,17H2,1-2H3,(H,31,32)
FORMULA=C27H29NO6
PUBMED=N/A
SUBMITUSER=BIOADREM
LIBRARYQUALITY=0
SPECTRUMID=CCMSLIB00000080167
SCANS=2360
ID=CCMSLIB00000080167
103.0542261926 	 2
105.0698762568 	 1.21
110.060039852 	 2.39
115.0542261926 	 3.27
117.0698762568 	 4.16
119.085526321 	 1.18
129.0698762568 	 3.36
130.0777012889 	 3.83
131.0491408147 	 1.6
131.085526321 	 5.73
141.0698762568 	 1.73
142.0777012889 	 1.87
143.085526321 	 21.94
144.0569658468 	 3.69
144.0807752941 	 5.3
145.1011763852 	 2.85
155.085526321 	 1.32
157.0647908789 	 1.63
158.0964253583 	 52.63
159.1042503904 	 12.37
160.1120754225 	 11.31
162.0675305331 	 2.3
171.0804409431 	 1.9
172.1120754225 	 11.33
173.0960910073 	 8.21
175.1117410715 	 2.39
186.0913399804 	 5.72
187.0991650125 	 100
190.0624451552 	 1.58
190.1226401088 	 8.93
200.1069900446 	 2.46
201.1148150767 	 4.61
202.1226401088 	 8.72
203.1066556936 	 7.06
218.1175547309 	 29.08
231.1015703157 	 31.09
246.112469353 	 2.13
259.0964849378 	 4.57
276.1230340393 	 2.43
418.2012843603 	 7.22
464.2067636687 	 8.99
END IONS

BEGIN IONS
PEPMASS=400.1764
CHARGE=1
MSLEVEL=2
RT=0
SOURCE_INSTRUMENT=qTOF
FILENAME=CCMSLIB00000080168.ms
IONMODE=Positive
ORGANISM=Natural
NAME=MLS001159055-01!1-[2-[(3-methyl-6-oxo-7,8,9,10-tetrahydrobenzo[c]chromen-1-yl)oxy]acetyl]piperidine-4-carboxylic acid
PI=GNPS
DATACOLLECTOR=GNPS
SMILES=Cc1cc(c2c3CCCCc3c(=O)oc2c1)OCC(=O)N1CCC(CC1)C(=O)O
INCHI=InChI=1S/C22H25NO6/c1-13-10-17(28-12-19(24)23-8-6-14(7-9-23)21(25)26)20-15-4-2-3-5-16(15)22(27)29-18(20)11-13/h10-11,14H,2-9,12H2,1H3,(H,25,26)
FORMULA=C22H25NO6
PUBMED=N/A
SUBMITUSER=BIOADREM
LIBRARYQUALITY=0
SPECTRUMID=CCMSLIB00000080168
SCANS=2361
ID=CCMSLIB00000080168
99.0440554368 	 3.9
112.0756899162 	 7.27
114.0549544741 	 7.69
126.0913399804 	 11.69
128.0706045383 	 68.04
137.059705501 	 7.79
140.0706045383 	 3.33
142.0862546025 	 66.45
145.0647908789 	 9.26
147.0440554368 	 3.77
155.085526321 	 3.69
159.0804409431 	 3.52
161.059705501 	 6.63
169.0647908789 	 3.37
169.1011763852 	 3.56
170.0811692246 	 14.11
173.059705501 	 6.38
174.0675305331 	 12.77
177.0546201231 	 7.01
183.0804409431 	 3.62
185.0960910073 	 3.73
187.0753555652 	 3.69
187.1117410715 	 4.28
189.0546201231 	 3.69
201.0546201231 	 5.3
201.0910056294 	 8.88
213.0910056294 	 6.42
215.0702701873 	 100
215.1066556936 	 36.14
228.0780952194 	 4.77
229.0859202515 	 49.65
231.1015703157 	 15.65
243.1015703157 	 89.28
271.0964849378 	 27.07
294.1335987256 	 9.57
354.1699842319 	 7.71
400.1754635403 	 23.83
END IONS

BEGIN IONS
PEPMASS=283.108
CHARGE=1
MSLEVEL=2
RT=0
SOURCE_INSTRUMENT=qTOF
FILENAME=CCMSLIB00000080170.ms
IONMODE=Positive
ORGANISM=Natural
NAME=MLS000863638-01!methyl 6-(1-hydroxyethyl)phenazine-1-carboxylate
PI=GNPS
DATACOLLECTOR=GNPS
SMILES=CC(c1cccc2c1nc1cccc(c1n2)C(=O)OC)O
INCHI=InChI=1S/C16H14N2O3/c1-9(19)10-5-3-7-12-14(10)17-13-8-4-6-11(15(13)18-12)16(20)21-2/h3-9,19H,1-2H3
FORMULA=C16H14N2O3
PUBMED=N/A
SUBMITUSER=BIOADREM
LIBRARYQUALITY=0
SPECTRUMID=CCMSLIB00000080170
SCANS=2363
ID=CCMSLIB00000080170
129.0573001978 	 1.47
152.0494751657 	 1.29
153.0573001978 	 5.47
154.0651252299 	 9.63
156.0681992351 	 6.39
171.0552888251 	 1.68
179.060374203 	 49.43
180.0681992351 	 100
181.0760242672 	 47.43
183.0552888251 	 7.02
184.0631138572 	 19.89
192.0681992351 	 1.78
194.0838492993 	 7.37
195.0552888251 	 1.98
195.0916743314 	 7.84
196.0631138572 	 7.02
197.0709388893 	 1.86
204.0681992351 	 1.45
205.0760242672 	 27.64
207.0552888251 	 2.85
207.0916743314 	 3.6
208.0631138572 	 55.28
211.0502034472 	 7.08
212.0580284793 	 67.15
222.0787639214 	 4.22
223.0865889535 	 10.79
226.0736785435 	 5.09
236.0580284793 	 4.88
240.0529431014 	 31.79
251.0815035756 	 72.33
254.0685931656 	 2.9
269.0920682619 	 5.61
283.1077183261 	 0
END IONS

BEGIN IONS
PEPMASS=172.076
CHARGE=1
MSLEVEL=2
RT=0
SOURCE_INSTRUMENT=qTOF
FILENAME=CCMSLIB00000080171.ms
IONMODE=Positive
ORGANISM=Natural
NAME=MLS001049034-01!1-phenylpyrrole-2-carbaldehyde
PI=GNPS
DATACOLLECTOR=GNPS
SMILES=c1ccc(cc1)n1cccc1C=O
INCHI=InChI=1S/C11H9NO/c13-9-11-7-4-8-12(11)10-5-2-1-3-6-10/h1-9H
FORMULA=C11H9NO
PUBMED=N/A
SUBMITUSER=BIOADREM
LIBRARYQUALITY=0
SPECTRUMID=CCMSLIB00000080171
SCANS=2364
ID=CCMSLIB00000080171
115.0542261926 	 100
116.0620512247 	 21.14
126.0464011605 	 8.51
127.0542261926 	 36.14
140.0494751657 	 6.93
142.0651252299 	 19.04
143.072950262 	 77.63
144.0807752941 	 71.93
154.0651252299 	 34.56
171.0678648841 	 2.89
172.0756899162 	 0
END IONS

BEGIN IONS
PEPMASS=577.245
CHARGE=1
MSLEVEL=2
RT=0
SOURCE_INSTRUMENT=qTOF
FILENAME=CCMSLIB00000080173.ms
IONMODE=Positive
ORGANISM=Natural
NAME=MLS001140669-01!
PI=GNPS
DATACOLLECTOR=GNPS
SMILES=CC(C)c1ccc(cc1)C1c2c(C[C@H]3C(=O)N(c4ccccc4C(=O)N4CCC[C@H]4C(=O)O)C(=O)N13)c1ccccc1[nH]2
INCHI=InChI=1S/C34H32N4O5/c1-19(2)20-13-15-21(16-14-20)30-29-24(22-8-3-5-10-25(22)35-29)18-28-32(40)38(34(43)37(28)30)26-11-6-4-9-23(26)31(39)36-17-7-12-27(36)33(41)42/h3-6,8-11,13-16,19,27-28,30,35H,7,12,17-18H2,1-2H3,(H,41,42)/t27-,28-,30?/m0/s1
FORMULA=C34H32N4O5
PUBMED=N/A
SUBMITUSER=BIOADREM
LIBRARYQUALITY=0
SPECTRUMID=CCMSLIB00000080173
SCANS=2365
ID=CCMSLIB00000080173
105.0698762568 	 0.85
120.0443897878 	 0.97
133.1011763852 	 2.42
146.0236543457 	 6.24
208.0756899162 	 12.52
216.0807752941 	 0.98
217.0886003262 	 5.57
218.0964253583 	 100
219.1015703157 	 25.82
230.0964253583 	 2.17
236.0706045383 	 35.26
250.1226401088 	 2.2
257.1199004546 	 0.84
258.0913399804 	 3.57
259.1355505188 	 0.87
260.1433755509 	 5.55
261.151200583 	 10.96
271.0865889535 	 0.87
272.1433755509 	 13.69
274.1226401088 	 0.89
278.1175547309 	 6.19
287.1542745882 	 1.09
299.0815035756 	 0.87
300.138290173 	 5.6
302.1386841035 	 0.9
315.1491892103 	 3.22
342.0913399804 	 0.72
349.1335391461 	 0.72
358.1100640498 	 0.6
359.1178890819 	 1.59
375.112803704 	 0.85
376.1206287361 	 4.03
377.1284537682 	 9.39
378.1335987256 	 3.88
391.1804893387 	 1.49
401.1648392745 	 0.87
419.1754039608 	 21.66
434.1863029981 	 4.47
435.1914479555 	 1.87
462.1812176202 	 27.55
577.2445461585 	 0
END IONS

BEGIN IONS
PEPMASS=424.224
CHARGE=1
MSLEVEL=2
RT=0
SOURCE_INSTRUMENT=qTOF
FILENAME=CCMSLIB00000080174.ms
IONMODE=Positive
ORGANISM=Natural
NAME=MLS001075553-01!
PI=GNPS
DATACOLLECTOR=GNPS
SMILES=COc1ccccc1CCN=C(CCC(=O)N1C[C@@H]2CC(C1)c1cccc(=O)n1C2)O
INCHI=InChI=1S/C24H29N3O4/c1-31-21-7-3-2-5-18(21)11-12-25-22(28)9-10-23(29)26-14-17-13-19(16-26)20-6-4-8-24(30)27(20)15-17/h2-8,17,19H,9-16H2,1H3,(H,25,28)/t17-,19?/m0/s1
FORMULA=C24H29N3O4
PUBMED=N/A
SUBMITUSER=BIOADREM
LIBRARYQUALITY=0
SPECTRUMID=CCMSLIB00000080174
SCANS=2366
ID=CCMSLIB00000080174
98.060039852 	 0.5
103.0542261926 	 1.23
105.0698762568 	 6.26
107.085526321 	 0.54
119.0491408147 	 0.48
119.085526321 	 0.72
120.0569658468 	 1.76
126.0549544741 	 0.65
134.060039852 	 0.49
135.0804409431 	 59.85
147.0804409431 	 0.51
148.0756899162 	 8.35
158.060039852 	 0.48
160.0756899162 	 5.73
174.0913399804 	 1.86
175.0753555652 	 5.52
191.1178890819 	 33.22
203.0702701873 	 47.47
227.1178890819 	 2.16
234.112469353 	 9.07
245.1284537682 	 100
255.112803704 	 1.07
273.1233683903 	 91.81
424.2230824349 	 0
END IONS

BEGIN IONS
PEPMASS=337.1923
CHARGE=1
MSLEVEL=2
RT=0
SOURCE_INSTRUMENT=qTOF
FILENAME=CCMSLIB00000080175.ms
IONMODE=Positive
ORGANISM=Natural
NAME=MLS001075528-01!
PI=GNPS
DATACOLLECTOR=GNPS
SMILES=CCC(c1ccccc1)C(=O)N1C[C@H]2C[C@@H](C1)c1cccc(=O)n1C2
INCHI=InChI=1S/C21H24N2O2/c1-2-18(16-7-4-3-5-8-16)21(25)22-12-15-11-17(14-22)19-9-6-10-20(24)23(19)13-15/h3-10,15,17-18H,2,11-14H2,1H3/t15-,17+,18?/m1/s1
FORMULA=C21H24N2O2
PUBMED=N/A
SUBMITUSER=BIOADREM
LIBRARYQUALITY=0
SPECTRUMID=CCMSLIB00000080175
SCANS=2367
ID=CCMSLIB00000080175
96.0443897878 	 0.37
103.0542261926 	 0.36
105.0698762568 	 0.63
117.0573001978 	 0.32
119.085526321 	 17.72
122.060039852 	 0.39
130.0651252299 	 0.68
132.0807752941 	 0.27
133.0522148199 	 1.22
146.060039852 	 1.8
148.0756899162 	 65.15
160.0756899162 	 2.44
174.0913399804 	 0.81
191.1178890819 	 100
337.191054025 	 10.59
END IONS

BEGIN IONS
PEPMASS=495.261
CHARGE=1
MSLEVEL=2
RT=0
SOURCE_INSTRUMENT=qTOF
FILENAME=CCMSLIB00000080176.ms
IONMODE=Positive
ORGANISM=Natural
NAME=MLS001158206-01!(2S)-2-[[(2S)-4-methyl-2-[[(2S)-3-oxo-2-propan-2-yl-2,4-dihydroquinoxaline-1-carbonyl]amino]pentanoyl]amino]-3-phenylpropanoic acid
PI=GNPS
DATACOLLECTOR=GNPS
SMILES=CC(C)C[C@@H](C(=N[C@@H](Cc1ccccc1)C(=O)O)O)N=C(N1c2ccccc2N=C([C@@H]1C(C)C)O)O
INCHI=InChI=1S/C27H34N4O5/c1-16(2)14-20(24(32)29-21(26(34)35)15-18-10-6-5-7-11-18)30-27(36)31-22-13-9-8-12-19(22)28-25(33)23(31)17(3)4/h5-13,16-17,20-21,23H,14-15H2,1-4H3,(H,28,33)(H,29,32)(H,30,36)(H,34,35)/t20-,21-,23-/m0/s1
FORMULA=C27H34N4O5
PUBMED=N/A
SUBMITUSER=BIOADREM
LIBRARYQUALITY=0
SPECTRUMID=CCMSLIB00000080176
SCANS=2368
ID=CCMSLIB00000080176
103.0542261926 	 0.74
106.0287397236 	 1.01
107.060374203 	 3.41
108.0681992351 	 3.16
119.060374203 	 27.45
120.0807752941 	 8.19
131.060374203 	 0.46
133.0396387609 	 16.16
135.0552888251 	 30.41
145.0760242672 	 0.49
146.060039852 	 3.39
147.0552888251 	 92.02
161.034553383 	 27.04
163.1229744598 	 36.52
171.0916743314 	 0.45
173.1073243956 	 2.15
175.0502034472 	 2.9
175.0865889535 	 14.12
189.1022390177 	 43.54
191.1178890819 	 6.32
199.0865889535 	 0.42
217.0971536398 	 100
231.1491892103 	 1.29
246.1237027413 	 1.38
259.1441038324 	 5.79
274.191388376 	 11.86
302.1863029981 	 36.13
495.2601962227 	 0
END IONS

BEGIN IONS
PEPMASS=497.171
CHARGE=1
MSLEVEL=2
RT=0
SOURCE_INSTRUMENT=qTOF
FILENAME=CCMSLIB00000080177.ms
IONMODE=Positive
ORGANISM=Natural
NAME=MLS001141003-01!(2R)-3-(1H-indol-3-yl)-2-[2-(2-oxo-4-phenylchromen-7-yl)oxypropanoylamino]propanoic acid
PI=GNPS
DATACOLLECTOR=GNPS
SMILES=CC(C(=N[C@H](Cc1c[nH]c2ccccc12)C(=O)O)O)Oc1ccc2c(cc(=O)oc2c1)c1ccccc1
INCHI=InChI=1S/C29H24N2O6/c1-17(28(33)31-25(29(34)35)13-19-16-30-24-10-6-5-9-21(19)24)36-20-11-12-22-23(18-7-3-2-4-8-18)15-27(32)37-26(22)14-20/h2-12,14-17,25,30H,13H2,1H3,(H,31,33)(H,34,35)/t17?,25-/m1/s1
FORMULA=C29H24N2O6
PUBMED=N/A
SUBMITUSER=BIOADREM
LIBRARYQUALITY=0
SPECTRUMID=CCMSLIB00000080177
SCANS=2369
ID=CCMSLIB00000080177
115.0542261926 	 9.02
117.0573001978 	 5.22
118.0651252299 	 17.46
130.0651252299 	 100
131.0702701873 	 12.08
132.0807752941 	 20.26
142.0651252299 	 15.54
143.072950262 	 10.75
144.0807752941 	 15.68
146.060039852 	 59.54
154.0651252299 	 4.07
155.072950262 	 4.85
156.0807752941 	 3.77
159.0916743314 	 44.96
165.0698762568 	 30.83
166.0777012889 	 4.69
168.0807752941 	 15.02
170.060039852 	 43.28
170.0964253583 	 16.18
171.0651848094 	 7.05
178.0777012889 	 10.7
184.0756899162 	 4.83
185.1073243956 	 17.75
188.0706045383 	 56.84
189.0757494957 	 7.68
191.085526321 	 8.97
193.0647908789 	 6.63
194.072615911 	 9.41
209.0960910073 	 11.74
213.1022390177 	 4.56
221.059705501 	 7.61
237.0910056294 	 24.88
238.0948079161 	 6.42
239.0702701873 	 44.29
240.074072474 	 7.27
265.0859202515 	 81.46
266.0897225382 	 18.82
380.1281194172 	 5.87
451.165233205 	 15.52
497.1707125134 	 0
END IONS

BEGIN IONS
PEPMASS=450.191
CHARGE=1
MSLEVEL=2
RT=0
SOURCE_INSTRUMENT=qTOF
FILENAME=CCMSLIB00000080178.ms
IONMODE=Positive
ORGANISM=Natural
NAME=MLS001141238-01!4-phenyl-1-[2-(3,4,8-trimethyl-2-oxochromen-7-yl)oxyacetyl]piperidine-4-carboxylic acid
PI=GNPS
DATACOLLECTOR=GNPS
SMILES=Cc1c(C)c(=O)oc2c(C)c(ccc12)OCC(=O)N1CCC(CC1)(c1ccccc1)C(=O)O
INCHI=InChI=1S/C26H27NO6/c1-16-17(2)24(29)33-23-18(3)21(10-9-20(16)23)32-15-22(28)27-13-11-26(12-14-27,25(30)31)19-7-5-4-6-8-19/h4-10H,11-15H2,1-3H3,(H,30,31)
FORMULA=C26H27NO6
PUBMED=N/A
SUBMITUSER=BIOADREM
LIBRARYQUALITY=0
SPECTRUMID=CCMSLIB00000080178
SCANS=2370
ID=CCMSLIB00000080178
103.0542261926 	 4.83
104.0494751657 	 2.02
105.0698762568 	 1.94
110.060039852 	 2.33
115.0542261926 	 4.63
116.0620512247 	 1.56
117.0698762568 	 4.21
128.0620512247 	 4.38
129.0698762568 	 2.76
130.0777012889 	 2.88
131.0491408147 	 1.86
132.0807752941 	 1.86
133.1011763852 	 1.86
135.0804409431 	 1.49
141.0698762568 	 2.13
143.085526321 	 12.4
144.0569658468 	 6.68
144.0807752941 	 8.93
145.0886003262 	 3.59
146.072615911 	 2.07
158.0964253583 	 39.44
159.0804409431 	 5.67
159.1042503904 	 13.09
160.1120754225 	 11.78
161.059705501 	 3
171.0804409431 	 2.15
172.1120754225 	 8.78
173.0960910073 	 1.63
175.0753555652 	 2.19
176.0831805973 	 10.79
186.0913399804 	 5.93
187.0991650125 	 100
189.0910056294 	 12.04
200.1069900446 	 1.85
201.1148150767 	 3.44
203.0702701873 	 2.5
204.0780952194 	 7.15
217.0859202515 	 37.79
218.1175547309 	 18.09
245.0808348736 	 8.12
404.1856342961 	 3.71
450.1911136045 	 4.84
END IONS

BEGIN IONS
PEPMASS=436.1755
CHARGE=1
MSLEVEL=2
RT=0
SOURCE_INSTRUMENT=qTOF
FILENAME=CCMSLIB00000080179.ms
IONMODE=Positive
ORGANISM=Natural
NAME=MLS001141310-01!1-[2-(4,8-dimethyl-2-oxochromen-7-yl)oxyacetyl]-4-phenylpiperidine-4-carboxylic acid
PI=GNPS
DATACOLLECTOR=GNPS
SMILES=Cc1cc(=O)oc2c(C)c(ccc12)OCC(=O)N1CCC(CC1)(c1ccccc1)C(=O)O
INCHI=InChI=1S/C25H25NO6/c1-16-14-22(28)32-23-17(2)20(9-8-19(16)23)31-15-21(27)26-12-10-25(11-13-26,24(29)30)18-6-4-3-5-7-18/h3-9,14H,10-13,15H2,1-2H3,(H,29,30)
FORMULA=C25H25NO6
PUBMED=N/A
SUBMITUSER=BIOADREM
LIBRARYQUALITY=0
SPECTRUMID=CCMSLIB00000080179
SCANS=2371
ID=CCMSLIB00000080179
103.0542261926 	 6.12
105.0698762568 	 1.61
115.0542261926 	 6.89
116.0620512247 	 3.98
117.0698762568 	 4.16
119.085526321 	 2.01
126.0549544741 	 1.42
128.0620512247 	 6.43
129.0698762568 	 3.73
131.0491408147 	 1.57
141.0698762568 	 2.63
142.0777012889 	 2.4
143.085526321 	 18.54
144.0569658468 	 7.27
144.0807752941 	 7.68
145.0647908789 	 11.69
158.0964253583 	 50.9
159.1042503904 	 16.1
160.1120754225 	 10.28
162.0675305331 	 2.68
172.1120754225 	 8.6
173.059705501 	 1.51
175.0753555652 	 7
182.0964253583 	 1.42
186.0913399804 	 5.74
187.0991650125 	 100
190.1226401088 	 7.25
200.1069900446 	 3.07
202.1226401088 	 7.5
203.0702701873 	 33.4
204.1019046667 	 11.61
218.1175547309 	 22.88
246.112469353 	 2.15
390.1699842319 	 4.42
436.1754635403 	 5.03
END IONS

BEGIN IONS
PEPMASS=421.1756
CHARGE=1
MSLEVEL=2
RT=0
SOURCE_INSTRUMENT=qTOF
FILENAME=CCMSLIB00000080180.ms
IONMODE=Positive
ORGANISM=Natural
NAME=MLS001160502-01!
PI=GNPS
DATACOLLECTOR=GNPS
SMILES=Cc1cc(c2c(C)c(CC(=O)N3C[C@H]4C[C@@H](C3)c3cccc(=O)n3C4)c(=O)oc2c1)O
INCHI=InChI=1S/C24H24N2O5/c1-13-6-19(27)23-14(2)17(24(30)31-20(23)7-13)9-22(29)25-10-15-8-16(12-25)18-4-3-5-21(28)26(18)11-15/h3-7,15-16,27H,8-12H2,1-2H3/t15-,16+/m1/s1
FORMULA=C24H24N2O5
PUBMED=N/A
SUBMITUSER=BIOADREM
LIBRARYQUALITY=0
SPECTRUMID=CCMSLIB00000080180
SCANS=2372
ID=CCMSLIB00000080180
103.0542261926 	 0.75
105.0698762568 	 2.73
107.085526321 	 0.28
116.0620512247 	 0.38
119.085526321 	 0.51
120.0569658468 	 0.87
129.0698762568 	 0.4
132.0569658468 	 0.4
135.0804409431 	 16.22
144.0569658468 	 0.75
147.0804409431 	 0.73
148.0756899162 	 5.48
156.0807752941 	 0.4
159.0804409431 	 0.87
174.0913399804 	 0.94
175.0753555652 	 4.28
191.1178890819 	 25.44
202.0862546025 	 0.34
203.0702701873 	 100
227.1178890819 	 0.95
234.112469353 	 5.45
245.1284537682 	 32.33
273.1233683903 	 51.63
421.1757978913 	 2.57
END IONS

BEGIN IONS
PEPMASS=274.1433
CHARGE=1
MSLEVEL=2
RT=0
SOURCE_INSTRUMENT=qTOF
FILENAME=CCMSLIB00000080181.ms
IONMODE=Positive
ORGANISM=Natural
NAME=MLS002473214-01!(2E,4E)-5-(1,3-benzodioxol-5-yl)-N-(2-methylpropyl)penta-2,4-dienamide
PI=GNPS
DATACOLLECTOR=GNPS
SMILES=CC(C)CN=C(/C=C/C=C/c1ccc2c(c1)OCO2)O
INCHI=InChI=1S/C16H19NO3/c1-12(2)10-17-16(18)6-4-3-5-13-7-8-14-15(9-13)20-11-19-14/h3-9,12H,10-11H2,1-2H3,(H,17,18)/b5-3+,6-4+
FORMULA=C16H19NO3
PUBMED=N/A
SUBMITUSER=BIOADREM
LIBRARYQUALITY=0
SPECTRUMID=CCMSLIB00000080181
SCANS=2373
ID=CCMSLIB00000080181
95.0491408147 	 0.45
103.0542261926 	 3.28
105.0334907505 	 4.55
115.0542261926 	 76.26
117.0698762568 	 4.92
123.0440554368 	 0.56
127.0542261926 	 1.51
131.0491408147 	 0.58
135.0440554368 	 100
138.0913399804 	 0.57
143.0491408147 	 38.16
145.0647908789 	 4.36
147.0440554368 	 0.54
150.0549544741 	 6.53
159.0440554368 	 8.12
171.0440554368 	 18.53
173.059705501 	 6.94
201.0546201231 	 43.71
274.1437694814 	 0.59
END IONS

BEGIN IONS
PEPMASS=285.0768
CHARGE=1
MSLEVEL=2
RT=0
SOURCE_INSTRUMENT=qTOF
FILENAME=CCMSLIB00000080182.ms
IONMODE=Positive
ORGANISM=Natural
NAME=MLS000877004-01!7-hydroxy-3-(4-hydroxyphenyl)-5-methoxychromen-4-one
PI=GNPS
DATACOLLECTOR=GNPS
SMILES=COc1cc(cc2c1c(=O)c(co2)c1ccc(cc1)O)O
INCHI=InChI=1S/C16H12O5/c1-20-13-6-11(18)7-14-15(13)16(19)12(8-21-14)9-2-4-10(17)5-3-9/h2-8,17-18H,1H3
FORMULA=C16H12O5
PUBMED=N/A
SUBMITUSER=BIOADREM
LIBRARYQUALITY=0
SPECTRUMID=CCMSLIB00000080182
SCANS=2374
ID=CCMSLIB00000080182
96.0205803405 	 2.01
118.0413157826 	 72.39
124.0154949626 	 43.7
139.0542261926 	 2.32
144.0569658468 	 1.37
152.0104095847 	 58.44
153.0182346168 	 64.72
157.0647908789 	 2.27
170.020974271 	 6.49
172.0518804689 	 1.92
223.0389700589 	 1.4
241.0495347452 	 5.28
242.0573597773 	 7.56
252.0417097131 	 1.56
269.0444493673 	 84.05
270.0522743994 	 100
285.0757494957 	 43.36
END IONS

BEGIN IONS
PEPMASS=378.122
CHARGE=1
MSLEVEL=2
RT=0
SOURCE_INSTRUMENT=qTOF
FILENAME=CCMSLIB00000080183.ms
IONMODE=Positive
ORGANISM=Natural
NAME=MLS001140274-01!(2S)-1-[(2S)-2-[(5-chloro-1-methylindole-2-carbonyl)amino]propanoyl]pyrrolidine-2-carboxylic acid
PI=GNPS
DATACOLLECTOR=GNPS
SMILES=C[C@@H](C(=O)N1CCC[C@H]1C(=O)O)N=C(c1cc2cc(ccc2n1C)Cl)O
INCHI=InChI=1S/C18H20ClN3O4/c1-10(17(24)22-7-3-4-14(22)18(25)26)20-16(23)15-9-11-8-12(19)5-6-13(11)21(15)2/h5-6,8-10,14H,3-4,7H2,1-2H3,(H,20,23)(H,25,26)/t10-,14-/m0/s1
FORMULA=C18H20ClN3O4
PUBMED=N/A
SUBMITUSER=BIOADREM
LIBRARYQUALITY=0
SPECTRUMID=CCMSLIB00000080183
SCANS=2375
ID=CCMSLIB00000080183
104.0494751657 	 0.32
105.0573001978 	 0.78
122.9996038063 	 8.42
124.0074288384 	 0.64
124.9981678767 	 2.58
128.0494751657 	 0.43
140.0261529078 	 0.92
142.0287397236 	 0.32
150.0105028436 	 0.9
164.0261529078 	 2.34
165.0312978652 	 0.49
166.0247169782 	 1.36
180.0210675299 	 0.87
192.0210675299 	 100
193.0262124873 	 11.21
194.0196316003 	 29.08
235.0632666956 	 1.03
237.0636606261 	 0.61
378.121509856 	 0
END IONS

BEGIN IONS
PEPMASS=388.176
CHARGE=1
MSLEVEL=2
RT=0
SOURCE_INSTRUMENT=qTOF
FILENAME=CCMSLIB00000080184.ms
IONMODE=Positive
ORGANISM=Natural
NAME=MLS001140920-01!4-[[2-(4-methyl-2-oxochromen-7-yl)oxypropanoylamino]methyl]cyclohexane-1-carboxylic acid
PI=GNPS
DATACOLLECTOR=GNPS
SMILES=Cc1cc(=O)oc2cc(ccc12)OC(C)C(=NC[C@H]1CC[C@@H](CC1)C(=O)O)O
INCHI=InChI=1S/C21H25NO6/c1-12-9-19(23)28-18-10-16(7-8-17(12)18)27-13(2)20(24)22-11-14-3-5-15(6-4-14)21(25)26/h7-10,13-15H,3-6,11H2,1-2H3,(H,22,24)(H,25,26)/t13?,14-,15-
FORMULA=C21H25NO6
PUBMED=N/A
SUBMITUSER=BIOADREM
LIBRARYQUALITY=0
SPECTRUMID=CCMSLIB00000080184
SCANS=2376
ID=CCMSLIB00000080184
95.085526321 	 6.9
105.0698762568 	 2.92
107.0491408147 	 0.77
107.085526321 	 1
112.1120754225 	 3.9
119.085526321 	 0.97
122.0964253583 	 1.01
131.0491408147 	 3.32
133.0647908789 	 1.66
135.0804409431 	 1.17
138.0913399804 	 2.62
138.1277254867 	 3.95
140.1069900446 	 17.49
147.0804409431 	 3.85
149.059705501 	 1.9
152.1069900446 	 1.38
159.0440554368 	 2.55
159.0804409431 	 1.53
166.0862546025 	 1.02
166.1226401088 	 1.1
167.1304651409 	 6.27
175.0753555652 	 8.51
177.0546201231 	 100
194.1175547309 	 4.51
195.125379763 	 0.96
203.0702701873 	 45.42
231.0651848094 	 1.97
248.0917339109 	 9.28
342.1699842319 	 7.15
388.1754635403 	 0
END IONS

BEGIN IONS
PEPMASS=436.153
CHARGE=1
MSLEVEL=2
RT=0
SOURCE_INSTRUMENT=qTOF
FILENAME=CCMSLIB00000080185.ms
IONMODE=Positive
ORGANISM=Natural
NAME=MLS001140950-01!4-[[2-(6-chloro-4-ethyl-2-oxochromen-7-yl)oxypropanoylamino]methyl]cyclohexane-1-carboxylic acid
PI=GNPS
DATACOLLECTOR=GNPS
SMILES=CCc1cc(=O)oc2cc(c(cc12)Cl)OC(C)C(=NC[C@H]1CC[C@@H](CC1)C(=O)O)O
INCHI=InChI=1S/C22H26ClNO6/c1-3-14-8-20(25)30-18-10-19(17(23)9-16(14)18)29-12(2)21(26)24-11-13-4-6-15(7-5-13)22(27)28/h8-10,12-13,15H,3-7,11H2,1-2H3,(H,24,26)(H,27,28)/t12?,13-,15-
FORMULA=C22H26ClNO6
PUBMED=N/A
SUBMITUSER=BIOADREM
LIBRARYQUALITY=0
SPECTRUMID=CCMSLIB00000080185
SCANS=2377
ID=CCMSLIB00000080185
95.085526321 	 10.81
103.0542261926 	 1.44
111.1042503904 	 5.21
112.1120754225 	 6
115.0542261926 	 1.62
124.0756899162 	 2.14
138.0913399804 	 5.65
138.1277254867 	 9.31
140.1069900446 	 46.44
141.0101684926 	 2.36
145.0647908789 	 2.42
155.0258185568 	 1.75
159.0804409431 	 3.51
161.059705501 	 2.34
162.0675305331 	 5.06
166.0862546025 	 2.76
166.1226401088 	 7.39
167.0258185568 	 1.59
167.1304651409 	 24.5
184.0968192888 	 2.46
184.1332047951 	 8.94
187.0753555652 	 4.81
188.0831805973 	 8.12
195.0571186852 	 2.39
196.0649437173 	 1.54
216.0780952194 	 1.99
223.015647801 	 8.49
223.0520333073 	 8.19
225.0312978652 	 100
251.0469479294 	 55.77
252.0547729615 	 5.38
279.0418625515 	 1.84
296.068411653 	 6.47
309.0762366851 	 1.49
390.146661974 	 7.39
391.1544870061 	 2.09
436.1521412824 	 0
END IONS

BEGIN IONS
PEPMASS=344.1176
CHARGE=1
MSLEVEL=2
RT=0
SOURCE_INSTRUMENT=qTOF
FILENAME=CCMSLIB00000080186.ms
IONMODE=Positive
ORGANISM=Natural
NAME=MLS001076763-01!
PI=GNPS
DATACOLLECTOR=GNPS
SMILES=c1cc(cc(c1)N=C(N1C[C@H]2C[C@@H](C1)c1cccc(=O)n1C2)O)Cl
INCHI=InChI=1S/C18H18ClN3O2/c19-14-3-1-4-15(8-14)20-18(24)21-9-12-7-13(11-21)16-5-2-6-17(23)22(16)10-12/h1-6,8,12-13H,7,9-11H2,(H,20,24)/t12-,13+/m1/s1
FORMULA=C18H18ClN3O2
PUBMED=N/A
SUBMITUSER=BIOADREM
LIBRARYQUALITY=0
SPECTRUMID=CCMSLIB00000080186
SCANS=2378
ID=CCMSLIB00000080186
96.0443897878 	 1.33
104.0494751657 	 1.77
105.0573001978 	 1.11
106.0651252299 	 1.44
115.0542261926 	 1.03
116.0494751657 	 1.63
117.0573001978 	 3.08
120.0807752941 	 1.91
122.060039852 	 1.65
128.0494751657 	 1.18
129.0698762568 	 1.88
130.0651252299 	 6.08
131.072950262 	 3.95
132.0443897878 	 8.26
132.0807752941 	 4.07
133.0522148199 	 14.83
134.060039852 	 8.44
142.0651252299 	 1.51
144.0807752941 	 3.97
145.0522148199 	 2.56
146.060039852 	 55.68
148.0756899162 	 25.52
154.0651252299 	 2.54
156.0807752941 	 4.16
158.060039852 	 14.49
159.0678648841 	 6.78
160.0756899162 	 98.97
171.0916743314 	 0.77
172.0756899162 	 13
174.0913399804 	 41.8
188.0706045383 	 5.42
189.1022390177 	 33.97
217.0971536398 	 100
344.1160305476 	 3.9
END IONS

BEGIN IONS
PEPMASS=345.145
CHARGE=1
MSLEVEL=2
RT=0
SOURCE_INSTRUMENT=qTOF
FILENAME=CCMSLIB00000080187.ms
IONMODE=Positive
ORGANISM=Natural
NAME=MLS001140559-01!1-[2-(4-methyl-2-oxochromen-7-yl)oxyacetyl]piperidine-4-carboxamide
PI=GNPS
DATACOLLECTOR=GNPS
SMILES=Cc1cc(=O)oc2cc(ccc12)OCC(=O)N1CCC(CC1)C(=N)O
INCHI=InChI=1S/C18H20N2O5/c1-11-8-17(22)25-15-9-13(2-3-14(11)15)24-10-16(21)20-6-4-12(5-7-20)18(19)23/h2-3,8-9,12H,4-7,10H2,1H3,(H2,19,23)
FORMULA=C18H20N2O5
PUBMED=N/A
SUBMITUSER=BIOADREM
LIBRARYQUALITY=0
SPECTRUMID=CCMSLIB00000080187
SCANS=2379
ID=CCMSLIB00000080187
96.0807752941 	 13.87
97.0886003262 	 9.75
98.060039852 	 8.47
103.0542261926 	 22.41
105.0698762568 	 10.27
110.0573597773 	 6.75
112.0756899162 	 14.84
124.0756899162 	 9.52
125.0835149483 	 12.29
131.0491408147 	 34.48
132.0529431014 	 7.8
133.0607681335 	 12.37
134.072615911 	 4.05
135.0440554368 	 6.45
141.0447241388 	 4.57
159.0440554368 	 95.43
160.0478577235 	 6.22
161.059705501 	 51.8
173.0556827556 	 6.07
177.0546201231 	 12.59
187.0542261926 	 16.34
187.0839088788 	 4.27
189.0546201231 	 100
190.0584224098 	 12.89
217.0522148199 	 10.64
230.0838492993 	 9.75
246.0760838467 	 11.09
257.0808348736 	 9.45
258.0787639214 	 5.1
272.1281194172 	 32.23
300.1230340393 	 47.23
328.1179486614 	 12.29
345.1444977629 	 0
END IONS

BEGIN IONS
PEPMASS=573.176
CHARGE=1
MSLEVEL=2
RT=0
SOURCE_INSTRUMENT=qTOF
FILENAME=CCMSLIB00000080188.ms
IONMODE=Positive
ORGANISM=Natural
NAME=MLS002472885-01!9-[2-[3-hydroxy-2-methyl-4-(7-oxofuro[3,2-g]chromen-9-yl)oxybutan-2-yl]oxy-3-methylbut-3-enoxy]furo[3,2-g]chromen-7-one
PI=GNPS
DATACOLLECTOR=GNPS
SMILES=C=C(C)C(COc1c2c(cco2)cc2ccc(=O)oc12)OC(C)(C)C(COc1c2c(cco2)cc2ccc(=O)oc12)O
INCHI=InChI=1S/C32H28O10/c1-17(2)22(15-38-30-26-20(9-11-36-26)13-18-5-7-24(34)40-28(18)30)42-32(3,4)23(33)16-39-31-27-21(10-12-37-27)14-19-6-8-25(35)41-29(19)31/h5-14,22-23,33H,1,15-16H2,2-4H3
FORMULA=C32H28O10
PUBMED=N/A
SUBMITUSER=BIOADREM
LIBRARYQUALITY=0
SPECTRUMID=CCMSLIB00000080188
SCANS=2380
ID=CCMSLIB00000080188
143.085526321 	 0.96
145.0284053726 	 1.78
147.0440554368 	 3.67
157.0284053726 	 7.24
171.0804409431 	 2.35
173.0233199947 	 14.59
175.0389700589 	 3.87
181.0647908789 	 0.64
185.0233199947 	 4.86
187.0389700589 	 1.37
199.0389700589 	 9.21
199.0753555652 	 7.05
201.0182346168 	 54.13
203.033884681 	 100
213.0910056294 	 1.65
215.033884681 	 1.66
215.0702701873 	 0.72
223.0753555652 	 1.23
227.0702701873 	 11.66
241.0859202515 	 7.33
243.0651848094 	 2.57
251.0702701873 	 1.98
269.0808348736 	 48.58
287.0913995599 	 10.15
573.1755231198 	 0
END IONS

BEGIN IONS
PEPMASS=239.0722
CHARGE=1
MSLEVEL=2
RT=0
SOURCE_INSTRUMENT=qTOF
FILENAME=CCMSLIB00000080189.ms
IONMODE=Positive
ORGANISM=Natural
NAME=MLS002695239-01!7-hydroxy-2-phenylchromen-4-one
PI=GNPS
DATACOLLECTOR=GNPS
SMILES=c1ccc(cc1)c1cc(=O)c2ccc(cc2o1)O
INCHI=InChI=1S/C15H10O3/c16-11-6-7-12-13(17)9-14(18-15(12)8-11)10-4-2-1-3-5-10/h1-9,16H
FORMULA=C15H10O3
PUBMED=N/A
SUBMITUSER=BIOADREM
LIBRARYQUALITY=0
SPECTRUMID=CCMSLIB00000080189
SCANS=2381
ID=CCMSLIB00000080189
95.0127553084 	 1.27
101.0385761284 	 1.35
102.0464011605 	 1.99
103.0542261926 	 24.09
105.0334907505 	 4.63
109.0284053726 	 10.12
115.0542261926 	 6.96
127.0542261926 	 0.74
128.0620512247 	 0.96
129.0334907505 	 100
137.0233199947 	 88.54
139.0542261926 	 1.39
141.0698762568 	 6.98
147.0440554368 	 1.91
150.0464011605 	 0.94
151.0542261926 	 2.58
153.0698762568 	 8.86
155.085526321 	 4.94
164.0620512247 	 1.39
165.0698762568 	 19.95
168.0569658468 	 2.53
169.0647908789 	 2.1
171.0440554368 	 1.17
171.0804409431 	 1.14
182.072615911 	 0.68
183.0804409431 	 2.77
197.059705501 	 1
211.0753555652 	 3.54
239.0702701873 	 200.39
END IONS

BEGIN IONS
PEPMASS=423.093
CHARGE=1
MSLEVEL=2
RT=0
SOURCE_INSTRUMENT=qTOF
FILENAME=CCMSLIB00000080190.ms
IONMODE=Positive
ORGANISM=Natural
NAME=MLS000563058-01!
PI=GNPS
DATACOLLECTOR=GNPS
SMILES=c1c2c(cc(c1O)O)oc1cc(c(c(c1c2=O)O)C1C(C(C(C(CO)O1)O)O)O)O
INCHI=InChI=1S/C19H18O11/c20-4-11-15(25)17(27)18(28)19(30-11)12-8(23)3-10-13(16(12)26)14(24)5-1-6(21)7(22)2-9(5)29-10/h1-3,11,15,17-23,25-28H,4H2
FORMULA=C19H18O11
PUBMED=N/A
SUBMITUSER=BIOADREM
LIBRARYQUALITY=0
SPECTRUMID=CCMSLIB00000080190
SCANS=2382
ID=CCMSLIB00000080190
201.0546201231 	 5.43
221.059705501 	 3.78
225.0546201231 	 9.43
229.0495347452 	 9.05
245.008063861 	 5.98
245.0444493673 	 8.72
249.0546201231 	 4.06
253.0495347452 	 4.61
256.0366243352 	 3.51
257.0444493673 	 37.83
260.0315389573 	 8.61
261.0393639894 	 10.03
267.0287993031 	 5.65
271.0237139252 	 4.17
273.0393639894 	 100
275.0550140536 	 10.75
281.0503226062 	 4.5
283.0659726704 	 8
285.0393639894 	 18.2
295.0600994315 	 14.14
296.0679244636 	 3.62
297.0393639894 	 6.47
298.0471890215 	 5.21
299.0186285473 	 6.58
299.0550140536 	 18.48
301.0554079841 	 4.55
303.0499286757 	 43.86
311.0608872925 	 4.99
313.0706641178 	 10.58
321.060493362 	 5.04
327.0499286757 	 15.35
423.0921874209 	 0
END IONS

BEGIN IONS
PEPMASS=166.087
CHARGE=1
MSLEVEL=2
RT=0
SOURCE_INSTRUMENT=qTOF
FILENAME=CCMSLIB00000080192.ms
IONMODE=Positive
ORGANISM=Natural
NAME=MLS002415730-01!
PI=GNPS
DATACOLLECTOR=GNPS
SMILES=CCOC(=O)c1ccccc1N
INCHI=InChI=1S/C9H11NO2/c1-2-12-9(11)7-5-3-4-6-8(7)10/h3-6H,2,10H2,1H3
FORMULA=C9H11NO2
PUBMED=N/A
SUBMITUSER=BIOADREM
LIBRARYQUALITY=0
SPECTRUMID=CCMSLIB00000080192
SCANS=2383
ID=CCMSLIB00000080192
120.0443897878 	 100
166.0862546025 	 0
END IONS

BEGIN IONS
PEPMASS=433.02
CHARGE=1
MSLEVEL=2
RT=0
SOURCE_INSTRUMENT=qTOF
FILENAME=CCMSLIB00000080193.ms
IONMODE=Positive
ORGANISM=Natural
NAME=MLS001157767-01!(2S)-N-(4-bromo-2-fluorophenyl)-5-oxo-1-(3-oxo-1H-2-benzofuran-1-yl)pyrrolidine-2-carboxamide
PI=GNPS
DATACOLLECTOR=GNPS
SMILES=c1ccc2c(c1)C(N1[C@@H](CCC1=O)C(=Nc1ccc(cc1F)Br)O)OC2=O
INCHI=InChI=1S/C19H14BrFN2O4/c20-10-5-6-14(13(21)9-10)22-17(25)15-7-8-16(24)23(15)18-11-3-1-2-4-12(11)19(26)27-18/h1-6,9,15,18H,7-8H2,(H,22,25)/t15-,18?/m0/s1
FORMULA=C19H14BrFN2O4
PUBMED=N/A
SUBMITUSER=BIOADREM
LIBRARYQUALITY=0
SPECTRUMID=CCMSLIB00000080193
SCANS=2384
ID=CCMSLIB00000080193
105.0346336047 	 10.91
109.0448043605 	 3.59
112.0154949626 	 1.34
112.0756899162 	 3.05
118.0624451552 	 1.28
132.0443897878 	 1.17
133.0295482268 	 100
142.0662680841 	 1.2
197.0682588146 	 1.45
198.0560973283 	 1.45
303.9729577231 	 3.99
305.9771745825 	 4.93
433.0193737482 	 0
END IONS

BEGIN IONS
PEPMASS=373.1
CHARGE=1
MSLEVEL=2
RT=0
SOURCE_INSTRUMENT=qTOF
FILENAME=CCMSLIB00000080194.ms
IONMODE=Positive
ORGANISM=Natural
NAME=MLS001141017-01!(2S)-N-(3,4-difluorophenyl)-5-oxo-1-(3-oxo-1H-2-benzofuran-1-yl)pyrrolidine-2-carboxamide
PI=GNPS
DATACOLLECTOR=GNPS
SMILES=c1ccc2c(c1)C(N1[C@@H](CCC1=O)C(=Nc1ccc(c(c1)F)F)O)OC2=O
INCHI=InChI=1S/C19H14F2N2O4/c20-13-6-5-10(9-14(13)21)22-17(25)15-7-8-16(24)23(15)18-11-3-1-2-4-12(11)19(26)27-18/h1-6,9,15,18H,7-8H2,(H,22,25)/t15-,18?/m0/s1
FORMULA=C19H14F2N2O4
PUBMED=N/A
SUBMITUSER=BIOADREM
LIBRARYQUALITY=0
SPECTRUMID=CCMSLIB00000080194
SCANS=2385
ID=CCMSLIB00000080194
105.0346336047 	 24.56
133.0295482268 	 100
142.0651252299 	 0.5
170.060039852 	 2.71
216.0619316299 	 0.47
217.0659337331 	 0.36
244.056846252 	 7.87
245.0608483552 	 1.36
373.0994393482 	 0
END IONS

BEGIN IONS
PEPMASS=533.314
CHARGE=1
MSLEVEL=2
RT=0
SOURCE_INSTRUMENT=qTOF
FILENAME=CCMSLIB00000080195.ms
IONMODE=Positive
ORGANISM=Natural
NAME=MLS001141034-01!tert-butyl (2S)-2-[4-[[(2R)-1-[(4-fluorophenyl)methylamino]-3-methyl-1-oxobutan-2-yl]carbamoyl]piperidine-1-carbonyl]pyrrolidine-1-carboxylate
PI=GNPS
DATACOLLECTOR=GNPS
SMILES=CC(C)[C@H](C(=NCc1ccc(cc1)F)O)N=C(C1CCN(CC1)C(=O)[C@@H]1CCCN1C(=O)OC(C)(C)C)O
INCHI=InChI=1S/C28H41FN4O5/c1-18(2)23(25(35)30-17-19-8-10-21(29)11-9-19)31-24(34)20-12-15-32(16-13-20)26(36)22-7-6-14-33(22)27(37)38-28(3,4)5/h8-11,18,20,22-23H,6-7,12-17H2,1-5H3,(H,30,35)(H,31,34)/t22-,23+/m0/s1
FORMULA=C28H41FN4O5
PUBMED=N/A
SUBMITUSER=BIOADREM
LIBRARYQUALITY=0
SPECTRUMID=CCMSLIB00000080195
SCANS=2386
ID=CCMSLIB00000080195
109.0448043605 	 2.76
110.047463793 	 0.89
112.0756899162 	 86.38
180.125714114 	 1.05
181.1335391461 	 1.14
183.1491892103 	 25.77
211.1441038324 	 40.81
225.1397673782 	 19.57
280.203295733 	 7.01
308.1982103551 	 5.72
336.2081812944 	 100
337.2121833976 	 22.18
433.2609451464 	 66.92
435.2653618223 	 1.76
533.3133746474 	 0
END IONS

BEGIN IONS
PEPMASS=435.1914
CHARGE=1
MSLEVEL=2
RT=0
SOURCE_INSTRUMENT=qTOF
FILENAME=CCMSLIB00000080196.ms
IONMODE=Positive
ORGANISM=Natural
NAME=MLS001159926-01!
PI=GNPS
DATACOLLECTOR=GNPS
SMILES=CCCc1cc(=O)oc2cc(ccc12)OCC(=O)N1C[C@H]2C[C@@H](C1)c1cccc(=O)n1C2
INCHI=InChI=1S/C25H26N2O5/c1-2-4-17-10-25(30)32-22-11-19(7-8-20(17)22)31-15-24(29)26-12-16-9-18(14-26)21-5-3-6-23(28)27(21)13-16/h3,5-8,10-11,16,18H,2,4,9,12-15H2,1H3/t16-,18+/m1/s1
FORMULA=C25H26N2O5
PUBMED=N/A
SUBMITUSER=BIOADREM
LIBRARYQUALITY=0
SPECTRUMID=CCMSLIB00000080196
SCANS=2387
ID=CCMSLIB00000080196
104.0494751657 	 0.68
106.0651252299 	 0.61
109.0522148199 	 2.25
115.0542261926 	 0.62
116.0620512247 	 0.56
121.0396387609 	 0.54
122.060039852 	 3.67
124.0756899162 	 0.57
131.085526321 	 2.68
132.0443897878 	 1.94
132.0807752941 	 1.05
133.0522148199 	 3.39
134.060039852 	 8.43
135.0651848094 	 1.15
136.0756899162 	 0.82
141.0698762568 	 0.87
145.0495347452 	 0.59
145.0886003262 	 0.55
146.060039852 	 32.24
147.0678648841 	 16.8
148.0756899162 	 10.58
160.0756899162 	 21.38
161.0808348736 	 4.55
162.0913399804 	 3.32
172.0756899162 	 4.37
173.0835149483 	 15.7
174.0913399804 	 2.91
175.0502034472 	 1.34
187.0753555652 	 9.15
189.1022390177 	 100
190.1073839751 	 19.12
191.0815035756 	 2.66
203.1178890819 	 3.71
204.1230340393 	 0.79
217.0886003262 	 14.67
231.112803704 	 2.58
232.1179486614 	 3.12
245.0835149483 	 1.76
417.1808832692 	 0.79
435.1914479555 	 99.81
END IONS

BEGIN IONS
PEPMASS=563.287
CHARGE=1
MSLEVEL=2
RT=0
SOURCE_INSTRUMENT=qTOF
FILENAME=CCMSLIB00000080197.ms
IONMODE=Positive
ORGANISM=Natural
NAME=MLS001140694-01!4-[[[(2S)-2-[[(2S)-2-(2,4-dioxo-1H-quinazolin-3-yl)-3-phenylpropanoyl]amino]-3-methylpentanoyl]amino]methyl]cyclohexane-1-carboxylic acid
PI=GNPS
DATACOLLECTOR=GNPS
SMILES=CCC(C)[C@@H](C(=NCC1CCC(CC1)C(=O)O)O)N=C([C@H](Cc1ccccc1)n1c(=O)c2ccccc2nc1O)O
INCHI=InChI=1S/C31H38N4O6/c1-3-19(2)26(28(37)32-18-21-13-15-22(16-14-21)30(39)40)34-27(36)25(17-20-9-5-4-6-10-20)35-29(38)23-11-7-8-12-24(23)33-31(35)41/h4-12,19,21-22,25-26H,3,13-18H2,1-2H3,(H,32,37)(H,33,41)(H,34,36)(H,39,40)/t19?,21?,22?,25-,26-/m0/s1
FORMULA=C31H38N4O6
PUBMED=N/A
SUBMITUSER=BIOADREM
LIBRARYQUALITY=0
SPECTRUMID=CCMSLIB00000080197
SCANS=2388
ID=CCMSLIB00000080197
95.085526321 	 0.94
103.0542261926 	 2.89
120.0443897878 	 0.56
123.0804409431 	 0.37
141.0910056294 	 0.29
145.0396387609 	 0.27
146.0236543457 	 9.48
158.1175547309 	 1.64
163.0502034472 	 5.09
194.0964253583 	 0.23
220.0730098415 	 0.28
222.0913399804 	 0.54
237.099558943 	 0.34
247.0865889535 	 1.61
265.0971536398 	 100
266.1022985972 	 19.46
275.0815035756 	 2.15
276.086648533 	 0.41
293.0920682619 	 19.35
294.0972132193 	 3.76
563.2864109732 	 0
END IONS

BEGIN IONS
PEPMASS=245.129
CHARGE=1
MSLEVEL=2
RT=0
SOURCE_INSTRUMENT=qTOF
FILENAME=CCMSLIB00000080198.ms
IONMODE=Positive
ORGANISM=Natural
NAME=MLS000574982-01!
PI=GNPS
DATACOLLECTOR=GNPS
SMILES=CC1(c2c(CCN1)c1ccccc1[nH]2)C(=O)OC
INCHI=InChI=1S/C14H16N2O2/c1-14(13(17)18-2)12-10(7-8-15-14)9-5-3-4-6-11(9)16-12/h3-6,15-16H,7-8H2,1-2H3
FORMULA=C14H16N2O2
PUBMED=N/A
SUBMITUSER=BIOADREM
LIBRARYQUALITY=0
SPECTRUMID=CCMSLIB00000080198
SCANS=2389
ID=CCMSLIB00000080198
103.0542261926 	 3.76
115.0542261926 	 7.13
116.0494751657 	 2.7
117.0573001978 	 5.14
127.0542261926 	 4.64
128.0620512247 	 46.05
129.0698762568 	 71.3
139.0542261926 	 1.4
140.0494751657 	 2.13
142.0651252299 	 3.58
143.072950262 	 2.63
145.0647908789 	 1.76
153.0573001978 	 2.69
154.0651252299 	 14.31
155.072950262 	 14.64
156.0807752941 	 100
158.060039852 	 1.48
166.0651252299 	 2.17
167.072950262 	 35.07
168.0807752941 	 46.49
183.0678648841 	 2.46
184.0756899162 	 83.13
196.0756899162 	 4.29
200.1069900446 	 0.56
216.1019046667 	 5.1
228.1019046667 	 1.45
245.1284537682 	 0
END IONS

BEGIN IONS
PEPMASS=489.2384
CHARGE=1
MSLEVEL=2
RT=0
SOURCE_INSTRUMENT=qTOF
FILENAME=CCMSLIB00000080199.ms
IONMODE=Positive
ORGANISM=Natural
NAME=MLS001160034-01!
PI=GNPS
DATACOLLECTOR=GNPS
SMILES=CC(=CCOc1ccc2c(C)c(CC(=O)N3C[C@H]4C[C@@H](C3)c3cccc(=O)n3C4)c(=O)oc2c1C)C
INCHI=InChI=1S/C29H32N2O5/c1-17(2)10-11-35-25-9-8-22-18(3)23(29(34)36-28(22)19(25)4)13-27(33)30-14-20-12-21(16-30)24-6-5-7-26(32)31(24)15-20/h5-10,20-21H,11-16H2,1-4H3/t20-,21+/m1/s1
FORMULA=C29H32N2O5
PUBMED=N/A
SUBMITUSER=BIOADREM
LIBRARYQUALITY=0
SPECTRUMID=CCMSLIB00000080199
SCANS=2390
ID=CCMSLIB00000080199
119.085526321 	 0.23
129.0698762568 	 0.26
132.0569658468 	 0.36
144.0569658468 	 0.49
146.060039852 	 0.31
147.0764181977 	 0.72
148.0756899162 	 2.02
160.0518804689 	 0.29
175.0753555652 	 3.47
176.0791578519 	 0.46
191.1178890819 	 12.99
202.0651252299 	 0.28
203.072950262 	 100
204.074072474 	 18.47
230.060039852 	 0.44
231.0678648841 	 11.82
271.1328704441 	 0.42
299.1277850662 	 2.25
420.1679728592 	 0.25
489.2383981481 	 0.7
END IONS

BEGIN IONS
PEPMASS=366.049
CHARGE=1
MSLEVEL=2
RT=0
SOURCE_INSTRUMENT=qTOF
FILENAME=CCMSLIB00000080200.ms
IONMODE=Positive
ORGANISM=Natural
NAME=MLS001049031-01!N-(4-bromophenyl)-2,2-diphenylacetamide
PI=GNPS
DATACOLLECTOR=GNPS
SMILES=c1ccc(cc1)C(c1ccccc1)C(=O)Nc1ccc(cc1)Br
INCHI=InChI=1S/C20H16BrNO/c21-17-11-13-18(14-12-17)22-20(23)19(15-7-3-1-4-8-15)16-9-5-2-6-10-16/h1-14,19H,(H,22,23)
FORMULA=C20H16BrNO
PUBMED=N/A
SUBMITUSER=BIOADREM
LIBRARYQUALITY=0
SPECTRUMID=CCMSLIB00000080200
SCANS=2391
ID=CCMSLIB00000080200
152.0620512247 	 21.41
154.9490886963 	 2.57
165.0698762568 	 22.28
166.0777012889 	 8.29
167.085526321 	 85.05
180.0807752941 	 100
181.9599877336 	 16.89
191.072950262 	 2.98
194.060039852 	 1.9
208.0756899162 	 6.34
209.0835149483 	 84.76
209.9549023557 	 9.59
348.0382380546 	 1.71
366.0488027409 	 0
END IONS

BEGIN IONS
PEPMASS=433.113
CHARGE=1
MSLEVEL=2
RT=0
SOURCE_INSTRUMENT=qTOF
FILENAME=CCMSLIB00000080201.ms
IONMODE=Positive
ORGANISM=Natural
NAME=MLS000877022-01!5,7-dihydroxy-2-(4-hydroxyphenyl)-6-[3,4,5-trihydroxy-6-(hydroxymethyl)oxan-2-yl]chromen-4-one
PI=GNPS
DATACOLLECTOR=GNPS
SMILES=c1cc(ccc1c1cc(=O)c2c(cc(c(c2O)C2C(C(C(C(CO)O2)O)O)O)O)o1)O
INCHI=InChI=1S/C21H20O10/c22-7-14-17(26)19(28)20(29)21(31-14)16-11(25)6-13-15(18(16)27)10(24)5-12(30-13)8-1-3-9(23)4-2-8/h1-6,14,17,19-23,25-29H,7H2
FORMULA=C21H20O10
PUBMED=N/A
SUBMITUSER=BIOADREM
LIBRARYQUALITY=0
SPECTRUMID=CCMSLIB00000080201
SCANS=2392
ID=CCMSLIB00000080201
121.0284053726 	 8.98
177.0182346168 	 3.86
187.0389700589 	 3.27
241.0495347452 	 2.8
256.0730098415 	 7.6
267.0651848094 	 11.06
270.0522743994 	 6.77
271.0600994315 	 10.55
279.0651848094 	 4.84
283.0600994315 	 100
284.0679244636 	 40.91
295.0600994315 	 18.15
296.0679244636 	 4.13
297.0757494957 	 7.68
305.0808348736 	 5.16
309.0757494957 	 36.42
313.0706641178 	 54.41
323.0913995599 	 20.16
325.0706641178 	 2.76
337.0706641178 	 19.41
339.086314182 	 3.62
349.0706641178 	 18.03
351.086314182 	 2.8
361.0706641178 	 5.71
367.0812288041 	 2.8
379.0812288041 	 10.35
415.1023581767 	 5.55
433.112922863 	 0
END IONS

BEGIN IONS
PEPMASS=197.081
CHARGE=1
MSLEVEL=2
RT=0
SOURCE_INSTRUMENT=qTOF
FILENAME=CCMSLIB00000080202.ms
IONMODE=Positive
ORGANISM=Natural
NAME=MLS002473312-01!
PI=GNPS
DATACOLLECTOR=GNPS
SMILES=COc1cc(c(cc1C=O)OC)OC
INCHI=InChI=1S/C10H12O4/c1-12-8-5-10(14-3)9(13-2)4-7(8)6-11/h4-6H,1-3H3
FORMULA=C10H12O4
PUBMED=N/A
SUBMITUSER=BIOADREM
LIBRARYQUALITY=0
SPECTRUMID=CCMSLIB00000080202
SCANS=2393
ID=CCMSLIB00000080202
95.0491408147 	 15.08
96.0205803405 	 5.97
97.0284053726 	 5.47
97.9998448984 	 2.18
107.0127553084 	 6.31
107.0491408147 	 3.18
108.0205803405 	 2.41
108.0569658468 	 3.75
109.0284053726 	 13.51
109.0647908789 	 15.12
110.0362304047 	 9.38
111.0440554368 	 55.38
121.0284053726 	 6.89
123.0440554368 	 100
125.059705501 	 20.05
135.0076699305 	 2.1
135.0440554368 	 4.32
137.0233199947 	 7.96
137.059705501 	 2.22
138.0675305331 	 45.54
139.0389700589 	 70
153.0546201231 	 5.86
154.0624451552 	 20.7
167.033884681 	 41.14
169.0859202515 	 11.98
182.0573597773 	 4.67
197.0808348736 	 0
END IONS

BEGIN IONS
PEPMASS=381.1817
CHARGE=1
MSLEVEL=2
RT=0
SOURCE_INSTRUMENT=qTOF
FILENAME=CCMSLIB00000080203.ms
IONMODE=Positive
ORGANISM=Natural
NAME=MLS001140348-01!N-(3-acetylphenyl)-2-(2,3,4,7,9,10-hexahydro-[1,4]dioxepino[2,3-g]isoquinolin-8-yl)acetamide
PI=GNPS
DATACOLLECTOR=GNPS
SMILES=CC(=O)c1cccc(c1)N=C(CN1CCc2cc3c(cc2C1)OCCCO3)O
INCHI=InChI=1S/C22H24N2O4/c1-15(25)16-4-2-5-19(10-16)23-22(26)14-24-7-6-17-11-20-21(12-18(17)13-24)28-9-3-8-27-20/h2,4-5,10-12H,3,6-9,13-14H2,1H3,(H,23,26)
FORMULA=C22H24N2O4
PUBMED=N/A
SUBMITUSER=BIOADREM
LIBRARYQUALITY=0
SPECTRUMID=CCMSLIB00000080203
SCANS=2394
ID=CCMSLIB00000080203
103.0542261926 	 0.82
105.0698762568 	 1.46
107.0491408147 	 0.51
115.0542261926 	 0.51
119.0491408147 	 1.28
120.0807752941 	 0.81
121.0647908789 	 1.17
131.0491408147 	 2.5
132.0807752941 	 5.47
133.0647908789 	 2.38
135.0440554368 	 0.75
136.0756899162 	 1.34
137.059705501 	 0.77
144.0807752941 	 0.59
146.0964253583 	 0.51
147.0678648841 	 2.11
148.0756899162 	 33.03
149.059705501 	 6.91
160.0756899162 	 12.57
161.059705501 	 1.85
162.0913399804 	 0.61
163.0753555652 	 3.56
174.0913399804 	 1.32
175.0991650125 	 0.87
176.0706045383 	 0.9
188.1069900446 	 0.76
189.0910056294 	 3.36
191.1066556936 	 4.9
202.0862546025 	 5.94
203.0940796346 	 10.01
216.1019046667 	 5.69
218.1175547309 	 100
381.1808832692 	 2.72
END IONS

BEGIN IONS
PEPMASS=391.166
CHARGE=1
MSLEVEL=2
RT=0
SOURCE_INSTRUMENT=qTOF
FILENAME=CCMSLIB00000080204.ms
IONMODE=Positive
ORGANISM=Natural
NAME=MLS001140345-01!N-(pyridin-2-ylmethyl)-3-(2,3,5-trimethyl-7-oxofuro[3,2-g]chromen-6-yl)propanamide
PI=GNPS
DATACOLLECTOR=GNPS
SMILES=Cc1c(C)oc2cc3c(cc12)c(C)c(CCC(=NCc1ccccn1)O)c(=O)o3
INCHI=InChI=1S/C23H22N2O4/c1-13-15(3)28-20-11-21-19(10-18(13)20)14(2)17(23(27)29-21)7-8-22(26)25-12-16-6-4-5-9-24-16/h4-6,9-11H,7-8,12H2,1-3H3,(H,25,26)
FORMULA=C23H22N2O4
PUBMED=N/A
SUBMITUSER=BIOADREM
LIBRARYQUALITY=0
SPECTRUMID=CCMSLIB00000080204
SCANS=2395
ID=CCMSLIB00000080204
115.0542261926 	 0.27
128.0620512247 	 0.59
129.0698762568 	 1.7
141.0698762568 	 1.54
142.0777012889 	 1.4
143.085526321 	 0.52
145.0647908789 	 0.3
152.0620512247 	 0.39
153.0698762568 	 0.36
154.0777012889 	 0.97
155.085526321 	 0.4
157.0647908789 	 1.05
157.1011763852 	 1.79
165.0698762568 	 0.37
167.085526321 	 0.45
169.0647908789 	 0.43
169.1011763852 	 0.42
170.072615911 	 0.71
171.1168264494 	 0.36
179.085526321 	 0.31
181.0647908789 	 0.54
182.072615911 	 1.58
184.0882659752 	 0.59
185.0960910073 	 4.55
195.0804409431 	 0.28
197.0960910073 	 0.69
198.0675305331 	 1.98
199.1117410715 	 0.64
212.0831805973 	 0.88
213.0910056294 	 29.69
227.1066556936 	 2.48
241.0886003262 	 100
255.1015703157 	 25.88
257.1073243956 	 0.74
283.0964849378 	 16.15
285.1022390177 	 0.43
373.1546685187 	 2.67
391.165233205 	 0
END IONS

BEGIN IONS
PEPMASS=368.1618
CHARGE=1
MSLEVEL=2
RT=0
SOURCE_INSTRUMENT=qTOF
FILENAME=CCMSLIB00000080205.ms
IONMODE=Positive
ORGANISM=Natural
NAME=MLS001157821-01!
PI=GNPS
DATACOLLECTOR=GNPS
SMILES=COC(=O)c1cccc(c1)N=C(N1C[C@H]2C[C@@H](C1)c1cccc(=O)n1C2)O
INCHI=InChI=1S/C20H21N3O4/c1-27-19(25)14-4-2-5-16(9-14)21-20(26)22-10-13-8-15(12-22)17-6-3-7-18(24)23(17)11-13/h2-7,9,13,15H,8,10-12H2,1H3,(H,21,26)/t13-,15+/m1/s1
FORMULA=C20H21N3O4
PUBMED=N/A
SUBMITUSER=BIOADREM
LIBRARYQUALITY=0
SPECTRUMID=CCMSLIB00000080205
SCANS=2396
ID=CCMSLIB00000080205
104.0494751657 	 1.55
106.0651252299 	 1.63
108.0443897878 	 2.76
115.0542261926 	 1.9
117.0573001978 	 2.59
118.0287397236 	 2.19
118.0651252299 	 1.77
122.060039852 	 2.23
128.0494751657 	 1.37
129.0698762568 	 2.34
131.072950262 	 3.97
132.0443897878 	 8.52
132.0807752941 	 3.14
133.0522148199 	 11.73
134.060039852 	 3.79
136.0393044099 	 1.46
142.0651252299 	 2.14
144.0807752941 	 1.64
145.0522148199 	 1.75
146.0236543457 	 86
146.060039852 	 45.65
148.0756899162 	 25.67
154.0651252299 	 1.74
156.0807752941 	 4.33
158.060039852 	 12.06
159.0678648841 	 6.13
160.0756899162 	 94.51
171.0916743314 	 0.87
172.0756899162 	 16.31
174.0913399804 	 41.48
188.0706045383 	 4.59
189.1022390177 	 31.05
191.1178890819 	 6.98
217.0971536398 	 100
235.1077183261 	 2.99
308.1393528055 	 2.37
336.1342674276 	 85.67
368.1604821781 	 5.92
END IONS

BEGIN IONS
PEPMASS=421.1762
CHARGE=1
MSLEVEL=2
RT=0
SOURCE_INSTRUMENT=qTOF
FILENAME=CCMSLIB00000080207.ms
IONMODE=Positive
ORGANISM=Natural
NAME=MLS001160040-01!
PI=GNPS
DATACOLLECTOR=GNPS
SMILES=Cc1c2ccc(cc2oc(=O)c1CC(=O)N1C[C@H]2C[C@@H](C1)c1cccc(=O)n1C2)OC
INCHI=InChI=1S/C24H24N2O5/c1-14-18-7-6-17(30-2)9-21(18)31-24(29)19(14)10-23(28)25-11-15-8-16(13-25)20-4-3-5-22(27)26(20)12-15/h3-7,9,15-16H,8,10-13H2,1-2H3/t15-,16+/m1/s1
FORMULA=C24H24N2O5
PUBMED=N/A
SUBMITUSER=BIOADREM
LIBRARYQUALITY=0
SPECTRUMID=CCMSLIB00000080207
SCANS=2397
ID=CCMSLIB00000080207
115.0542261926 	 0.32
116.0620512247 	 0.52
117.0658535114 	 0.2
127.0542261926 	 0.28
128.0620512247 	 0.54
132.0569658468 	 0.8
144.0569658468 	 1.32
145.0607681335 	 0.24
147.0804409431 	 1.49
159.0804409431 	 0.35
160.0518804689 	 0.93
175.0753555652 	 5.76
176.0791578519 	 0.43
203.0702701873 	 100
204.074072474 	 19.35
231.0651848094 	 3.92
421.1757978913 	 1.04
END IONS

BEGIN IONS
PEPMASS=372.181
CHARGE=1
MSLEVEL=2
RT=0
SOURCE_INSTRUMENT=qTOF
FILENAME=CCMSLIB00000080209.ms
IONMODE=Positive
ORGANISM=Natural
NAME=MLS001142947-01!7-[2-[(4aS,8aS)-4a-hydroxy-1,3,4,5,6,7,8,8a-octahydroisoquinolin-2-yl]-2-oxoethoxy]-4-methylchromen-2-one
PI=GNPS
DATACOLLECTOR=GNPS
SMILES=Cc1cc(=O)oc2cc(ccc12)OCC(=O)N1CC[C@]2(CCCC[C@H]2C1)O
INCHI=InChI=1S/C21H25NO5/c1-14-10-20(24)27-18-11-16(5-6-17(14)18)26-13-19(23)22-9-8-21(25)7-3-2-4-15(21)12-22/h5-6,10-11,15,25H,2-4,7-9,12-13H2,1H3/t15-,21-/m0/s1
FORMULA=C21H25NO5
PUBMED=N/A
SUBMITUSER=BIOADREM
LIBRARYQUALITY=0
SPECTRUMID=CCMSLIB00000080209
SCANS=2399
ID=CCMSLIB00000080209
103.0542261926 	 40.06
105.0698762568 	 18.84
107.085526321 	 3.61
108.0807752941 	 56.23
109.0886003262 	 23.39
115.0542261926 	 5.24
117.0698762568 	 5.09
121.1011763852 	 19.78
122.0964253583 	 29.28
131.0491408147 	 35.56
133.0647908789 	 12.27
135.0440554368 	 3.86
136.1120754225 	 84.52
137.1199004546 	 90.36
138.1277254867 	 72.8
143.0491408147 	 4.45
150.1277254867 	 85.36
151.1355505188 	 36.2
159.0440554368 	 100
161.059705501 	 50.74
164.1069900446 	 15.58
178.1226401088 	 24.28
179.1304651409 	 94.11
189.0546201231 	 95.75
217.0495347452 	 9.45
326.1750696098 	 38.28
327.1828946419 	 5.93
354.1699842319 	 35.16
355.177809264 	 9.15
372.1805489182 	 0
END IONS

BEGIN IONS
PEPMASS=224.092
CHARGE=1
MSLEVEL=2
RT=0
SOURCE_INSTRUMENT=qTOF
FILENAME=CCMSLIB00000080210.ms
IONMODE=Positive
ORGANISM=Natural
NAME=MLS000776800-01!2-[(2-ethoxybenzoyl)amino]acetic acid
PI=GNPS
DATACOLLECTOR=GNPS
SMILES=CCOc1ccccc1C(=NCC(=O)O)O
INCHI=InChI=1S/C11H13NO4/c1-2-16-9-6-4-3-5-8(9)11(15)12-7-10(13)14/h3-6H,2,7H2,1H3,(H,12,15)(H,13,14)
FORMULA=C11H13NO4
PUBMED=N/A
SUBMITUSER=BIOADREM
LIBRARYQUALITY=0
SPECTRUMID=CCMSLIB00000080210
SCANS=2400
ID=CCMSLIB00000080210
102.0464011605 	 4.41
115.0542261926 	 6.5
121.0284053726 	 100
121.0647908789 	 35.72
131.0491408147 	 25.03
132.0569658468 	 5.29
149.059705501 	 23.81
224.0917339109 	 0
END IONS

BEGIN IONS
PEPMASS=231.066
CHARGE=1
MSLEVEL=2
RT=0
SOURCE_INSTRUMENT=qTOF
FILENAME=CCMSLIB00000080211.ms
IONMODE=Positive
ORGANISM=Natural
NAME=MLS002639336-01!
PI=GNPS
DATACOLLECTOR=GNPS
SMILES=c1ccc(cc1)C(=O)c1ccc(c(c1O)O)O
INCHI=InChI=1S/C13H10O4/c14-10-7-6-9(12(16)13(10)17)11(15)8-4-2-1-3-5-8/h1-7,14,16-17H
FORMULA=C13H10O4
PUBMED=N/A
SUBMITUSER=BIOADREM
LIBRARYQUALITY=0
SPECTRUMID=CCMSLIB00000080211
SCANS=2401
ID=CCMSLIB00000080211
105.0334907505 	 100
119.085526321 	 16.14
125.0233199947 	 46.67
135.0076699305 	 14.39
153.0182346168 	 93.33
154.0260596489 	 13.33
231.0651848094 	 0
END IONS

BEGIN IONS
PEPMASS=351.0876
CHARGE=1
MSLEVEL=2
RT=0
SOURCE_INSTRUMENT=qTOF
FILENAME=CCMSLIB00000080212.ms
IONMODE=Positive
ORGANISM=Natural
NAME=MLS002472930-01!7-methoxy-8-(7-methoxy-2-oxochromen-6-yl)chromen-2-one
PI=GNPS
DATACOLLECTOR=GNPS
SMILES=COc1ccc2ccc(=O)oc2c1c1cc2ccc(=O)oc2cc1OC
INCHI=InChI=1S/C20H14O6/c1-23-14-6-3-11-4-7-18(22)26-20(11)19(14)13-9-12-5-8-17(21)25-15(12)10-16(13)24-2/h3-10H,1-2H3
FORMULA=C20H14O6
PUBMED=N/A
SUBMITUSER=BIOADREM
LIBRARYQUALITY=0
SPECTRUMID=CCMSLIB00000080212
SCANS=2402
ID=CCMSLIB00000080212
165.0698762568 	 3.84
179.085526321 	 2.9
181.0647908789 	 3.66
191.085526321 	 2.8
205.0647908789 	 11.74
209.059705501 	 4.4
219.0804409431 	 4.16
221.059705501 	 32.57
223.0753555652 	 2.92
224.0831805973 	 3.07
233.059705501 	 5.72
234.0675305331 	 2.86
235.0753555652 	 11.32
236.0831805973 	 5.17
237.0546201231 	 10.21
247.0753555652 	 2.64
248.046795091 	 7.07
249.0546201231 	 62.97
252.0780952194 	 6.28
261.0546201231 	 17.02
262.0624451552 	 7.48
263.0702701873 	 12.51
264.0780952194 	 7.52
265.0495347452 	 8.89
266.0573597773 	 3.63
267.1015703157 	 3.97
276.0417097131 	 7.14
277.0495347452 	 25.91
279.0651848094 	 8.5
280.0730098415 	 6.63
291.0651848094 	 8.06
292.0730098415 	 6.56
293.0444493673 	 8.26
295.0964849378 	 4.57
305.0444493673 	 100
307.0964849378 	 4.07
308.0679244636 	 9.71
319.0600994315 	 10.64
321.0393639894 	 8.61
335.0550140536 	 13.87
336.0628390857 	 14.22
351.086314182 	 43.27
END IONS

BEGIN IONS
PEPMASS=325.1552
CHARGE=1
MSLEVEL=2
RT=0
SOURCE_INSTRUMENT=qTOF
FILENAME=CCMSLIB00000080213.ms
IONMODE=Positive
ORGANISM=Natural
NAME=MLS001159952-01!
PI=GNPS
DATACOLLECTOR=GNPS
SMILES=COc1cccc(c1)C(=O)N1C[C@H]2C[C@@H](C1)c1cccc(=O)n1C2
INCHI=InChI=1S/C19H20N2O3/c1-24-16-5-2-4-14(9-16)19(23)20-10-13-8-15(12-20)17-6-3-7-18(22)21(17)11-13/h2-7,9,13,15H,8,10-12H2,1H3/t13-,15+/m1/s1
FORMULA=C19H20N2O3
PUBMED=N/A
SUBMITUSER=BIOADREM
LIBRARYQUALITY=0
SPECTRUMID=CCMSLIB00000080213
SCANS=2403
ID=CCMSLIB00000080213
107.0491408147 	 23.61
117.0573001978 	 0.91
121.0647908789 	 0.41
132.0807752941 	 0.57
133.0647908789 	 0.31
135.0440554368 	 100
142.0651252299 	 0.48
160.0756899162 	 2.88
325.1546685187 	 6.71
END IONS

BEGIN IONS
PEPMASS=433.2805
CHARGE=1
MSLEVEL=2
RT=0
SOURCE_INSTRUMENT=qTOF
FILENAME=CCMSLIB00000080214.ms
IONMODE=Positive
ORGANISM=Natural
NAME=MLS001141093-01!1-[(2S)-2-amino-4-methylpentanoyl]-N-[(2S)-1-[(2-methoxyphenyl)methylamino]-1-oxopropan-2-yl]piperidine-4-carboxamide
PI=GNPS
DATACOLLECTOR=GNPS
SMILES=CC(C)C[C@@H](C(=O)N1CCC(CC1)C(=N[C@@H](C)C(=NCc1ccccc1OC)O)O)N
INCHI=InChI=1S/C23H36N4O4/c1-15(2)13-19(24)23(30)27-11-9-17(10-12-27)22(29)26-16(3)21(28)25-14-18-7-5-6-8-20(18)31-4/h5-8,15-17,19H,9-14,24H2,1-4H3,(H,25,28)(H,26,29)/t16-,19-/m0/s1
FORMULA=C23H36N4O4
PUBMED=N/A
SUBMITUSER=BIOADREM
LIBRARYQUALITY=0
SPECTRUMID=CCMSLIB00000080214
SCANS=2404
ID=CCMSLIB00000080214
101.0709388893 	 0.69
106.0413157826 	 0.47
112.0756899162 	 94.54
114.0787639214 	 0.63
114.1277254867 	 0.61
121.0647908789 	 100
123.0678648841 	 1
129.1022390177 	 0.4
130.0862546025 	 0.46
138.0913399804 	 5.18
153.1022390177 	 0.51
155.1178890819 	 13.63
164.1069900446 	 1.08
181.0971536398 	 0.51
183.112803704 	 25.95
185.1158777092 	 0.44
200.1393528055 	 0.74
209.1284537682 	 24.97
212.1393528055 	 0.98
251.1754039608 	 1.88
268.2019530623 	 5.54
296.1968676844 	 4.24
320.1968676844 	 27.9
416.2543825633 	 0.43
433.2809316648 	 2.46
END IONS

BEGIN IONS
PEPMASS=367.129
CHARGE=1
MSLEVEL=2
RT=0
SOURCE_INSTRUMENT=qTOF
FILENAME=CCMSLIB00000080215.ms
IONMODE=Positive
ORGANISM=Natural
NAME=MLS001159045-01!2-[[2-(3,4-dimethyl-2-oxochromen-7-yl)oxyacetyl]amino]benzamide
PI=GNPS
DATACOLLECTOR=GNPS
SMILES=Cc1c(C)c(=O)oc2cc(ccc12)OCC(=Nc1ccccc1C(=N)O)O
INCHI=InChI=1S/C20H18N2O5/c1-11-12(2)20(25)27-17-9-13(7-8-14(11)17)26-10-18(23)22-16-6-4-3-5-15(16)19(21)24/h3-9H,10H2,1-2H3,(H2,21,24)(H,22,23)
FORMULA=C20H18N2O5
PUBMED=N/A
SUBMITUSER=BIOADREM
LIBRARYQUALITY=0
SPECTRUMID=CCMSLIB00000080215
SCANS=2405
ID=CCMSLIB00000080215
105.0546201231 	 11.53
117.0698762568 	 13.54
119.0365647557 	 21.9
130.0287397236 	 36.89
131.085526321 	 13.54
133.0495347452 	 51.59
135.0526087504 	 13.54
147.0400326914 	 27.09
148.0393044099 	 21.33
161.047129442 	 100
162.0635077877 	 35.73
166.0777012889 	 15.27
190.0624451552 	 54.47
196.0393044099 	 12.1
203.008732563 	 12.68
203.0702701873 	 68.59
204.0780952194 	 27.95
220.1093953478 	 13.26
231.0651848094 	 11.82
235.0991650125 	 12.97
248.1069900446 	 11.82
249.0757494957 	 12.97
261.086982884 	 13.54
264.099224592 	 15.27
291.0526087504 	 11.53
304.0968192888 	 55.04
305.0920682619 	 21.04
332.0917339109 	 96.25
351.0975475703 	 18.73
367.1288476987 	 0
END IONS

BEGIN IONS
PEPMASS=271.0611
CHARGE=1
MSLEVEL=2
RT=0
SOURCE_INSTRUMENT=qTOF
FILENAME=CCMSLIB00000080216.ms
IONMODE=Positive
ORGANISM=Natural
NAME=MLS000697614-01!
PI=GNPS
DATACOLLECTOR=GNPS
SMILES=c1ccc(cc1)Oc1coc2cc(cc(c2c1=O)O)O
INCHI=InChI=1S/C15H10O5/c16-9-6-11(17)14-12(7-9)19-8-13(15(14)18)20-10-4-2-1-3-5-10/h1-8,16-17H
FORMULA=C15H10O5
PUBMED=N/A
SUBMITUSER=BIOADREM
LIBRARYQUALITY=0
SPECTRUMID=CCMSLIB00000080216
SCANS=2406
ID=CCMSLIB00000080216
108.0205803405 	 23.91
115.0542261926 	 10.04
120.0205803405 	 3.96
121.0284053726 	 26.5
122.0362304047 	 15.3
124.0154949626 	 13.66
129.0698762568 	 9.22
131.0491408147 	 6.08
136.0154949626 	 20.49
137.0233199947 	 100
141.0698762568 	 22.81
145.0647908789 	 4.85
149.0233199947 	 4.78
150.0311450268 	 40.16
152.0104095847 	 14.14
153.0182346168 	 45.42
155.0491408147 	 7.92
157.0647908789 	 5.26
165.0182346168 	 33.06
166.0260596489 	 20.63
168.0569658468 	 11.54
169.0647908789 	 17.08
173.059705501 	 5.46
177.0182346168 	 8.06
178.0260596489 	 51.5
179.033884681 	 13.93
186.0675305331 	 6.35
193.0131492389 	 5.4
194.020974271 	 26.09
195.0287993031 	 87.36
225.0546201231 	 4.92
243.0651848094 	 10.79
253.0495347452 	 26.84
271.0600994315 	 172.13
END IONS

BEGIN IONS
PEPMASS=478.2213
CHARGE=1
MSLEVEL=2
RT=0
SOURCE_INSTRUMENT=qTOF
FILENAME=CCMSLIB00000080217.ms
IONMODE=Positive
ORGANISM=Natural
NAME=MLS001158022-01!1-[2-(4-butyl-7-methyl-2-oxochromen-5-yl)oxyacetyl]-4-phenylpiperidine-4-carboxylic acid
PI=GNPS
DATACOLLECTOR=GNPS
SMILES=CCCCc1cc(=O)oc2cc(C)cc(c12)OCC(=O)N1CCC(CC1)(c1ccccc1)C(=O)O
INCHI=InChI=1S/C28H31NO6/c1-3-4-8-20-17-25(31)35-23-16-19(2)15-22(26(20)23)34-18-24(30)29-13-11-28(12-14-29,27(32)33)21-9-6-5-7-10-21/h5-7,9-10,15-17H,3-4,8,11-14,18H2,1-2H3,(H,32,33)
FORMULA=C28H31NO6
PUBMED=N/A
SUBMITUSER=BIOADREM
LIBRARYQUALITY=0
SPECTRUMID=CCMSLIB00000080217
SCANS=2407
ID=CCMSLIB00000080217
110.060039852 	 4.9
115.0542261926 	 7.01
117.0698762568 	 7.69
126.0549544741 	 3.52
128.0620512247 	 12.79
129.0698762568 	 6.79
137.059705501 	 4.59
141.0698762568 	 3.76
143.085526321 	 40.02
144.0569658468 	 4.81
149.059705501 	 3.38
158.0964253583 	 98.07
159.1042503904 	 15.69
160.1120754225 	 22.69
161.059705501 	 6.22
162.0675305331 	 4.02
165.0546201231 	 5.63
171.0804409431 	 4.22
172.1120754225 	 22.84
173.0960910073 	 6.32
175.0753555652 	 11.6
177.0546201231 	 6.32
186.0913399804 	 10.33
187.0991650125 	 100
189.0546201231 	 7.71
190.0624451552 	 9.52
190.1226401088 	 12.58
191.0702701873 	 6.16
199.1117410715 	 4.71
200.1069900446 	 9.2
202.1226401088 	 15.81
203.0702701873 	 47.05
204.1019046667 	 34.91
217.1223057578 	 16.32
218.1175547309 	 57.17
231.0651848094 	 3.87
233.1172203799 	 5.39
245.1172203799 	 42.46
273.112135002 	 17.21
290.1386841035 	 6.52
370.164898854 	 3.26
432.2169344245 	 5.85
478.2224137329 	 18.59
END IONS

BEGIN IONS
PEPMASS=411.192
CHARGE=1
MSLEVEL=2
RT=0
SOURCE_INSTRUMENT=qTOF
FILENAME=CCMSLIB00000080218.ms
IONMODE=Positive
ORGANISM=Natural
NAME=MLS001140582-01!3-(3,5-dimethyl-7-oxofuro[3,2-g]chromen-6-yl)-N-[3-(2-oxopyrrolidin-1-yl)propyl]propanamide
PI=GNPS
DATACOLLECTOR=GNPS
SMILES=Cc1coc2cc3c(cc12)c(C)c(CCC(=NCCCN1CCCC1=O)O)c(=O)o3
INCHI=InChI=1S/C23H26N2O5/c1-14-13-29-19-12-20-18(11-17(14)19)15(2)16(23(28)30-20)6-7-21(26)24-8-4-10-25-9-3-5-22(25)27/h11-13H,3-10H2,1-2H3,(H,24,26)
FORMULA=C23H26N2O5
PUBMED=N/A
SUBMITUSER=BIOADREM
LIBRARYQUALITY=0
SPECTRUMID=CCMSLIB00000080218
SCANS=2408
ID=CCMSLIB00000080218
98.060039852 	 1.75
115.0542261926 	 0.53
126.0913399804 	 4.2
128.0620512247 	 2.01
129.0698762568 	 0.65
141.0698762568 	 0.35
143.085526321 	 2.04
144.0893286077 	 0.27
152.0620512247 	 0.25
153.0698762568 	 0.72
154.0777012889 	 1.26
155.085526321 	 0.61
157.0647908789 	 0.2
157.1011763852 	 0.38
168.0569658468 	 0.27
170.072615911 	 0.37
171.0804409431 	 2.4
172.0842432298 	 0.25
181.0647908789 	 0.25
182.072615911 	 0.43
183.0804409431 	 0.28
185.0960910073 	 0.7
198.0675305331 	 0.59
199.0753555652 	 9.97
200.0791578519 	 2.56
213.0910056294 	 1.66
227.0702701873 	 100
228.074072474 	 22.2
241.0859202515 	 29.04
269.0808348736 	 17.23
411.1914479555 	 0
END IONS

BEGIN IONS
PEPMASS=358.165
CHARGE=1
MSLEVEL=2
RT=0
SOURCE_INSTRUMENT=qTOF
FILENAME=CCMSLIB00000080219.ms
IONMODE=Positive
ORGANISM=Natural
NAME=MLS001142720-01!7-[2-[(4aS,8aS)-4a-hydroxy-1,3,4,5,6,7,8,8a-octahydroisoquinolin-2-yl]-2-oxoethoxy]chromen-2-one
PI=GNPS
DATACOLLECTOR=GNPS
SMILES=C1CC[C@@]2(CCN(C[C@@H]2C1)C(=O)COc1ccc2ccc(=O)oc2c1)O
INCHI=InChI=1S/C20H23NO5/c22-18(21-10-9-20(24)8-2-1-3-15(20)12-21)13-25-16-6-4-14-5-7-19(23)26-17(14)11-16/h4-7,11,15,24H,1-3,8-10,12-13H2/t15-,20-/m0/s1
FORMULA=C20H23NO5
PUBMED=N/A
SUBMITUSER=BIOADREM
LIBRARYQUALITY=0
SPECTRUMID=CCMSLIB00000080219
SCANS=2409
ID=CCMSLIB00000080219
95.085526321 	 7.32
97.0886003262 	 3.52
103.0542261926 	 17.05
105.0698762568 	 5.61
108.0807752941 	 65.46
109.0886003262 	 15.13
110.0964253583 	 10.84
117.0334907505 	 26.68
119.0491408147 	 28.49
119.085526321 	 11.66
120.0933513531 	 13.42
121.0284053726 	 5.06
121.1011763852 	 48.51
122.0964253583 	 28
123.1042503904 	 10.23
136.1120754225 	 94.94
137.1199004546 	 89.44
138.1277254867 	 88.28
145.0284053726 	 63.86
147.0440554368 	 55.28
150.1277254867 	 76.07
151.1355505188 	 20.63
163.0389700589 	 7.98
164.1069900446 	 14.14
175.0389700589 	 100
178.1226401088 	 19.97
179.1304651409 	 95.65
203.033884681 	 10.12
220.0604337825 	 3.74
312.1594195456 	 20.02
340.1543341677 	 33
358.164898854 	 0
END IONS

BEGIN IONS
PEPMASS=449.108
CHARGE=1
MSLEVEL=2
RT=0
SOURCE_INSTRUMENT=qTOF
FILENAME=CCMSLIB00000080220.ms
IONMODE=Positive
ORGANISM=Natural
NAME=MLS000876959-01!2-(3,4-dihydroxyphenyl)-5,7-dihydroxy-6-[3,4,5-trihydroxy-6-(hydroxymethyl)oxan-2-yl]chromen-4-one
PI=GNPS
DATACOLLECTOR=GNPS
SMILES=c1cc(c(cc1c1cc(=O)c2c(cc(c(c2O)C2C(C(C(C(CO)O2)O)O)O)O)o1)O)O
INCHI=InChI=1S/C21H20O11/c22-6-14-17(27)19(29)20(30)21(32-14)16-11(26)5-13-15(18(16)28)10(25)4-12(31-13)7-1-2-8(23)9(24)3-7/h1-5,14,17,19-24,26-30H,6H2
FORMULA=C21H20O11
PUBMED=N/A
SUBMITUSER=BIOADREM
LIBRARYQUALITY=0
SPECTRUMID=CCMSLIB00000080220
SCANS=2410
ID=CCMSLIB00000080220
163.0389700589 	 12.57
165.0182346168 	 23.31
283.0600994315 	 14.17
287.0550140536 	 9.52
295.0600994315 	 5.48
297.0757494957 	 12.26
299.0550140536 	 100
300.0628390857 	 38.77
309.0757494957 	 6.85
312.099224592 	 7.24
324.0628390857 	 6.4
325.0706641178 	 34.5
329.0655787399 	 80.12
331.0659726704 	 4.34
337.0706641178 	 5.94
339.086314182 	 18.28
340.0941392141 	 8.91
349.0765373567 	 5.94
351.0499286757 	 6.02
353.0655787399 	 27.19
354.073403772 	 10.66
365.0655787399 	 8.53
377.0655787399 	 13.48
378.073403772 	 5.56
395.0761434262 	 9.14
449.1078374851 	 0
END IONS

BEGIN IONS
PEPMASS=464.184
CHARGE=1
MSLEVEL=2
RT=0
SOURCE_INSTRUMENT=qTOF
FILENAME=CCMSLIB00000080221.ms
IONMODE=Positive
ORGANISM=Natural
NAME=MLS001140990-01!4-[[2-(4-butyl-6-chloro-2-oxochromen-7-yl)oxypropanoylamino]methyl]cyclohexane-1-carboxylic acid
PI=GNPS
DATACOLLECTOR=GNPS
SMILES=CCCCc1cc(=O)oc2cc(c(cc12)Cl)OC(C)C(=NC[C@H]1CC[C@@H](CC1)C(=O)O)O
INCHI=InChI=1S/C24H30ClNO6/c1-3-4-5-17-10-22(27)32-20-12-21(19(25)11-18(17)20)31-14(2)23(28)26-13-15-6-8-16(9-7-15)24(29)30/h10-12,14-16H,3-9,13H2,1-2H3,(H,26,28)(H,29,30)/t14?,15-,16-
FORMULA=C24H30ClNO6
PUBMED=N/A
SUBMITUSER=BIOADREM
LIBRARYQUALITY=0
SPECTRUMID=CCMSLIB00000080221
SCANS=2411
ID=CCMSLIB00000080221
95.085526321 	 10.66
110.0964253583 	 1.65
111.1042503904 	 5.06
112.1120754225 	 5.76
120.0807752941 	 1.41
124.0756899162 	 1.77
132.0569658468 	 1.06
138.0913399804 	 4.92
138.1277254867 	 9.88
140.1069900446 	 33.47
141.0101684926 	 1.12
152.1069900446 	 2.71
157.0050831147 	 2.22
160.1120754225 	 4.92
166.0862546025 	 1.39
166.1226401088 	 6.92
167.0258185568 	 1.03
167.1304651409 	 18.2
183.0207331789 	 1.53
184.1332047951 	 5.87
188.1069900446 	 3.33
196.9999977368 	 5.43
209.0363832431 	 1.62
210.0078227689 	 3.38
211.015647801 	 2.18
215.1066556936 	 4.5
216.1144807257 	 2.84
223.015647801 	 12.31
224.0189628983 	 2.26
235.0520333073 	 1.47
251.0833334357 	 3.22
253.0625979936 	 100
254.0659130909 	 16.54
279.0782480578 	 42.13
280.0815631551 	 7.19
307.0731626799 	 1.58
324.0997117814 	 4.52
418.1779621024 	 9.39
464.1834414108 	 0
END IONS

BEGIN IONS
PEPMASS=427.215
CHARGE=1
MSLEVEL=2
RT=0
SOURCE_INSTRUMENT=qTOF
FILENAME=CCMSLIB00000080222.ms
IONMODE=Positive
ORGANISM=Natural
NAME=MLS001141186-01!
PI=GNPS
DATACOLLECTOR=GNPS
SMILES=CC(C)[C@@H](C(=Nc1ccccc1F)O)N=C(N1C[C@H]2C[C@@H](C1)c1cccc(=O)n1C2)O
INCHI=InChI=1S/C23H27FN4O3/c1-14(2)21(22(30)25-18-7-4-3-6-17(18)24)26-23(31)27-11-15-10-16(13-27)19-8-5-9-20(29)28(19)12-15/h3-9,14-16,21H,10-13H2,1-2H3,(H,25,30)(H,26,31)/t15-,16+,21+/m1/s1
FORMULA=C23H27FN4O3
PUBMED=N/A
SUBMITUSER=BIOADREM
LIBRARYQUALITY=0
SPECTRUMID=CCMSLIB00000080222
SCANS=2412
ID=CCMSLIB00000080222
106.0651252299 	 0.31
108.0443897878 	 0.38
117.0573001978 	 0.42
118.0651252299 	 0.29
122.060039852 	 0.63
129.0698762568 	 0.38
130.0651252299 	 0.38
131.072950262 	 0.49
132.0443897878 	 1.77
132.0807752941 	 0.49
133.0522148199 	 1.66
134.060039852 	 1.42
142.0651252299 	 0.23
144.0807752941 	 0.69
146.060039852 	 14.24
148.0756899162 	 8.49
156.0807752941 	 0.65
158.060039852 	 4.74
159.0678648841 	 1.66
160.0756899162 	 30.51
172.0756899162 	 5.69
174.0913399804 	 15.7
176.0944139856 	 0.26
188.0706045383 	 2.69
189.1022390177 	 27.61
191.1178890819 	 14.28
217.0971536398 	 100
235.1077183261 	 13.34
288.1706529339 	 75.25
316.165567556 	 0.51
427.2139949538 	 0
END IONS

BEGIN IONS
PEPMASS=370.177
CHARGE=1
MSLEVEL=2
RT=0
SOURCE_INSTRUMENT=qTOF
FILENAME=CCMSLIB00000080223.ms
IONMODE=Positive
ORGANISM=Natural
NAME=MLS001146577-01!
PI=GNPS
DATACOLLECTOR=GNPS
SMILES=COc1ccc(c(c1)N=C(N1C[C@H]2C[C@@H](C1)c1cccc(=O)n1C2)O)OC
INCHI=InChI=1S/C20H23N3O4/c1-26-15-6-7-18(27-2)16(9-15)21-20(25)22-10-13-8-14(12-22)17-4-3-5-19(24)23(17)11-13/h3-7,9,13-14H,8,10-12H2,1-2H3,(H,21,25)/t13-,14+/m1/s1
FORMULA=C20H23N3O4
PUBMED=N/A
SUBMITUSER=BIOADREM
LIBRARYQUALITY=0
SPECTRUMID=CCMSLIB00000080223
SCANS=2413
ID=CCMSLIB00000080223
96.0443897878 	 1.39
104.0494751657 	 1.67
105.0573001978 	 0.83
106.0651252299 	 2.73
108.0443897878 	 2.11
109.0522148199 	 2.64
115.0542261926 	 1.27
116.0494751657 	 0.75
117.0573001978 	 2.06
118.0651252299 	 2.15
122.060039852 	 1.56
126.0549544741 	 0.78
130.0651252299 	 4.31
131.072950262 	 2.68
132.0443897878 	 8.68
132.0807752941 	 2.71
133.0522148199 	 10.63
134.060039852 	 8.34
142.0651252299 	 1.5
144.0807752941 	 2.75
145.0522148199 	 1.78
146.060039852 	 44.59
148.0756899162 	 22.55
154.0651252299 	 1.68
156.0807752941 	 4.7
158.060039852 	 9.25
159.0678648841 	 7.89
160.0756899162 	 91.33
165.0420440641 	 2.74
172.0756899162 	 14.14
174.0913399804 	 50.19
180.0655191604 	 4.24
188.0706045383 	 4.28
189.1022390177 	 36.29
191.1178890819 	 12.45
217.0971536398 	 100
235.1077183261 	 5.16
370.1761322423 	 2.53
END IONS

BEGIN IONS
PEPMASS=515.229
CHARGE=1
MSLEVEL=2
RT=0
SOURCE_INSTRUMENT=qTOF
FILENAME=CCMSLIB00000080224.ms
IONMODE=Positive
ORGANISM=Natural
NAME=MLS001158446-01!(2S)-2-[[(2S)-2-[[(2S)-3-oxo-2-propan-2-yl-2,4-dihydroquinoxaline-1-carbonyl]amino]-3-phenylpropanoyl]amino]-2-phenylacetic acid
PI=GNPS
DATACOLLECTOR=GNPS
SMILES=CC(C)[C@H]1C(=Nc2ccccc2N1C(=N[C@@H](Cc1ccccc1)C(=N[C@@H](c1ccccc1)C(=O)O)O)O)O
INCHI=InChI=1S/C29H30N4O5/c1-18(2)25-27(35)30-21-15-9-10-16-23(21)33(25)29(38)31-22(17-19-11-5-3-6-12-19)26(34)32-24(28(36)37)20-13-7-4-8-14-20/h3-16,18,22,24-25H,17H2,1-2H3,(H,30,35)(H,31,38)(H,32,34)(H,36,37)/t22-,24-,25-/m0/s1
FORMULA=C29H30N4O5
PUBMED=N/A
SUBMITUSER=BIOADREM
LIBRARYQUALITY=0
SPECTRUMID=CCMSLIB00000080224
SCANS=2414
ID=CCMSLIB00000080224
106.0287397236 	 1.37
107.060374203 	 5.54
119.060374203 	 31.72
120.0807752941 	 3.23
128.046795091 	 2.2
132.0443897878 	 9.04
133.0396387609 	 29.93
135.0552888251 	 36.07
146.0573597773 	 7.29
146.0964253583 	 3.49
147.0552888251 	 100
148.0604337825 	 16.97
161.034553383 	 24.36
163.1229744598 	 67.53
173.1046443209 	 3.01
174.0760838467 	 1.17
175.0502034472 	 2.69
179.0451180693 	 22.7
189.1022390177 	 48.56
191.1152090072 	 7.41
202.0611024845 	 6.02
217.0971536398 	 77.1
218.1022985972 	 9.43
244.1080526771 	 49.64
245.1131976345 	 12.26
265.1699246524 	 10.43
275.1542745882 	 1.21
291.1491892103 	 1.14
293.1648392745 	 3.34
308.1757383118 	 19.71
309.1808832692 	 4.55
319.1441038324 	 2.93
336.1706529339 	 31.1
337.1757978913 	 9.44
515.2288960943 	 0
END IONS

BEGIN IONS
PEPMASS=227.071
CHARGE=1
MSLEVEL=2
RT=0
SOURCE_INSTRUMENT=qTOF
FILENAME=CCMSLIB00000080225.ms
IONMODE=Positive
ORGANISM=Natural
NAME=MLS002472935-01!8-prop-1-en-2-ylfuro[2,3-h]chromen-2-one
PI=GNPS
DATACOLLECTOR=GNPS
SMILES=C=C(C)c1cc2c(ccc3ccc(=O)oc23)o1
INCHI=InChI=1S/C14H10O3/c1-8(2)12-7-10-11(16-12)5-3-9-4-6-13(15)17-14(9)10/h3-7H,1H2,2H3
FORMULA=C14H10O3
PUBMED=N/A
SUBMITUSER=BIOADREM
LIBRARYQUALITY=0
SPECTRUMID=CCMSLIB00000080225
SCANS=2415
ID=CCMSLIB00000080225
102.0464011605 	 2.91
103.0542261926 	 6.63
115.0542261926 	 10.44
117.0698762568 	 1.05
126.0464011605 	 2.26
127.0542261926 	 13.12
128.0620512247 	 100
130.0413157826 	 0.63
131.0491408147 	 8.8
139.0542261926 	 2.62
141.0698762568 	 8.7
142.0777012889 	 5.71
143.085526321 	 13.52
144.0569658468 	 1.9
145.0647908789 	 3.29
151.0542261926 	 2.24
152.0620512247 	 9.25
153.0698762568 	 5.46
156.0569658468 	 5.01
168.0569658468 	 0.93
169.0647908789 	 2.48
170.072615911 	 1.33
171.0804409431 	 15.07
183.0804409431 	 1.68
184.0518804689 	 3.95
199.0753555652 	 2.47
227.0702701873 	 10.42
END IONS

BEGIN IONS
PEPMASS=524.2755
CHARGE=1
MSLEVEL=2
RT=0
SOURCE_INSTRUMENT=qTOF
FILENAME=CCMSLIB00000080226.ms
IONMODE=Positive
ORGANISM=Natural
NAME=MLS001140787-01!(2S)-2-[[(2R)-2-[[1-[(2-methylpropan-2-yl)oxycarbonyl]-4-phenylpiperidine-4-carbonyl]amino]propanoyl]amino]-3-phenylpropanoic acid
PI=GNPS
DATACOLLECTOR=GNPS
SMILES=C[C@H](C(=N[C@@H](Cc1ccccc1)C(=O)O)O)N=C(C1(CCN(CC1)C(=O)OC(C)(C)C)c1ccccc1)O
INCHI=InChI=1S/C29H37N3O6/c1-20(24(33)31-23(25(34)35)19-21-11-7-5-8-12-21)30-26(36)29(22-13-9-6-10-14-22)15-17-32(18-16-29)27(37)38-28(2,3)4/h5-14,20,23H,15-19H2,1-4H3,(H,30,36)(H,31,33)(H,34,35)/t20-,23+/m1/s1
FORMULA=C29H37N3O6
PUBMED=N/A
SUBMITUSER=BIOADREM
LIBRARYQUALITY=0
SPECTRUMID=CCMSLIB00000080226
SCANS=2416
ID=CCMSLIB00000080226
103.0542261926 	 0.72
105.0698762568 	 1.23
117.0698762568 	 5.43
120.0807752941 	 15.66
121.0859202515 	 0.86
131.085526321 	 4.21
143.085526321 	 1.79
145.0607681335 	 0.65
146.0924026129 	 0.67
149.059705501 	 1.02
153.0698762568 	 0.71
160.1120754225 	 100
161.1158777092 	 14.99
162.1151494277 	 0.89
166.0862546025 	 8.93
170.0964253583 	 1.08
187.1229744598 	 0.77
188.1069900446 	 40.4
189.1107923313 	 4.83
204.1019046667 	 12.88
216.1019046667 	 1.94
231.1491892103 	 2.22
259.1441038324 	 6.79
277.1573485934 	 1.05
303.1339330766 	 0.76
424.2230824349 	 1.02
524.2755119359 	 0.27
END IONS

BEGIN IONS
PEPMASS=217.0498
CHARGE=1
MSLEVEL=2
RT=0
SOURCE_INSTRUMENT=qTOF
FILENAME=CCMSLIB00000080227.ms
IONMODE=Positive
ORGANISM=Natural
NAME=MLS002454380-01!
PI=GNPS
DATACOLLECTOR=GNPS
SMILES=COc1c2ccc(=O)oc2cc2c1cco2
INCHI=InChI=1S/C12H8O4/c1-14-12-7-2-3-11(13)16-10(7)6-9-8(12)4-5-15-9/h2-6H,1H3
FORMULA=C12H8O4
PUBMED=N/A
SUBMITUSER=BIOADREM
LIBRARYQUALITY=0
SPECTRUMID=CCMSLIB00000080227
SCANS=2417
ID=CCMSLIB00000080227
100.0307510963 	 1.91
118.0413157826 	 11.52
145.0284053726 	 6.11
146.0362304047 	 18.95
156.0205803405 	 2.51
174.0311450268 	 48.7
202.0260596489 	 100
217.0495347452 	 6.45
END IONS

BEGIN IONS
PEPMASS=475.2227
CHARGE=1
MSLEVEL=2
RT=0
SOURCE_INSTRUMENT=qTOF
FILENAME=CCMSLIB00000080228.ms
IONMODE=Positive
ORGANISM=Natural
NAME=MLS001158175-01!
PI=GNPS
DATACOLLECTOR=GNPS
SMILES=Cc1c(ccc2c3CCCCc3c(=O)oc12)OC(C)C(=O)N1C[C@H]2C[C@@H](C1)c1cccc(=O)n1C2
INCHI=InChI=1S/C28H30N2O5/c1-16-24(11-10-21-20-6-3-4-7-22(20)28(33)35-26(16)21)34-17(2)27(32)29-13-18-12-19(15-29)23-8-5-9-25(31)30(23)14-18/h5,8-11,17-19H,3-4,6-7,12-15H2,1-2H3/t17?,18-,19+/m1/s1
FORMULA=C28H30N2O5
PUBMED=N/A
SUBMITUSER=BIOADREM
LIBRARYQUALITY=0
SPECTRUMID=CCMSLIB00000080228
SCANS=2418
ID=CCMSLIB00000080228
109.0495347452 	 3.95
117.0573001978 	 0.62
122.060039852 	 1.17
132.0443897878 	 1.22
132.0807752941 	 1.06
133.0522148199 	 2.75
134.060039852 	 4.43
135.0651848094 	 0.99
145.0886003262 	 0.49
146.060039852 	 19.99
147.0678648841 	 21.29
148.0756899162 	 10.92
158.060039852 	 0.48
159.0678648841 	 2.67
160.0756899162 	 6.83
161.0808348736 	 0.81
161.1073243956 	 0.41
162.0913399804 	 1.67
163.0964849378 	 0.8
172.0756899162 	 2.63
173.0835149483 	 21.53
174.0886599057 	 4.31
175.0865889535 	 0.62
185.0960910073 	 1.9
189.1022390177 	 100
190.1073839751 	 24.6
191.1178890819 	 24.61
201.1273911357 	 0.99
214.0988306615 	 0.65
215.0702701873 	 1.26
217.0971536398 	 2.68
217.1335391461 	 1.59
229.1223057578 	 3.1
231.1015703157 	 3.62
245.1284537682 	 27.99
257.1172203799 	 4.45
278.1261080445 	 1.3
285.112135002 	 3.61
457.2121833976 	 0.61
475.2227480839 	 22.13
END IONS

BEGIN IONS
PEPMASS=491.182
CHARGE=1
MSLEVEL=2
RT=0
SOURCE_INSTRUMENT=qTOF
FILENAME=CCMSLIB00000080229.ms
IONMODE=Positive
ORGANISM=Natural
NAME=MLS001075933-01!2-[[(Z)-2-benzamido-3-(3,4,5-trimethoxyphenyl)prop-2-enoyl]amino]-2-phenylacetic acid
PI=GNPS
DATACOLLECTOR=GNPS
SMILES=COc1cc(/C=C(/C(=NC(c2ccccc2)C(=O)O)O)\N=C(c2ccccc2)O)cc(c1OC)OC
INCHI=InChI=1S/C27H26N2O7/c1-34-21-15-17(16-22(35-2)24(21)36-3)14-20(28-25(30)19-12-8-5-9-13-19)26(31)29-23(27(32)33)18-10-6-4-7-11-18/h4-16,23H,1-3H3,(H,28,30)(H,29,31)(H,32,33)/b20-14-
FORMULA=C27H26N2O7
PUBMED=N/A
SUBMITUSER=BIOADREM
LIBRARYQUALITY=0
SPECTRUMID=CCMSLIB00000080229
SCANS=2419
ID=CCMSLIB00000080229
106.0372930372 	 11.64
107.0491408147 	 1.92
135.0440554368 	 7.74
136.0478577235 	 0.85
152.0706045383 	 1.2
162.0522743994 	 1.07
176.0706045383 	 1.83
177.0784295704 	 1.72
178.0471890215 	 1.2
178.0862546025 	 0.51
182.0811692246 	 0.46
193.0706641178 	 1.36
194.0838492993 	 0.71
204.0291336541 	 0.48
204.0655191604 	 0.45
206.0838492993 	 0.59
208.0941392141 	 1.84
234.0760838467 	 0.45
235.0839088788 	 0.73
236.0679244636 	 0.55
239.0702701873 	 0.8
252.0893286077 	 1.12
254.0937452836 	 5.36
255.0975475703 	 0.57
256.1053726024 	 0.58
257.1172203799 	 1.53
258.1210226666 	 0.51
262.0709984688 	 0.55
264.1019046667 	 0.48
265.1097296988 	 0.47
266.0811692246 	 1.24
278.0811692246 	 0.5
279.0889942567 	 0.56
280.0968192888 	 2.03
281.1073243956 	 1.33
285.112135002 	 3.68
286.1159372887 	 1.32
294.0760838467 	 1.1
296.1281194172 	 0.46
309.099558943 	 4.35
312.1230340393 	 1.64
322.1073839751 	 0.94
325.0944735651 	 1.25
340.1179486614 	 32.3
491.1812771997 	 0
END IONS

BEGIN IONS
PEPMASS=386.1543
CHARGE=1
MSLEVEL=2
RT=0
SOURCE_INSTRUMENT=qTOF
FILENAME=CCMSLIB00000080230.ms
IONMODE=Positive
ORGANISM=Natural
NAME=MLS001146619-01!3,4-dimethoxy-N-(2-pyridin-3-ylpiperidine-1-carbothioyl)benzamide
PI=GNPS
DATACOLLECTOR=GNPS
SMILES=COc1ccc(cc1OC)C(=NC(=S)N1CCCCC1c1cccnc1)O
INCHI=InChI=1S/C20H23N3O3S/c1-25-17-9-8-14(12-18(17)26-2)19(24)22-20(27)23-11-4-3-7-16(23)15-6-5-10-21-13-15/h5-6,8-10,12-13,16H,3-4,7,11H2,1-2H3,(H,22,24,27)
FORMULA=C20H23N3O3S
PUBMED=N/A
SUBMITUSER=BIOADREM
LIBRARYQUALITY=0
SPECTRUMID=CCMSLIB00000080230
SCANS=2420
ID=CCMSLIB00000080230
105.0334907505 	 0.59
106.0651252299 	 0.5
107.0127553084 	 0.31
107.0491408147 	 0.35
108.0807752941 	 0.26
109.0647908789 	 3.44
110.0712732403 	 0.33
111.0076699305 	 0.53
117.0573001978 	 2.91
118.0651252299 	 5.62
119.0702701873 	 1.35
120.0807752941 	 29.88
121.0284053726 	 1.58
122.0362304047 	 5.61
124.0518804689 	 0.85
126.0311450268 	 0.93
129.0698762568 	 0.43
130.0651252299 	 3.17
131.072950262 	 2.21
132.0807752941 	 1
134.0964253583 	 1.44
135.0440554368 	 0.36
137.059705501 	 6.67
139.0753555652 	 2.02
141.0546201231 	 0.77
144.0807752941 	 1.95
145.0859202515 	 0.28
146.0964253583 	 19.49
150.0345158452 	 0.56
153.0579909415 	 0.34
155.0702701873 	 2.29
157.0760242672 	 0.26
161.1073243956 	 2.75
163.1229744598 	 39.43
165.0546201231 	 100
167.0610649467 	 1.04
171.0916743314 	 1.85
172.0994993635 	 2.22
182.0811692246 	 0.61
188.1182234329 	 11.36
206.084540043 	 4.01
386.1532883102 	 0.17
END IONS

BEGIN IONS
PEPMASS=357.134
CHARGE=1
MSLEVEL=2
RT=0
SOURCE_INSTRUMENT=qTOF
FILENAME=CCMSLIB00000080231.ms
IONMODE=Positive
ORGANISM=Natural
NAME=MLS002637763-01!
PI=GNPS
DATACOLLECTOR=GNPS
SMILES=COc1cc(ccc1O)C1c2cc(c(cc2CC2C1COC2=O)OC)O
INCHI=InChI=1S/C20H20O6/c1-24-17-6-10(3-4-15(17)21)19-12-8-16(22)18(25-2)7-11(12)5-13-14(19)9-26-20(13)23/h3-4,6-8,13-14,19,21-22H,5,9H2,1-2H3
FORMULA=C20H20O6
PUBMED=N/A
SUBMITUSER=BIOADREM
LIBRARYQUALITY=0
SPECTRUMID=CCMSLIB00000080231
SCANS=2421
ID=CCMSLIB00000080231
107.0491408147 	 3.99
109.0647908789 	 10.68
122.0362304047 	 13.97
128.0620512247 	 3.53
129.0698762568 	 3.67
137.059705501 	 100
172.0518804689 	 4.78
175.0753555652 	 10.4
187.0753555652 	 5.15
211.0753555652 	 3.95
233.0808348736 	 3.62
357.1332643746 	 0
END IONS

BEGIN IONS
PEPMASS=430.165
CHARGE=1
MSLEVEL=2
RT=0
SOURCE_INSTRUMENT=qTOF
FILENAME=CCMSLIB00000080232.ms
IONMODE=Positive
ORGANISM=Natural
NAME=MLS001158241-01!N-(2-hydroxy-2-phenylethyl)-2-(8-methyl-2-oxo-4-phenylchromen-7-yl)oxyacetamide
PI=GNPS
DATACOLLECTOR=GNPS
SMILES=Cc1c(ccc2c(cc(=O)oc12)c1ccccc1)OCC(=NCC(c1ccccc1)O)O
INCHI=InChI=1S/C26H23NO5/c1-17-23(31-16-24(29)27-15-22(28)19-10-6-3-7-11-19)13-12-20-21(14-25(30)32-26(17)20)18-8-4-2-5-9-18/h2-14,22,28H,15-16H2,1H3,(H,27,29)
FORMULA=C26H23NO5
PUBMED=N/A
SUBMITUSER=BIOADREM
LIBRARYQUALITY=0
SPECTRUMID=CCMSLIB00000080232
SCANS=2422
ID=CCMSLIB00000080232
103.0542261926 	 10.58
105.0698762568 	 22.56
115.0542261926 	 13.3
118.0777012889 	 12.47
131.072950262 	 4.18
132.0807752941 	 64.03
160.0756899162 	 3.39
161.0835149483 	 6.14
165.0698762568 	 2.79
166.0777012889 	 4.14
178.0777012889 	 32.92
179.085526321 	 52.73
182.072615911 	 8.14
189.0698762568 	 2.98
191.085526321 	 6.85
194.072615911 	 7.04
197.0960910073 	 8.44
206.072615911 	 7.65
207.0804409431 	 65.99
224.0831805973 	 6.55
235.0753555652 	 4.07
237.0910056294 	 5.16
252.0780952194 	 2.45
253.0859202515 	 83.84
265.0859202515 	 100
293.0808348736 	 3.5
355.1328704441 	 3.28
430.164898854 	 0
END IONS

BEGIN IONS
PEPMASS=484.1608
CHARGE=1
MSLEVEL=2
RT=0
SOURCE_INSTRUMENT=qTOF
FILENAME=CCMSLIB00000080233.ms
IONMODE=Positive
ORGANISM=Natural
NAME=MLS001157974-01!(2S)-1-[2-[[(2Z)-3-oxo-2-[(2,3,4-trimethoxyphenyl)methylidene]-1-benzofuran-6-yl]oxy]acetyl]pyrrolidine-2-carboxylic acid
PI=GNPS
DATACOLLECTOR=GNPS
SMILES=COc1ccc(/C=C\2/C(=O)c3ccc(cc3O2)OCC(=O)N2CCC[C@H]2C(=O)O)c(c1OC)OC
INCHI=InChI=1S/C25H25NO9/c1-31-18-9-6-14(23(32-2)24(18)33-3)11-20-22(28)16-8-7-15(12-19(16)35-20)34-13-21(27)26-10-4-5-17(26)25(29)30/h6-9,11-12,17H,4-5,10,13H2,1-3H3,(H,29,30)/b20-11-/t17-/m0/s1
FORMULA=C25H25NO9
PUBMED=N/A
SUBMITUSER=BIOADREM
LIBRARYQUALITY=0
SPECTRUMID=CCMSLIB00000080233
SCANS=2423
ID=CCMSLIB00000080233
98.060039852 	 6.94
100.0756899162 	 9.43
128.0706045383 	 14.61
137.0233199947 	 12.39
149.0233199947 	 4.95
163.0389700589 	 13.17
167.0702701873 	 8.92
175.0389700589 	 9.87
178.0624451552 	 10.64
225.0546201231 	 5.15
237.0546201231 	 4.49
239.0365647557 	 4.59
253.0495347452 	 11.5
255.0651848094 	 6.21
265.0495347452 	 10.03
266.0573597773 	 13.69
267.0651848094 	 21.86
268.0730098415 	 10.34
270.0886599057 	 4.28
271.0600994315 	 8.38
280.0756899162 	 4.92
281.0444493673 	 12.92
281.0808348736 	 3.99
282.0522743994 	 13.69
283.0600994315 	 21.63
284.0679244636 	 4.59
285.0757494957 	 13.22
295.0600994315 	 18.42
296.0679244636 	 39.77
297.0757494957 	 16.42
298.0835745278 	 4.98
299.0550140536 	 26.6
309.0757494957 	 13.07
312.0628390857 	 5.41
313.0706641178 	 14.02
314.0784891499 	 25.07
325.0706641178 	 6.21
328.0968192888 	 5.21
329.1019642462 	 100
340.0941392141 	 5.29
341.1019642462 	 26.27
342.1097892783 	 7.11
369.0968788683 	 5.15
387.1074435546 	 6.65
408.1077779056 	 4.25
438.1183425919 	 4.2
484.1602074066 	 44.77
END IONS

BEGIN IONS
PEPMASS=372.145
CHARGE=1
MSLEVEL=2
RT=0
SOURCE_INSTRUMENT=qTOF
FILENAME=CCMSLIB00000080234.ms
IONMODE=Positive
ORGANISM=Natural
NAME=MLS001160313-01!2-[(5-hydroxy-2,2-dimethyl-4-oxo-3H-chromen-7-yl)oxy]-N-(4-methoxyphenyl)acetamide
PI=GNPS
DATACOLLECTOR=GNPS
SMILES=CC1(C)CC(=O)c2c(cc(cc2O1)OCC(=O)Nc1ccc(cc1)OC)O
INCHI=InChI=1S/C20H21NO6/c1-20(2)10-16(23)19-15(22)8-14(9-17(19)27-20)26-11-18(24)21-12-4-6-13(25-3)7-5-12/h4-9,22H,10-11H2,1-3H3,(H,21,24)
FORMULA=C20H21NO6
PUBMED=N/A
SUBMITUSER=BIOADREM
LIBRARYQUALITY=0
SPECTRUMID=CCMSLIB00000080234
SCANS=2424
ID=CCMSLIB00000080234
97.0284053726 	 0.85
104.0494751657 	 11.96
105.0573001978 	 1.32
106.0651252299 	 1.82
107.0491408147 	 1.08
107.085526321 	 0.73
108.0569658468 	 2.03
108.0807752941 	 1.36
109.0647908789 	 8.58
111.0076699305 	 0.79
117.0698762568 	 0.85
120.0443897878 	 1.65
123.0076699305 	 1.21
124.0756899162 	 1.62
125.0233199947 	 0.7
132.0443897878 	 2.03
133.0522148199 	 7.91
134.0573597773 	 2
135.0076699305 	 1.72
136.0756899162 	 88.22
137.0233199947 	 2.68
139.0389700589 	 1.19
145.0647908789 	 0.93
146.060039852 	 1.07
149.047129442 	 5.71
151.0389700589 	 2.65
153.0182346168 	 100
162.0522743994 	 0.95
163.0753555652 	 4.66
164.0706045383 	 19.86
165.0182346168 	 9.49
171.0287993031 	 1.78
176.046795091 	 1.36
179.0702701873 	 1.59
191.0702701873 	 18.63
193.0131492389 	 6.51
209.0808348736 	 46.22
221.0808348736 	 11.67
249.0757494957 	 1.25
288.0900193514 	 0.78
316.0849339735 	 2.39
372.1475342303 	 1.32
END IONS

BEGIN IONS
PEPMASS=453.214
CHARGE=1
MSLEVEL=2
RT=0
SOURCE_INSTRUMENT=qTOF
FILENAME=CCMSLIB00000080235.ms
IONMODE=Positive
ORGANISM=Natural
NAME=MLS001159166-01!(2R)-2-[[(2S)-3-methyl-2-[(3-oxo-2,4-dihydroquinoxaline-1-carbonyl)amino]pentanoyl]amino]-3-phenylpropanoic acid
PI=GNPS
DATACOLLECTOR=GNPS
SMILES=CCC(C)[C@@H](C(=N[C@H](Cc1ccccc1)C(=O)O)O)N=C(N1CC(=Nc2ccccc12)O)O
INCHI=InChI=1S/C24H28N4O5/c1-3-15(2)21(22(30)26-18(23(31)32)13-16-9-5-4-6-10-16)27-24(33)28-14-20(29)25-17-11-7-8-12-19(17)28/h4-12,15,18,21H,3,13-14H2,1-2H3,(H,25,29)(H,26,30)(H,27,33)(H,31,32)/t15?,18-,21+/m1/s1
FORMULA=C24H28N4O5
PUBMED=N/A
SUBMITUSER=BIOADREM
LIBRARYQUALITY=0
SPECTRUMID=CCMSLIB00000080235
SCANS=2425
ID=CCMSLIB00000080235
103.0542261926 	 1.14
119.060374203 	 9.69
120.0807752941 	 7.24
121.0760242672 	 29.77
147.0552888251 	 100
149.0709388893 	 4.21
164.0818379266 	 3.66
175.0502034472 	 47.4
176.0818379266 	 0.8
177.0532774524 	 0.91
192.0767525487 	 21.4
204.0767525487 	 6.24
217.1335391461 	 1.25
232.1444381834 	 2.47
260.1393528055 	 78.02
288.1342674276 	 0.99
453.2132460301 	 0
END IONS

BEGIN IONS
PEPMASS=524.222
CHARGE=1
MSLEVEL=2
RT=0
SOURCE_INSTRUMENT=qTOF
FILENAME=CCMSLIB00000080236.ms
IONMODE=Positive
ORGANISM=Natural
NAME=MLS001159195-01!(2S)-2-[[(2S)-2-[[(3R)-2,2-dimethyl-5-oxo-3,9b-dihydro-[1,3]thiazolo[2,3-a]isoindole-3-carbonyl]amino]-4-methylpentanoyl]amino]-3-phenylpropanoic acid
PI=GNPS
DATACOLLECTOR=GNPS
SMILES=CC(C)C[C@@H](C(=N[C@@H](Cc1ccccc1)C(=O)O)O)N=C([C@@H]1C(C)(C)SC2c3ccccc3C(=O)N12)O
INCHI=InChI=1S/C28H33N3O5S/c1-16(2)14-20(23(32)30-21(27(35)36)15-17-10-6-5-7-11-17)29-24(33)22-28(3,4)37-26-19-13-9-8-12-18(19)25(34)31(22)26/h5-13,16,20-22,26H,14-15H2,1-4H3,(H,29,33)(H,30,32)(H,35,36)/t20-,21-,22+,26?/m0/s1
FORMULA=C28H33N3O5S
PUBMED=N/A
SUBMITUSER=BIOADREM
LIBRARYQUALITY=0
SPECTRUMID=CCMSLIB00000080236
SCANS=2426
ID=CCMSLIB00000080236
101.0419469468 	 0.59
120.0807752941 	 3.49
132.0443897878 	 8.26
134.0573597773 	 0.51
157.1045472036 	 1.21
160.0756899162 	 1.75
161.0808348736 	 0.45
166.0862546025 	 0.61
174.0886599057 	 0.25
184.0730098415 	 0.23
186.0886599057 	 2.06
190.0684960483 	 0.76
200.1043099699 	 1.26
201.112135002 	 0.21
216.0477606062 	 0.35
218.0634106704 	 100
219.0651848094 	 20.2
220.0604337825 	 7.7
229.0944735651 	 0.34
246.0583252925 	 6.02
247.0600994315 	 0.53
248.0553484046 	 0.31
257.1257736935 	 0.23
263.0788235009 	 0.23
331.1447945761 	 2.86
524.2213678754 	 0
END IONS

BEGIN IONS
PEPMASS=355.155
CHARGE=1
MSLEVEL=2
RT=0
SOURCE_INSTRUMENT=qTOF
FILENAME=CCMSLIB00000080237.ms
IONMODE=Positive
ORGANISM=Natural
NAME=MLS002472889-01!4,9-bis(3-methylbut-2-enoxy)furo[3,2-g]chromen-7-one
PI=GNPS
DATACOLLECTOR=GNPS
SMILES=CC(=CCOc1c2ccc(=O)oc2c(c2c1cco2)OCC=C(C)C)C
INCHI=InChI=1S/C21H22O5/c1-13(2)7-10-23-18-15-5-6-17(22)26-20(15)21(25-11-8-14(3)4)19-16(18)9-12-24-19/h5-9,12H,10-11H2,1-4H3
FORMULA=C21H22O5
PUBMED=N/A
SUBMITUSER=BIOADREM
LIBRARYQUALITY=0
SPECTRUMID=CCMSLIB00000080237
SCANS=2427
ID=CCMSLIB00000080237
95.0127553084 	 0.74
105.0334907505 	 1.03
107.0491408147 	 2.07
117.0334907505 	 0.73
119.0491408147 	 0.51
123.0076699305 	 0.35
131.0491408147 	 0.37
133.0284053726 	 2.12
134.0362304047 	 2.75
135.0440554368 	 3.09
144.0205803405 	 0.33
145.0284053726 	 12.37
147.0440554368 	 2.11
149.0233199947 	 0.86
157.0284053726 	 0.38
161.0233199947 	 5.12
162.0311450268 	 3.3
163.0389700589 	 17.11
173.0233199947 	 95.6
175.0389700589 	 4.64
187.0389700589 	 0.86
189.0182346168 	 5.12
191.033884681 	 1.74
201.0182346168 	 3.71
203.033884681 	 5.37
219.0287993031 	 100
231.0287993031 	 3.18
355.1539998167 	 0
END IONS

BEGIN IONS
PEPMASS=400.1769
CHARGE=1
MSLEVEL=2
RT=0
SOURCE_INSTRUMENT=qTOF
FILENAME=CCMSLIB00000080238.ms
IONMODE=Positive
ORGANISM=Natural
NAME=MLS001159054-01!1-[2-[(4-methyl-6-oxo-7,8,9,10-tetrahydrobenzo[c]chromen-3-yl)oxy]acetyl]piperidine-4-carboxylic acid
PI=GNPS
DATACOLLECTOR=GNPS
SMILES=Cc1c(ccc2c3CCCCc3c(=O)oc12)OCC(=O)N1CCC(CC1)C(=O)O
INCHI=InChI=1S/C22H25NO6/c1-13-18(28-12-19(24)23-10-8-14(9-11-23)21(25)26)7-6-16-15-4-2-3-5-17(15)22(27)29-20(13)16/h6-7,14H,2-5,8-12H2,1H3,(H,25,26)
FORMULA=C22H25NO6
PUBMED=N/A
SUBMITUSER=BIOADREM
LIBRARYQUALITY=0
SPECTRUMID=CCMSLIB00000080238
SCANS=2428
ID=CCMSLIB00000080238
99.0440554368 	 7.91
100.0393044099 	 2.72
112.0756899162 	 19.74
114.0549544741 	 19.85
119.0491408147 	 2.2
124.0756899162 	 3.65
125.0835149483 	 2.29
126.0913399804 	 34.35
128.0706045383 	 97.26
130.0862546025 	 21.45
131.085526321 	 2.81
141.0698762568 	 2.76
142.0862546025 	 100
149.059705501 	 20.74
156.0655191604 	 2.48
157.1011763852 	 2.18
159.0804409431 	 7.19
169.1011763852 	 3.61
170.0811692246 	 9.32
171.0889942567 	 8.55
174.0675305331 	 12.92
183.0804409431 	 2.39
185.0960910073 	 8.43
187.1117410715 	 5.55
197.0960910073 	 4.57
201.0910056294 	 13.56
202.0624451552 	 6.02
202.0988306615 	 13.79
215.0702701873 	 25.26
215.1066556936 	 77.22
225.0910056294 	 4.52
229.0859202515 	 14.84
230.0937452836 	 67.48
243.1015703157 	 92.44
271.0964849378 	 9.34
354.1699842319 	 6.2
382.164898854 	 2.72
400.1754635403 	 17.21
END IONS

BEGIN IONS
PEPMASS=470.137
CHARGE=1
MSLEVEL=2
RT=0
SOURCE_INSTRUMENT=qTOF
FILENAME=CCMSLIB00000080239.ms
IONMODE=Positive
ORGANISM=Natural
NAME=MLS001140999-01!4-[[[2-(6-chloro-2-oxo-4-phenylchromen-7-yl)oxyacetyl]amino]methyl]cyclohexane-1-carboxylic acid
PI=GNPS
DATACOLLECTOR=GNPS
SMILES=c1ccc(cc1)c1cc(=O)oc2cc(c(cc12)Cl)OCC(=NC[C@H]1CC[C@@H](CC1)C(=O)O)O
INCHI=InChI=1S/C25H24ClNO6/c26-20-10-19-18(16-4-2-1-3-5-16)11-24(29)33-21(19)12-22(20)32-14-23(28)27-13-15-6-8-17(9-7-15)25(30)31/h1-5,10-12,15,17H,6-9,13-14H2,(H,27,28)(H,30,31)/t15-,17-
FORMULA=C25H24ClNO6
PUBMED=N/A
SUBMITUSER=BIOADREM
LIBRARYQUALITY=0
SPECTRUMID=CCMSLIB00000080239
SCANS=2429
ID=CCMSLIB00000080239
112.0882659752 	 2.01
227.1152090072 	 2.46
229.1308590714 	 8.46
231.1226996883 	 3.51
244.1246514815 	 3.8
245.1324765136 	 2.07
257.1383497525 	 3.99
259.1355505188 	 1.88
272.132629352 	 4.21
273.1404543841 	 100
274.1410894067 	 13.69
275.1363383798 	 25.6
276.138290173 	 3.73
286.1482794162 	 8.91
287.1430411999 	 9.58
288.138290173 	 3.1
313.1461152051 	 14.04
315.1510190704 	 6.35
330.1852403656 	 23.72
342.1852403656 	 6.35
470.1364912182 	 0
END IONS

BEGIN IONS
PEPMASS=464.2291
CHARGE=1
MSLEVEL=2
RT=0
SOURCE_INSTRUMENT=qTOF
FILENAME=CCMSLIB00000080240.ms
IONMODE=Positive
ORGANISM=Natural
NAME=MLS001158492-01!(2R)-2-[6-(1,2-dihydroimidazo[1,2-a]benzimidazole-3-carbonylamino)hexanoylamino]-3-phenylpropanoic acid
PI=GNPS
DATACOLLECTOR=GNPS
SMILES=c1ccc(cc1)C[C@H](C(=O)O)N=C(CCCCCN=C(N1CCn2c3ccccc3nc12)O)O
INCHI=InChI=1S/C25H29N5O4/c31-22(27-20(23(32)33)17-18-9-3-1-4-10-18)13-5-2-8-14-26-25(34)30-16-15-29-21-12-7-6-11-19(21)28-24(29)30/h1,3-4,6-7,9-12,20H,2,5,8,13-17H2,(H,26,34)(H,27,31)(H,32,33)/t20-/m1/s1
FORMULA=C25H29N5O4
PUBMED=N/A
SUBMITUSER=BIOADREM
LIBRARYQUALITY=0
SPECTRUMID=CCMSLIB00000080240
SCANS=2430
ID=CCMSLIB00000080240
103.0542261926 	 0.56
105.0447241388 	 0.26
118.0525491709 	 0.39
119.060374203 	 6.86
120.0807752941 	 9.22
132.0556231761 	 1.8
133.0760242672 	 1.11
134.0712732403 	 0.53
143.060374203 	 0.39
149.059705501 	 0.33
160.0869233045 	 100
166.0862546025 	 3.45
255.1604225986 	 1.22
259.1441038324 	 0.46
317.1608165291 	 0.57
464.2292304453 	 0.56
END IONS

BEGIN IONS
PEPMASS=194.082
CHARGE=1
MSLEVEL=2
RT=0
SOURCE_INSTRUMENT=qTOF
FILENAME=CCMSLIB00000080241.ms
IONMODE=Positive
ORGANISM=Natural
NAME=MLS001049059-01!methyl 2-benzamidoacetate
PI=GNPS
DATACOLLECTOR=GNPS
SMILES=COC(=O)CN=C(c1ccccc1)O
INCHI=InChI=1S/C10H11NO3/c1-14-9(12)7-11-10(13)8-5-3-2-4-6-8/h2-6H,7H2,1H3,(H,11,13)
FORMULA=C10H11NO3
PUBMED=N/A
SUBMITUSER=BIOADREM
LIBRARYQUALITY=0
SPECTRUMID=CCMSLIB00000080241
SCANS=2431
ID=CCMSLIB00000080241
105.0334907505 	 100
194.0811692246 	 0
END IONS

BEGIN IONS
PEPMASS=411.1914
CHARGE=1
MSLEVEL=2
RT=0
SOURCE_INSTRUMENT=qTOF
FILENAME=CCMSLIB00000080242.ms
IONMODE=Positive
ORGANISM=Natural
NAME=MLS001032390-01!5-hydroxy-2,2-dimethyl-7-[2-oxo-2-(4-phenylpiperazin-1-yl)ethoxy]-3H-chromen-4-one
PI=GNPS
DATACOLLECTOR=GNPS
SMILES=CC1(C)CC(=O)c2c(cc(cc2O1)OCC(=O)N1CCN(CC1)c1ccccc1)O
INCHI=InChI=1S/C23H26N2O5/c1-23(2)14-19(27)22-18(26)12-17(13-20(22)30-23)29-15-21(28)25-10-8-24(9-11-25)16-6-4-3-5-7-16/h3-7,12-13,26H,8-11,14-15H2,1-2H3
FORMULA=C23H26N2O5
PUBMED=N/A
SUBMITUSER=BIOADREM
LIBRARYQUALITY=0
SPECTRUMID=CCMSLIB00000080242
SCANS=2432
ID=CCMSLIB00000080242
104.0494751657 	 13.45
106.0651252299 	 26.17
117.0573001978 	 6.25
118.0651252299 	 11.17
120.0807752941 	 25.87
130.0651252299 	 2.35
132.0807752941 	 71.95
135.0076699305 	 2.34
135.0804409431 	 2.19
137.0233199947 	 3.85
144.0807752941 	 7.75
146.060039852 	 4.97
146.0964253583 	 5.99
153.0182346168 	 1.76
159.0916743314 	 8.28
160.0756899162 	 60.65
160.0994993635 	 56.51
161.1073243956 	 100
163.0753555652 	 6.61
165.0182346168 	 22.45
173.1073243956 	 6.88
175.1229744598 	 29.01
179.033884681 	 1.94
185.1073243956 	 3.01
191.0702701873 	 18.41
193.0131492389 	 22.56
203.1178890819 	 38.57
209.0808348736 	 8.44
221.0808348736 	 58.88
236.0553484046 	 1.75
249.0757494957 	 18.46
262.0709984688 	 2.4
269.1284537682 	 2.64
292.1179486614 	 2.47
318.1335987256 	 2.49
337.1182830124 	 2.56
355.1288476987 	 36.39
393.1808832692 	 3.49
411.1914479555 	 20.32
END IONS

BEGIN IONS
PEPMASS=257.0815
CHARGE=1
MSLEVEL=2
RT=0
SOURCE_INSTRUMENT=qTOF
FILENAME=CCMSLIB00000080243.ms
IONMODE=Positive
ORGANISM=Natural
NAME=MLS001143193-01!2,3-dimethoxyxanthen-9-one
PI=GNPS
DATACOLLECTOR=GNPS
SMILES=COc1cc2c(cc1OC)oc1ccccc1c2=O
INCHI=InChI=1S/C15H12O4/c1-17-13-7-10-12(8-14(13)18-2)19-11-6-4-3-5-9(11)15(10)16/h3-8H,1-2H3
FORMULA=C15H12O4
PUBMED=N/A
SUBMITUSER=BIOADREM
LIBRARYQUALITY=0
SPECTRUMID=CCMSLIB00000080243
SCANS=2433
ID=CCMSLIB00000080243
102.0464011605 	 0.38
103.0542261926 	 0.36
107.0127553084 	 0.76
115.0542261926 	 1.5
121.0284053726 	 4.34
127.0542261926 	 0.42
128.0620512247 	 4.58
139.0542261926 	 9.06
141.0698762568 	 1.08
149.0233199947 	 1.05
155.0491408147 	 1.11
157.0647908789 	 2.23
167.0491408147 	 1.48
168.0569658468 	 13.91
169.0647908789 	 1.91
171.0440554368 	 2.16
183.0440554368 	 3.05
184.0518804689 	 11.93
185.059705501 	 12.64
196.0518804689 	 8.96
197.059705501 	 6.61
199.0389700589 	 1.29
211.0389700589 	 1.72
212.046795091 	 3.54
213.0546201231 	 100
223.0389700589 	 4.12
224.046795091 	 2.6
225.0546201231 	 8.59
227.033884681 	 3.8
241.0495347452 	 32.53
242.0573597773 	 13.56
257.0808348736 	 26.31
END IONS

BEGIN IONS
PEPMASS=463.1864
CHARGE=1
MSLEVEL=2
RT=0
SOURCE_INSTRUMENT=qTOF
FILENAME=CCMSLIB00000080244.ms
IONMODE=Positive
ORGANISM=Natural
NAME=MLS001141036-01!(2S)-3-(1H-indol-3-yl)-2-[2-(3,4,8-trimethyl-2-oxochromen-7-yl)oxypropanoylamino]propanoic acid
PI=GNPS
DATACOLLECTOR=GNPS
SMILES=Cc1c(C)c(=O)oc2c(C)c(ccc12)OC(C)C(=N[C@@H](Cc1c[nH]c2ccccc12)C(=O)O)O
INCHI=InChI=1S/C26H26N2O6/c1-13-14(2)26(32)34-23-15(3)22(10-9-18(13)23)33-16(4)24(29)28-21(25(30)31)11-17-12-27-20-8-6-5-7-19(17)20/h5-10,12,16,21,27H,11H2,1-4H3,(H,28,29)(H,30,31)/t16?,21-/m0/s1
FORMULA=C26H26N2O6
PUBMED=N/A
SUBMITUSER=BIOADREM
LIBRARYQUALITY=0
SPECTRUMID=CCMSLIB00000080244
SCANS=2434
ID=CCMSLIB00000080244
115.0542261926 	 6.55
118.0651252299 	 16.38
121.0647908789 	 7.35
130.0651252299 	 80.44
131.072950262 	 14.09
132.0807752941 	 7.53
142.0651252299 	 11.42
143.072950262 	 5.9
144.0807752941 	 15.49
146.060039852 	 31.63
147.0804409431 	 3.51
149.0960910073 	 5.94
154.0651252299 	 8.33
155.072950262 	 6.13
157.0886003262 	 10.2
168.0807752941 	 21.15
170.060039852 	 31.02
170.0964253583 	 28.78
175.0753555652 	 13.9
175.1117410715 	 12.4
185.1073243956 	 14.74
188.0706045383 	 54.94
189.0784295704 	 9.59
197.1073243956 	 3.74
198.0913399804 	 6.27
199.0865889535 	 16.71
203.0702701873 	 18.58
203.1066556936 	 28.22
205.0859202515 	 64.34
214.1100640498 	 27.42
231.1015703157 	 100
258.112469353 	 3.56
346.1437694814 	 7.25
417.1808832692 	 7.16
463.1863625776 	 0.7
END IONS

BEGIN IONS
PEPMASS=291.087
CHARGE=1
MSLEVEL=2
RT=0
SOURCE_INSTRUMENT=qTOF
FILENAME=CCMSLIB00000080245.ms
IONMODE=Positive
ORGANISM=Natural
NAME=MLS000863579-01!2,5,8-trihydroxy-6-methoxy-2-methyl-3H-benzo[g]chromen-4-one
PI=GNPS
DATACOLLECTOR=GNPS
SMILES=CC1(CC(=O)c2c(cc3cc(cc(c3c2O)OC)O)O1)O
INCHI=InChI=1S/C15H14O6/c1-15(19)6-9(17)13-11(21-15)4-7-3-8(16)5-10(20-2)12(7)14(13)18/h3-5,16,18-19H,6H2,1-2H3
FORMULA=C15H14O6
PUBMED=N/A
SUBMITUSER=BIOADREM
LIBRARYQUALITY=0
SPECTRUMID=CCMSLIB00000080245
SCANS=2435
ID=CCMSLIB00000080245
115.0542261926 	 21.98
118.0413157826 	 5.27
132.0569658468 	 10.53
134.0362304047 	 23.7
143.0491408147 	 13
145.0647908789 	 10.95
149.059705501 	 6.34
150.0311450268 	 9.05
160.0518804689 	 29.3
171.0440554368 	 6.58
175.0753555652 	 29.05
176.046795091 	 6.91
188.046795091 	 37.78
190.0260596489 	 8.31
199.0389700589 	 6.17
200.0104095847 	 7.57
203.0702701873 	 57.45
204.0417097131 	 6.26
215.033884681 	 4.61
216.0417097131 	 70.29
218.020974271 	 100
219.0287993031 	 21.98
231.0651848094 	 72.84
233.0444493673 	 64.36
234.0522743994 	 17.37
249.0757494957 	 27.82
291.086314182 	 0
END IONS

BEGIN IONS
PEPMASS=253.0876
CHARGE=1
MSLEVEL=2
RT=0
SOURCE_INSTRUMENT=qTOF
FILENAME=CCMSLIB00000080246.ms
IONMODE=Positive
ORGANISM=Natural
NAME=MLS000863607-01!
PI=GNPS
DATACOLLECTOR=GNPS
SMILES=COc1ccc(cc1)c1cc(=O)c2ccccc2o1
INCHI=InChI=1S/C16H12O3/c1-18-12-8-6-11(7-9-12)16-10-14(17)13-4-2-3-5-15(13)19-16/h2-10H,1H3
FORMULA=C16H12O3
PUBMED=N/A
SUBMITUSER=BIOADREM
LIBRARYQUALITY=0
SPECTRUMID=CCMSLIB00000080246
SCANS=2436
ID=CCMSLIB00000080246
103.0542261926 	 0.37
115.0542261926 	 0.23
118.0413157826 	 0.67
121.0284053726 	 18.39
133.0647908789 	 2.22
141.0698762568 	 3.14
142.0777012889 	 3.56
153.0698762568 	 1.99
154.0777012889 	 0.87
159.0440554368 	 2.06
165.0698762568 	 1.5
169.0647908789 	 0.53
181.0647908789 	 3.74
182.072615911 	 1.25
184.0518804689 	 0.34
192.0569658468 	 0.21
197.0960910073 	 0.43
209.059705501 	 3.78
210.0675305331 	 100
225.0910056294 	 0.43
238.0624451552 	 25.01
253.0859202515 	 37.78
END IONS

BEGIN IONS
PEPMASS=402.1924
CHARGE=1
MSLEVEL=2
RT=0
SOURCE_INSTRUMENT=qTOF
FILENAME=CCMSLIB00000080247.ms
IONMODE=Positive
ORGANISM=Natural
NAME=MLS001157888-01!1-[2-(4-butyl-7-methyl-2-oxochromen-5-yl)oxyacetyl]piperidine-4-carboxylic acid
PI=GNPS
DATACOLLECTOR=GNPS
SMILES=CCCCc1cc(=O)oc2cc(C)cc(c12)OCC(=O)N1CCC(CC1)C(=O)O
INCHI=InChI=1S/C22H27NO6/c1-3-4-5-16-12-20(25)29-18-11-14(2)10-17(21(16)18)28-13-19(24)23-8-6-15(7-9-23)22(26)27/h10-12,15H,3-9,13H2,1-2H3,(H,26,27)
FORMULA=C22H27NO6
PUBMED=N/A
SUBMITUSER=BIOADREM
LIBRARYQUALITY=0
SPECTRUMID=CCMSLIB00000080247
SCANS=2437
ID=CCMSLIB00000080247
96.0807752941 	 2.86
99.0440554368 	 7.84
105.0698762568 	 1.66
110.060039852 	 2.35
112.0756899162 	 6.39
114.0549544741 	 5.22
121.0647908789 	 3.59
124.0756899162 	 4.24
126.0913399804 	 13.5
128.0706045383 	 65.11
131.085526321 	 1.84
133.0647908789 	 3.24
137.059705501 	 4.81
140.0706045383 	 3.18
142.0862546025 	 100
147.0804409431 	 4.36
149.059705501 	 5.44
156.0655191604 	 2.63
159.0804409431 	 3.39
161.059705501 	 7.69
162.0675305331 	 5.81
163.0753555652 	 2.41
165.0546201231 	 6.77
170.0811692246 	 11.39
174.0675305331 	 2.01
175.0753555652 	 16.95
177.0546201231 	 6.11
189.0546201231 	 6.46
189.0910056294 	 3.74
190.0624451552 	 13.84
191.0702701873 	 9.97
203.0702701873 	 93.76
215.0702701873 	 3.82
215.1066556936 	 2.55
217.1223057578 	 11.39
227.1066556936 	 2.74
233.1172203799 	 9.06
245.1172203799 	 31.33
273.112135002 	 10.17
294.1335987256 	 3.95
356.1856342961 	 2.68
402.1911136045 	 14.05
END IONS

BEGIN IONS
PEPMASS=192.1387
CHARGE=1
MSLEVEL=2
RT=0
SOURCE_INSTRUMENT=qTOF
FILENAME=CCMSLIB00000080248.ms
IONMODE=Positive
ORGANISM=Natural
NAME=MLS000516055-01!
PI=GNPS
DATACOLLECTOR=GNPS
SMILES=CCN(CC)C(=O)Cc1ccccc1
INCHI=InChI=1S/C12H17NO/c1-3-13(4-2)12(14)10-11-8-6-5-7-9-11/h5-9H,3-4,10H2,1-2H3
FORMULA=C12H17NO
PUBMED=N/A
SUBMITUSER=BIOADREM
LIBRARYQUALITY=0
SPECTRUMID=CCMSLIB00000080248
SCANS=2438
ID=CCMSLIB00000080248
100.0756899162 	 100
102.0464011605 	 18.32
103.0542261926 	 27.72
105.0698762568 	 25.25
115.0542261926 	 19.8
118.0651252299 	 93.56
119.085526321 	 42.57
134.060039852 	 20.79
146.0964253583 	 24.26
164.1069900446 	 55.45
192.138290173 	 457.43
END IONS

BEGIN IONS
PEPMASS=241.1335
CHARGE=1
MSLEVEL=2
RT=0
SOURCE_INSTRUMENT=qTOF
FILENAME=CCMSLIB00000080249.ms
IONMODE=Positive
ORGANISM=Natural
NAME=MLS000728602-01!(12bS)-2,3,6,7,12,12b-hexahydro-1H-indolo[2,3-a]quinolizin-4-one
PI=GNPS
DATACOLLECTOR=GNPS
SMILES=c1ccc2c(c1)c1CCN3[C@@H](CCCC3=O)c1[nH]2
INCHI=InChI=1S/C15H16N2O/c18-14-7-3-6-13-15-11(8-9-17(13)14)10-4-1-2-5-12(10)16-15/h1-2,4-5,13,16H,3,6-9H2/t13-/m0/s1
FORMULA=C15H16N2O
PUBMED=N/A
SUBMITUSER=BIOADREM
LIBRARYQUALITY=0
SPECTRUMID=CCMSLIB00000080249
SCANS=2439
ID=CCMSLIB00000080249
103.0542261926 	 2.26
115.0542261926 	 7.21
117.0698762568 	 10.3
127.0542261926 	 3.02
129.0698762568 	 4.37
130.0651252299 	 6.74
142.0651252299 	 2.31
143.072950262 	 20.01
144.0807752941 	 100
153.0698762568 	 2.28
154.0651252299 	 7.94
156.0807752941 	 6.1
158.0964253583 	 1.78
167.072950262 	 24.83
168.0807752941 	 15.96
169.0886003262 	 6.55
170.0964253583 	 9.29
180.0807752941 	 8.87
181.0886003262 	 6.44
182.0964253583 	 15.5
184.1120754225 	 8.32
194.0964253583 	 1.67
196.1120754225 	 2.39
212.1069900446 	 3.74
241.1335391461 	 3.01
END IONS

BEGIN IONS
PEPMASS=197.081
CHARGE=1
MSLEVEL=2
RT=0
SOURCE_INSTRUMENT=qTOF
FILENAME=CCMSLIB00000080250.ms
IONMODE=Positive
ORGANISM=Natural
NAME=MLS000517295-01!
PI=GNPS
DATACOLLECTOR=GNPS
SMILES=Cc1cc(c(C)c(c1C(=O)OC)O)O
INCHI=InChI=1S/C10H12O4/c1-5-4-7(11)6(2)9(12)8(5)10(13)14-3/h4,11-12H,1-3H3
FORMULA=C10H12O4
PUBMED=N/A
SUBMITUSER=BIOADREM
LIBRARYQUALITY=0
SPECTRUMID=CCMSLIB00000080250
SCANS=2440
ID=CCMSLIB00000080250
107.0491408147 	 7.05
109.0647908789 	 14.74
137.059705501 	 11.37
165.0546201231 	 100
197.0808348736 	 0
END IONS

BEGIN IONS
PEPMASS=478.223
CHARGE=1
MSLEVEL=2
RT=0
SOURCE_INSTRUMENT=qTOF
FILENAME=CCMSLIB00000080251.ms
IONMODE=Positive
ORGANISM=Natural
NAME=MLS001140997-01!4-[[[2-(3-benzyl-4,8-dimethyl-2-oxochromen-7-yl)oxyacetyl]amino]methyl]cyclohexane-1-carboxylic acid
PI=GNPS
DATACOLLECTOR=GNPS
SMILES=Cc1c2ccc(c(C)c2oc(=O)c1Cc1ccccc1)OCC(=NC[C@H]1CC[C@@H](CC1)C(=O)O)O
INCHI=InChI=1S/C28H31NO6/c1-17-22-12-13-24(34-16-25(30)29-15-20-8-10-21(11-9-20)27(31)32)18(2)26(22)35-28(33)23(17)14-19-6-4-3-5-7-19/h3-7,12-13,20-21H,8-11,14-16H2,1-2H3,(H,29,30)(H,31,32)/t20-,21-
FORMULA=C28H31NO6
PUBMED=N/A
SUBMITUSER=BIOADREM
LIBRARYQUALITY=0
SPECTRUMID=CCMSLIB00000080251
SCANS=2441
ID=CCMSLIB00000080251
95.085526321 	 12.57
110.0964253583 	 4.5
112.1120754225 	 2.18
124.1120754225 	 2.25
129.0698762568 	 3.93
138.0913399804 	 4.33
140.1069900446 	 2.76
152.1069900446 	 4.76
153.1148150767 	 7.52
159.0804409431 	 2.47
170.1175547309 	 12.77
175.0753555652 	 4.48
180.1019046667 	 2.22
187.0753555652 	 4.08
189.0910056294 	 4.15
192.0933513531 	 2.92
198.112469353 	 9.95
202.0624451552 	 3.8
203.0702701873 	 100
207.1168264494 	 2.07
215.0702701873 	 22.47
217.0859202515 	 3.71
235.1117410715 	 4.7
243.0651848094 	 19.88
247.1117410715 	 3.26
252.1144807257 	 4.1
260.0917339109 	 27.36
263.1066556936 	 4.63
265.0859202515 	 3.11
265.1223057578 	 9.89
279.1015703157 	 7.32
280.1093953478 	 11.3
281.1172203799 	 11.55
293.1172203799 	 61.53
295.1202943851 	 2.2
321.112135002 	 16.2
338.1386841035 	 18.72
354.1699842319 	 13.31
432.2169344245 	 32.86
478.2224137329 	 0
END IONS

BEGIN IONS
PEPMASS=402.1812
CHARGE=1
MSLEVEL=2
RT=0
SOURCE_INSTRUMENT=qTOF
FILENAME=CCMSLIB00000080252.ms
IONMODE=Positive
ORGANISM=Natural
NAME=MLS001157764-01!
PI=GNPS
DATACOLLECTOR=GNPS
SMILES=COc1ccccc1c1c2c(cc(C(=O)NCC3CCCO3)[nH]1)c1ccccc1n2
INCHI=InChI=1S/C24H23N3O3/c1-29-21-11-5-3-9-17(21)22-23-18(16-8-2-4-10-19(16)26-23)13-20(27-22)24(28)25-14-15-7-6-12-30-15/h2-5,8-11,13,15,27H,6-7,12,14H2,1H3,(H,25,28)
FORMULA=C24H23N3O3
PUBMED=N/A
SUBMITUSER=BIOADREM
LIBRARYQUALITY=0
SPECTRUMID=CCMSLIB00000080252
SCANS=2442
ID=CCMSLIB00000080252
128.0494751657 	 0.65
155.060374203 	 38.53
218.0964253583 	 9.24
219.100227645 	 1.42
220.0756899162 	 0.27
228.0807752941 	 0.82
229.0760242672 	 1.33
230.0838492993 	 4.18
242.0838492993 	 6.02
243.0916743314 	 3.67
245.1073243956 	 9.52
246.0913399804 	 17.97
247.0951422671 	 3.08
255.0916743314 	 3.72
257.0835149483 	 3.01
258.0787639214 	 56.52
271.0865889535 	 0.73
273.1022390177 	 100
285.0896629587 	 1.35
291.112803704 	 47.56
300.113138055 	 5.49
301.0971536398 	 10.37
319.1077183261 	 6.58
384.1706529339 	 1.26
402.1812176202 	 12.51
END IONS

BEGIN IONS
PEPMASS=317.175
CHARGE=1
MSLEVEL=2
RT=0
SOURCE_INSTRUMENT=qTOF
FILENAME=CCMSLIB00000080253.ms
IONMODE=Positive
ORGANISM=Natural
NAME=MLS000728652-01!
PI=GNPS
DATACOLLECTOR=GNPS
SMILES=c1ccc(cc1)CC[C@H](C[C@@H](C/C=C/[C@H]1CC=CC(=O)O1)O)O
INCHI=InChI=1S/C19H24O4/c20-16(8-4-9-18-10-5-11-19(22)23-18)14-17(21)13-12-15-6-2-1-3-7-15/h1-7,9,11,16-18,20-21H,8,10,12-14H2/b9-4+/t16-,17-,18+/m1/s1
FORMULA=C19H24O4
PUBMED=N/A
SUBMITUSER=BIOADREM
LIBRARYQUALITY=0
SPECTRUMID=CCMSLIB00000080253
SCANS=2443
ID=CCMSLIB00000080253
95.085526321 	 10.71
103.0542261926 	 5.23
104.0620512247 	 5.84
105.0698762568 	 21.29
107.0491408147 	 5.6
115.0542261926 	 19.95
117.0698762568 	 100
121.0647908789 	 5.72
128.0620512247 	 14.11
129.0698762568 	 14.11
131.085526321 	 19.22
135.0804409431 	 11.31
141.0698762568 	 30.54
143.085526321 	 17.27
145.1011763852 	 5.11
165.0698762568 	 13.02
167.085526321 	 16.3
172.0882659752 	 5.72
178.0777012889 	 5.11
215.085526321 	 5.84
219.1168264494 	 9.73
245.1324765136 	 5.72
317.1747352588 	 0
END IONS

BEGIN IONS
PEPMASS=269.0808
CHARGE=1
MSLEVEL=2
RT=0
SOURCE_INSTRUMENT=qTOF
FILENAME=CCMSLIB00000080254.ms
IONMODE=Positive
ORGANISM=Natural
NAME=MLS002707301-01!7-hydroxy-2-(4-methoxyphenyl)chromen-4-one
PI=GNPS
DATACOLLECTOR=GNPS
SMILES=COc1ccc(cc1)c1cc(=O)c2ccc(cc2o1)O
INCHI=InChI=1S/C16H12O4/c1-19-12-5-2-10(3-6-12)15-9-14(18)13-7-4-11(17)8-16(13)20-15/h2-9,17H,1H3
FORMULA=C16H12O4
PUBMED=N/A
SUBMITUSER=BIOADREM
LIBRARYQUALITY=0
SPECTRUMID=CCMSLIB00000080254
SCANS=2444
ID=CCMSLIB00000080254
103.0542261926 	 0.22
115.0542261926 	 0.6
116.0256657184 	 0.42
118.0413157826 	 0.58
129.0698762568 	 0.25
141.0698762568 	 0.44
142.0777012889 	 0.37
144.0205803405 	 0.6
153.0698762568 	 0.31
158.072615911 	 1.14
159.0440554368 	 2.44
169.0647908789 	 1.39
170.072615911 	 0.53
181.0647908789 	 0.33
186.0675305331 	 0.48
187.0389700589 	 0.63
197.059705501 	 2.97
198.0675305331 	 0.99
200.046795091 	 0.57
209.059705501 	 0.34
225.0546201231 	 3.9
226.0624451552 	 100
241.0859202515 	 0.36
253.0495347452 	 0.22
254.0573597773 	 27.25
269.0808348736 	 38.74
END IONS

BEGIN IONS
PEPMASS=406.1328
CHARGE=1
MSLEVEL=2
RT=0
SOURCE_INSTRUMENT=qTOF
FILENAME=CCMSLIB00000080255.ms
IONMODE=Positive
ORGANISM=Natural
NAME=MLS001140391-01!
PI=GNPS
DATACOLLECTOR=GNPS
SMILES=c1ccc2c(c1)c1cc(C(=O)NCC3CCCO3)[nH]c(c3cccc(c3)Cl)c1n2
INCHI=InChI=1S/C23H20ClN3O2/c24-15-6-3-5-14(11-15)21-22-18(17-8-1-2-9-19(17)26-22)12-20(27-21)23(28)25-13-16-7-4-10-29-16/h1-3,5-6,8-9,11-12,16,27H,4,7,10,13H2,(H,25,28)
FORMULA=C23H20ClN3O2
PUBMED=N/A
SUBMITUSER=BIOADREM
LIBRARYQUALITY=0
SPECTRUMID=CCMSLIB00000080255
SCANS=2445
ID=CCMSLIB00000080255
214.0651252299 	 0.51
241.0760242672 	 8.74
242.0838492993 	 69.42
244.0882659752 	 1.94
250.041802972 	 0.35
259.0865889535 	 0.38
276.0448769772 	 1.11
277.0527020093 	 100
280.0523676583 	 5.4
295.0632666956 	 62.82
298.0629323446 	 3.01
304.0636010466 	 3.33
305.0476166314 	 9.35
306.0554416635 	 2.43
308.0472822804 	 0.38
322.0741657329 	 0.56
323.0581813177 	 7.61
388.1211159255 	 0.37
390.1129565424 	 0.21
406.1316806118 	 4.78
END IONS

BEGIN IONS
PEPMASS=359.186
CHARGE=1
MSLEVEL=2
RT=0
SOURCE_INSTRUMENT=qTOF
FILENAME=CCMSLIB00000080257.ms
IONMODE=Positive
ORGANISM=Natural
NAME=MLS000697739-01!(2R,3S,3aR,5R)-2-(3,4-dimethoxyphenyl)-5-methoxy-3-methyl-3a-prop-2-enyl-2,3,4,5-tetrahydro-1-benzofuran-6-one
PI=GNPS
DATACOLLECTOR=GNPS
SMILES=C=CC[C@@]12C[C@H](C(=O)C=C2O[C@H]([C@H]1C)c1ccc(c(c1)OC)OC)OC
INCHI=InChI=1S/C21H26O5/c1-6-9-21-12-18(25-5)15(22)11-19(21)26-20(13(21)2)14-7-8-16(23-3)17(10-14)24-4/h6-8,10-11,13,18,20H,1,9,12H2,2-5H3/t13-,18-,20-,21-/m1/s1
FORMULA=C21H26O5
PUBMED=N/A
SUBMITUSER=BIOADREM
LIBRARYQUALITY=0
SPECTRUMID=CCMSLIB00000080257
SCANS=2446
ID=CCMSLIB00000080257
97.0284053726 	 4.18
103.0542261926 	 4.92
105.0698762568 	 6.53
107.0491408147 	 13.66
107.085526321 	 5.06
109.0647908789 	 4.81
119.085526321 	 4.13
121.0647908789 	 5
123.0440554368 	 21.83
128.0620512247 	 4.16
131.0491408147 	 5
133.0647908789 	 6.9
135.0440554368 	 7.1
135.0804409431 	 5.43
143.085526321 	 4.1
145.0647908789 	 7.35
146.072615911 	 12.75
147.0440554368 	 3.82
147.0804409431 	 7.18
149.059705501 	 4.52
150.0675305331 	 14.5
151.0753555652 	 100
159.0804409431 	 7.41
161.059705501 	 7.46
161.0960910073 	 12.47
165.0910056294 	 28.98
172.0882659752 	 4.69
174.0675305331 	 7.01
175.0753555652 	 4.1
177.0910056294 	 17.81
188.0831805973 	 10.88
189.0910056294 	 14.02
190.0988306615 	 6.39
191.1066556936 	 4.64
197.0960910073 	 4.24
201.0910056294 	 6.56
216.1144807257 	 4.81
225.0910056294 	 5.6
226.0988306615 	 4.01
359.1852999451 	 0
END IONS

BEGIN IONS
PEPMASS=430.15
CHARGE=1
MSLEVEL=2
RT=0
SOURCE_INSTRUMENT=qTOF
FILENAME=CCMSLIB00000080258.ms
IONMODE=Positive
ORGANISM=Natural
NAME=MLS000563049-01!
PI=GNPS
DATACOLLECTOR=GNPS
SMILES=c1ccc(c(c1)CC(=O)c1c2ccccc2oc1N)O[C@H]1[C@@H]([C@H]([C@@H]([C@@H](CO)O1)O)O)O
INCHI=InChI=1S/C22H23NO8/c23-21-17(12-6-2-4-8-15(12)29-21)13(25)9-11-5-1-3-7-14(11)30-22-20(28)19(27)18(26)16(10-24)31-22/h1-8,16,18-20,22,24,26-28H,9-10,23H2/t16-,18-,19+,20-,22-/m1/s1
FORMULA=C22H23NO8
PUBMED=N/A
SUBMITUSER=BIOADREM
LIBRARYQUALITY=0
SPECTRUMID=CCMSLIB00000080258
SCANS=2447
ID=CCMSLIB00000080258
104.0494751657 	 2.4
106.0651252299 	 12.85
107.0491408147 	 81.55
119.0491408147 	 1.21
132.0443897878 	 17.36
134.060039852 	 24.12
135.0440554368 	 21.09
146.060039852 	 6.14
160.0393044099 	 8.95
167.085526321 	 3.06
194.0964253583 	 2.26
195.0804409431 	 1.35
204.0807752941 	 2.19
205.0647908789 	 5.51
222.0913399804 	 81.09
232.0756899162 	 0.86
250.0862546025 	 100
268.0968192888 	 62.35
430.1496427203 	 0
END IONS

BEGIN IONS
PEPMASS=468.2017
CHARGE=1
MSLEVEL=2
RT=0
SOURCE_INSTRUMENT=qTOF
FILENAME=CCMSLIB00000080259.ms
IONMODE=Positive
ORGANISM=Natural
NAME=MLS001157727-01!N-[(3,4-dimethoxyphenyl)methyl]-2-[(4,8,8-trimethyl-2-oxo-9,10-dihydropyrano[2,3-h]chromen-5-yl)oxy]acetamide
PI=GNPS
DATACOLLECTOR=GNPS
SMILES=Cc1cc(=O)oc2c3CCC(C)(C)Oc3cc(c12)OCC(=NCc1ccc(c(c1)OC)OC)O
INCHI=InChI=1S/C26H29NO7/c1-15-10-23(29)33-25-17-8-9-26(2,3)34-19(17)12-21(24(15)25)32-14-22(28)27-13-16-6-7-18(30-4)20(11-16)31-5/h6-7,10-12H,8-9,13-14H2,1-5H3,(H,27,28)
FORMULA=C26H29NO7
PUBMED=N/A
SUBMITUSER=BIOADREM
LIBRARYQUALITY=0
SPECTRUMID=CCMSLIB00000080259
SCANS=2448
ID=CCMSLIB00000080259
107.0491408147 	 3.33
108.0569658468 	 1.27
118.0413157826 	 0.26
121.0647908789 	 0.32
135.0440554368 	 2.91
136.0518804689 	 2.83
137.059705501 	 4.64
139.0753555652 	 0.92
149.059705501 	 0.24
151.0753555652 	 100
159.0440554368 	 0.22
163.0753555652 	 0.23
167.0702701873 	 2.79
177.0546201231 	 0.35
179.0702701873 	 0.36
180.1019046667 	 1.87
189.0546201231 	 0.4
205.0495347452 	 6.03
208.0968192888 	 0.77
217.0495347452 	 1.08
221.0808348736 	 0.6
245.0444493673 	 0.9
276.086648533 	 0.2
412.139078034 	 2.42
468.2016782908 	 0.71
END IONS

BEGIN IONS
PEPMASS=379.166
CHARGE=1
MSLEVEL=2
RT=0
SOURCE_INSTRUMENT=qTOF
FILENAME=CCMSLIB00000080260.ms
IONMODE=Positive
ORGANISM=Natural
NAME=MLS001141062-01!(2S)-5-oxo-1-(3-oxo-1H-2-benzofuran-1-yl)-N-(4-propan-2-ylphenyl)pyrrolidine-2-carboxamide
PI=GNPS
DATACOLLECTOR=GNPS
SMILES=CC(C)c1ccc(cc1)NC(=O)[C@@H]1CCC(=O)N1C1c2ccccc2C(=O)O1
INCHI=InChI=1S/C22H22N2O4/c1-13(2)14-7-9-15(10-8-14)23-20(26)18-11-12-19(25)24(18)21-16-5-3-4-6-17(16)22(27)28-21/h3-10,13,18,21H,11-12H2,1-2H3,(H,23,26)/t18-,21?/m0/s1
FORMULA=C22H22N2O4
PUBMED=N/A
SUBMITUSER=BIOADREM
LIBRARYQUALITY=0
SPECTRUMID=CCMSLIB00000080260
SCANS=2449
ID=CCMSLIB00000080260
105.0334907505 	 11.2
115.0542261926 	 0.61
133.0284053726 	 100
142.0651252299 	 0.98
170.060039852 	 1.71
198.0549544741 	 1.06
199.0502034472 	 0.64
208.0756899162 	 2.09
209.0835149483 	 1.12
250.1226401088 	 5.62
258.1039160394 	 0.65
259.0865889535 	 0.98
268.1332047951 	 0.6
272.0944139856 	 0.74
273.1022390177 	 2.21
274.1100640498 	 1.02
287.0815035756 	 1.48
301.0971536398 	 1.29
302.1049786719 	 3.9
318.099893294 	 0.82
351.1339330766 	 0.87
379.165233205 	 0
END IONS

BEGIN IONS
PEPMASS=551.2664
CHARGE=1
MSLEVEL=2
RT=0
SOURCE_INSTRUMENT=qTOF
FILENAME=CCMSLIB00000080261.ms
IONMODE=Positive
ORGANISM=Natural
NAME=MLS001140302-01!
PI=GNPS
DATACOLLECTOR=GNPS
SMILES=COc1cc(cc(c1OC)OC)c1c2c(cc(C(=O)NC3CCN(CC3)Cc3ccccc3)[nH]1)c1ccccc1n2
INCHI=InChI=1S/C33H34N4O4/c1-39-28-17-22(18-29(40-2)32(28)41-3)30-31-25(24-11-7-8-12-26(24)35-31)19-27(36-30)33(38)34-23-13-15-37(16-14-23)20-21-9-5-4-6-10-21/h4-12,17-19,23,36H,13-16,20H2,1-3H3,(H,34,38)
FORMULA=C33H34N4O4
PUBMED=N/A
SUBMITUSER=BIOADREM
LIBRARYQUALITY=0
SPECTRUMID=CCMSLIB00000080261
SCANS=2450
ID=CCMSLIB00000080261
120.0807752941 	 1.03
129.0698762568 	 0.93
172.1120754225 	 5.88
174.1277254867 	 100
260.0944139856 	 1.02
272.0944139856 	 1.48
273.1022390177 	 5.95
274.1073839751 	 1.85
275.0815035756 	 1.41
287.0815035756 	 5.63
288.0893286077 	 2.23
289.0971536398 	 1.26
300.0893286077 	 3.9
301.0971536398 	 7.34
302.1049786719 	 68.27
317.0920682619 	 1.12
318.099893294 	 11.24
333.1233683903 	 46.83
334.1311934224 	 9.95
335.1291224702 	 2.03
351.1339330766 	 21.32
353.1396871565 	 0.99
360.1342674276 	 8.45
361.1209630871 	 6.59
362.1261080445 	 2.31
367.1117410715 	 0.95
378.1448321139 	 4.01
379.1315277734 	 9.4
396.138290173 	 1.12
397.1586912641 	 2.09
398.1665162962 	 1.68
423.1743413283 	 3.97
424.1695903014 	 1.82
425.1899913925 	 4.49
444.1917823065 	 4.58
445.2022874133 	 2.1
451.1692559504 	 4.1
452.1645049235 	 2.43
453.1723299556 	 1.02
468.1958050519 	 2.26
533.2547169143 	 2.09
534.2625419464 	 2.31
535.2465575312 	 1
551.2652816006 	 43.49
END IONS

BEGIN IONS
PEPMASS=454.1496
CHARGE=1
MSLEVEL=2
RT=0
SOURCE_INSTRUMENT=qTOF
FILENAME=CCMSLIB00000080262.ms
IONMODE=Positive
ORGANISM=Natural
NAME=MLS001157954-01!(2S)-1-[2-[[(2Z)-2-[(3,4-dimethoxyphenyl)methylidene]-3-oxo-1-benzofuran-6-yl]oxy]acetyl]pyrrolidine-2-carboxylic acid
PI=GNPS
DATACOLLECTOR=GNPS
SMILES=COc1ccc(cc1OC)/C=C\1/C(=O)c2ccc(cc2O1)OCC(=O)N1CCC[C@H]1C(=O)O
INCHI=InChI=1S/C24H23NO8/c1-30-18-8-5-14(10-20(18)31-2)11-21-23(27)16-7-6-15(12-19(16)33-21)32-13-22(26)25-9-3-4-17(25)24(28)29/h5-8,10-12,17H,3-4,9,13H2,1-2H3,(H,28,29)/b21-11-/t17-/m0/s1
FORMULA=C24H23NO8
PUBMED=N/A
SUBMITUSER=BIOADREM
LIBRARYQUALITY=0
SPECTRUMID=CCMSLIB00000080262
SCANS=2451
ID=CCMSLIB00000080262
98.060039852 	 7.4
100.0756899162 	 10.25
112.0756899162 	 7.87
128.0706045383 	 13.81
137.0233199947 	 6.49
148.0518804689 	 7.83
156.0655191604 	 5.72
163.0389700589 	 6.24
178.0624451552 	 5.36
209.059705501 	 2.4
237.0546201231 	 15.25
238.0624451552 	 14.25
243.1015703157 	 9.23
252.0417097131 	 4.69
253.0495347452 	 5.17
253.0859202515 	 2.49
255.0651848094 	 9.23
265.0495347452 	 13.7
266.0573597773 	 29.24
267.0651848094 	 20.3
269.0444493673 	 4.6
279.0651848094 	 4.43
280.0730098415 	 2.41
281.0808348736 	 4.18
282.0886599057 	 7.76
283.0600994315 	 20.42
284.0679244636 	 19.9
295.0600994315 	 5.47
298.0835745278 	 12.84
299.0913995599 	 100
310.0835745278 	 18.24
311.0913995599 	 48.16
313.0706641178 	 5.26
339.086314182 	 4.45
357.0968788683 	 3.59
380.1492487898 	 5.44
454.1496427203 	 21.82
END IONS

BEGIN IONS
PEPMASS=341.103
CHARGE=1
MSLEVEL=2
RT=0
SOURCE_INSTRUMENT=qTOF
FILENAME=CCMSLIB00000080263.ms
IONMODE=Positive
ORGANISM=Natural
NAME=MLS002473152-01![6-methoxy-3-(4-methoxyphenyl)-4-oxochromen-7-yl] acetate
PI=GNPS
DATACOLLECTOR=GNPS
SMILES=CC(=O)Oc1cc2c(cc1OC)c(=O)c(co2)c1ccc(cc1)OC
INCHI=InChI=1S/C19H16O6/c1-11(20)25-18-9-16-14(8-17(18)23-3)19(21)15(10-24-16)12-4-6-13(22-2)7-5-12/h4-10H,1-3H3
FORMULA=C19H16O6
PUBMED=N/A
SUBMITUSER=BIOADREM
LIBRARYQUALITY=0
SPECTRUMID=CCMSLIB00000080263
SCANS=2452
ID=CCMSLIB00000080263
123.0076699305 	 0.96
124.0154949626 	 1.64
133.0647908789 	 1.89
135.0440554368 	 1.58
151.0025845526 	 0.91
152.0104095847 	 1.13
153.0698762568 	 0.77
157.0647908789 	 1.37
163.0389700589 	 1.09
167.033884681 	 1.54
168.0569658468 	 2.69
169.0647908789 	 0.89
181.0647908789 	 0.87
182.072615911 	 2.52
183.0804409431 	 4.54
185.059705501 	 1.64
196.0518804689 	 3.6
197.059705501 	 3.2
200.0831805973 	 1.71
210.0675305331 	 2.63
211.0753555652 	 5.32
213.0546201231 	 3.69
224.046795091 	 0.99
225.0546201231 	 2.06
227.0702701873 	 7.07
228.0780952194 	 5.78
239.0702701873 	 8.52
240.0780952194 	 2.43
241.0495347452 	 4.31
243.1015703157 	 11.13
252.0417097131 	 0.79
255.0651848094 	 3.24
256.0730098415 	 30.62
267.0651848094 	 4.24
269.0444493673 	 1.47
283.0600994315 	 5.1
284.0679244636 	 51.97
299.0913995599 	 100
341.1019642462 	 0
END IONS

BEGIN IONS
PEPMASS=180.102
CHARGE=1
MSLEVEL=2
RT=0
SOURCE_INSTRUMENT=qTOF
FILENAME=CCMSLIB00000080264.ms
IONMODE=Positive
ORGANISM=Natural
NAME=MLS000737289-01!
PI=GNPS
DATACOLLECTOR=GNPS
SMILES=CCCCOC(=O)c1cccnc1
INCHI=InChI=1S/C10H13NO2/c1-2-3-7-13-10(12)9-5-4-6-11-8-9/h4-6,8H,2-3,7H2,1H3
FORMULA=C10H13NO2
PUBMED=N/A
SUBMITUSER=BIOADREM
LIBRARYQUALITY=0
SPECTRUMID=CCMSLIB00000080264
SCANS=2453
ID=CCMSLIB00000080264
96.0443897878 	 2.53
106.0287397236 	 2.84
122.0236543457 	 6.61
124.0393044099 	 100
180.1019046667 	 0
END IONS

BEGIN IONS
PEPMASS=343.1176
CHARGE=1
MSLEVEL=2
RT=0
SOURCE_INSTRUMENT=qTOF
FILENAME=CCMSLIB00000080265.ms
IONMODE=Positive
ORGANISM=Natural
NAME=MLS001048998-01!
PI=GNPS
DATACOLLECTOR=GNPS
SMILES=COc1ccc(cc1)c1cc(=O)c2c(cc(c(c2OC)OC)OC)o1
INCHI=InChI=1S/C19H18O6/c1-21-12-7-5-11(6-8-12)14-9-13(20)17-15(25-14)10-16(22-2)18(23-3)19(17)24-4/h5-10H,1-4H3
FORMULA=C19H18O6
PUBMED=N/A
SUBMITUSER=BIOADREM
LIBRARYQUALITY=0
SPECTRUMID=CCMSLIB00000080265
SCANS=2454
ID=CCMSLIB00000080265
122.0362304047 	 2.34
125.0233199947 	 3.2
133.0647908789 	 14.97
135.0440554368 	 9.26
149.0233199947 	 1.59
150.0311450268 	 8.59
153.0182346168 	 33.93
178.9974991747 	 4.51
181.0131492389 	 15.6
195.0287993031 	 2.56
211.0753555652 	 1.5
214.0624451552 	 1.82
238.0624451552 	 2.66
239.0702701873 	 8.97
242.0573597773 	 2.7
251.0702701873 	 1.75
252.0780952194 	 1.54
253.0859202515 	 7.2
254.0937452836 	 3.17
256.0730098415 	 6.63
257.0808348736 	 3.92
266.0573597773 	 3.48
267.0651848094 	 10.71
269.0808348736 	 3.89
270.0522743994 	 4.16
280.0730098415 	 2.56
281.0808348736 	 26.63
282.0886599057 	 33.41
283.0600994315 	 2.14
284.0679244636 	 12.62
285.0757494957 	 44.28
294.0522743994 	 1.64
295.0600994315 	 1.72
297.0757494957 	 18.51
298.0471890215 	 1.93
299.0913995599 	 34.51
309.0757494957 	 22.43
310.0835745278 	 9.56
311.0550140536 	 15.55
312.0628390857 	 4.28
313.0706641178 	 100
327.086314182 	 23.47
328.0941392141 	 9.58
343.1176143104 	 18.99
END IONS

BEGIN IONS
PEPMASS=423.1928
CHARGE=1
MSLEVEL=2
RT=0
SOURCE_INSTRUMENT=qTOF
FILENAME=CCMSLIB00000080266.ms
IONMODE=Positive
ORGANISM=Natural
NAME=MLS001159030-01!2-[(4-ethyl-8,8-dimethyl-2-oxo-9,10-dihydropyrano[2,3-h]chromen-5-yl)oxy]-N-(pyridin-4-ylmethyl)acetamide
PI=GNPS
DATACOLLECTOR=GNPS
SMILES=CCc1cc(=O)oc2c3CCC(C)(C)Oc3cc(c12)OCC(=NCc1ccncc1)O
INCHI=InChI=1S/C24H26N2O5/c1-4-16-11-21(28)30-23-17-5-8-24(2,3)31-18(17)12-19(22(16)23)29-14-20(27)26-13-15-6-9-25-10-7-15/h6-7,9-12H,4-5,8,13-14H2,1-3H3,(H,26,27)
FORMULA=C24H26N2O5
PUBMED=N/A
SUBMITUSER=BIOADREM
LIBRARYQUALITY=0
SPECTRUMID=CCMSLIB00000080266
SCANS=2455
ID=CCMSLIB00000080266
104.0494751657 	 1.57
105.0447241388 	 0.52
106.0651252299 	 4.95
107.060374203 	 45.03
108.0443897878 	 20.5
119.060374203 	 13.21
120.0443897878 	 39.77
121.0760242672 	 40.18
131.060374203 	 0.72
132.0443897878 	 1.57
135.0804409431 	 0.5
149.0709388893 	 53.94
163.0753555652 	 1.93
165.0546201231 	 0.47
175.0753555652 	 1.23
191.0702701873 	 8.31
201.0546201231 	 0.75
203.0702701873 	 3.41
219.0651848094 	 18.34
231.0651848094 	 7.47
274.1199600341 	 0.81
339.1339330766 	 1.54
367.1288476987 	 100
395.1965333334 	 0.66
423.1914479555 	 14.94
END IONS

BEGIN IONS
PEPMASS=329.15
CHARGE=1
MSLEVEL=2
RT=0
SOURCE_INSTRUMENT=qTOF
FILENAME=CCMSLIB00000080267.ms
IONMODE=Positive
ORGANISM=Natural
NAME=MLS001140347-01!1-[2-(6,7-dimethoxy-3,4-dihydro-1H-isoquinolin-2-yl)-2-oxoethyl]pyridin-2-one
PI=GNPS
DATACOLLECTOR=GNPS
SMILES=COc1cc2CCN(Cc2cc1OC)C(=O)Cn1ccccc1=O
INCHI=InChI=1S/C18H20N2O4/c1-23-15-9-13-6-8-20(11-14(13)10-16(15)24-2)18(22)12-19-7-4-3-5-17(19)21/h3-5,7,9-10H,6,8,11-12H2,1-2H3
FORMULA=C18H20N2O4
PUBMED=N/A
SUBMITUSER=BIOADREM
LIBRARYQUALITY=0
SPECTRUMID=CCMSLIB00000080267
SCANS=2456
ID=CCMSLIB00000080267
108.0443897878 	 71.49
133.0647908789 	 0.98
134.072615911 	 1.85
136.0393044099 	 100
150.0675305331 	 3.5
151.0753555652 	 2.42
152.0831805973 	 1.62
162.0913399804 	 9.47
165.0910056294 	 18.35
179.0940796346 	 3.39
194.1175547309 	 23.32
329.1495831408 	 0
END IONS

BEGIN IONS
PEPMASS=454.1138
CHARGE=1
MSLEVEL=2
RT=0
SOURCE_INSTRUMENT=qTOF
FILENAME=CCMSLIB00000080268.ms
IONMODE=Positive
ORGANISM=Natural
NAME=MLS001157775-01!(2S)-1-[2-[[(2Z)-2-(1,3-benzodioxol-5-ylmethylidene)-3-oxo-1-benzofuran-6-yl]oxy]acetyl]-4-hydroxypyrrolidine-2-carboxylic acid
PI=GNPS
DATACOLLECTOR=GNPS
SMILES=c1cc2c(cc1/C=C\1/C(=O)c3ccc(cc3O1)OCC(=O)N1CC(C[C@H]1C(=O)O)O)OCO2
INCHI=InChI=1S/C23H19NO9/c25-13-7-16(23(28)29)24(9-13)21(26)10-30-14-2-3-15-18(8-14)33-20(22(15)27)6-12-1-4-17-19(5-12)32-11-31-17/h1-6,8,13,16,25H,7,9-11H2,(H,28,29)/b20-6-/t13?,16-/m0/s1
FORMULA=C23H19NO9
PUBMED=N/A
SUBMITUSER=BIOADREM
LIBRARYQUALITY=0
SPECTRUMID=CCMSLIB00000080268
SCANS=2457
ID=CCMSLIB00000080268
110.060039852 	 3.6
114.0549544741 	 7.23
116.0706045383 	 30.14
128.0706045383 	 2.5
140.0620512247 	 2.43
141.0698762568 	 2.29
144.0655191604 	 17.66
149.0233199947 	 3.42
154.0498690962 	 3.81
162.0311450268 	 6.94
172.0604337825 	 7.93
179.0491408147 	 3.38
181.0647908789 	 9.76
197.059705501 	 11.39
209.059705501 	 7.61
211.0753555652 	 6.31
225.0546201231 	 79.84
227.0702701873 	 19.84
237.0546201231 	 6.63
238.0651252299 	 2.43
239.0702701873 	 5.82
253.0495347452 	 32.53
254.0573597773 	 18.82
265.0495347452 	 13.04
266.060039852 	 14.84
267.0651848094 	 5.04
281.0444493673 	 3.1
282.0522743994 	 13.71
283.0600994315 	 100
293.047129442 	 2.61
294.0549544741 	 12.44
295.0600994315 	 26.58
298.0557423351 	 2.4
309.0784295704 	 5.78
323.0635673672 	 2.57
333.0757494957 	 4.09
341.0741320535 	 3.67
342.073403772 	 3.35
362.1022985972 	 5.6
380.1128632835 	 9.69
382.0921278414 	 3.28
454.113257214 	 21.33
END IONS

BEGIN IONS
PEPMASS=465.166
CHARGE=1
MSLEVEL=2
RT=0
SOURCE_INSTRUMENT=qTOF
FILENAME=CCMSLIB00000080269.ms
IONMODE=Positive
ORGANISM=Natural
NAME=MLS001158026-01!3-(5-hydroxy-1H-indol-3-yl)-2-[[2-(3,4,8-trimethyl-2-oxochromen-7-yl)oxyacetyl]amino]propanoic acid
PI=GNPS
DATACOLLECTOR=GNPS
SMILES=Cc1c(C)c(=O)oc2c(C)c(ccc12)OCC(=NC(Cc1c[nH]c2ccc(cc12)O)C(=O)O)O
INCHI=InChI=1S/C25H24N2O7/c1-12-13(2)25(32)34-23-14(3)21(7-5-17(12)23)33-11-22(29)27-20(24(30)31)8-15-10-26-19-6-4-16(28)9-18(15)19/h4-7,9-10,20,26,28H,8,11H2,1-3H3,(H,27,29)(H,30,31)
FORMULA=C25H24N2O7
PUBMED=N/A
SUBMITUSER=BIOADREM
LIBRARYQUALITY=0
SPECTRUMID=CCMSLIB00000080269
SCANS=2458
ID=CCMSLIB00000080269
105.0698762568 	 2.68
115.0542261926 	 2.91
116.0620512247 	 3.33
117.0573001978 	 5.27
118.0651252299 	 3.31
129.0698762568 	 3.47
130.0651252299 	 5.93
131.0491408147 	 4.03
131.085526321 	 3.97
132.0807752941 	 3.01
133.0522148199 	 2.26
134.060039852 	 6.58
142.0651252299 	 6.54
143.0702701873 	 2.24
144.0569658468 	 2.93
146.060039852 	 100
148.0756899162 	 5.33
149.0960910073 	 3.21
158.060039852 	 24.05
160.0756899162 	 37.16
170.060039852 	 7.57
171.0651848094 	 3.97
172.0756899162 	 9.89
173.0709388893 	 7.4
174.0787639214 	 35.22
186.0549544741 	 27.98
187.0865889535 	 23.66
188.0944139856 	 7.63
189.0910056294 	 5.08
198.0760838467 	 8.47
199.0865889535 	 10.49
201.0658535114 	 7.71
204.0655191604 	 22.47
205.0859202515 	 15.51
215.0815035756 	 8.59
216.0893286077 	 17.07
217.0859202515 	 23.28
233.0920682619 	 1.74
245.0808348736 	 2.9
262.1073839751 	 2.34
419.1601478271 	 16.04
465.1656271355 	 0
END IONS

BEGIN IONS
PEPMASS=347.2215
CHARGE=1
MSLEVEL=2
RT=0
SOURCE_INSTRUMENT=qTOF
FILENAME=CCMSLIB00000080270.ms
IONMODE=Positive
ORGANISM=Natural
NAME=MLS000877029-01!(E)-3-[4-[(2E)-3,7-dimethylocta-2,6-dienoxy]-3,5-dimethoxyphenyl]prop-2-en-1-ol
PI=GNPS
DATACOLLECTOR=GNPS
SMILES=CC(=CCC/C(=C/COc1c(cc(/C=C/CO)cc1OC)OC)/C)C
INCHI=InChI=1S/C21H30O4/c1-16(2)8-6-9-17(3)11-13-25-21-19(23-4)14-18(10-7-12-22)15-20(21)24-5/h7-8,10-11,14-15,22H,6,9,12-13H2,1-5H3/b10-7+,17-11+
FORMULA=C21H30O4
PUBMED=N/A
SUBMITUSER=BIOADREM
LIBRARYQUALITY=0
SPECTRUMID=CCMSLIB00000080270
SCANS=2459
ID=CCMSLIB00000080270
103.0542261926 	 27.37
105.0698762568 	 36.42
115.0542261926 	 22.74
121.0647908789 	 6.4
123.0440554368 	 27.26
129.0698762568 	 9.93
133.0647908789 	 61.59
137.1324765136 	 30.68
142.0777012889 	 7.62
144.0569658468 	 8.06
158.072615911 	 10.82
161.059705501 	 100
167.0702701873 	 91.83
171.0804409431 	 7.17
187.0753555652 	 16.11
193.0859202515 	 8.28
199.0753555652 	 8.28
205.0859202515 	 8.17
219.1015703157 	 6.18
231.1015703157 	 10.49
347.2216854514 	 1.55
END IONS

BEGIN IONS
PEPMASS=182.01
CHARGE=1
MSLEVEL=2
RT=0
SOURCE_INSTRUMENT=qTOF
FILENAME=CCMSLIB00000080271.ms
IONMODE=Positive
ORGANISM=Natural
NAME=MLS000541593-01!
PI=GNPS
DATACOLLECTOR=GNPS
SMILES=CSc1nc2ccccc2s1
INCHI=InChI=1S/C8H7NS2/c1-10-8-9-6-4-2-3-5-7(6)11-8/h2-5H,1H3
FORMULA=C8H7NS2
PUBMED=N/A
SUBMITUSER=BIOADREM
LIBRARYQUALITY=0
SPECTRUMID=CCMSLIB00000080271
SCANS=2460
ID=CCMSLIB00000080271
103.0416501336 	 2.08
104.0494751657 	 2.38
108.0028217863 	 5.37
109.0106468184 	 16.73
122.0058957915 	 2.43
123.0137208236 	 20.88
135.0137208236 	 18.85
136.0215458557 	 2.84
139.9748924763 	 8.41
140.9701414494 	 2.23
166.9857915136 	 100
182.0092666099 	 0
END IONS

BEGIN IONS
PEPMASS=438.192
CHARGE=1
MSLEVEL=2
RT=0
SOURCE_INSTRUMENT=qTOF
FILENAME=CCMSLIB00000080272.ms
IONMODE=Positive
ORGANISM=Natural
NAME=MLS001141081-01!1-[3-(4-methyl-2-oxo-6,7,8,9-tetrahydro-[1]benzofuro[3,2-g]chromen-3-yl)propanoyl]piperidine-4-carboxylic acid
PI=GNPS
DATACOLLECTOR=GNPS
SMILES=Cc1c(CCC(=O)N2CCC(CC2)C(=O)O)c(=O)oc2cc3c(cc12)c1CCCCc1o3
INCHI=InChI=1S/C25H27NO6/c1-14-16(6-7-23(27)26-10-8-15(9-11-26)24(28)29)25(30)32-21-13-22-19(12-18(14)21)17-4-2-3-5-20(17)31-22/h12-13,15H,2-11H2,1H3,(H,28,29)
FORMULA=C25H27NO6
PUBMED=N/A
SUBMITUSER=BIOADREM
LIBRARYQUALITY=0
SPECTRUMID=CCMSLIB00000080272
SCANS=2461
ID=CCMSLIB00000080272
129.0698762568 	 0.38
157.0647908789 	 0.56
211.0753555652 	 1.84
211.1117410715 	 0.5
225.1273911357 	 0.22
239.1066556936 	 7.59
253.1223057578 	 0.7
267.1015703157 	 100
281.1172203799 	 18.81
309.112135002 	 24
438.1911136045 	 0
END IONS

BEGIN IONS
PEPMASS=436.1979
CHARGE=1
MSLEVEL=2
RT=0
SOURCE_INSTRUMENT=qTOF
FILENAME=CCMSLIB00000080274.ms
IONMODE=Positive
ORGANISM=Natural
NAME=MLS001158086-01!(2R)-2-[[(2S)-2-(1,2-dihydroimidazo[1,2-a]benzimidazole-3-carbonylamino)-3-methylbutanoyl]amino]-2-phenylacetic acid
PI=GNPS
DATACOLLECTOR=GNPS
SMILES=CC(C)[C@@H](C(=N[C@H](c1ccccc1)C(=O)O)O)N=C(N1CCn2c3ccccc3nc12)O
INCHI=InChI=1S/C23H25N5O4/c1-14(2)18(20(29)25-19(21(30)31)15-8-4-3-5-9-15)26-23(32)28-13-12-27-17-11-7-6-10-16(17)24-22(27)28/h3-11,14,18-19H,12-13H2,1-2H3,(H,25,29)(H,26,32)(H,30,31)/t18-,19+/m0/s1
FORMULA=C23H25N5O4
PUBMED=N/A
SUBMITUSER=BIOADREM
LIBRARYQUALITY=0
SPECTRUMID=CCMSLIB00000080274
SCANS=2462
ID=CCMSLIB00000080274
98.060039852 	 0.48
105.0447241388 	 0.38
106.0651252299 	 2.75
107.0491408147 	 1.43
118.0525491709 	 0.61
119.060374203 	 5.4
131.060374203 	 0.26
132.0443897878 	 4.32
133.0760242672 	 1.24
134.0712732403 	 0.29
158.0712732403 	 0.74
160.0869233045 	 100
162.0913399804 	 0.82
203.1178890819 	 0.72
214.1338734971 	 1.45
257.1396871565 	 19.2
436.1979303169 	 0.17
END IONS

BEGIN IONS
PEPMASS=342.061
CHARGE=1
MSLEVEL=2
RT=0
SOURCE_INSTRUMENT=qTOF
FILENAME=CCMSLIB00000080275.ms
IONMODE=Positive
ORGANISM=Natural
NAME=MLS002695974-01!
PI=GNPS
DATACOLLECTOR=GNPS
SMILES=COc1cccc2c1cc(c1c(cc3c(c21)OCO3)C(=O)O)N(=O)=O
INCHI=InChI=1S/C17H11NO7/c1-23-12-4-2-3-8-9(12)5-11(18(21)22)14-10(17(19)20)6-13-16(15(8)14)25-7-24-13/h2-6H,7H2,1H3,(H,19,20)
FORMULA=C17H11NO7
PUBMED=N/A
SUBMITUSER=BIOADREM
LIBRARYQUALITY=0
SPECTRUMID=CCMSLIB00000080275
SCANS=2463
ID=CCMSLIB00000080275
96.0205803405 	 8.55
115.0542261926 	 14.93
126.0464011605 	 8.68
140.046795091 	 13.03
141.0698762568 	 9.63
151.0416501336 	 26.19
153.0573001978 	 31.75
155.033884681 	 17.1
164.0494751657 	 32.84
165.0698762568 	 66.49
177.0573001978 	 11.26
181.0647908789 	 22.66
183.0440554368 	 13.98
193.0647908789 	 100
207.0440554368 	 17.1
211.0389700589 	 11.26
220.0393044099 	 17.37
221.059705501 	 38.26
225.0546201231 	 25.51
237.0420440641 	 55.22
240.0264535794 	 8.28
250.0498690962 	 18.86
253.0495347452 	 32.97
254.0573597773 	 14.11
265.0369586862 	 72.86
266.0421036436 	 38.53
280.0604337825 	 10.31
281.0444493673 	 77.07
282.0522743994 	 20.08
296.0679244636 	 59.84
342.060827713 	 0
END IONS

BEGIN IONS
PEPMASS=547.244
CHARGE=1
MSLEVEL=2
RT=0
SOURCE_INSTRUMENT=qTOF
FILENAME=CCMSLIB00000080276.ms
IONMODE=Positive
ORGANISM=Natural
NAME=MLS001140268-01!(2S)-3-phenyl-2-[2-[[2-(2,3,5,9-tetramethyl-7-oxofuro[3,2-g]chromen-6-yl)acetyl]amino]pentanoylamino]propanoic acid
PI=GNPS
DATACOLLECTOR=GNPS
SMILES=CCCC(C(=N[C@@H](Cc1ccccc1)C(=O)O)O)N=C(Cc1c(C)c2cc3c(C)c(C)oc3c(C)c2oc1=O)O
INCHI=InChI=1S/C31H34N2O7/c1-6-10-24(29(35)33-25(30(36)37)13-20-11-8-7-9-12-20)32-26(34)15-23-17(3)22-14-21-16(2)19(5)39-27(21)18(4)28(22)40-31(23)38/h7-9,11-12,14,24-25H,6,10,13,15H2,1-5H3,(H,32,34)(H,33,35)(H,36,37)/t24?,25-/m0/s1
FORMULA=C31H34N2O7
PUBMED=N/A
SUBMITUSER=BIOADREM
LIBRARYQUALITY=0
SPECTRUMID=CCMSLIB00000080276
SCANS=2464
ID=CCMSLIB00000080276
120.0807752941 	 0.45
142.0777012889 	 0.22
171.1168264494 	 0.28
184.0842432298 	 0.24
196.0882659752 	 0.33
199.1117410715 	 0.61
211.1117410715 	 0.34
212.0831805973 	 0.49
227.1066556936 	 8.2
228.1104579803 	 1.36
255.1015703157 	 100
256.1053726024 	 22.17
283.0964849378 	 23.26
284.1002872245 	 3.7
547.2438774565 	 0
END IONS

BEGIN IONS
PEPMASS=211.061
CHARGE=1
MSLEVEL=2
RT=0
SOURCE_INSTRUMENT=qTOF
FILENAME=CCMSLIB00000080277.ms
IONMODE=Positive
ORGANISM=Natural
NAME=MLS000877011-01!1-(3-acetyl-2,4,6-trihydroxyphenyl)ethanone
PI=GNPS
DATACOLLECTOR=GNPS
SMILES=CC(=O)c1c(cc(c(C(=O)C)c1O)O)O
INCHI=InChI=1S/C10H10O5/c1-4(11)8-6(13)3-7(14)9(5(2)12)10(8)15/h3,13-15H,1-2H3
FORMULA=C10H10O5
PUBMED=N/A
SUBMITUSER=BIOADREM
LIBRARYQUALITY=0
SPECTRUMID=CCMSLIB00000080277
SCANS=2465
ID=CCMSLIB00000080277
95.0491408147 	 6.24
102.0100156542 	 9.51
105.0334907505 	 11.74
109.0284053726 	 90.94
118.0413157826 	 6.09
119.0491408147 	 19.32
123.0440554368 	 29.72
147.0440554368 	 100
149.0233199947 	 7.73
151.0389700589 	 75.78
157.0284053726 	 17.83
175.0389700589 	 57.8
194.0573597773 	 9.06
211.0600994315 	 0
END IONS

BEGIN IONS
PEPMASS=423.108
CHARGE=1
MSLEVEL=2
RT=0
SOURCE_INSTRUMENT=qTOF
FILENAME=CCMSLIB00000080278.ms
IONMODE=Positive
ORGANISM=Natural
NAME=MLS001048953-01![9-(1,3-benzodioxol-5-yl)-6,7-dimethoxy-1-oxo-3H-benzo[f][2]benzofuran-4-yl] acetate
PI=GNPS
DATACOLLECTOR=GNPS
SMILES=CC(=O)Oc1c2cc(c(cc2c(c2ccc3c(c2)OCO3)c2c1COC2=O)OC)OC
INCHI=InChI=1S/C23H18O8/c1-11(24)31-22-14-8-18(27-3)17(26-2)7-13(14)20(21-15(22)9-28-23(21)25)12-4-5-16-19(6-12)30-10-29-16/h4-8H,9-10H2,1-3H3
FORMULA=C23H18O8
PUBMED=N/A
SUBMITUSER=BIOADREM
LIBRARYQUALITY=0
SPECTRUMID=CCMSLIB00000080278
SCANS=2466
ID=CCMSLIB00000080278
205.0647908789 	 3.78
206.072615911 	 8.4
207.0804409431 	 4.73
218.072615911 	 3.35
219.0804409431 	 3.93
233.059705501 	 15.84
234.0675305331 	 23.97
235.0753555652 	 11.85
236.0831805973 	 5.66
246.0675305331 	 3.17
247.0753555652 	 6.82
248.0831805973 	 8.36
249.0546201231 	 4.26
249.0910056294 	 14.14
251.1066556936 	 4.86
255.1015703157 	 4.09
261.0546201231 	 5.89
262.0624451552 	 12.45
263.0702701873 	 14.43
264.0780952194 	 12.22
265.0859202515 	 4.63
267.1015703157 	 4.74
274.0624451552 	 3.9
275.0702701873 	 4.74
276.0780952194 	 8.76
277.0859202515 	 100
279.1015703157 	 16.85
280.0730098415 	 3.95
290.0573597773 	 9.88
291.0651848094 	 20.64
292.0730098415 	 11.78
293.0808348736 	 5.52
294.0886599057 	 6.54
295.0964849378 	 7.78
302.0573597773 	 3.16
305.0808348736 	 88.45
307.0964849378 	 13.21
309.112135002 	 12.18
318.0522743994 	 3.28
319.0600994315 	 17.86
320.0679244636 	 11.04
323.0913995599 	 6.88
333.0757494957 	 80.45
335.0913995599 	 19.4
337.1070496241 	 22.24
351.086314182 	 26.9
363.086314182 	 45.01
381.0968788683 	 48.32
423.1074435546 	 0
END IONS

BEGIN IONS
PEPMASS=354.1448
CHARGE=1
MSLEVEL=2
RT=0
SOURCE_INSTRUMENT=qTOF
FILENAME=CCMSLIB00000080279.ms
IONMODE=Positive
ORGANISM=Natural
NAME=MLS001139340-01!
PI=GNPS
DATACOLLECTOR=GNPS
SMILES=c1ccc(c(c1)C(=O)O)N=C(N1C[C@H]2C[C@@H](C1)c1cccc(=O)n1C2)O
INCHI=InChI=1S/C19H19N3O4/c23-17-7-3-6-16-13-8-12(10-22(16)17)9-21(11-13)19(26)20-15-5-2-1-4-14(15)18(24)25/h1-7,12-13H,8-11H2,(H,20,26)(H,24,25)/t12-,13+/m1/s1
FORMULA=C19H19N3O4
PUBMED=N/A
SUBMITUSER=BIOADREM
LIBRARYQUALITY=0
SPECTRUMID=CCMSLIB00000080279
SCANS=2467
ID=CCMSLIB00000080279
104.0494751657 	 2.07
106.0651252299 	 1.81
108.0443897878 	 2.51
117.0573001978 	 2.63
118.0651252299 	 1.97
120.0443897878 	 30.68
122.060039852 	 1.37
130.0651252299 	 4.66
131.072950262 	 2.8
132.0443897878 	 7.82
132.0807752941 	 4.54
133.0522148199 	 15.96
134.060039852 	 7.51
142.0651252299 	 1.89
144.0807752941 	 2.07
145.0522148199 	 1.97
145.0886003262 	 0.85
146.0236543457 	 83.37
146.060039852 	 38.65
148.0756899162 	 13.63
154.0651252299 	 1.08
155.072950262 	 1.19
156.0807752941 	 4.86
158.060039852 	 11.35
159.0678648841 	 7.69
160.0756899162 	 100
171.0916743314 	 0.74
172.0756899162 	 10.76
173.0835149483 	 1.81
174.0913399804 	 39.5
189.1022390177 	 29.31
191.1178890819 	 12.88
199.0865889535 	 1.03
217.0971536398 	 81.1
235.1077183261 	 14.19
336.1342674276 	 34.51
354.1448321139 	 1.26
END IONS

BEGIN IONS
PEPMASS=275.128
CHARGE=1
MSLEVEL=2
RT=0
SOURCE_INSTRUMENT=qTOF
FILENAME=CCMSLIB00000080280.ms
IONMODE=Positive
ORGANISM=Natural
NAME=MLS000863618-01!6,7-dimethoxy-8-(3-methylbut-2-enyl)chromen-2-one
PI=GNPS
DATACOLLECTOR=GNPS
SMILES=CC(=CCc1c2c(ccc(=O)o2)cc(c1OC)OC)C
INCHI=InChI=1S/C16H18O4/c1-10(2)5-7-12-15-11(6-8-14(17)20-15)9-13(18-3)16(12)19-4/h5-6,8-9H,7H2,1-4H3
FORMULA=C16H18O4
PUBMED=N/A
SUBMITUSER=BIOADREM
LIBRARYQUALITY=0
SPECTRUMID=CCMSLIB00000080280
SCANS=2468
ID=CCMSLIB00000080280
103.0542261926 	 2.64
105.0698762568 	 1.59
118.0413157826 	 1.19
131.0491408147 	 5.66
133.0647908789 	 1.92
146.0362304047 	 1.14
147.0440554368 	 2.59
148.0518804689 	 2.15
175.0389700589 	 23.64
176.046795091 	 100
203.033884681 	 1.04
204.0417097131 	 73.34
219.0651848094 	 2.01
275.1277850662 	 0
END IONS

BEGIN IONS
PEPMASS=237.0673
CHARGE=1
MSLEVEL=2
RT=0
SOURCE_INSTRUMENT=qTOF
FILENAME=CCMSLIB00000080281.ms
IONMODE=Positive
ORGANISM=Natural
NAME=MLS000574959-01!
PI=GNPS
DATACOLLECTOR=GNPS
SMILES=c1cc2c(c3ccnc4ccc(=O)n2c34)c(c1)O
INCHI=InChI=1S/C14H8N2O2/c17-11-3-1-2-10-13(11)8-6-7-15-9-4-5-12(18)16(10)14(8)9/h1-7,17H
FORMULA=C14H8N2O2
PUBMED=N/A
SUBMITUSER=BIOADREM
LIBRARYQUALITY=0
SPECTRUMID=CCMSLIB00000080281
SCANS=2469
ID=CCMSLIB00000080281
103.0542261926 	 2.65
127.0542261926 	 3.97
128.0494751657 	 9.1
131.0491408147 	 2.45
153.0573001978 	 4.56
154.0651252299 	 26.92
155.060374203 	 39.65
164.0494751657 	 8.32
166.0525491709 	 2
179.060374203 	 8.59
180.0681992351 	 34.27
181.0760242672 	 42.24
182.060039852 	 5.32
183.0552888251 	 8.06
191.060374203 	 7.69
192.0681992351 	 5.07
193.0760242672 	 4.73
207.0552888251 	 0.68
208.0631138572 	 15.16
209.0709388893 	 100
237.0658535114 	 87.94
END IONS

BEGIN IONS
PEPMASS=315.1233
CHARGE=1
MSLEVEL=2
RT=0
SOURCE_INSTRUMENT=qTOF
FILENAME=CCMSLIB00000080283.ms
IONMODE=Positive
ORGANISM=Natural
NAME=MLS001048850-01!(E)-3-(2,4-dimethoxyphenyl)-1-(2-hydroxy-4-methoxyphenyl)prop-2-en-1-one
PI=GNPS
DATACOLLECTOR=GNPS
SMILES=COc1ccc(C(=O)/C=C/c2ccc(cc2OC)OC)c(c1)O
INCHI=InChI=1S/C18H18O5/c1-21-13-7-8-15(17(20)10-13)16(19)9-5-12-4-6-14(22-2)11-18(12)23-3/h4-11,20H,1-3H3/b9-5+
FORMULA=C18H18O5
PUBMED=N/A
SUBMITUSER=BIOADREM
LIBRARYQUALITY=0
SPECTRUMID=CCMSLIB00000080283
SCANS=2471
ID=CCMSLIB00000080283
95.0491408147 	 9.54
103.0542261926 	 2.14
105.0698762568 	 2.31
107.0491408147 	 0.55
108.0205803405 	 5.43
120.0569658468 	 1.03
121.0647908789 	 1.29
123.0440554368 	 3.99
133.0284053726 	 8.66
135.0804409431 	 3.46
136.0154949626 	 1.19
137.059705501 	 4.65
148.0518804689 	 23.26
151.0389700589 	 100
161.059705501 	 2.02
163.0753555652 	 0.79
167.0702701873 	 1.18
170.072615911 	 0.42
176.046795091 	 12.67
191.0702701873 	 19.65
198.0675305331 	 0.98
213.0910056294 	 2.11
239.0702701873 	 1.28
241.0859202515 	 1.07
242.0573597773 	 0.65
257.0808348736 	 0.95
273.112135002 	 1.39
300.099224592 	 0.75
315.1226996883 	 0.35
END IONS

BEGIN IONS
PEPMASS=412.1762
CHARGE=1
MSLEVEL=2
RT=0
SOURCE_INSTRUMENT=qTOF
FILENAME=CCMSLIB00000080284.ms
IONMODE=Positive
ORGANISM=Natural
NAME=MLS001159032-01!2-[(4-ethyl-8,8-dimethyl-2-oxo-9,10-dihydropyrano[2,3-h]chromen-5-yl)oxy]-N-(furan-2-ylmethyl)acetamide
PI=GNPS
DATACOLLECTOR=GNPS
SMILES=CCc1cc(=O)oc2c3CCC(C)(C)Oc3cc(c12)OCC(=NCc1ccco1)O
INCHI=InChI=1S/C23H25NO6/c1-4-14-10-20(26)29-22-16-7-8-23(2,3)30-17(16)11-18(21(14)22)28-13-19(25)24-12-15-6-5-9-27-15/h5-6,9-11H,4,7-8,12-13H2,1-3H3,(H,24,25)
FORMULA=C23H25NO6
PUBMED=N/A
SUBMITUSER=BIOADREM
LIBRARYQUALITY=0
SPECTRUMID=CCMSLIB00000080284
SCANS=2472
ID=CCMSLIB00000080284
96.0443897878 	 3.63
97.0284053726 	 55.01
108.0443897878 	 3.06
109.0284053726 	 19.22
110.060039852 	 58.44
119.085526321 	 2.45
121.0284053726 	 2.73
121.0647908789 	 2.94
133.0647908789 	 2.9
138.0549544741 	 37.69
145.0647908789 	 3.65
147.0440554368 	 2.65
149.059705501 	 4.92
161.059705501 	 4.39
163.0753555652 	 20.18
173.059705501 	 9.3
175.0389700589 	 3.08
175.0753555652 	 2.96
189.0546201231 	 5.73
191.0702701873 	 31.38
201.0546201231 	 3.82
203.0702701873 	 6.47
217.0495347452 	 5.41
219.0651848094 	 100
231.0651848094 	 13.51
259.0600994315 	 10.06
276.086648533 	 2.47
288.086648533 	 4.43
299.0913995599 	 8.32
356.1128632835 	 99.65
412.1754635403 	 60.87
END IONS

BEGIN IONS
PEPMASS=395.1604
CHARGE=1
MSLEVEL=2
RT=0
SOURCE_INSTRUMENT=qTOF
FILENAME=CCMSLIB00000080285.ms
IONMODE=Positive
ORGANISM=Natural
NAME=MLS001140565-01!1-[2-(4-methyl-6-oxobenzo[c]chromen-3-yl)oxyacetyl]piperidine-4-carboxamide
PI=GNPS
DATACOLLECTOR=GNPS
SMILES=Cc1c(ccc2c3ccccc3c(=O)oc12)OCC(=O)N1CCC(CC1)C(=N)O
INCHI=InChI=1S/C22H22N2O5/c1-13-18(28-12-19(25)24-10-8-14(9-11-24)21(23)26)7-6-16-15-4-2-3-5-17(15)22(27)29-20(13)16/h2-7,14H,8-12H2,1H3,(H2,23,26)
FORMULA=C22H22N2O5
PUBMED=N/A
SUBMITUSER=BIOADREM
LIBRARYQUALITY=0
SPECTRUMID=CCMSLIB00000080285
SCANS=2473
ID=CCMSLIB00000080285
96.0807752941 	 6.08
112.0756899162 	 14.95
115.0542261926 	 3.33
124.0756899162 	 4.46
125.0835149483 	 2.7
127.0865889535 	 61.08
152.0580284793 	 5.36
153.0698762568 	 14.41
155.085526321 	 7.48
157.0647908789 	 4.41
165.0698762568 	 7.66
167.0815035756 	 3.6
169.0647908789 	 3.87
170.1090014173 	 2.88
181.0647908789 	 100
183.0764181977 	 6.8
185.059705501 	 2.79
198.0675305331 	 3.47
209.059705501 	 18.15
211.0753555652 	 19.28
226.0624451552 	 26.94
239.0702701873 	 91.62
240.074072474 	 29.01
296.0917339109 	 5.86
322.1437694814 	 13.74
350.1386841035 	 16.71
351.1339330766 	 5.99
377.1495831408 	 3.11
395.1601478271 	 1.67
END IONS

BEGIN IONS
PEPMASS=299.165
CHARGE=1
MSLEVEL=2
RT=0
SOURCE_INSTRUMENT=qTOF
FILENAME=CCMSLIB00000080287.ms
IONMODE=Positive
ORGANISM=Natural
NAME=MLS001049098-01!7-[(2E)-3,7-dimethylocta-2,6-dienoxy]chromen-2-one
PI=GNPS
DATACOLLECTOR=GNPS
SMILES=CC(=CCC/C(=C/COc1ccc2ccc(=O)oc2c1)/C)C
INCHI=InChI=1S/C19H22O3/c1-14(2)5-4-6-15(3)11-12-21-17-9-7-16-8-10-19(20)22-18(16)13-17/h5,7-11,13H,4,6,12H2,1-3H3/b15-11+
FORMULA=C19H22O3
PUBMED=N/A
SUBMITUSER=BIOADREM
LIBRARYQUALITY=0
SPECTRUMID=CCMSLIB00000080287
SCANS=2475
ID=CCMSLIB00000080287
107.0491408147 	 27.26
119.0491408147 	 8.82
135.0440554368 	 2.67
163.0389700589 	 100
215.0702701873 	 0.38
299.1641705725 	 0
END IONS

BEGIN IONS
PEPMASS=247.133
CHARGE=1
MSLEVEL=2
RT=0
SOURCE_INSTRUMENT=qTOF
FILENAME=CCMSLIB00000080288.ms
IONMODE=Positive
ORGANISM=Natural
NAME=MLS002154141-01!
PI=GNPS
DATACOLLECTOR=GNPS
SMILES=C[C@H]1[C@@H]2CC[C@@]3(C)C=CC(=O)C(=C3[C@H]2OC1=O)C
INCHI=InChI=1S/C15H18O3/c1-8-10-4-6-15(3)7-5-11(16)9(2)12(15)13(10)18-14(8)17/h5,7-8,10,13H,4,6H2,1-3H3/t8-,10-,13-,15-/m0/s1
FORMULA=C15H18O3
PUBMED=N/A
SUBMITUSER=BIOADREM
LIBRARYQUALITY=0
SPECTRUMID=CCMSLIB00000080288
SCANS=2476
ID=CCMSLIB00000080288
105.0698762568 	 11.58
115.0542261926 	 21.86
116.0620512247 	 11.41
117.0698762568 	 11.19
119.085526321 	 3.62
120.0569658468 	 3.02
121.0647908789 	 4.76
121.1011763852 	 6.04
128.0620512247 	 13.47
129.0698762568 	 27.97
130.0777012889 	 18.94
133.0647908789 	 2.56
135.0804409431 	 76.94
140.0620512247 	 3.34
143.085526321 	 2.99
144.0569658468 	 6.43
145.1011763852 	 19.58
146.072615911 	 9.49
147.0804409431 	 3.09
149.0960910073 	 5.12
153.0698762568 	 10.02
154.0777012889 	 2.67
155.085526321 	 15.28
157.0647908789 	 23.28
158.072615911 	 100
161.0960910073 	 10.23
171.0804409431 	 13.33
172.0882659752 	 11.12
173.0960910073 	 63.57
187.1117410715 	 4.66
201.1273911357 	 5.01
247.1328704441 	 0
END IONS

BEGIN IONS
PEPMASS=277.1351
CHARGE=1
MSLEVEL=2
RT=0
SOURCE_INSTRUMENT=qTOF
FILENAME=CCMSLIB00000080289.ms
IONMODE=Positive
ORGANISM=Natural
NAME=MLS000736760-01!
PI=GNPS
DATACOLLECTOR=GNPS
SMILES=Cc1c2cnccc2c(C)c2c1c1cc(ccc1[nH]2)OC
INCHI=InChI=1S/C18H16N2O/c1-10-15-9-19-7-6-13(15)11(2)18-17(10)14-8-12(21-3)4-5-16(14)20-18/h4-9,20H,1-3H3
FORMULA=C18H16N2O
PUBMED=N/A
SUBMITUSER=BIOADREM
LIBRARYQUALITY=0
SPECTRUMID=CCMSLIB00000080289
SCANS=2477
ID=CCMSLIB00000080289
207.0916743314 	 1.08
219.0916743314 	 18.86
233.1073243956 	 40.26
234.1151494277 	 100
247.0865889535 	 4.42
261.1022390177 	 5.58
262.1100640498 	 98.74
277.1335391461 	 50.92
END IONS

BEGIN IONS
PEPMASS=179.0349
CHARGE=1
MSLEVEL=2
RT=0
SOURCE_INSTRUMENT=qTOF
FILENAME=CCMSLIB00000080290.ms
IONMODE=Positive
ORGANISM=Natural
NAME=MLS001049063-01!4,7-dihydroxychromen-2-one
PI=GNPS
DATACOLLECTOR=GNPS
SMILES=c1cc2c(cc(=O)oc2cc1O)O
INCHI=InChI=1S/C9H6O4/c10-5-1-2-6-7(11)4-9(12)13-8(6)3-5/h1-4,10-11H
FORMULA=C9H6O4
PUBMED=N/A
SUBMITUSER=BIOADREM
LIBRARYQUALITY=0
SPECTRUMID=CCMSLIB00000080290
SCANS=2478
ID=CCMSLIB00000080290
96.0205803405 	 18.22
107.0491408147 	 24.22
109.0284053726 	 26.74
117.0334907505 	 10.47
134.0362304047 	 7.95
135.0440554368 	 15.7
137.0233199947 	 100
179.033884681 	 38.37
END IONS

BEGIN IONS
PEPMASS=443.2177
CHARGE=1
MSLEVEL=2
RT=0
SOURCE_INSTRUMENT=qTOF
FILENAME=CCMSLIB00000080291.ms
IONMODE=Positive
ORGANISM=Natural
NAME=MLS001160370-01!1-[2-[(3,4,8,8-tetramethyl-2-oxo-9,10-dihydropyrano[2,3-h]chromen-5-yl)oxy]acetyl]piperidine-4-carboxamide
PI=GNPS
DATACOLLECTOR=GNPS
SMILES=Cc1c(C)c(=O)oc2c3CCC(C)(C)Oc3cc(c12)OCC(=O)N1CCC(CC1)C(=N)O
INCHI=InChI=1S/C24H30N2O6/c1-13-14(2)23(29)31-21-16-5-8-24(3,4)32-17(16)11-18(20(13)21)30-12-19(27)26-9-6-15(7-10-26)22(25)28/h11,15H,5-10,12H2,1-4H3,(H2,25,28)
FORMULA=C24H30N2O6
PUBMED=N/A
SUBMITUSER=BIOADREM
LIBRARYQUALITY=0
SPECTRUMID=CCMSLIB00000080291
SCANS=2479
ID=CCMSLIB00000080291
96.0807752941 	 3.63
98.060039852 	 2.86
109.0760242672 	 1.57
110.060039852 	 10.09
112.0756899162 	 16.2
123.0916743314 	 0.95
124.0756899162 	 6.52
127.0865889535 	 42.36
141.1022390177 	 100
163.0753555652 	 2.19
169.0971536398 	 82.38
173.059705501 	 2.88
175.0753555652 	 3.83
177.0546201231 	 1.38
191.0702701873 	 4.66
201.0546201231 	 0.96
203.0702701873 	 8.16
219.0651848094 	 34.41
231.0651848094 	 21.5
247.0600994315 	 2.74
247.1441038324 	 1.09
259.0600994315 	 14.14
287.1277850662 	 3.05
315.1226996883 	 2.43
342.1335987256 	 1.19
370.1285133477 	 1.21
387.1550624492 	 20.22
443.217662706 	 2.55
END IONS

BEGIN IONS
PEPMASS=357.097
CHARGE=1
MSLEVEL=2
RT=0
SOURCE_INSTRUMENT=qTOF
FILENAME=CCMSLIB00000080292.ms
IONMODE=Positive
ORGANISM=Natural
NAME=MLS000697647-01!
PI=GNPS
DATACOLLECTOR=GNPS
SMILES=CCOC(=O)c1c(c(=O)c2c(cc(cc2o1)O)O)OCc1ccccc1
INCHI=InChI=1S/C19H16O7/c1-2-24-19(23)18-17(25-10-11-6-4-3-5-7-11)16(22)15-13(21)8-12(20)9-14(15)26-18/h3-9,20-21H,2,10H2,1H3
FORMULA=C19H16O7
PUBMED=N/A
SUBMITUSER=BIOADREM
LIBRARYQUALITY=0
SPECTRUMID=CCMSLIB00000080292
SCANS=2480
ID=CCMSLIB00000080292
95.0491408147 	 3.48
105.0334907505 	 4.43
107.0491408147 	 3.4
123.0440554368 	 17.94
151.0389700589 	 9.17
153.0182346168 	 10.59
179.033884681 	 100
207.0287993031 	 35.73
239.0702701873 	 3.64
285.0757494957 	 21.19
357.0968788683 	 0
END IONS

BEGIN IONS
PEPMASS=302.139
CHARGE=1
MSLEVEL=2
RT=0
SOURCE_INSTRUMENT=qTOF
FILENAME=CCMSLIB00000080293.ms
IONMODE=Positive
ORGANISM=Natural
NAME=MLS001157889-01!N-cyclopropyl-3-(7-hydroxy-4,8-dimethyl-2-oxochromen-3-yl)propanamide
PI=GNPS
DATACOLLECTOR=GNPS
SMILES=Cc1c2ccc(c(C)c2oc(=O)c1CCC(=NC1CC1)O)O
INCHI=InChI=1S/C17H19NO4/c1-9-12-5-7-14(19)10(2)16(12)22-17(21)13(9)6-8-15(20)18-11-3-4-11/h5,7,11,19H,3-4,6,8H2,1-2H3,(H,18,20)
FORMULA=C17H19NO4
PUBMED=N/A
SUBMITUSER=BIOADREM
LIBRARYQUALITY=0
SPECTRUMID=CCMSLIB00000080293
SCANS=2481
ID=CCMSLIB00000080293
115.0542261926 	 1.31
116.0620512247 	 1.02
117.0698762568 	 1.32
121.0647908789 	 0.73
128.0620512247 	 1.36
129.0698762568 	 1.56
130.0777012889 	 0.4
131.0491408147 	 0.47
132.0569658468 	 2.65
144.0569658468 	 7.43
145.0647908789 	 1.35
146.072615911 	 0.82
147.0804409431 	 4.8
157.0647908789 	 0.5
158.072615911 	 1.12
160.0518804689 	 2.86
161.0960910073 	 0.58
173.059705501 	 0.77
174.0675305331 	 1.01
175.0753555652 	 21.85
189.0910056294 	 1.86
203.0702701873 	 100
217.0859202515 	 11.03
245.0808348736 	 2.31
302.1386841035 	 0
END IONS

BEGIN IONS
PEPMASS=331.191
CHARGE=1
MSLEVEL=2
RT=0
SOURCE_INSTRUMENT=qTOF
FILENAME=CCMSLIB00000080294.ms
IONMODE=Positive
ORGANISM=Natural
NAME=MLS000863597-01!(4,7,7-trimethyl-3-bicyclo[2.2.1]heptanyl) (E)-3-(4-hydroxy-3-methoxyphenyl)prop-2-enoate
PI=GNPS
DATACOLLECTOR=GNPS
SMILES=CC1(C)C2CCC1(C)C(C2)OC(=O)/C=C/c1ccc(c(c1)OC)O
INCHI=InChI=1S/C20H26O4/c1-19(2)14-9-10-20(19,3)17(12-14)24-18(22)8-6-13-5-7-15(21)16(11-13)23-4/h5-8,11,14,17,21H,9-10,12H2,1-4H3/b8-6+
FORMULA=C20H26O4
PUBMED=N/A
SUBMITUSER=BIOADREM
LIBRARYQUALITY=0
SPECTRUMID=CCMSLIB00000080294
SCANS=2482
ID=CCMSLIB00000080294
95.085526321 	 14.78
96.0933513531 	 5.94
117.0334907505 	 44.61
134.0362304047 	 7.04
137.1324765136 	 36.46
145.0284053726 	 36.74
149.059705501 	 13.95
162.0311450268 	 9.94
177.0546201231 	 100
331.190385323 	 0
END IONS

BEGIN IONS
PEPMASS=390.1538
CHARGE=1
MSLEVEL=2
RT=0
SOURCE_INSTRUMENT=qTOF
FILENAME=CCMSLIB00000080295.ms
IONMODE=Positive
ORGANISM=Natural
NAME=MLS001048975-01![1-(4,8-dimethoxyfuro[2,3-b]quinolin-7-yl)oxy-3-hydroxy-3-methylbutan-2-yl] acetate
PI=GNPS
DATACOLLECTOR=GNPS
SMILES=CC(=O)OC(COc1ccc2c(c1OC)nc1c(cco1)c2OC)C(C)(C)O
INCHI=InChI=1S/C20H23NO7/c1-11(22)28-15(20(2,3)23)10-27-14-7-6-12-16(18(14)25-5)21-19-13(8-9-26-19)17(12)24-4/h6-9,15,23H,10H2,1-5H3
FORMULA=C20H23NO7
PUBMED=N/A
SUBMITUSER=BIOADREM
LIBRARYQUALITY=0
SPECTRUMID=CCMSLIB00000080295
SCANS=2483
ID=CCMSLIB00000080295
156.0443897878 	 0.86
157.0495347452 	 0.48
160.0393044099 	 0.37
172.0393044099 	 0.34
184.0393044099 	 3.12
185.0444493673 	 1.02
186.0549544741 	 0.47
188.034219032 	 2.39
199.0627795062 	 2.57
200.034219032 	 0.43
200.0706045383 	 2.12
201.0420440641 	 1.75
202.0498690962 	 1.84
203.0550140536 	 0.39
213.0420440641 	 2.14
214.0498690962 	 1.75
216.0291336541 	 17.83
217.0342786115 	 2.08
227.0576941283 	 5.3
228.0291336541 	 3.95
228.0655191604 	 2.12
229.0369586862 	 1.56
229.0706641178 	 0.66
231.0526087504 	 100
232.0577537078 	 19.82
242.0447837183 	 2.88
243.0526087504 	 16.24
244.0604337825 	 6.24
246.0760838467 	 70.09
247.0812288041 	 9
254.0811692246 	 1.24
255.086314182 	 0.43
257.0682588146 	 0.42
258.0760838467 	 10.06
272.0917339109 	 1.63
273.0968788683 	 0.35
312.1230340393 	 1.46
330.1335987256 	 5.88
348.1441634119 	 0.33
372.1441634119 	 0.31
390.1547280982 	 0.49
END IONS

BEGIN IONS
PEPMASS=330.171
CHARGE=1
MSLEVEL=2
RT=0
SOURCE_INSTRUMENT=qTOF
FILENAME=CCMSLIB00000080296.ms
IONMODE=Positive
ORGANISM=Natural
NAME=MLS001048987-01!5-[(6,7-dimethoxy-3,4-dihydro-1H-isoquinolin-2-yl)methyl]-2-methoxyphenol
PI=GNPS
DATACOLLECTOR=GNPS
SMILES=COc1ccc(cc1O)CN1CCc2cc(c(cc2C1)OC)OC
INCHI=InChI=1S/C19H23NO4/c1-22-17-5-4-13(8-16(17)21)11-20-7-6-14-9-18(23-2)19(24-3)10-15(14)12-20/h4-5,8-10,21H,6-7,11-12H2,1-3H3
FORMULA=C19H23NO4
PUBMED=N/A
SUBMITUSER=BIOADREM
LIBRARYQUALITY=0
SPECTRUMID=CCMSLIB00000080296
SCANS=2484
ID=CCMSLIB00000080296
122.0362304047 	 29.74
131.072950262 	 0.39
137.059705501 	 100
148.0756899162 	 0.55
176.0706045383 	 1.06
177.0784295704 	 0.93
192.1019046667 	 2.6
330.1699842319 	 0
END IONS

BEGIN IONS
PEPMASS=448.2248
CHARGE=1
MSLEVEL=2
RT=0
SOURCE_INSTRUMENT=qTOF
FILENAME=CCMSLIB00000080297.ms
IONMODE=Positive
ORGANISM=Natural
NAME=MLS001158636-01!3-(4,11-dimethyl-2-oxo-6,7,8,9-tetrahydro-[1]benzofuro[3,2-g]chromen-3-yl)-N-(3-imidazol-1-ylpropyl)propanamide
PI=GNPS
DATACOLLECTOR=GNPS
SMILES=Cc1c(CCC(=NCCCn2ccnc2)O)c(=O)oc2c(C)c3c(cc12)c1CCCCc1o3
INCHI=InChI=1S/C26H29N3O4/c1-16-18(8-9-23(30)28-10-5-12-29-13-11-27-15-29)26(31)33-24-17(2)25-21(14-20(16)24)19-6-3-4-7-22(19)32-25/h11,13-15H,3-10,12H2,1-2H3,(H,28,30)
FORMULA=C26H29N3O4
PUBMED=N/A
SUBMITUSER=BIOADREM
LIBRARYQUALITY=0
SPECTRUMID=CCMSLIB00000080297
SCANS=2485
ID=CCMSLIB00000080297
155.085526321 	 0.45
171.0790982724 	 0.63
187.0740128945 	 0.31
199.0740128945 	 0.38
209.0947483366 	 0.28
213.0910056294 	 0.24
225.0896629587 	 2.83
228.1019046667 	 0.58
235.1103984008 	 0.2
237.1273911357 	 0.81
239.1053130229 	 0.28
240.1019046667 	 2.17
253.1209630871 	 18.12
255.125379763 	 0.33
263.1053130229 	 0.5
267.100227645 	 0.35
267.137955822 	 0.72
278.1539402372 	 0.2
281.1158777092 	 100
282.1237027413 	 47.63
283.1202943851 	 5.15
294.1488548593 	 2.96
295.1328704441 	 21.43
304.1332047951 	 0.3
305.1172203799 	 0.26
322.1437694814 	 33.95
323.1277850662 	 46.27
324.1342674276 	 9.63
362.1750696098 	 0.47
380.1856342961 	 70.57
448.2230824349 	 1.94
END IONS

BEGIN IONS
PEPMASS=401.1495
CHARGE=1
MSLEVEL=2
RT=0
SOURCE_INSTRUMENT=qTOF
FILENAME=CCMSLIB00000080298.ms
IONMODE=Positive
ORGANISM=Natural
NAME=MLS001140453-01!2-(8-methyl-2-oxo-4-phenylchromen-7-yl)oxy-N-(pyridin-2-ylmethyl)acetamide
PI=GNPS
DATACOLLECTOR=GNPS
SMILES=Cc1c(ccc2c(cc(=O)oc12)c1ccccc1)OCC(=NCc1ccccn1)O
INCHI=InChI=1S/C24H20N2O4/c1-16-21(29-15-22(27)26-14-18-9-5-6-12-25-18)11-10-19-20(13-23(28)30-24(16)19)17-7-3-2-4-8-17/h2-13H,14-15H2,1H3,(H,26,27)
FORMULA=C24H20N2O4
PUBMED=N/A
SUBMITUSER=BIOADREM
LIBRARYQUALITY=0
SPECTRUMID=CCMSLIB00000080298
SCANS=2486
ID=CCMSLIB00000080298
105.0447241388 	 3.56
107.060374203 	 100
109.0760242672 	 9.42
119.0365647557 	 43.15
121.0760242672 	 26.03
131.060374203 	 15.87
132.0681992351 	 35.39
149.0709388893 	 50.97
150.0787639214 	 37.73
152.0620512247 	 1.3
165.0698762568 	 1.66
177.0698762568 	 1.09
178.0777012889 	 21.38
179.085526321 	 35.55
180.0893286077 	 4.52
181.0647908789 	 2.59
189.0698762568 	 2.03
191.085526321 	 1.29
195.0804409431 	 1.14
206.072615911 	 2.84
207.0804409431 	 43.87
208.0842432298 	 8.24
209.059705501 	 1.9
221.0960910073 	 2.45
235.0753555652 	 1.96
237.0910056294 	 5.54
263.0940796346 	 1.25
265.0859202515 	 38.01
291.0889942567 	 5.04
293.0808348736 	 1.34
315.125379763 	 1.93
343.1202943851 	 4.9
355.1441038324 	 1.22
383.1390184545 	 7.6
401.1495831408 	 13.78
END IONS

BEGIN IONS
PEPMASS=386.1872
CHARGE=1
MSLEVEL=2
RT=0
SOURCE_INSTRUMENT=qTOF
FILENAME=CCMSLIB00000080299.ms
IONMODE=Positive
ORGANISM=Natural
NAME=MLS001140235-01!
PI=GNPS
DATACOLLECTOR=GNPS
SMILES=Cc1ccccc1c1c2c(cc(C(=O)NCC3CCCO3)[nH]1)c1ccccc1n2
INCHI=InChI=1S/C24H23N3O2/c1-15-7-2-3-9-17(15)22-23-19(18-10-4-5-11-20(18)26-23)13-21(27-22)24(28)25-14-16-8-6-12-29-16/h2-5,7,9-11,13,16,27H,6,8,12,14H2,1H3,(H,25,28)
FORMULA=C24H23N3O2
PUBMED=N/A
SUBMITUSER=BIOADREM
LIBRARYQUALITY=0
SPECTRUMID=CCMSLIB00000080299
SCANS=2487
ID=CCMSLIB00000080299
179.060374203 	 0.25
217.0886003262 	 2.47
228.0807752941 	 0.4
229.0886003262 	 0.7
230.0964253583 	 20.16
240.0807752941 	 1.12
242.0838492993 	 23.85
255.0916743314 	 9.94
256.0994993635 	 58.07
275.1178890819 	 66.42
284.1182234329 	 9.13
285.1022390177 	 15.91
302.1287881192 	 1.17
303.112803704 	 11.62
368.1757383118 	 1.28
386.1863029981 	 14.86
END IONS

BEGIN IONS
PEPMASS=283.0981
CHARGE=1
MSLEVEL=2
RT=0
SOURCE_INSTRUMENT=qTOF
FILENAME=CCMSLIB00000080300.ms
IONMODE=Positive
ORGANISM=Natural
NAME=MLS002695973-01!
PI=GNPS
DATACOLLECTOR=GNPS
SMILES=COc1ccc(cc1)c1coc2cc(ccc2c1=O)OC
INCHI=InChI=1S/C17H14O4/c1-19-12-5-3-11(4-6-12)15-10-21-16-9-13(20-2)7-8-14(16)17(15)18/h3-10H,1-2H3
FORMULA=C17H14O4
PUBMED=N/A
SUBMITUSER=BIOADREM
LIBRARYQUALITY=0
SPECTRUMID=CCMSLIB00000080300
SCANS=2488
ID=CCMSLIB00000080300
107.0127553084 	 3.77
115.0542261926 	 2.34
118.0413157826 	 6.32
121.0647908789 	 10.51
122.0362304047 	 8.95
132.0569658468 	 5.21
133.0647908789 	 4.3
141.0698762568 	 12.64
150.0311450268 	 13.46
153.0698762568 	 4.66
165.0698762568 	 4.86
168.0569658468 	 4.22
169.0647908789 	 33.67
179.0491408147 	 2.68
180.0569658468 	 1.82
181.0647908789 	 12.51
182.072615911 	 2.66
183.0804409431 	 4.28
184.0882659752 	 12.93
195.0804409431 	 7.27
196.0518804689 	 6.82
196.0882659752 	 5.26
197.059705501 	 69.43
208.0518804689 	 8.3
209.059705501 	 8.34
210.0675305331 	 4.66
211.0753555652 	 78.78
212.0831805973 	 34.69
214.0624451552 	 8.88
224.046795091 	 3.15
224.0831805973 	 1.86
225.0546201231 	 16.68
227.1066556936 	 31.5
239.0702701873 	 33.2
240.0780952194 	 100
242.0573597773 	 1.97
251.0702701873 	 23.1
253.0495347452 	 3.4
255.1015703157 	 1.73
267.0651848094 	 40.94
268.0730098415 	 43.63
283.0964849378 	 101.42
END IONS

BEGIN IONS
PEPMASS=533.229
CHARGE=1
MSLEVEL=2
RT=0
SOURCE_INSTRUMENT=qTOF
FILENAME=CCMSLIB00000080301.ms
IONMODE=Positive
ORGANISM=Natural
NAME=MLS001140723-01!(2S)-3-phenyl-2-[2-[3-(2,3,5-trimethyl-7-oxofuro[3,2-g]chromen-6-yl)propanoylamino]butanoylamino]propanoic acid
PI=GNPS
DATACOLLECTOR=GNPS
SMILES=CCC(C(=N[C@@H](Cc1ccccc1)C(=O)O)O)N=C(CCc1c(C)c2cc3c(C)c(C)oc3cc2oc1=O)O
INCHI=InChI=1S/C30H32N2O7/c1-5-23(28(34)32-24(29(35)36)13-19-9-7-6-8-10-19)31-27(33)12-11-20-17(3)22-14-21-16(2)18(4)38-25(21)15-26(22)39-30(20)37/h6-10,14-15,23-24H,5,11-13H2,1-4H3,(H,31,33)(H,32,34)(H,35,36)/t23?,24-/m0/s1
FORMULA=C30H32N2O7
PUBMED=N/A
SUBMITUSER=BIOADREM
LIBRARYQUALITY=0
SPECTRUMID=CCMSLIB00000080301
SCANS=2489
ID=CCMSLIB00000080301
120.0807752941 	 0.67
141.0698762568 	 0.44
157.1011763852 	 0.37
166.0862546025 	 0.33
185.0960910073 	 0.76
198.0675305331 	 0.31
213.0910056294 	 4.94
214.0948079161 	 0.71
227.1066556936 	 0.7
241.0859202515 	 100
242.0897225382 	 22.73
255.1015703157 	 24.98
256.1053726024 	 3.82
257.1073243956 	 0.37
283.0964849378 	 74.12
284.1002872245 	 14.61
285.1022390177 	 1.63
533.2282273923 	 0
END IONS

BEGIN IONS
PEPMASS=355.2027
CHARGE=1
MSLEVEL=2
RT=0
SOURCE_INSTRUMENT=qTOF
FILENAME=CCMSLIB00000080302.ms
IONMODE=Positive
ORGANISM=Natural
NAME=MLS002154249-01!
PI=GNPS
DATACOLLECTOR=GNPS
SMILES=CC[C@]12CCCN3CCc4c5ccccc5n(c4[C@H]23)[C@](C1)(C(=O)OC)O
INCHI=InChI=1S/C21H26N2O3/c1-3-20-10-6-11-22-12-9-15-14-7-4-5-8-16(14)23(17(15)18(20)22)21(25,13-20)19(24)26-2/h4-5,7-8,18,25H,3,6,9-13H2,1-2H3/t18-,20+,21+/m1/s1
FORMULA=C21H26N2O3
PUBMED=N/A
SUBMITUSER=BIOADREM
LIBRARYQUALITY=0
SPECTRUMID=CCMSLIB00000080302
SCANS=2490
ID=CCMSLIB00000080302
117.0698762568 	 2.86
123.0804409431 	 3.13
124.1120754225 	 4.98
134.0964253583 	 5.41
143.072950262 	 3.76
144.0807752941 	 47.49
152.1069900446 	 15.56
156.0807752941 	 3.22
180.0807752941 	 2.83
205.0886003262 	 3.66
206.0964253583 	 5.58
208.1120754225 	 8.9
209.1172203799 	 5.7
210.1277254867 	 3.52
218.0964253583 	 3.29
219.1042503904 	 5.64
220.1093953478 	 10.07
221.1199004546 	 4.22
222.1277254867 	 7.04
234.1277254867 	 10.13
235.1328704441 	 3.8
236.1433755509 	 4.27
239.0940796346 	 5.47
248.1433755509 	 5.12
250.1563455404 	 3.07
251.0940796346 	 4.08
252.1019046667 	 6.45
253.1097296988 	 6.19
264.1019046667 	 11.07
265.1097296988 	 21.75
266.1175547309 	 17.7
267.125379763 	 17.65
268.1332047951 	 17.11
277.1699246524 	 5.14
278.1175547309 	 10.6
279.125379763 	 18.9
280.1332047951 	 70.27
290.1175547309 	 3.15
292.1332047951 	 10.04
293.1410298272 	 5.67
294.1488548593 	 49.89
295.1804893387 	 10.44
307.1441038324 	 7.54
308.1645049235 	 25.14
337.191054025 	 100
355.2016187113 	 24.64
END IONS

BEGIN IONS
PEPMASS=295.108
CHARGE=1
MSLEVEL=2
RT=0
SOURCE_INSTRUMENT=qTOF
FILENAME=CCMSLIB00000080303.ms
IONMODE=Positive
ORGANISM=Natural
NAME=MLS000728598-01!(2S)-1-benzoyl-3,4-dihydroxy-3,4-dihydro-2H-quinoline-2-carbonitrile
PI=GNPS
DATACOLLECTOR=GNPS
SMILES=c1ccc(cc1)C(=O)N1c2ccccc2C(C([C@@H]1C#N)O)O
INCHI=InChI=1S/C17H14N2O3/c18-10-14-16(21)15(20)12-8-4-5-9-13(12)19(14)17(22)11-6-2-1-3-7-11/h1-9,14-16,20-21H/t14-,15?,16?/m0/s1
FORMULA=C17H14N2O3
PUBMED=N/A
SUBMITUSER=BIOADREM
LIBRARYQUALITY=0
SPECTRUMID=CCMSLIB00000080303
SCANS=2491
ID=CCMSLIB00000080303
105.0334907505 	 100
106.0413157826 	 6.02
118.0651252299 	 7.06
146.060039852 	 17.41
155.060374203 	 2.19
177.0784295704 	 1.94
204.0807752941 	 7.16
205.0647908789 	 1.74
206.0964253583 	 2.39
207.0889942567 	 1.89
221.1073243956 	 2.49
234.0913399804 	 1.89
247.0865889535 	 2.34
260.0944139856 	 2.29
277.0971536398 	 3.38
295.1077183261 	 0
END IONS

BEGIN IONS
PEPMASS=467.245
CHARGE=1
MSLEVEL=2
RT=0
SOURCE_INSTRUMENT=qTOF
FILENAME=CCMSLIB00000080304.ms
IONMODE=Positive
ORGANISM=Natural
NAME=MLS001158604-01!(3S)-N-[(2S)-1-(3,5-dimethylanilino)-3-(1H-indol-3-yl)-1-oxopropan-2-yl]-1,2,3,4-tetrahydroisoquinoline-3-carboxamide
PI=GNPS
DATACOLLECTOR=GNPS
SMILES=Cc1cc(C)cc(c1)N=C([C@H](Cc1c[nH]c2ccccc12)N=C([C@@H]1Cc2ccccc2CN1)O)O
INCHI=InChI=1S/C29H30N4O2/c1-18-11-19(2)13-23(12-18)32-29(35)27(15-22-17-30-25-10-6-5-9-24(22)25)33-28(34)26-14-20-7-3-4-8-21(20)16-31-26/h3-13,17,26-27,30-31H,14-16H2,1-2H3,(H,32,35)(H,33,34)/t26-,27-/m0/s1
FORMULA=C29H30N4O2
PUBMED=N/A
SUBMITUSER=BIOADREM
LIBRARYQUALITY=0
SPECTRUMID=CCMSLIB00000080304
SCANS=2492
ID=CCMSLIB00000080304
103.0542261926 	 0.98
105.0698762568 	 1.47
115.0542261926 	 4.17
117.0573001978 	 5.36
130.0651252299 	 49.24
132.0807752941 	 100
142.0651252299 	 2.08
159.0916743314 	 54.83
169.0760242672 	 1.57
170.060039852 	 2.46
187.0865889535 	 47.84
263.1542745882 	 0.83
273.138624524 	 2.09
291.1491892103 	 1.06
318.1600882476 	 2.27
467.244152228 	 0
END IONS

BEGIN IONS
PEPMASS=394.1761
CHARGE=1
MSLEVEL=2
RT=0
SOURCE_INSTRUMENT=qTOF
FILENAME=CCMSLIB00000080305.ms
IONMODE=Positive
ORGANISM=Natural
NAME=MLS001157747-01!3-(3,5-dimethyl-7-oxofuro[3,2-g]chromen-6-yl)-N-(3-imidazol-1-ylpropyl)propanamide
PI=GNPS
DATACOLLECTOR=GNPS
SMILES=Cc1coc2cc3c(cc12)c(C)c(CCC(=NCCCn1ccnc1)O)c(=O)o3
INCHI=InChI=1S/C22H23N3O4/c1-14-12-28-19-11-20-18(10-17(14)19)15(2)16(22(27)29-20)4-5-21(26)24-6-3-8-25-9-7-23-13-25/h7,9-13H,3-6,8H2,1-2H3,(H,24,26)
FORMULA=C22H23N3O4
PUBMED=N/A
SUBMITUSER=BIOADREM
LIBRARYQUALITY=0
SPECTRUMID=CCMSLIB00000080305
SCANS=2493
ID=CCMSLIB00000080305
115.0542261926 	 0.34
128.0620512247 	 0.75
143.085526321 	 1.14
152.0620512247 	 0.39
153.0698762568 	 0.46
154.0777012889 	 0.57
155.085526321 	 0.46
168.0569658468 	 0.23
169.0647908789 	 0.22
170.072615911 	 0.26
171.0804409431 	 1.45
182.072615911 	 0.22
183.0804409431 	 0.5
185.0960910073 	 0.22
198.0675305331 	 0.24
199.0753555652 	 8.24
213.0910056294 	 0.75
214.0974879908 	 0.23
227.072950262 	 100
240.1019046667 	 0.37
241.0859202515 	 24.56
243.0916743314 	 0.29
251.0702701873 	 0.26
268.0968192888 	 23.49
269.0808348736 	 38.69
270.087317235 	 6.08
308.1281194172 	 0.43
326.1386841035 	 45.42
394.1761322423 	 0.24
END IONS

BEGIN IONS
PEPMASS=387.2292
CHARGE=1
MSLEVEL=2
RT=0
SOURCE_INSTRUMENT=qTOF
FILENAME=CCMSLIB00000080306.ms
IONMODE=Positive
ORGANISM=Natural
NAME=MLS000736869-01!
PI=GNPS
DATACOLLECTOR=GNPS
SMILES=COc1ccc2c3CCN4CC5CC(C(C(CO)C5CC4c3[nH]c2c1)OC)O
INCHI=InChI=1S/C22H30N2O4/c1-27-13-3-4-14-15-5-6-24-10-12-7-20(26)22(28-2)17(11-25)16(12)9-19(24)21(15)23-18(14)8-13/h3-4,8,12,16-17,19-20,22-23,25-26H,5-7,9-11H2,1-2H3
FORMULA=C22H30N2O4
PUBMED=N/A
SUBMITUSER=BIOADREM
LIBRARYQUALITY=0
SPECTRUMID=CCMSLIB00000080306
SCANS=2494
ID=CCMSLIB00000080306
115.0542261926 	 1.32
117.0698762568 	 1.6
121.0647908789 	 1.1
130.0651252299 	 2.08
131.072950262 	 5.7
132.0807752941 	 1.31
135.0804409431 	 1.15
143.072950262 	 5.9
144.0807752941 	 1.98
146.0964253583 	 1.38
147.0804409431 	 1.58
159.0678648841 	 17
160.0756899162 	 4.98
161.0835149483 	 2.14
162.0913399804 	 3.72
164.1069900446 	 3.39
172.0756899162 	 1.02
173.0835149483 	 3.63
174.0913399804 	 100
182.1175547309 	 2.28
186.0913399804 	 2.11
187.0991650125 	 1.36
188.1069900446 	 10.92
194.1175547309 	 1.93
196.1332047951 	 2.57
200.1069900446 	 2.48
208.1332047951 	 1.37
212.1281194172 	 3.87
224.1069900446 	 1.49
226.1437694814 	 18.93
236.1069900446 	 1.09
238.1226401088 	 2.19
250.1226401088 	 1.87
252.138290173 	 1.07
264.138290173 	 1.61
278.1539402372 	 1.21
294.1488548593 	 0.97
308.1645049235 	 2.07
326.1750696098 	 1.59
337.191054025 	 1.43
338.1750696098 	 1
355.2016187113 	 1.06
369.2172687755 	 1.96
370.2012843603 	 1.87
387.2278334618 	 16.71
END IONS

BEGIN IONS
PEPMASS=412.204
CHARGE=1
MSLEVEL=2
RT=0
SOURCE_INSTRUMENT=qTOF
FILENAME=CCMSLIB00000080307.ms
IONMODE=Positive
ORGANISM=Natural
NAME=MLS001075533-01!
PI=GNPS
DATACOLLECTOR=GNPS
SMILES=c1ccc(c(c1)CCN=C(CCC(=O)N1C[C@@H]2CC(C1)c1cccc(=O)n1C2)O)F
INCHI=InChI=1S/C23H26FN3O3/c24-19-5-2-1-4-17(19)10-11-25-21(28)8-9-22(29)26-13-16-12-18(15-26)20-6-3-7-23(30)27(20)14-16/h1-7,16,18H,8-15H2,(H,25,28)/t16-,18?/m0/s1
FORMULA=C23H26FN3O3
PUBMED=N/A
SUBMITUSER=BIOADREM
LIBRARYQUALITY=0
SPECTRUMID=CCMSLIB00000080307
SCANS=2495
ID=CCMSLIB00000080307
96.0443897878 	 0.34
103.0542261926 	 7.27
123.0604544247 	 28.3
126.0549544741 	 0.39
131.072950262 	 0.54
132.0443897878 	 0.42
132.0819181483 	 0.75
133.0522148199 	 0.37
134.0611827062 	 0.66
146.0611827062 	 1.64
148.0756899162 	 11.28
149.0761044889 	 1.17
158.0611827062 	 0.97
160.0768327704 	 9.45
162.0924828346 	 1.34
174.0913399804 	 1.85
184.0768327704 	 0.44
189.1033818719 	 3.43
190.1100640498 	 0.76
191.1190319361 	 45.15
194.0975682125 	 0.32
202.0862546025 	 0.94
210.1162922819 	 0.32
217.098296494 	 0.68
222.0924828346 	 14.85
227.1190319361 	 1.6
245.1295966224 	 99.23
255.1139465582 	 1.26
272.1404956597 	 0.67
273.1271913192 	 100
412.2030959165 	 0
END IONS

BEGIN IONS
PEPMASS=417.1458
CHARGE=1
MSLEVEL=2
RT=0
SOURCE_INSTRUMENT=qTOF
FILENAME=CCMSLIB00000080308.ms
IONMODE=Positive
ORGANISM=Natural
NAME=MLS001140473-01!2-[4-(4-methoxyphenyl)-2-oxochromen-7-yl]oxy-N-(pyridin-2-ylmethyl)acetamide
PI=GNPS
DATACOLLECTOR=GNPS
SMILES=COc1ccc(cc1)c1cc(=O)oc2cc(ccc12)OCC(=NCc1ccccn1)O
INCHI=InChI=1S/C24H20N2O5/c1-29-18-7-5-16(6-8-18)21-13-24(28)31-22-12-19(9-10-20(21)22)30-15-23(27)26-14-17-4-2-3-11-25-17/h2-13H,14-15H2,1H3,(H,26,27)
FORMULA=C24H20N2O5
PUBMED=N/A
SUBMITUSER=BIOADREM
LIBRARYQUALITY=0
SPECTRUMID=CCMSLIB00000080308
SCANS=2496
ID=CCMSLIB00000080308
105.0447241388 	 3.42
107.060374203 	 100
109.0760242672 	 19.96
119.0365647557 	 35.93
121.0760242672 	 49.84
131.060374203 	 18
132.0681992351 	 38.61
135.0440554368 	 2.16
149.0709388893 	 91.29
150.0787639214 	 24.14
152.0620512247 	 5.64
165.0698762568 	 4.23
180.0569658468 	 3.7
182.072615911 	 3.16
195.0804409431 	 57.67
196.0842432298 	 8.08
197.0960910073 	 3.21
199.0753555652 	 2.42
208.0518804689 	 4.16
210.0675305331 	 2.1
211.0753555652 	 6.61
213.0910056294 	 4.16
223.0753555652 	 12.92
224.0791578519 	 2.85
225.0910056294 	 5.31
227.0702701873 	 4.22
236.046795091 	 3.68
238.0624451552 	 3.21
239.0702701873 	 3.83
251.0702701873 	 16.47
252.074072474 	 4.28
253.0859202515 	 12.52
269.0808348736 	 14.1
281.0808348736 	 22.85
309.0757494957 	 2.52
314.1175547309 	 7.22
342.112469353 	 7.79
359.1152090072 	 19.91
399.1339330766 	 18.92
417.1444977629 	 42.26
END IONS

BEGIN IONS
PEPMASS=291.087
CHARGE=1
MSLEVEL=2
RT=0
SOURCE_INSTRUMENT=qTOF
FILENAME=CCMSLIB00000080309.ms
IONMODE=Positive
ORGANISM=Natural
NAME=MLS000877038-01!2-(4,5-dihydroxy-2-methylphenyl)-6-hydroxy-4-methoxybenzoic acid
PI=GNPS
DATACOLLECTOR=GNPS
SMILES=Cc1cc(c(cc1c1cc(cc(c1C(=O)O)O)OC)O)O
INCHI=InChI=1S/C15H14O6/c1-7-3-11(16)12(17)6-9(7)10-4-8(21-2)5-13(18)14(10)15(19)20/h3-6,16-18H,1-2H3,(H,19,20)
FORMULA=C15H14O6
PUBMED=N/A
SUBMITUSER=BIOADREM
LIBRARYQUALITY=0
SPECTRUMID=CCMSLIB00000080309
SCANS=2497
ID=CCMSLIB00000080309
128.0620512247 	 4.98
129.0698762568 	 5.49
138.0464011605 	 4.32
139.0542261926 	 15.09
141.0698762568 	 10.18
152.0620512247 	 10.4
156.0569658468 	 14.21
157.0647908789 	 7.33
166.0413157826 	 8.72
168.0569658468 	 8.72
173.059705501 	 7.69
174.0675305331 	 9.96
181.0647908789 	 8.72
184.0518804689 	 55.24
184.9869344884 	 4.32
185.059705501 	 18.1
189.0910056294 	 6.23
197.059705501 	 9.08
199.0753555652 	 100
212.046795091 	 22.56
215.033884681 	 4.4
217.0859202515 	 16.85
227.0702701873 	 75.31
230.0573597773 	 20
231.0651848094 	 7.77
245.0808348736 	 7.03
255.0651848094 	 53.7
291.086314182 	 0
END IONS

BEGIN IONS
PEPMASS=326.139
CHARGE=1
MSLEVEL=2
RT=0
SOURCE_INSTRUMENT=qTOF
FILENAME=CCMSLIB00000080310.ms
IONMODE=Positive
ORGANISM=Natural
NAME=MLS001157899-01!N-cyclopropyl-3-(3,5-dimethyl-7-oxofuro[3,2-g]chromen-6-yl)propanamide
PI=GNPS
DATACOLLECTOR=GNPS
SMILES=Cc1coc2cc3c(cc12)c(C)c(CCC(=NC1CC1)O)c(=O)o3
INCHI=InChI=1S/C19H19NO4/c1-10-9-23-16-8-17-15(7-14(10)16)11(2)13(19(22)24-17)5-6-18(21)20-12-3-4-12/h7-9,12H,3-6H2,1-2H3,(H,20,21)
FORMULA=C19H19NO4
PUBMED=N/A
SUBMITUSER=BIOADREM
LIBRARYQUALITY=0
SPECTRUMID=CCMSLIB00000080310
SCANS=2498
ID=CCMSLIB00000080310
103.0542261926 	 0.37
115.0542261926 	 1.89
117.0698762568 	 0.22
127.0542261926 	 0.24
128.0620512247 	 5.44
129.0698762568 	 1.42
141.0698762568 	 0.56
142.0777012889 	 0.87
143.085526321 	 4.15
144.0569658468 	 0.23
152.0620512247 	 0.58
153.0698762568 	 3.3
154.0777012889 	 2.44
156.0569658468 	 0.28
157.0647908789 	 0.61
157.1011763852 	 0.68
167.085526321 	 0.32
169.0647908789 	 0.88
170.072615911 	 1.18
171.0804409431 	 3.54
182.072615911 	 0.87
184.0518804689 	 0.65
185.059705501 	 0.51
185.0960910073 	 1
195.0804409431 	 0.3
198.0675305331 	 1.32
199.0753555652 	 19.98
213.0910056294 	 2.3
227.0702701873 	 100
241.0859202515 	 27.64
269.0808348736 	 4.93
326.1386841035 	 0
END IONS

BEGIN IONS
PEPMASS=197.1084
CHARGE=1
MSLEVEL=2
RT=0
SOURCE_INSTRUMENT=qTOF
FILENAME=CCMSLIB00000080311.ms
IONMODE=Positive
ORGANISM=Natural
NAME=MLS001143605-01!1-ethyl-9H-pyrido[3,4-b]indole
PI=GNPS
DATACOLLECTOR=GNPS
SMILES=CCc1c2c(ccn1)c1ccccc1[nH]2
INCHI=InChI=1S/C13H12N2/c1-2-11-13-10(7-8-14-11)9-5-3-4-6-12(9)15-13/h3-8,15H,2H2,1H3
FORMULA=C13H12N2
PUBMED=N/A
SUBMITUSER=BIOADREM
LIBRARYQUALITY=0
SPECTRUMID=CCMSLIB00000080311
SCANS=2499
ID=CCMSLIB00000080311
113.0385761284 	 0.3
115.0542261926 	 6.1
127.0542261926 	 0.86
129.0573001978 	 0.94
140.0494751657 	 2.25
142.0651252299 	 1.04
154.0651252299 	 23.01
155.072950262 	 12.46
167.060374203 	 0.58
169.0760242672 	 3.47
181.0760242672 	 31.95
182.0838492993 	 100
197.1073243956 	 25.64
END IONS

BEGIN IONS
PEPMASS=295.108
CHARGE=1
MSLEVEL=2
RT=0
SOURCE_INSTRUMENT=qTOF
FILENAME=CCMSLIB00000080312.ms
IONMODE=Positive
ORGANISM=Natural
NAME=MLS000876987-01!(3S,3'R)-4-methyl-3'-phenylspiro[1H-1,4-benzodiazepine-3,2'-oxirane]-2,5-dione
PI=GNPS
DATACOLLECTOR=GNPS
SMILES=CN1C(=O)c2ccccc2N=C([C@]21[C@@H](c1ccccc1)O2)O
INCHI=InChI=1S/C17H14N2O3/c1-19-15(20)12-9-5-6-10-13(12)18-16(21)17(19)14(22-17)11-7-3-2-4-8-11/h2-10,14H,1H3,(H,18,21)/t14-,17+/m1/s1
FORMULA=C17H14N2O3
PUBMED=N/A
SUBMITUSER=BIOADREM
LIBRARYQUALITY=0
SPECTRUMID=CCMSLIB00000080312
SCANS=2500
ID=CCMSLIB00000080312
104.0494751657 	 1.18
105.0334907505 	 0.58
118.0287397236 	 3.19
118.0651252299 	 0.71
120.0443897878 	 3.68
130.0287397236 	 1.56
146.0236543457 	 100
153.0698762568 	 1.28
159.0552888251 	 1.32
165.0698762568 	 1.54
177.0658535114 	 2.98
180.0807752941 	 4.89
190.0651252299 	 1.35
208.0756899162 	 3.51
295.1077183261 	 0
END IONS

BEGIN IONS
PEPMASS=427.2237
CHARGE=1
MSLEVEL=2
RT=0
SOURCE_INSTRUMENT=qTOF
FILENAME=CCMSLIB00000080313.ms
IONMODE=Positive
ORGANISM=Natural
NAME=MLS001032320-01!N-(3-morpholin-4-ylpropyl)-3-(3,5,9-trimethyl-7-oxofuro[3,2-g]chromen-6-yl)propanamide
PI=GNPS
DATACOLLECTOR=GNPS
SMILES=Cc1coc2c(C)c3c(cc12)c(C)c(CCC(=NCCCN1CCOCC1)O)c(=O)o3
INCHI=InChI=1S/C24H30N2O5/c1-15-14-30-22-17(3)23-20(13-19(15)22)16(2)18(24(28)31-23)5-6-21(27)25-7-4-8-26-9-11-29-12-10-26/h13-14H,4-12H2,1-3H3,(H,25,27)
FORMULA=C24H30N2O5
PUBMED=N/A
SUBMITUSER=BIOADREM
LIBRARYQUALITY=0
SPECTRUMID=CCMSLIB00000080313
SCANS=2501
ID=CCMSLIB00000080313
129.0698762568 	 0.36
141.0698762568 	 0.33
142.0777012889 	 0.7
153.0698762568 	 0.49
154.0777012889 	 0.64
157.1011763852 	 0.62
167.085526321 	 0.32
169.1011763852 	 0.46
170.072615911 	 0.44
182.072615911 	 0.36
185.0960910073 	 1.34
197.0960910073 	 0.48
199.1117410715 	 0.31
212.0831805973 	 0.45
213.0910056294 	 9.83
227.1066556936 	 0.85
241.0859202515 	 100
255.1015703157 	 21.06
283.0964849378 	 35.96
340.1543341677 	 52.3
409.2121833976 	 0.3
427.2227480839 	 5.46
END IONS

BEGIN IONS
PEPMASS=459.192
CHARGE=1
MSLEVEL=2
RT=0
SOURCE_INSTRUMENT=qTOF
FILENAME=CCMSLIB00000080314.ms
IONMODE=Positive
ORGANISM=Natural
NAME=MLS001158167-01!
PI=GNPS
DATACOLLECTOR=GNPS
SMILES=Cc1coc2cc3c(cc12)c(C)c(CCC(=O)N1C[C@H]2C[C@@H](C1)c1cccc(=O)n1C2)c(=O)o3
INCHI=InChI=1S/C27H26N2O5/c1-15-14-33-23-10-24-21(9-20(15)23)16(2)19(27(32)34-24)6-7-25(30)28-11-17-8-18(13-28)22-4-3-5-26(31)29(22)12-17/h3-5,9-10,14,17-18H,6-8,11-13H2,1-2H3/t17-,18+/m1/s1
FORMULA=C27H26N2O5
PUBMED=N/A
SUBMITUSER=BIOADREM
LIBRARYQUALITY=0
SPECTRUMID=CCMSLIB00000080314
SCANS=2502
ID=CCMSLIB00000080314
128.1069900446 	 0.97
129.1148150767 	 0.43
149.1284537682 	 0.23
168.1144807257 	 0.3
171.137955822 	 1.63
192.1872517383 	 0.72
198.1362788003 	 0.24
199.1441038324 	 7.51
213.163776642 	 0.86
214.1675789287 	 0.22
227.1515945135 	 100
241.1699246524 	 28.61
242.1750696098 	 4.99
269.1747352588 	 38.61
271.1804893387 	 0.62
459.1914479555 	 0
END IONS

BEGIN IONS
PEPMASS=441.214
CHARGE=1
MSLEVEL=2
RT=0
SOURCE_INSTRUMENT=qTOF
FILENAME=CCMSLIB00000080315.ms
IONMODE=Positive
ORGANISM=Natural
NAME=MLS001142434-01!
PI=GNPS
DATACOLLECTOR=GNPS
SMILES=C[C@@H](C(=NCC1CCCO1)O)N1C(=O)[C@]2(C)c3c(CCN2C1=O)c1cc(ccc1[nH]3)OC
INCHI=InChI=1S/C23H28N4O5/c1-13(20(28)24-12-15-5-4-10-32-15)27-21(29)23(2)19-16(8-9-26(23)22(27)30)17-11-14(31-3)6-7-18(17)25-19/h6-7,11,13,15,25H,4-5,8-10,12H2,1-3H3,(H,24,28)/t13-,15?,23-/m0/s1
FORMULA=C23H28N4O5
PUBMED=N/A
SUBMITUSER=BIOADREM
LIBRARYQUALITY=0
SPECTRUMID=CCMSLIB00000080315
SCANS=2503
ID=CCMSLIB00000080315
167.1304651409 	 1.27
169.0733441925 	 1.32
169.1461152051 	 1.06
174.1488548593 	 13.23
184.1444381834 	 1.51
185.1410298272 	 1.14
186.1488548593 	 1
198.1614309183 	 3.61
214.1801549877 	 2.41
216.1958050519 	 3.58
226.152322795 	 1
226.1927310467 	 1.46
228.2083811109 	 1.14
241.178477966 	 21.31
242.1863029981 	 3.45
253.203630084 	 1.13
269.1819459017 	 1.8
269.2223541534 	 2.03
441.2132460301 	 0
END IONS

BEGIN IONS
PEPMASS=331.129
CHARGE=1
MSLEVEL=2
RT=0
SOURCE_INSTRUMENT=qTOF
FILENAME=CCMSLIB00000080316.ms
IONMODE=Positive
ORGANISM=Natural
NAME=MLS001140558-01!1-[2-(2-oxochromen-7-yl)oxyacetyl]piperidine-4-carboxamide
PI=GNPS
DATACOLLECTOR=GNPS
SMILES=c1cc(cc2c1ccc(=O)o2)OCC(=O)N1CCC(CC1)C(=N)O
INCHI=InChI=1S/C17H18N2O5/c18-17(22)12-5-7-19(8-6-12)15(20)10-23-13-3-1-11-2-4-16(21)24-14(11)9-13/h1-4,9,12H,5-8,10H2,(H2,18,22)
FORMULA=C17H18N2O5
PUBMED=N/A
SUBMITUSER=BIOADREM
LIBRARYQUALITY=0
SPECTRUMID=CCMSLIB00000080316
SCANS=2504
ID=CCMSLIB00000080316
95.021308622 	 7.43
96.0807752941 	 22.16
97.0886003262 	 10.42
112.0756899162 	 8.5
117.0334907505 	 13.65
119.0491408147 	 11.98
124.0756899162 	 8.74
125.0835149483 	 15.45
127.0865889535 	 34.97
141.1022390177 	 13.05
145.0284053726 	 23.35
147.0440554368 	 21.8
152.0706045383 	 5.27
175.0389700589 	 100
176.0427723456 	 12.22
177.0505973777 	 6.23
216.0655191604 	 5.87
232.0604337825 	 10.3
258.112469353 	 41.44
286.1073839751 	 65.75
287.1152090072 	 12.81
331.1288476987 	 0
END IONS

BEGIN IONS
PEPMASS=447.1914
CHARGE=1
MSLEVEL=2
RT=0
SOURCE_INSTRUMENT=qTOF
FILENAME=CCMSLIB00000080317.ms
IONMODE=Positive
ORGANISM=Natural
NAME=MLS001160371-01!
PI=GNPS
DATACOLLECTOR=GNPS
SMILES=C1CCc2c(C1)c1ccc(cc1oc2=O)OCC(=O)N1C[C@H]2C[C@@H](C1)c1cccc(=O)n1C2
INCHI=InChI=1S/C26H26N2O5/c29-24-7-3-6-22-17-10-16(13-28(22)24)12-27(14-17)25(30)15-32-18-8-9-20-19-4-1-2-5-21(19)26(31)33-23(20)11-18/h3,6-9,11,16-17H,1-2,4-5,10,12-15H2/t16-,17+/m1/s1
FORMULA=C26H26N2O5
PUBMED=N/A
SUBMITUSER=BIOADREM
LIBRARYQUALITY=0
SPECTRUMID=CCMSLIB00000080317
SCANS=2505
ID=CCMSLIB00000080317
104.0494751657 	 0.72
117.0573001978 	 0.97
123.0678648841 	 1.33
128.0620512247 	 0.71
132.0443897878 	 0.98
133.0522148199 	 1.14
134.060039852 	 6.3
135.0440554368 	 0.69
143.085526321 	 1.85
144.0569658468 	 0.6
145.0647908789 	 0.54
145.0886003262 	 0.63
145.1011763852 	 0.54
146.060039852 	 26.88
147.0678648841 	 22.48
148.0756899162 	 9.98
153.0698762568 	 0.79
158.060039852 	 0.91
159.0678648841 	 2.96
160.0756899162 	 14.79
161.0808348736 	 1.81
162.0913399804 	 1.45
163.0964849378 	 0.96
171.0804409431 	 3.33
172.0756899162 	 4.09
173.0835149483 	 20.51
174.0886599057 	 2.58
175.0502034472 	 1.11
187.0753555652 	 0.91
189.1022390177 	 100
190.1073839751 	 22.72
199.0753555652 	 1.49
201.0910056294 	 7.83
203.1178890819 	 3.15
215.0702701873 	 1.03
229.0859202515 	 14.97
231.112803704 	 3.01
232.1179486614 	 3.64
257.0808348736 	 2.06
419.1965333334 	 0.97
447.1914479555 	 144.22
END IONS

BEGIN IONS
PEPMASS=309.1961
CHARGE=1
MSLEVEL=2
RT=0
SOURCE_INSTRUMENT=qTOF
FILENAME=CCMSLIB00000080318.ms
IONMODE=Positive
ORGANISM=Natural
NAME=MLS000728650-01!
PI=GNPS
DATACOLLECTOR=GNPS
SMILES=C/C=C/1\CN2[C@H]3CC1C1[C@@H]2C[C@]2(c4ccccc4N(C)[C@@H]32)[C@@H]1O
INCHI=InChI=1S/C20H24N2O/c1-3-11-10-22-15-8-12(11)17-16(22)9-20(19(17)23)13-6-4-5-7-14(13)21(2)18(15)20/h3-7,12,15-19,23H,8-10H2,1-2H3/b11-3+/t12?,15-,16-,17?,18-,19+,20+/m0/s1
FORMULA=C20H24N2O
PUBMED=N/A
SUBMITUSER=BIOADREM
LIBRARYQUALITY=0
SPECTRUMID=CCMSLIB00000080318
SCANS=2506
ID=CCMSLIB00000080318
108.0807752941 	 16.87
109.0647908789 	 5.22
110.0964253583 	 14.06
115.0542261926 	 4.07
118.0651252299 	 3.6
120.0807752941 	 4.7
130.0651252299 	 8.5
131.072950262 	 6.85
132.0807752941 	 6.67
134.0964253583 	 8.54
136.0756899162 	 15.73
138.0913399804 	 17.56
143.072950262 	 10.78
144.0807752941 	 94.21
146.0964253583 	 19.9
156.0807752941 	 4.34
158.0964253583 	 100
164.1069900446 	 3.2
167.072950262 	 6.91
168.0807752941 	 8.67
169.0886003262 	 6.64
170.0964253583 	 15.78
180.0807752941 	 3.63
181.0886003262 	 5.23
182.0964253583 	 14.11
184.1120754225 	 8.24
186.0913399804 	 4.2
194.0964253583 	 11.28
196.1120754225 	 5.09
208.1120754225 	 4.92
212.1069900446 	 8.23
219.1042503904 	 5.99
220.1120754225 	 7.22
222.1277254867 	 8.16
234.1277254867 	 4.5
248.1433755509 	 6.05
263.1542745882 	 6.67
266.1539402372 	 3.41
291.1855747166 	 7.47
309.1961394029 	 212.92
END IONS

BEGIN IONS
PEPMASS=255.102
CHARGE=1
MSLEVEL=2
RT=0
SOURCE_INSTRUMENT=qTOF
FILENAME=CCMSLIB00000080319.ms
IONMODE=Positive
ORGANISM=Natural
NAME=MLS001049022-01!(E)-1-(2-hydroxy-4-methoxyphenyl)-3-phenylprop-2-en-1-one
PI=GNPS
DATACOLLECTOR=GNPS
SMILES=COc1ccc(C(=O)/C=C/c2ccccc2)c(c1)O
INCHI=InChI=1S/C16H14O3/c1-19-13-8-9-14(16(18)11-13)15(17)10-7-12-5-3-2-4-6-12/h2-11,18H,1H3/b10-7+
FORMULA=C16H14O3
PUBMED=N/A
SUBMITUSER=BIOADREM
LIBRARYQUALITY=0
SPECTRUMID=CCMSLIB00000080319
SCANS=2507
ID=CCMSLIB00000080319
95.0491408147 	 12.95
103.0542261926 	 46.69
107.0491408147 	 1.61
108.0205803405 	 10.61
119.0127553084 	 1.38
121.0647908789 	 1.52
123.0440554368 	 7.17
131.0491408147 	 19.56
136.0154949626 	 2.28
151.0389700589 	 100
165.0698762568 	 15.61
166.0777012889 	 12.97
177.0546201231 	 2.73
178.0777012889 	 3.9
193.0647908789 	 0.93
194.072615911 	 12.35
209.0960910073 	 7.56
212.0831805973 	 0.88
237.0910056294 	 2.53
240.0780952194 	 1.87
255.1015703157 	 0
END IONS

BEGIN IONS
PEPMASS=414.1566
CHARGE=1
MSLEVEL=2
RT=0
SOURCE_INSTRUMENT=qTOF
FILENAME=CCMSLIB00000080320.ms
IONMODE=Positive
ORGANISM=Natural
NAME=MLS001060855-01!
PI=GNPS
DATACOLLECTOR=GNPS
SMILES=CN1CCc2cc3c(c(c2[C@@H]1[C@@H]1c2ccc(c(c2C(=O)O1)OC)OC)OC)OCO3
INCHI=InChI=1S/C22H23NO7/c1-23-8-7-11-9-14-20(29-10-28-14)21(27-4)15(11)17(23)18-12-5-6-13(25-2)19(26-3)16(12)22(24)30-18/h5-6,9,17-18H,7-8,10H2,1-4H3/t17-,18+/m1/s1
FORMULA=C22H23NO7
PUBMED=N/A
SUBMITUSER=BIOADREM
LIBRARYQUALITY=0
SPECTRUMID=CCMSLIB00000080320
SCANS=2508
ID=CCMSLIB00000080320
179.0702701873 	 6.7
204.0655191604 	 2.92
205.0733441925 	 35.34
206.0811692246 	 18.36
220.0968192888 	 100
234.0675305331 	 2.23
237.0546201231 	 2.02
249.0546201231 	 3.01
250.0624451552 	 2.1
251.0702701873 	 2.93
252.0780952194 	 3.06
262.0624451552 	 2.82
263.0702701873 	 5.23
264.0780952194 	 3.64
265.0495347452 	 6.16
265.0859202515 	 3.54
267.0651848094 	 2.17
277.0495347452 	 3.24
277.0859202515 	 2.3
278.0573597773 	 2.01
279.0651848094 	 4.26
280.0730098415 	 13.41
281.0808348736 	 5.04
291.0651848094 	 3.34
292.0730098415 	 3.73
293.0808348736 	 2.69
294.0886599057 	 2.13
295.0600994315 	 5.58
295.0964849378 	 8.83
305.0808348736 	 2.41
306.0522743994 	 4.73
307.0600994315 	 9.65
308.0679244636 	 4.46
309.0757494957 	 4.39
310.0835745278 	 4.69
319.0600994315 	 2.62
320.0679244636 	 2.34
321.0757494957 	 2
322.0835745278 	 5.32
323.0550140536 	 2.97
323.0913995599 	 13.24
324.099224592 	 4.82
325.1070496241 	 6.22
334.0835745278 	 2.94
335.0550140536 	 1.96
335.0913995599 	 2.11
337.0706641178 	 2.9
338.0784891499 	 4.47
350.0784891499 	 5.13
352.0941392141 	 2.73
353.1019642462 	 28.26
365.1019642462 	 5.25
366.0972132193 	 4.44
381.1206883156 	 2.38
414.1547280982 	 3
END IONS

BEGIN IONS
PEPMASS=409.201
CHARGE=1
MSLEVEL=2
RT=0
SOURCE_INSTRUMENT=qTOF
FILENAME=CCMSLIB00000080321.ms
IONMODE=Positive
ORGANISM=Natural
NAME=MLS000876964-01!5,7-dihydroxy-2-(4-hydroxyphenyl)-6,8-bis(3-methylbut-2-enyl)-2,3-dihydrochromen-4-one
PI=GNPS
DATACOLLECTOR=GNPS
SMILES=CC(=CCc1c(c(CC=C(C)C)c2c(C(=O)CC(c3ccc(cc3)O)O2)c1O)O)C
INCHI=InChI=1S/C25H28O5/c1-14(2)5-11-18-23(28)19(12-6-15(3)4)25-22(24(18)29)20(27)13-21(30-25)16-7-9-17(26)10-8-16/h5-10,21,26,28-29H,11-13H2,1-4H3
FORMULA=C25H28O5
PUBMED=N/A
SUBMITUSER=BIOADREM
LIBRARYQUALITY=0
SPECTRUMID=CCMSLIB00000080321
SCANS=2509
ID=CCMSLIB00000080321
99.0076699305 	 0.27
107.0491408147 	 1.28
109.0284053726 	 9.68
119.085526321 	 0.29
123.0440554368 	 0.25
131.0127553084 	 0.36
135.0076699305 	 0.28
159.0076699305 	 0.56
163.0389700589 	 0.25
165.0182346168 	 1.07
177.0182346168 	 100
191.033884681 	 2.2
195.0287993031 	 14.75
203.033884681 	 1.35
233.0808348736 	 16.19
251.0913995599 	 0.65
409.2009500093 	 0
END IONS

BEGIN IONS
PEPMASS=441.123
CHARGE=1
MSLEVEL=2
RT=0
SOURCE_INSTRUMENT=qTOF
FILENAME=CCMSLIB00000080322.ms
IONMODE=Positive
ORGANISM=Natural
NAME=MLS001159916-01!
PI=GNPS
DATACOLLECTOR=GNPS
SMILES=Cc1cc(=O)oc2cc(c(cc12)Cl)OCC(=O)N1C[C@H]2C[C@@H](C1)c1cccc(=O)n1C2
INCHI=InChI=1S/C23H21ClN2O5/c1-13-5-23(29)31-19-8-20(17(24)7-16(13)19)30-12-22(28)25-9-14-6-15(11-25)18-3-2-4-21(27)26(18)10-14/h2-5,7-8,14-15H,6,9-12H2,1H3/t14-,15+/m1/s1
FORMULA=C23H21ClN2O5
PUBMED=N/A
SUBMITUSER=BIOADREM
LIBRARYQUALITY=0
SPECTRUMID=CCMSLIB00000080322
SCANS=2510
ID=CCMSLIB00000080322
109.0522148199 	 2.72
117.0573001978 	 0.92
118.0651252299 	 0.53
122.060039852 	 1.99
130.0651252299 	 0.61
132.0443897878 	 1.84
132.0807752941 	 1.37
133.0522148199 	 2.07
134.060039852 	 6.05
135.0678648841 	 0.89
137.0152538705 	 0.73
139.0309039347 	 0.79
144.0807752941 	 0.55
145.0886003262 	 0.5
146.060039852 	 33.18
147.0678648841 	 17.65
149.0709388893 	 2.02
158.060039852 	 0.68
159.0678648841 	 2.86
160.0756899162 	 9.47
162.0913399804 	 2.18
167.0258185568 	 0.87
172.0756899162 	 3.48
173.0835149483 	 15.6
175.0502034472 	 0.83
175.0865889535 	 1.29
188.0706045383 	 1.05
189.1022390177 	 100
191.0815035756 	 0.99
193.0050831147 	 0.87
195.0207331789 	 1.36
203.0815035756 	 0.65
203.1178890819 	 0.99
217.0971536398 	 1.73
223.015647801 	 5.47
231.112803704 	 3.63
232.1206287361 	 4.27
277.0374458756 	 0.44
441.121175505 	 44.77
END IONS

BEGIN IONS
PEPMASS=420.159
CHARGE=1
MSLEVEL=2
RT=0
SOURCE_INSTRUMENT=qTOF
FILENAME=CCMSLIB00000080323.ms
IONMODE=Positive
ORGANISM=Natural
NAME=MLS001075357-01!2-[2-[(1S)-6,7-dimethoxy-1-methyl-3,4-dihydro-1H-isoquinolin-2-yl]-2-oxoethyl]sulfanyl-5-ethyl-4-hydroxy-1H-pyrimidin-6-one
PI=GNPS
DATACOLLECTOR=GNPS
SMILES=CCc1c(nc(nc1O)SCC(=O)N1CCc2cc(c(cc2[C@@H]1C)OC)OC)O
INCHI=InChI=1S/C20H25N3O5S/c1-5-13-18(25)21-20(22-19(13)26)29-10-17(24)23-7-6-12-8-15(27-3)16(28-4)9-14(12)11(23)2/h8-9,11H,5-7,10H2,1-4H3,(H2,21,22,25,26)/t11-/m0/s1
FORMULA=C20H25N3O5S
PUBMED=N/A
SUBMITUSER=BIOADREM
LIBRARYQUALITY=0
SPECTRUMID=CCMSLIB00000080323
SCANS=2511
ID=CCMSLIB00000080323
97.0284053726 	 53.34
98.0322076593 	 2.34
105.0698762568 	 1.61
115.0542261926 	 1.83
116.0654220431 	 0.88
117.0698762568 	 3.06
121.0647908789 	 3.2
122.0685931656 	 0.62
126.0549544741 	 27.44
129.0698762568 	 3.21
130.0736785435 	 0.89
131.0491408147 	 1.35
131.085526321 	 1.24
133.0647908789 	 2.02
134.072615911 	 0.96
135.0804409431 	 0.86
137.059705501 	 1.75
144.0569658468 	 1.91
145.0647908789 	 7.73
146.072615911 	 1.94
147.0764181977 	 2.37
148.0842432298 	 1.04
149.059705501 	 2.67
150.0675305331 	 2.75
151.0753555652 	 3.04
158.072615911 	 1.66
159.0804409431 	 5.25
160.0882659752 	 51.57
161.059705501 	 5.8
161.0960910073 	 5.47
162.0947107988 	 1.09
163.0713328198 	 1.02
164.0831805973 	 1.56
165.0910056294 	 19.17
166.0988306615 	 2.22
175.0753555652 	 0.78
176.0831805973 	 33.52
177.086982884 	 4.07
178.0896254209 	 0.62
179.1066556936 	 8.67
185.0379242014 	 49.9
191.1066556936 	 100
192.1104579803 	 8.59
193.1131005172 	 2.66
194.1135319855 	 1.12
208.1332047951 	 28.16
209.1370070818 	 5.9
210.1396496187 	 1.4
213.0328388235 	 59.51
420.1587676186 	 0
END IONS

BEGIN IONS
PEPMASS=177.0551
CHARGE=1
MSLEVEL=2
RT=0
SOURCE_INSTRUMENT=qTOF
FILENAME=CCMSLIB00000080324.ms
IONMODE=Positive
ORGANISM=Natural
NAME=MLS000574914-01!
PI=GNPS
DATACOLLECTOR=GNPS
SMILES=COc1ccc2ccc(=O)oc2c1
INCHI=InChI=1S/C10H8O3/c1-12-8-4-2-7-3-5-10(11)13-9(7)6-8/h2-6H,1H3
FORMULA=C10H8O3
PUBMED=N/A
SUBMITUSER=BIOADREM
LIBRARYQUALITY=0
SPECTRUMID=CCMSLIB00000080324
SCANS=2512
ID=CCMSLIB00000080324
103.0542261926 	 6.32
106.0413157826 	 20.32
107.0491408147 	 2.12
113.0021906221 	 2.78
117.0334907505 	 3.87
118.0413157826 	 11.66
121.0647908789 	 100
123.0440554368 	 2.18
131.0491408147 	 2.34
133.0647908789 	 5.94
134.0362304047 	 61.6
144.0205803405 	 2.45
162.0311450268 	 19.23
177.0546201231 	 12.64
END IONS

BEGIN IONS
PEPMASS=389.16
CHARGE=1
MSLEVEL=2
RT=0
SOURCE_INSTRUMENT=qTOF
FILENAME=CCMSLIB00000080325.ms
IONMODE=Positive
ORGANISM=Natural
NAME=MLS000697750-01!(7S,8R)-7-(1,3-benzodioxol-5-yl)-9-hydroxy-3,6-dimethoxy-8-methyl-1-prop-2-enyl-5-oxabicyclo[4.2.1]non-2-en-4-one
PI=GNPS
DATACOLLECTOR=GNPS
SMILES=C=CCC12C=C(C(=O)OC([C@@H]([C@H]1C)c1ccc3c(c1)OCO3)(C2O)OC)OC
INCHI=InChI=1S/C21H24O7/c1-5-8-20-10-16(24-3)18(22)28-21(25-4,19(20)23)17(12(20)2)13-6-7-14-15(9-13)27-11-26-14/h5-7,9-10,12,17,19,23H,1,8,11H2,2-4H3/t12-,17+,19?,20?,21?/m1/s1
FORMULA=C21H24O7
PUBMED=N/A
SUBMITUSER=BIOADREM
LIBRARYQUALITY=0
SPECTRUMID=CCMSLIB00000080325
SCANS=2513
ID=CCMSLIB00000080325
115.0542261926 	 18.83
117.0698762568 	 14.19
128.0620512247 	 16.08
129.0698762568 	 21.67
135.0440554368 	 100
145.0647908789 	 34.53
149.0233199947 	 27.44
149.059705501 	 16.65
150.0311450268 	 19.58
157.0647908789 	 14.57
167.085526321 	 19.77
173.059705501 	 14.47
178.0777012889 	 25.64
179.085526321 	 24.03
181.0647908789 	 13.72
193.1011763852 	 15.7
199.0753555652 	 37.46
200.0831805973 	 16.27
205.1011763852 	 23.56
207.0804409431 	 25.35
211.0753555652 	 21.38
215.0702701873 	 17.41
221.0960910073 	 43.33
223.0753555652 	 14.47
225.0546201231 	 13.91
227.0702701873 	 46.83
228.0780952194 	 13.72
229.0859202515 	 15.99
233.0960910073 	 19.49
236.0831805973 	 16.37
237.0910056294 	 18.26
239.0702701873 	 24.98
243.1015703157 	 15.99
249.0910056294 	 22.33
253.0859202515 	 17.6
253.1223057578 	 17.03
254.0937452836 	 14.76
255.0651848094 	 27.06
257.0808348736 	 26.11
271.0964849378 	 15.89
279.1015703157 	 17.12
283.1328704441 	 20.06
288.099224592 	 15.61
311.1277850662 	 14.29
389.1594791251 	 0
END IONS

BEGIN IONS
PEPMASS=425.208
CHARGE=1
MSLEVEL=2
RT=0
SOURCE_INSTRUMENT=qTOF
FILENAME=CCMSLIB00000080326.ms
IONMODE=Positive
ORGANISM=Natural
NAME=MLS001159037-01!N-[3-(2-oxopyrrolidin-1-yl)propyl]-2-(2,3,4,9-tetramethyl-7-oxofuro[2,3-f]chromen-8-yl)acetamide
PI=GNPS
DATACOLLECTOR=GNPS
SMILES=Cc1cc2c(c(C)c(CC(=NCCCN3CCCC3=O)O)c(=O)o2)c2c1c(C)c(C)o2
INCHI=InChI=1S/C24H28N2O5/c1-13-11-18-22(23-21(13)14(2)16(4)30-23)15(3)17(24(29)31-18)12-19(27)25-8-6-10-26-9-5-7-20(26)28/h11H,5-10,12H2,1-4H3,(H,25,27)
FORMULA=C24H28N2O5
PUBMED=N/A
SUBMITUSER=BIOADREM
LIBRARYQUALITY=0
SPECTRUMID=CCMSLIB00000080326
SCANS=2514
ID=CCMSLIB00000080326
98.060039852 	 0.55
126.0913399804 	 2.75
143.085526321 	 0.61
143.1178890819 	 0.26
169.0647908789 	 0.29
171.1168264494 	 0.36
184.0882659752 	 0.55
197.0556827556 	 0.28
199.1117410715 	 0.77
211.1117410715 	 0.44
212.0831805973 	 2.08
213.086982884 	 0.36
227.1066556936 	 30.76
228.1104579803 	 4.71
255.1015703157 	 100
256.1053726024 	 19.46
283.0964849378 	 3.13
425.2070980197 	 0
END IONS

BEGIN IONS
PEPMASS=358.1775
CHARGE=1
MSLEVEL=2
RT=0
SOURCE_INSTRUMENT=qTOF
FILENAME=CCMSLIB00000080327.ms
IONMODE=Positive
ORGANISM=Natural
NAME=MLS000766289-01!
PI=GNPS
DATACOLLECTOR=GNPS
SMILES=CN1C2CC(C1C1Cc3cccc(c3C(CO)N1C2C#N)OC)C(=O)O
INCHI=InChI=1S/C19H23N3O4/c1-21-12-7-11(19(24)25)18(21)13-6-10-4-3-5-16(26-2)17(10)15(9-23)22(13)14(12)8-20/h3-5,11-15,18,23H,6-7,9H2,1-2H3,(H,24,25)
FORMULA=C19H23N3O4
PUBMED=N/A
SUBMITUSER=BIOADREM
LIBRARYQUALITY=0
SPECTRUMID=CCMSLIB00000080327
SCANS=2515
ID=CCMSLIB00000080327
115.0542261926 	 0.79
140.0706045383 	 8.45
146.0712732403 	 0.69
147.0804409431 	 1.31
156.0807752941 	 0.63
157.0886003262 	 0.64
161.0947483366 	 0.61
172.0756899162 	 3.81
173.0835149483 	 4.16
174.0913399804 	 4.42
182.060039852 	 0.85
183.0678648841 	 5.66
184.0730098415 	 1.91
185.0835149483 	 1.8
186.0913399804 	 2.54
187.0964849378 	 1.08
188.0706045383 	 2.04
188.1069900446 	 8.12
197.0835149483 	 13.01
198.0913399804 	 29.88
199.0964849378 	 7.51
200.1069900446 	 6.21
201.1022390177 	 3.12
210.0913399804 	 1.04
211.0865889535 	 0.76
212.1043099699 	 1.35
213.1022390177 	 21.26
214.1073839751 	 5.22
215.1178890819 	 6.2
216.1019046667 	 4.27
225.1022390177 	 0.72
226.1100640498 	 1.37
227.1178890819 	 5.54
228.1019046667 	 10.29
229.1308590714 	 10.93
241.1335391461 	 4.2
244.1206287361 	 2.52
259.1441038324 	 100
331.165233205 	 19.77
358.1761322423 	 0.14
END IONS

BEGIN IONS
PEPMASS=255.0652
CHARGE=1
MSLEVEL=2
RT=0
SOURCE_INSTRUMENT=qTOF
FILENAME=CCMSLIB00000080328.ms
IONMODE=Positive
ORGANISM=Natural
NAME=MLS000697728-01!
PI=GNPS
DATACOLLECTOR=GNPS
SMILES=c1ccc(cc1)c1cc(=O)c2c(cc(cc2o1)O)O
INCHI=InChI=1S/C15H10O4/c16-10-6-11(17)15-12(18)8-13(19-14(15)7-10)9-4-2-1-3-5-9/h1-8,16-17H
FORMULA=C15H10O4
PUBMED=N/A
SUBMITUSER=BIOADREM
LIBRARYQUALITY=0
SPECTRUMID=CCMSLIB00000080328
SCANS=2516
ID=CCMSLIB00000080328
97.0284053726 	 1.6
102.0464011605 	 1.91
103.0542261926 	 25.42
105.0334907505 	 9.19
111.0076699305 	 5.23
115.0542261926 	 3.28
125.0233199947 	 3.42
129.0334907505 	 22.87
139.0542261926 	 7.31
147.0440554368 	 15.51
152.0620512247 	 18.31
153.0182346168 	 100
163.0542261926 	 2.25
165.0698762568 	 1.88
171.0440554368 	 3.42
181.0647908789 	 8.51
199.0753555652 	 1.7
209.059705501 	 5.37
227.0702701873 	 1.56
237.0546201231 	 3.07
255.0651848094 	 226.64
END IONS

BEGIN IONS
PEPMASS=375.144
CHARGE=1
MSLEVEL=2
RT=0
SOURCE_INSTRUMENT=qTOF
FILENAME=CCMSLIB00000080329.ms
IONMODE=Positive
ORGANISM=Natural
NAME=MLS000863658-01!3-hydroxy-3,4-bis[(4-hydroxy-3-methoxyphenyl)methyl]oxolan-2-one
PI=GNPS
DATACOLLECTOR=GNPS
SMILES=COc1cc(ccc1O)CC1COC(=O)C1(Cc1ccc(c(c1)OC)O)O
INCHI=InChI=1S/C20H22O7/c1-25-17-8-12(3-5-15(17)21)7-14-11-27-19(23)20(14,24)10-13-4-6-16(22)18(9-13)26-2/h3-6,8-9,14,21-22,24H,7,10-11H2,1-2H3
FORMULA=C20H22O7
PUBMED=N/A
SUBMITUSER=BIOADREM
LIBRARYQUALITY=0
SPECTRUMID=CCMSLIB00000080329
SCANS=2517
ID=CCMSLIB00000080329
95.0491408147 	 3.51
122.0362304047 	 15.88
125.059705501 	 3.59
129.0698762568 	 12.21
134.0362304047 	 4.27
137.059705501 	 100
148.0518804689 	 6.34
163.0753555652 	 6.64
174.0675305331 	 13.66
208.0882659752 	 6.41
218.072615911 	 5.88
229.0859202515 	 5.42
264.0780952194 	 5.95
279.1015703157 	 8.17
296.1043099699 	 4.12
375.1438290609 	 0
END IONS

BEGIN IONS
PEPMASS=374.1598
CHARGE=1
MSLEVEL=2
RT=0
SOURCE_INSTRUMENT=qTOF
FILENAME=CCMSLIB00000080330.ms
IONMODE=Positive
ORGANISM=Natural
NAME=MLS001141300-01!1-[2-(3,4,7-trimethyl-2-oxochromen-5-yl)oxyacetyl]piperidine-4-carboxylic acid
PI=GNPS
DATACOLLECTOR=GNPS
SMILES=Cc1cc(c2c(C)c(C)c(=O)oc2c1)OCC(=O)N1CCC(CC1)C(=O)O
INCHI=InChI=1S/C20H23NO6/c1-11-8-15(18-12(2)13(3)20(25)27-16(18)9-11)26-10-17(22)21-6-4-14(5-7-21)19(23)24/h8-9,14H,4-7,10H2,1-3H3,(H,23,24)
FORMULA=C20H23NO6
PUBMED=N/A
SUBMITUSER=BIOADREM
LIBRARYQUALITY=0
SPECTRUMID=CCMSLIB00000080330
SCANS=2518
ID=CCMSLIB00000080330
96.0807752941 	 1.83
99.0440554368 	 6.46
105.0698762568 	 5.45
110.060039852 	 3.27
112.0756899162 	 9.87
114.0549544741 	 9.93
115.0542261926 	 1.69
119.085526321 	 2.37
121.0647908789 	 1.67
124.0756899162 	 5.52
126.0913399804 	 16.07
128.0706045383 	 74.52
131.085526321 	 2.49
133.0647908789 	 3.81
133.1011763852 	 3.88
142.0862546025 	 100
145.1011763852 	 2.02
146.072615911 	 4.23
158.072615911 	 2.25
159.0804409431 	 21.32
161.059705501 	 51.95
170.0811692246 	 16.34
173.0960910073 	 1.9
174.0675305331 	 5.61
175.0753555652 	 23.06
176.0831805973 	 86.85
187.0753555652 	 2.47
189.0910056294 	 59.3
199.0753555652 	 2.53
202.0624451552 	 3.07
203.0702701873 	 2.84
204.0780952194 	 22.43
217.0859202515 	 79.75
245.0808348736 	 30.04
328.1543341677 	 3.54
356.1492487898 	 2.04
374.1598134761 	 13.44
END IONS

BEGIN IONS
PEPMASS=520.256
CHARGE=1
MSLEVEL=2
RT=0
SOURCE_INSTRUMENT=qTOF
FILENAME=CCMSLIB00000080331.ms
IONMODE=Positive
ORGANISM=Natural
NAME=MLS001158377-01!(2S)-3-(1H-indol-3-yl)-2-[[(2S)-3-methyl-2-[[(2S)-3-oxo-2-propan-2-yl-2,4-dihydroquinoxaline-1-carbonyl]amino]butanoyl]amino]propanoic acid
PI=GNPS
DATACOLLECTOR=GNPS
SMILES=CC(C)[C@@H](C(=N[C@@H](Cc1c[nH]c2ccccc12)C(=O)O)O)N=C(N1c2ccccc2N=C([C@@H]1C(C)C)O)O
INCHI=InChI=1S/C28H33N5O5/c1-15(2)23(25(34)31-21(27(36)37)13-17-14-29-19-10-6-5-9-18(17)19)32-28(38)33-22-12-8-7-11-20(22)30-26(35)24(33)16(3)4/h5-12,14-16,21,23-24,29H,13H2,1-4H3,(H,30,35)(H,31,34)(H,32,38)(H,36,37)/t21-,23-,24-/m0/s1
FORMULA=C28H33N5O5
PUBMED=N/A
SUBMITUSER=BIOADREM
LIBRARYQUALITY=0
SPECTRUMID=CCMSLIB00000080331
SCANS=2519
ID=CCMSLIB00000080331
106.0287397236 	 0.85
107.060374203 	 4.55
108.0681992351 	 2.99
117.0447241388 	 0.7
118.0651252299 	 0.74
119.060374203 	 16.32
120.0655191604 	 1.34
130.0651252299 	 4.46
131.0702701873 	 0.86
132.0807752941 	 0.96
133.0396387609 	 10.35
135.0552888251 	 20.66
144.0807752941 	 1.44
146.060039852 	 2.73
146.0964253583 	 1.89
147.0552888251 	 77.25
148.0604337825 	 10.24
158.0838492993 	 2.43
159.0916743314 	 4.68
161.034553383 	 18.48
161.0709388893 	 3.77
163.1229744598 	 73.15
170.060039852 	 1.31
173.1073243956 	 1.51
174.0787639214 	 0.66
175.0502034472 	 3.26
175.0865889535 	 6.07
179.0451180693 	 13.39
185.0709388893 	 1.67
188.0706045383 	 12.03
189.1022390177 	 30.9
190.1073839751 	 3.54
191.1178890819 	 4.46
217.0971536398 	 78.88
218.1022985972 	 10.92
260.1757383118 	 24.73
261.1795405985 	 3.74
285.1431550922 	 2.35
288.1706529339 	 100
289.1744552206 	 15.4
316.165567556 	 1.99
317.1693698427 	 0.99
520.2554451958 	 0
END IONS

BEGIN IONS
PEPMASS=444.159
CHARGE=1
MSLEVEL=2
RT=0
SOURCE_INSTRUMENT=qTOF
FILENAME=CCMSLIB00000080332.ms
IONMODE=Positive
ORGANISM=Natural
NAME=MLS001076857-01!
PI=GNPS
DATACOLLECTOR=GNPS
SMILES=COc1cc(cc(c1OC)OC)C(=NC(=S)N1C[C@H]2C[C@H](C1)c1cccc(=O)n1C2)O
INCHI=InChI=1S/C22H25N3O5S/c1-28-17-8-14(9-18(29-2)20(17)30-3)21(27)23-22(31)24-10-13-7-15(12-24)16-5-4-6-19(26)25(16)11-13/h4-6,8-9,13,15H,7,10-12H2,1-3H3,(H,23,27,31)/t13-,15-/m1/s1
FORMULA=C22H25N3O5S
PUBMED=N/A
SUBMITUSER=BIOADREM
LIBRARYQUALITY=0
SPECTRUMID=CCMSLIB00000080332
SCANS=2520
ID=CCMSLIB00000080332
96.0569658468 	 0.6
103.0542261926 	 0.33
107.0127553084 	 0.54
108.0569658468 	 0.67
109.0284053726 	 0.65
109.0647908789 	 0.94
111.0804409431 	 0.62
113.0233199947 	 0.4
121.0284053726 	 0.72
122.0362304047 	 2.01
124.0518804689 	 1.81
128.046795091 	 0.7
137.0233199947 	 2.12
139.0753555652 	 6.63
140.0831805973 	 0.39
141.0182346168 	 0.56
143.0702701873 	 0.5
148.0756899162 	 8.57
151.0389700589 	 1.67
152.046795091 	 9.29
156.0417097131 	 1.2
158.060039852 	 0.7
160.0756899162 	 2.85
161.0808348736 	 0.51
167.0702701873 	 4.27
168.0780952194 	 0.63
174.0913399804 	 1.81
185.0808348736 	 0.66
191.1178890819 	 31.69
195.0685556278 	 100
234.0794546651 	 0.77
444.1587676186 	 0
END IONS

BEGIN IONS
PEPMASS=423.24
CHARGE=1
MSLEVEL=2
RT=0
SOURCE_INSTRUMENT=qTOF
FILENAME=CCMSLIB00000080333.ms
IONMODE=Positive
ORGANISM=Natural
NAME=MLS001141191-01!
PI=GNPS
DATACOLLECTOR=GNPS
SMILES=CC(C)[C@@H](C(=Nc1cccc(C)c1)O)N=C(N1C[C@H]2C[C@@H](C1)c1cccc(=O)n1C2)O
INCHI=InChI=1S/C24H30N4O3/c1-15(2)22(23(30)25-19-7-4-6-16(3)10-19)26-24(31)27-12-17-11-18(14-27)20-8-5-9-21(29)28(20)13-17/h4-10,15,17-18,22H,11-14H2,1-3H3,(H,25,30)(H,26,31)/t17-,18+,22+/m1/s1
FORMULA=C24H30N4O3
PUBMED=N/A
SUBMITUSER=BIOADREM
LIBRARYQUALITY=0
SPECTRUMID=CCMSLIB00000080333
SCANS=2521
ID=CCMSLIB00000080333
108.0443897878 	 0.35
118.0651252299 	 0.22
130.0651252299 	 0.33
132.0443897878 	 1.81
133.0522148199 	 1.02
134.060039852 	 2
142.0651252299 	 0.23
144.0807752941 	 0.22
146.060039852 	 12.37
148.0756899162 	 6.87
154.0651252299 	 0.22
156.0807752941 	 0.56
158.060039852 	 4.3
160.0756899162 	 30.46
172.0756899162 	 4.3
174.0913399804 	 14.39
188.0706045383 	 1.76
189.1022390177 	 22.3
191.1178890819 	 13.15
199.0865889535 	 0.49
217.0971536398 	 100
233.1284537682 	 0.28
270.1600882476 	 0.32
288.1706529339 	 79.29
423.2390668501 	 0
END IONS

BEGIN IONS
PEPMASS=388.1753
CHARGE=1
MSLEVEL=2
RT=0
SOURCE_INSTRUMENT=qTOF
FILENAME=CCMSLIB00000080334.ms
IONMODE=Positive
ORGANISM=Natural
NAME=MLS001141379-01!1-[2-(8-methyl-2-oxo-4-propylchromen-7-yl)oxyacetyl]piperidine-4-carboxylic acid
PI=GNPS
DATACOLLECTOR=GNPS
SMILES=CCCc1cc(=O)oc2c(C)c(ccc12)OCC(=O)N1CCC(CC1)C(=O)O
INCHI=InChI=1S/C21H25NO6/c1-3-4-15-11-19(24)28-20-13(2)17(6-5-16(15)20)27-12-18(23)22-9-7-14(8-10-22)21(25)26/h5-6,11,14H,3-4,7-10,12H2,1-2H3,(H,25,26)
FORMULA=C21H25NO6
PUBMED=N/A
SUBMITUSER=BIOADREM
LIBRARYQUALITY=0
SPECTRUMID=CCMSLIB00000080334
SCANS=2522
ID=CCMSLIB00000080334
96.0807752941 	 1.88
99.0440554368 	 10.85
105.0698762568 	 6.94
112.0756899162 	 9.51
114.0549544741 	 10.43
115.0542261926 	 2.82
117.0698762568 	 1.9
119.085526321 	 5.53
126.0913399804 	 21.04
128.0706045383 	 73.56
130.0862546025 	 10.98
131.0491408147 	 2.9
142.0862546025 	 100
145.0647908789 	 1.88
145.1011763852 	 4.12
155.085526321 	 2.2
156.0655191604 	 4.35
159.0804409431 	 1.78
161.059705501 	 4.45
161.0960910073 	 3.47
162.0675305331 	 3.92
170.0811692246 	 8.53
171.0889942567 	 8.1
173.0960910073 	 16.63
175.0753555652 	 3.69
185.0960910073 	 2.57
188.0831805973 	 3.33
189.0546201231 	 5.2
189.0910056294 	 3.43
203.1066556936 	 26.06
219.1015703157 	 8.86
231.1015703157 	 52.01
259.0964849378 	 2.84
300.1230340393 	 1.55
370.164898854 	 1.55
388.1754635403 	 14.67
END IONS

BEGIN IONS
PEPMASS=529.245
CHARGE=1
MSLEVEL=2
RT=0
SOURCE_INSTRUMENT=qTOF
FILENAME=CCMSLIB00000080335.ms
IONMODE=Positive
ORGANISM=Natural
NAME=MLS001158445-01!(2R)-2-[[(2S)-2-[[(2S)-3-oxo-2-propan-2-yl-2,4-dihydroquinoxaline-1-carbonyl]amino]-3-phenylpropanoyl]amino]-3-phenylpropanoic acid
PI=GNPS
DATACOLLECTOR=GNPS
SMILES=CC(C)[C@H]1C(=Nc2ccccc2N1C(=N[C@@H](Cc1ccccc1)C(=N[C@H](Cc1ccccc1)C(=O)O)O)O)O
INCHI=InChI=1S/C30H32N4O5/c1-19(2)26-28(36)31-22-15-9-10-16-25(22)34(26)30(39)33-23(17-20-11-5-3-6-12-20)27(35)32-24(29(37)38)18-21-13-7-4-8-14-21/h3-16,19,23-24,26H,17-18H2,1-2H3,(H,31,36)(H,32,35)(H,33,39)(H,37,38)/t23-,24+,26-/m0/s1
FORMULA=C30H32N4O5
PUBMED=N/A
SUBMITUSER=BIOADREM
LIBRARYQUALITY=0
SPECTRUMID=CCMSLIB00000080335
SCANS=2523
ID=CCMSLIB00000080335
106.0287397236 	 1.7
107.060374203 	 3.17
108.0681992351 	 4.9
119.060374203 	 29.74
120.0807752941 	 14.74
128.0494751657 	 4.9
133.0396387609 	 20.53
135.0552888251 	 31.74
144.0807752941 	 0.92
146.060039852 	 14.13
146.0964253583 	 3.38
147.0552888251 	 100
161.034553383 	 23.53
161.0709388893 	 6.28
162.0675305331 	 3.19
163.1229744598 	 71.48
173.1073243956 	 3.05
174.1151494277 	 1.15
175.0502034472 	 2.75
175.0865889535 	 14.02
188.0454524203 	 0.97
189.1022390177 	 44.52
191.1178890819 	 6.98
202.0611024845 	 2.82
217.0971536398 	 96.58
244.1080526771 	 68.81
265.1699246524 	 10.61
291.1491892103 	 1.64
293.1284537682 	 5.64
293.1648392745 	 3.46
308.1757383118 	 19.11
319.1441038324 	 3.85
336.1706529339 	 44.17
529.2445461585 	 0
END IONS

BEGIN IONS
PEPMASS=386.154
CHARGE=1
MSLEVEL=2
RT=0
SOURCE_INSTRUMENT=qTOF
FILENAME=CCMSLIB00000080336.ms
IONMODE=Positive
ORGANISM=Natural
NAME=MLS001146629-01!3,5-dimethoxy-N-(2-pyridin-3-ylpiperidine-1-carbothioyl)benzamide
PI=GNPS
DATACOLLECTOR=GNPS
SMILES=COc1cc(cc(c1)OC)C(=NC(=S)N1CCCCC1c1cccnc1)O
INCHI=InChI=1S/C20H23N3O3S/c1-25-16-10-15(11-17(12-16)26-2)19(24)22-20(27)23-9-4-3-7-18(23)14-6-5-8-21-13-14/h5-6,8,10-13,18H,3-4,7,9H2,1-2H3,(H,22,24,27)
FORMULA=C20H23N3O3S
PUBMED=N/A
SUBMITUSER=BIOADREM
LIBRARYQUALITY=0
SPECTRUMID=CCMSLIB00000080336
SCANS=2524
ID=CCMSLIB00000080336
103.0542261926 	 0.67
106.0651252299 	 1.05
107.0127553084 	 2.46
107.0491408147 	 4.19
109.0647908789 	 3.22
117.0573001978 	 9.36
118.0651252299 	 26.15
119.0702701873 	 4.56
120.0807752941 	 65.71
122.0362304047 	 25.67
124.0518804689 	 4.52
125.059705501 	 0.89
128.0620512247 	 1.43
129.0698762568 	 2.55
130.0651252299 	 12.7
131.072950262 	 14.56
132.0807752941 	 4.3
134.0964253583 	 3.71
136.0215458557 	 2.07
137.059705501 	 33.46
139.0753555652 	 10.82
143.0702701873 	 0.71
144.0807752941 	 7.72
146.0964253583 	 65.6
148.0994993635 	 0.6
154.0651252299 	 0.76
155.0702701873 	 9.99
161.1073243956 	 5.6
162.0371959199 	 0.61
163.1229744598 	 99.48
165.0546201231 	 64.4
171.0916743314 	 5.09
172.0994993635 	 8.27
177.0480949572 	 0.95
182.0811692246 	 5.3
205.0793950856 	 100
386.1532883102 	 0
END IONS

BEGIN IONS
PEPMASS=493.1235
CHARGE=1
MSLEVEL=2
RT=0
SOURCE_INSTRUMENT=qTOF
FILENAME=CCMSLIB00000080337.ms
IONMODE=Positive
ORGANISM=Natural
NAME=MLS001142427-01!
PI=GNPS
DATACOLLECTOR=GNPS
SMILES=c1ccc2c(c1)c1cc(C(=O)NCCCN3CCOCC3)[nH]c(c3cccc(c3)Br)c1n2
INCHI=InChI=1S/C25H25BrN4O2/c26-18-6-3-5-17(15-18)23-24-20(19-7-1-2-8-21(19)28-24)16-22(29-23)25(31)27-9-4-10-30-11-13-32-14-12-30/h1-3,5-8,15-16,29H,4,9-14H2,(H,27,31)
FORMULA=C25H25BrN4O2
PUBMED=N/A
SUBMITUSER=BIOADREM
LIBRARYQUALITY=0
SPECTRUMID=CCMSLIB00000080337
SCANS=2525
ID=CCMSLIB00000080337
100.0756899162 	 1.57
126.0913399804 	 0.55
243.0916743314 	 12.56
244.0954766181 	 1.17
321.0083386325 	 54.57
322.0100119314 	 12.06
323.0052609045 	 46.02
324.0080042815 	 7.91
335.0178369635 	 1.07
337.0209109687 	 1.3
338.0287360008 	 0.63
339.0189033188 	 63.2
340.0205766177 	 13.65
341.0158255908 	 67.91
343.0202422667 	 0.78
348.0192376698 	 11.41
349.0032532546 	 27.79
350.0110782867 	 11.31
351.0001755266 	 27.46
353.0158255908 	 1.48
362.0372893144 	 0.9
364.031810006 	 0.85
366.0362266819 	 0.78
368.0154912398 	 7.15
369.0107402129 	 24.64
378.0298023561 	 20.99
379.031475655 	 6.04
380.0267246281 	 16.57
390.0474600702 	 1.01
406.056293422 	 100
407.0627757834 	 27.87
408.0580247565 	 96.33
410.0624414324 	 0.97
493.1233646675 	 6.22
END IONS

BEGIN IONS
PEPMASS=235.036
CHARGE=1
MSLEVEL=2
RT=0
SOURCE_INSTRUMENT=qTOF
FILENAME=CCMSLIB00000080338.ms
IONMODE=Positive
ORGANISM=Natural
NAME=MLS000728634-01!
PI=GNPS
DATACOLLECTOR=GNPS
SMILES=c1ccc2c(c1)C1(CCN=C1S)C(=N2)S
INCHI=InChI=1S/C11H10N2S2/c14-9-11(5-6-12-9)7-3-1-2-4-8(7)13-10(11)15/h1-4H,5-6H2,(H,12,14)(H,13,15)
FORMULA=C11H10N2S2
PUBMED=N/A
SUBMITUSER=BIOADREM
LIBRARYQUALITY=0
SPECTRUMID=CCMSLIB00000080338
SCANS=2526
ID=CCMSLIB00000080338
104.0494751657 	 3.23
115.0542261926 	 21.48
117.0573001978 	 14.16
128.0494751657 	 7.11
130.0651252299 	 23.19
142.0651252299 	 31.09
143.072950262 	 100
148.0215458557 	 20.29
176.0528459841 	 41.9
235.0358157114 	 0
END IONS

BEGIN IONS
PEPMASS=440.171
CHARGE=1
MSLEVEL=2
RT=0
SOURCE_INSTRUMENT=qTOF
FILENAME=CCMSLIB00000080339.ms
IONMODE=Positive
ORGANISM=Natural
NAME=MLS001140978-01!4-[[[2-(8-methoxy-6-oxobenzo[c]chromen-3-yl)oxyacetyl]amino]methyl]cyclohexane-1-carboxylic acid
PI=GNPS
DATACOLLECTOR=GNPS
SMILES=COc1ccc2c3ccc(cc3oc(=O)c2c1)OCC(=NCC1CCC(CC1)C(=O)O)O
INCHI=InChI=1S/C24H25NO7/c1-30-16-6-8-18-19-9-7-17(11-21(19)32-24(29)20(18)10-16)31-13-22(26)25-12-14-2-4-15(5-3-14)23(27)28/h6-11,14-15H,2-5,12-13H2,1H3,(H,25,26)(H,27,28)
FORMULA=C24H25NO7
PUBMED=N/A
SUBMITUSER=BIOADREM
LIBRARYQUALITY=0
SPECTRUMID=CCMSLIB00000080339
SCANS=2527
ID=CCMSLIB00000080339
95.085526321 	 10.02
112.1120754225 	 2.55
122.0964253583 	 1.51
139.0542261926 	 1.93
140.1069900446 	 4.85
153.0698762568 	 3.84
155.085526321 	 3.63
168.0569658468 	 33.67
169.0647908789 	 5.52
183.0804409431 	 26.81
184.0518804689 	 5.54
185.059705501 	 3.01
197.059705501 	 14.78
198.0675305331 	 4.34
199.0753555652 	 13.52
213.0546201231 	 4.07
225.0546201231 	 7.42
226.0624451552 	 2.48
227.033884681 	 32.16
227.0702701873 	 34.07
229.0495347452 	 3.2
241.0495347452 	 8.62
242.0573597773 	 100
243.0651848094 	 34.83
253.0495347452 	 4
255.0651848094 	 58.79
257.0444493673 	 2.55
283.0600994315 	 20.74
300.086648533 	 37.11
394.164898854 	 11.45
440.1703781624 	 0
END IONS

BEGIN IONS
PEPMASS=449.208
CHARGE=1
MSLEVEL=2
RT=0
SOURCE_INSTRUMENT=qTOF
FILENAME=CCMSLIB00000080340.ms
IONMODE=Positive
ORGANISM=Natural
NAME=MLS001032299-01!
PI=GNPS
DATACOLLECTOR=GNPS
SMILES=Cc1cc(c2c(C)c(C)c(=O)oc2c1)OC(C)C(=O)N1C[C@H]2C[C@@H](C1)c1cccc(=O)n1C2
INCHI=InChI=1S/C26H28N2O5/c1-14-8-21(24-15(2)16(3)26(31)33-22(24)9-14)32-17(4)25(30)27-11-18-10-19(13-27)20-6-5-7-23(29)28(20)12-18/h5-9,17-19H,10-13H2,1-4H3/t17?,18-,19+/m1/s1
FORMULA=C26H28N2O5
PUBMED=N/A
SUBMITUSER=BIOADREM
LIBRARYQUALITY=0
SPECTRUMID=CCMSLIB00000080340
SCANS=2528
ID=CCMSLIB00000080340
109.0886003262 	 3.59
130.1100640498 	 1.19
132.125714114 	 1.5
133.0971536398 	 2.08
134.1049786719 	 6.16
135.112803704 	 1.39
143.1178890819 	 0.96
146.1090014173 	 17.99
147.1168264494 	 18.24
148.1246514815 	 16.17
149.1284537682 	 2
150.1362788003 	 0.71
172.1332047951 	 4.31
173.1410298272 	 19.74
187.1441038324 	 1.06
189.163776642 	 100
190.1716016741 	 29.96
191.1794267062 	 30.13
203.1668506472 	 3.02
204.1594195456 	 0.72
217.1699246524 	 5.19
232.178143615 	 1.69
247.216874845 	 1.32
449.2070980197 	 0
END IONS

BEGIN IONS
PEPMASS=374.16
CHARGE=1
MSLEVEL=2
RT=0
SOURCE_INSTRUMENT=qTOF
FILENAME=CCMSLIB00000080341.ms
IONMODE=Positive
ORGANISM=Natural
NAME=MLS001139346-01!(2R)-1-[2-(4-ethyl-8-methyl-2-oxochromen-7-yl)oxypropanoyl]pyrrolidine-2-carboxylic acid
PI=GNPS
DATACOLLECTOR=GNPS
SMILES=CCc1cc(=O)oc2c(C)c(ccc12)OC(C)C(=O)N1CCC[C@@H]1C(=O)O
INCHI=InChI=1S/C20H23NO6/c1-4-13-10-17(22)27-18-11(2)16(8-7-14(13)18)26-12(3)19(23)21-9-5-6-15(21)20(24)25/h7-8,10,12,15H,4-6,9H2,1-3H3,(H,24,25)/t12?,15-/m1/s1
FORMULA=C20H23NO6
PUBMED=N/A
SUBMITUSER=BIOADREM
LIBRARYQUALITY=0
SPECTRUMID=CCMSLIB00000080341
SCANS=2529
ID=CCMSLIB00000080341
96.0807752941 	 4.67
97.0886003262 	 3.93
105.0334907505 	 2.75
105.0698762568 	 6.49
114.0913399804 	 3.76
117.0698762568 	 3
119.085526321 	 6.87
121.0647908789 	 13.99
124.0756899162 	 2.61
125.0835149483 	 1.98
126.0913399804 	 5.17
129.0698762568 	 10.77
131.085526321 	 7.14
135.0804409431 	 4.53
141.0784295704 	 2.42
142.0862546025 	 43.03
145.0647908789 	 4.4
146.072615911 	 9.65
147.0804409431 	 6.6
147.1168264494 	 3.13
149.0960910073 	 8.82
159.0804409431 	 47.65
160.0882659752 	 4.34
161.0960910073 	 3.76
171.0889942567 	 7.67
174.0675305331 	 2.39
175.0753555652 	 17.5
175.1117410715 	 8.96
177.0910056294 	 5.36
203.0702701873 	 12.45
203.1066556936 	 21.49
205.0859202515 	 100
231.1015703157 	 44.98
374.1598134761 	 0
END IONS

BEGIN IONS
PEPMASS=452.146
CHARGE=1
MSLEVEL=2
RT=0
SOURCE_INSTRUMENT=qTOF
FILENAME=CCMSLIB00000080342.ms
IONMODE=Positive
ORGANISM=Natural
NAME=MLS001075929-01!N-[2-[7-methoxy-6-[(2,4,6-trioxo-1,3-diazinan-5-ylidene)methyl]-1,3-benzodioxol-5-yl]ethyl]-N-methylbenzamide
PI=GNPS
DATACOLLECTOR=GNPS
SMILES=CN(CCc1cc2c(c(c1C=C1C(=NC(=O)N=C1O)O)OC)OCO2)C(=O)c1ccccc1
INCHI=InChI=1S/C23H21N3O7/c1-26(22(29)13-6-4-3-5-7-13)9-8-14-10-17-19(33-12-32-17)18(31-2)15(14)11-16-20(27)24-23(30)25-21(16)28/h3-7,10-11H,8-9,12H2,1-2H3,(H2,24,25,27,28,30)
FORMULA=C23H21N3O7
PUBMED=N/A
SUBMITUSER=BIOADREM
LIBRARYQUALITY=0
SPECTRUMID=CCMSLIB00000080342
SCANS=2530
ID=CCMSLIB00000080342
105.0334907505 	 100
133.0284053726 	 1.03
136.0756899162 	 1.04
141.0294680051 	 1.04
145.0647908789 	 1.61
160.0756899162 	 1.31
162.0913399804 	 1.4
165.0546201231 	 2.56
173.059705501 	 1.49
174.0298023561 	 0.91
175.0349473135 	 0.88
177.0532774524 	 1.55
189.0532774524 	 8.97
190.0584224098 	 1.85
201.0546201231 	 2.3
203.072950262 	 2.42
204.0403670424 	 0.99
204.074072474 	 0.94
205.0733441925 	 4.22
207.0889942567 	 1.9
213.0447241388 	 0.91
214.0525491709 	 1.27
216.0403670424 	 1.82
217.0396387609 	 1.52
220.0968192888 	 12.63
221.1006215755 	 1.44
229.0495347452 	 7.48
230.0560171066 	 1.03
231.0638421387 	 5.26
232.0631138572 	 0.88
244.0631138572 	 1.2
247.0627795062 	 2.59
257.0556827556 	 0.89
260.0877111655 	 1.21
274.0822318571 	 1.39
285.0532774524 	 2.79
287.0689275166 	 1.91
312.1190112939 	 1.2
317.0794922029 	 2.53
452.1452260444 	 0
END IONS

BEGIN IONS
PEPMASS=357.17
CHARGE=1
MSLEVEL=2
RT=0
SOURCE_INSTRUMENT=qTOF
FILENAME=CCMSLIB00000080343.ms
IONMODE=Positive
ORGANISM=Natural
NAME=MLS000863606-01!1-[2,4-dihydroxy-6-methoxy-3-(3-methylbut-2-enyl)phenyl]-3-(4-hydroxyphenyl)propan-1-one
PI=GNPS
DATACOLLECTOR=GNPS
SMILES=CC(=CCc1c(cc(c(C(=O)CCc2ccc(cc2)O)c1O)OC)O)C
INCHI=InChI=1S/C21H24O5/c1-13(2)4-10-16-18(24)12-19(26-3)20(21(16)25)17(23)11-7-14-5-8-15(22)9-6-14/h4-6,8-9,12,22,24-25H,7,10-11H2,1-3H3
FORMULA=C21H24O5
PUBMED=N/A
SUBMITUSER=BIOADREM
LIBRARYQUALITY=0
SPECTRUMID=CCMSLIB00000080343
SCANS=2531
ID=CCMSLIB00000080343
103.0542261926 	 2.74
107.0491408147 	 82.68
111.0440554368 	 1.32
121.0284053726 	 2.04
121.0647908789 	 6.91
131.0491408147 	 3.48
135.0440554368 	 3.7
137.059705501 	 1.21
139.0389700589 	 5.69
147.0440554368 	 1.49
149.0233199947 	 2.37
149.059705501 	 7.98
153.0546201231 	 11.75
165.0546201231 	 4.13
177.0546201231 	 100
179.033884681 	 15.35
195.0651848094 	 94.92
197.059705501 	 3.79
207.0651848094 	 7.98
223.0753555652 	 4.26
237.0910056294 	 1.2
240.0780952194 	 2.36
251.0702701873 	 8.6
265.0859202515 	 1.99
268.0730098415 	 4.09
283.0964849378 	 28.2
301.1070496241 	 26.13
357.1696498809 	 0
END IONS

BEGIN IONS
PEPMASS=213.076
CHARGE=1
MSLEVEL=2
RT=0
SOURCE_INSTRUMENT=qTOF
FILENAME=CCMSLIB00000080344.ms
IONMODE=Positive
ORGANISM=Natural
NAME=MLS002207176-01!3,4,5-trimethoxybenzoic acid
PI=GNPS
DATACOLLECTOR=GNPS
SMILES=COc1cc(cc(c1OC)OC)C(=O)O
INCHI=InChI=1S/C10H12O5/c1-13-7-4-6(10(11)12)5-8(14-2)9(7)15-3/h4-5H,1-3H3,(H,11,12)
FORMULA=C10H12O5
PUBMED=N/A
SUBMITUSER=BIOADREM
LIBRARYQUALITY=0
SPECTRUMID=CCMSLIB00000080344
SCANS=2532
ID=CCMSLIB00000080344
95.0491408147 	 13.04
96.0205803405 	 19.08
97.0647908789 	 6.36
107.0127553084 	 17.33
107.0491408147 	 7.79
108.0569658468 	 11.61
109.0647908789 	 36.57
110.0362304047 	 7.31
111.0440554368 	 55.8
121.0284053726 	 8.11
122.0362304047 	 8.11
123.0440554368 	 38.31
125.059705501 	 12.56
139.0389700589 	 100
154.0624451552 	 55.48
183.0287993031 	 8.74
213.0757494957 	 0
END IONS

BEGIN IONS
PEPMASS=565.209
CHARGE=1
MSLEVEL=2
RT=0
SOURCE_INSTRUMENT=qTOF
FILENAME=CCMSLIB00000080345.ms
IONMODE=Positive
ORGANISM=Natural
NAME=MLS001140671-01!
PI=GNPS
DATACOLLECTOR=GNPS
SMILES=COc1ccc(cc1)C1c2c(C[C@H]3C(=O)N(c4ccccc4C(=O)N4CCC[C@@H]4C(=O)O)C(=O)N13)c1ccccc1[nH]2
INCHI=InChI=1S/C32H28N4O6/c1-42-19-14-12-18(13-15-19)28-27-22(20-7-2-4-9-23(20)33-27)17-26-30(38)36(32(41)35(26)28)24-10-5-3-8-21(24)29(37)34-16-6-11-25(34)31(39)40/h2-5,7-10,12-15,25-26,28,33H,6,11,16-17H2,1H3,(H,39,40)/t25-,26+,28?/m1/s1
FORMULA=C32H28N4O6
PUBMED=N/A
SUBMITUSER=BIOADREM
LIBRARYQUALITY=0
SPECTRUMID=CCMSLIB00000080345
SCANS=2533
ID=CCMSLIB00000080345
121.0634482082 	 9.06
135.0440554368 	 4.24
146.0236543457 	 9.29
162.0549544741 	 1.43
204.0807752941 	 2.08
206.0964253583 	 2.56
210.0913399804 	 1.37
217.0886003262 	 7.95
218.0964253583 	 100
219.100227645 	 17.69
223.0587567608 	 0.89
232.0743472455 	 1.98
233.0835149483 	 3.61
234.0913399804 	 16.05
235.0951422671 	 4.12
238.0862546025 	 15.27
239.0900568892 	 4.43
245.0835149483 	 2.04
246.0913399804 	 1.18
247.0978223418 	 6.82
248.1069900446 	 79.38
249.113472406 	 50.48
260.1069900446 	 16.27
261.1107923313 	 3.75
262.0849119318 	 2.46
262.1212974381 	 1.06
266.0811692246 	 37.18
267.0849715113 	 5.9
272.0903912402 	 1.59
275.1178890819 	 1.31
288.100561996 	 13.24
289.1057069534 	 4.36
299.0815035756 	 3.24
303.112803704 	 3.09
314.0924026129 	 1.21
342.087317235 	 2.4
363.1451664649 	 0.88
374.1049786719 	 0.92
379.1441038324 	 2.8
380.1479061191 	 1.03
389.1284537682 	 1.73
390.1237027413 	 1.17
392.1155433582 	 1.53
407.1390184545 	 28.2
408.1428207412 	 9.53
422.1499174918 	 3.92
450.1448321139 	 22.23
565.2081606522 	 0
END IONS

BEGIN IONS
PEPMASS=227.0815
CHARGE=1
MSLEVEL=2
RT=0
SOURCE_INSTRUMENT=qTOF
FILENAME=CCMSLIB00000080347.ms
IONMODE=Positive
ORGANISM=Natural
NAME=MLS001203376-01!1-methyl-9H-pyrido[3,4-b]indole-3-carboxylic acid
PI=GNPS
DATACOLLECTOR=GNPS
SMILES=Cc1c2c(cc(C(=O)O)n1)c1ccccc1[nH]2
INCHI=InChI=1S/C13H10N2O2/c1-7-12-9(6-11(14-7)13(16)17)8-4-2-3-5-10(8)15-12/h2-6,15H,1H3,(H,16,17)
FORMULA=C13H10N2O2
PUBMED=N/A
SUBMITUSER=BIOADREM
LIBRARYQUALITY=0
SPECTRUMID=CCMSLIB00000080347
SCANS=2535
ID=CCMSLIB00000080347
103.0542261926 	 6.99
127.0542261926 	 11.31
128.0494751657 	 7.54
129.0698762568 	 0.73
141.0573001978 	 2.89
145.0647908789 	 2.46
146.060039852 	 1.56
152.0494751657 	 1.24
154.0651252299 	 95.56
172.0756899162 	 0.33
179.060374203 	 7.68
181.0760242672 	 100
199.0865889535 	 24.84
209.0709388893 	 0.65
227.0815035756 	 0.28
END IONS

BEGIN IONS
PEPMASS=477.166
CHARGE=1
MSLEVEL=2
RT=0
SOURCE_INSTRUMENT=qTOF
FILENAME=CCMSLIB00000080348.ms
IONMODE=Positive
ORGANISM=Natural
NAME=MLS001140856-01!(2R)-2-phenyl-2-[[2-[[2-(2,3,5-trimethyl-7-oxofuro[3,2-g]chromen-6-yl)acetyl]amino]acetyl]amino]acetic acid
PI=GNPS
DATACOLLECTOR=GNPS
SMILES=Cc1c(C)oc2cc3c(cc12)c(C)c(CC(=NCC(=N[C@H](c1ccccc1)C(=O)O)O)O)c(=O)o3
INCHI=InChI=1S/C26H24N2O7/c1-13-15(3)34-20-11-21-18(9-17(13)20)14(2)19(26(33)35-21)10-22(29)27-12-23(30)28-24(25(31)32)16-7-5-4-6-8-16/h4-9,11,24H,10,12H2,1-3H3,(H,27,29)(H,28,30)(H,31,32)/t24-/m1/s1
FORMULA=C26H24N2O7
PUBMED=N/A
SUBMITUSER=BIOADREM
LIBRARYQUALITY=0
SPECTRUMID=CCMSLIB00000080348
SCANS=2536
ID=CCMSLIB00000080348
115.0542261926 	 0.21
129.0698762568 	 0.6
141.0698762568 	 0.6
142.0777012889 	 0.43
143.0815035756 	 0.22
155.0815035756 	 0.31
157.0647908789 	 0.42
157.1011763852 	 0.8
158.1049786719 	 0.23
183.0764181977 	 0.23
185.0960910073 	 2.25
213.0910056294 	 13.22
214.0948079161 	 1.58
241.0859202515 	 100
242.0897225382 	 19.68
269.0808348736 	 6.85
270.0846371603 	 1.82
477.1656271355 	 0
END IONS

BEGIN IONS
PEPMASS=187.1232
CHARGE=1
MSLEVEL=2
RT=0
SOURCE_INSTRUMENT=qTOF
FILENAME=CCMSLIB00000080349.ms
IONMODE=Positive
ORGANISM=Natural
NAME=MLS001049128-01!2-methyl-1,3,4,9-tetrahydropyrido[3,4-b]indole
PI=GNPS
DATACOLLECTOR=GNPS
SMILES=CN1CCc2c3ccccc3[nH]c2C1
INCHI=InChI=1S/C12H14N2/c1-14-7-6-10-9-4-2-3-5-11(9)13-12(10)8-14/h2-5,13H,6-8H2,1H3
FORMULA=C12H14N2
PUBMED=N/A
SUBMITUSER=BIOADREM
LIBRARYQUALITY=0
SPECTRUMID=CCMSLIB00000080349
SCANS=2537
ID=CCMSLIB00000080349
103.0542261926 	 5.23
115.0542261926 	 7.21
117.0698762568 	 5.68
118.0651252299 	 1.79
128.0494751657 	 8.41
129.0573001978 	 2.19
130.0651252299 	 0.95
142.0651252299 	 4.11
143.072950262 	 30.8
144.0807752941 	 100
156.0807752941 	 1.12
187.1229744598 	 0.86
END IONS

BEGIN IONS
PEPMASS=551.29
CHARGE=1
MSLEVEL=2
RT=0
SOURCE_INSTRUMENT=qTOF
FILENAME=CCMSLIB00000080350.ms
IONMODE=Positive
ORGANISM=Natural
NAME=MLS001142746-01!tert-butyl N-[(2S)-1-[4-[[(2S)-1-[(2-methoxyphenyl)methylamino]-1-oxopropan-2-yl]carbamoyl]piperidin-1-yl]-4-methylsulfanyl-1-oxobutan-2-yl]carbamate
PI=GNPS
DATACOLLECTOR=GNPS
SMILES=C[C@@H](C(=NCc1ccccc1OC)O)N=C(C1CCN(CC1)C(=O)[C@H](CCSC)N=C(O)OC(C)(C)C)O
INCHI=InChI=1S/C27H42N4O6S/c1-18(23(32)28-17-20-9-7-8-10-22(20)36-5)29-24(33)19-11-14-31(15-12-19)25(34)21(13-16-38-6)30-26(35)37-27(2,3)4/h7-10,18-19,21H,11-17H2,1-6H3,(H,28,32)(H,29,33)(H,30,35)/t18-,21-/m0/s1
FORMULA=C27H42N4O6S
PUBMED=N/A
SUBMITUSER=BIOADREM
LIBRARYQUALITY=0
SPECTRUMID=CCMSLIB00000080350
SCANS=2538
ID=CCMSLIB00000080350
104.0528459841 	 9.26
106.0413157826 	 1.26
112.0756899162 	 65.05
121.0647908789 	 100
130.0684960483 	 1.03
136.0756899162 	 0.72
138.0913399804 	 5.99
155.1178890819 	 16.79
158.0634106704 	 0.78
164.1069900446 	 1.66
177.1022390177 	 1.16
182.1287881192 	 1.01
183.112803704 	 27.8
184.1154462409 	 2.74
195.112803704 	 2.24
209.1284537682 	 29.84
210.1310963051 	 3.56
212.1393528055 	 2.21
238.1550028697 	 13.41
266.1447349966 	 2.87
314.1532883102 	 7.97
320.1968676844 	 39.9
403.2339814722 	 11.06
451.2373522906 	 10.4
551.2897817916 	 0
END IONS

BEGIN IONS
PEPMASS=367.129
CHARGE=1
MSLEVEL=2
RT=0
SOURCE_INSTRUMENT=qTOF
FILENAME=CCMSLIB00000080351.ms
IONMODE=Positive
ORGANISM=Natural
NAME=MLS001159046-01!2-[[2-(4,7-dimethyl-2-oxochromen-5-yl)oxyacetyl]amino]benzamide
PI=GNPS
DATACOLLECTOR=GNPS
SMILES=Cc1cc(c2c(C)cc(=O)oc2c1)OCC(=Nc1ccccc1C(=N)O)O
INCHI=InChI=1S/C20H18N2O5/c1-11-7-15(19-12(2)9-18(24)27-16(19)8-11)26-10-17(23)22-14-6-4-3-5-13(14)20(21)25/h3-9H,10H2,1-2H3,(H2,21,25)(H,22,23)
FORMULA=C20H18N2O5
PUBMED=N/A
SUBMITUSER=BIOADREM
LIBRARYQUALITY=0
SPECTRUMID=CCMSLIB00000080351
SCANS=2539
ID=CCMSLIB00000080351
104.0494751657 	 26.17
105.0334907505 	 7.67
105.0573001978 	 15.85
117.0698762568 	 4.48
119.0365647557 	 53.32
120.0443897878 	 19.33
130.0287397236 	 5.61
132.0443897878 	 29.05
133.0522148199 	 20.54
144.0569658468 	 2.93
145.0647908789 	 9.6
147.0440554368 	 4.48
147.0804409431 	 17.04
148.0393044099 	 16.01
161.047129442 	 100
162.0675305331 	 17.45
175.0753555652 	 22.44
190.0651252299 	 24.47
191.0702701873 	 3.91
196.0756899162 	 3.4
198.0549544741 	 2.75
203.0702701873 	 48.46
206.0964253583 	 2.91
219.0651848094 	 3.14
230.0964253583 	 3.11
245.0808348736 	 3.29
248.1069900446 	 7.33
258.0913399804 	 4.61
260.1069900446 	 3.14
276.1019046667 	 16.65
289.0733441925 	 2.73
304.0968192888 	 27.41
332.0917339109 	 20.48
350.1022985972 	 4.97
367.1288476987 	 0
END IONS

BEGIN IONS
PEPMASS=329.087
CHARGE=1
MSLEVEL=2
RT=0
SOURCE_INSTRUMENT=qTOF
FILENAME=CCMSLIB00000080352.ms
IONMODE=Positive
ORGANISM=Natural
NAME=MLS000563027-01!
PI=GNPS
DATACOLLECTOR=GNPS
SMILES=COc1c(cc2c(c1O)[C@H]1C([C@H]([C@@H]([C@@H](CO)O1)O)O)OC2=O)O
INCHI=InChI=1S/C14H16O9/c1-21-11-5(16)2-4-7(9(11)18)12-13(23-14(4)20)10(19)8(17)6(3-15)22-12/h2,6,8,10,12-13,15-19H,3H2,1H3/t6-,8-,10+,12+,13?/m1/s1
FORMULA=C14H16O9
PUBMED=N/A
SUBMITUSER=BIOADREM
LIBRARYQUALITY=0
SPECTRUMID=CCMSLIB00000080352
SCANS=2540
ID=CCMSLIB00000080352
121.0284053726 	 21.01
133.0284053726 	 44.12
145.0284053726 	 22.69
159.0440554368 	 33.19
160.0518804689 	 24.79
161.059705501 	 18.91
162.0311450268 	 34.03
165.0546201231 	 34.03
178.0260596489 	 35.29
179.033884681 	 55.04
180.0053242068 	 19.33
181.0495347452 	 100
185.0444493673 	 18.91
197.0444493673 	 29.83
198.0311450268 	 20.59
219.0651848094 	 33.19
230.020974271 	 26.05
231.0287993031 	 21.85
233.0444493673 	 44.96
329.0867081125 	 0
END IONS

BEGIN IONS
PEPMASS=152.0165
CHARGE=1
MSLEVEL=2
RT=0
SOURCE_INSTRUMENT=qTOF
FILENAME=CCMSLIB00000080353.ms
IONMODE=Positive
ORGANISM=Natural
NAME=MLS000737673-01!
PI=GNPS
DATACOLLECTOR=GNPS
SMILES=c1ccc2c(c1)nc(O)s2
INCHI=InChI=1S/C7H5NOS/c9-7-8-5-3-1-2-4-6(5)10-7/h1-4H,(H,8,9)
FORMULA=C7H5NOS
PUBMED=N/A
SUBMITUSER=BIOADREM
LIBRARYQUALITY=0
SPECTRUMID=CCMSLIB00000080353
SCANS=2541
ID=CCMSLIB00000080353
109.0106468184 	 68.39
119.0365647557 	 51.3
124.0215458557 	 100
134.0058957915 	 17.62
152.0164604778 	 219.69
END IONS

BEGIN IONS
PEPMASS=245.096
CHARGE=1
MSLEVEL=2
RT=0
SOURCE_INSTRUMENT=qTOF
FILENAME=CCMSLIB00000080354.ms
IONMODE=Positive
ORGANISM=Natural
NAME=MLS001066402-01!
PI=GNPS
DATACOLLECTOR=GNPS
SMILES=C(CCC(=O)O)C[C@H]1[C@@H]2[C@H](CS1)N=C(N2)O
INCHI=InChI=1S/C10H16N2O3S/c13-8(14)4-2-1-3-7-9-6(5-16-7)11-10(15)12-9/h6-7,9H,1-5H2,(H,13,14)(H2,11,12,15)/t6-,7-,9-/m0/s1
FORMULA=C10H16N2O3S
PUBMED=N/A
SUBMITUSER=BIOADREM
LIBRARYQUALITY=0
SPECTRUMID=CCMSLIB00000080354
SCANS=2542
ID=CCMSLIB00000080354
97.0106468184 	 26.4
97.0396387609 	 44.38
98.0964253583 	 9.74
98.9773353173 	 8.99
99.0314793778 	 9.93
103.057597011 	 9.74
105.0698762568 	 27.9
107.0815035756 	 9.18
110.0270251641 	 9.93
111.0229260642 	 9.55
114.0338251015 	 13.86
117.0698762568 	 9.55
121.0647908789 	 9.93
123.0262968826 	 67.6
124.0300991693 	 14.98
129.0294680051 	 8.8
132.0841461125 	 10.3
133.0859202515 	 8.61
137.0709388893 	 10.11
139.0535742656 	 23.97
141.0606710162 	 9.74
142.0651252299 	 9.55
149.0419469468 	 22.1
151.0753555652 	 18.35
164.0528459841 	 8.99
166.0658159736 	 24.16
167.0525116331 	 27.53
168.0563139198 	 17.98
184.0790607346 	 24.34
209.0743097077 	 35.58
227.084874394 	 100
245.0954390803 	 0
END IONS

BEGIN IONS
PEPMASS=501.25
CHARGE=1
MSLEVEL=2
RT=0
SOURCE_INSTRUMENT=qTOF
FILENAME=CCMSLIB00000080355.ms
IONMODE=Positive
ORGANISM=Natural
NAME=MLS001140554-01!
PI=GNPS
DATACOLLECTOR=GNPS
SMILES=CC(C)[C@@H](C(=NCC1CCCO1)O)N=C([C@@H]1Cc2c3ccccc3[nH]c2C2c3ccccc3C(=O)N12)O
INCHI=InChI=1S/C29H32N4O4/c1-16(2)24(28(35)30-15-17-8-7-13-37-17)32-27(34)23-14-21-18-9-5-6-12-22(18)31-25(21)26-19-10-3-4-11-20(19)29(36)33(23)26/h3-6,9-12,16-17,23-24,26,31H,7-8,13-15H2,1-2H3,(H,30,35)(H,32,34)/t17?,23-,24-,26?/m0/s1
FORMULA=C29H32N4O4
PUBMED=N/A
SUBMITUSER=BIOADREM
LIBRARYQUALITY=0
SPECTRUMID=CCMSLIB00000080355
SCANS=2543
ID=CCMSLIB00000080355
142.0651252299 	 0.31
170.060039852 	 0.97
218.0964253583 	 0.26
230.0924026129 	 0.73
245.1073243956 	 3.74
246.0913399804 	 1.77
247.1117410715 	 0.45
255.0916743314 	 1.86
256.0994993635 	 3.65
257.1033016502 	 1.91
258.0787639214 	 0.52
271.0865889535 	 32.09
272.0903912402 	 8.67
273.1022390177 	 100
274.1060413044 	 32.91
275.1066556936 	 3.01
301.0971536398 	 1.26
302.1009559265 	 0.45
327.137955822 	 0.28
372.1706529339 	 2.42
501.2496315364 	 0
END IONS

BEGIN IONS
PEPMASS=206.082
CHARGE=1
MSLEVEL=2
RT=0
SOURCE_INSTRUMENT=qTOF
FILENAME=CCMSLIB00000080356.ms
IONMODE=Positive
ORGANISM=Natural
NAME=MLS000515793-01!
PI=GNPS
DATACOLLECTOR=GNPS
SMILES=c1ccc2c(c1)c(CC(C(=O)O)O)c[nH]2
INCHI=InChI=1S/C11H11NO3/c13-10(11(14)15)5-7-6-12-9-4-2-1-3-8(7)9/h1-4,6,10,12-13H,5H2,(H,14,15)
FORMULA=C11H11NO3
PUBMED=N/A
SUBMITUSER=BIOADREM
LIBRARYQUALITY=0
SPECTRUMID=CCMSLIB00000080356
SCANS=2544
ID=CCMSLIB00000080356
95.0127553084 	 4.75
102.0338251015 	 3.9
103.0542261926 	 7.79
112.0393044099 	 3.33
115.0542261926 	 13.4
117.0573001978 	 27.28
118.0651252299 	 48.67
127.0627795062 	 4.37
128.0494751657 	 3.8
129.0573001978 	 3.52
130.0651252299 	 100
132.0807752941 	 12.55
133.0647908789 	 3.14
142.0624451552 	 16.35
143.072950262 	 25
144.0443897878 	 5.99
146.060039852 	 2.85
160.0756899162 	 3.14
170.060039852 	 10.46
188.0706045383 	 3.42
206.0811692246 	 0
END IONS

BEGIN IONS
PEPMASS=529.245
CHARGE=1
MSLEVEL=2
RT=0
SOURCE_INSTRUMENT=qTOF
FILENAME=CCMSLIB00000080357.ms
IONMODE=Positive
ORGANISM=Natural
NAME=MLS001140273-01!
PI=GNPS
DATACOLLECTOR=GNPS
SMILES=CC(C)C[C@@H](C(=O)N1CCC[C@@H]1C(=O)O)N=C([C@@H]1Cc2c3ccccc3[nH]c2C2c3ccccc3C(=O)N12)O
INCHI=InChI=1S/C30H32N4O5/c1-16(2)14-22(29(37)33-13-7-12-23(33)30(38)39)32-27(35)24-15-20-17-8-5-6-11-21(17)31-25(20)26-18-9-3-4-10-19(18)28(36)34(24)26/h3-6,8-11,16,22-24,26,31H,7,12-15H2,1-2H3,(H,32,35)(H,38,39)/t22-,23+,24-,26?/m0/s1
FORMULA=C30H32N4O5
PUBMED=N/A
SUBMITUSER=BIOADREM
LIBRARYQUALITY=0
SPECTRUMID=CCMSLIB00000080357
SCANS=2545
ID=CCMSLIB00000080357
116.0706045383 	 7.09
184.0604337825 	 0.39
230.0964253583 	 0.91
232.0240482762 	 0.4
245.1073243956 	 3.54
246.0913399804 	 1.64
255.0916743314 	 1.22
256.0994993635 	 1.82
257.1073243956 	 0.48
271.0865889535 	 10.02
272.0917339109 	 3.19
273.1022390177 	 100
274.1073839751 	 23.96
301.0971536398 	 3.27
302.1022985972 	 1.32
342.1726643066 	 0.4
386.1836229234 	 4.99
387.1941280302 	 2.32
388.203295733 	 0.41
463.2227480839 	 0.5
529.2445461585 	 0
END IONS

BEGIN IONS
PEPMASS=285.1126
CHARGE=1
MSLEVEL=2
RT=0
SOURCE_INSTRUMENT=qTOF
FILENAME=CCMSLIB00000080358.ms
IONMODE=Positive
ORGANISM=Natural
NAME=MLS000737282-01!
PI=GNPS
DATACOLLECTOR=GNPS
SMILES=COc1cc(c(C(=O)/C=C/c2ccccc2)c(c1)OC)O
INCHI=InChI=1S/C17H16O4/c1-20-13-10-15(19)17(16(11-13)21-2)14(18)9-8-12-6-4-3-5-7-12/h3-11,19H,1-2H3/b9-8+
FORMULA=C17H16O4
PUBMED=N/A
SUBMITUSER=BIOADREM
LIBRARYQUALITY=0
SPECTRUMID=CCMSLIB00000080358
SCANS=2546
ID=CCMSLIB00000080358
95.0127553084 	 2.54
95.0491408147 	 2.2
103.0542261926 	 10.82
107.0491408147 	 0.55
108.0205803405 	 1.5
109.0284053726 	 1.24
110.0362304047 	 1.8
119.0127553084 	 0.44
121.0284053726 	 0.95
123.0076699305 	 0.94
123.0440554368 	 1.9
125.0233199947 	 1.28
125.059705501 	 2.06
131.0491408147 	 4.69
135.0440554368 	 0.54
136.0154949626 	 1.59
137.0233199947 	 1.57
138.0311450268 	 22.46
149.0233199947 	 0.76
151.0389700589 	 2.33
166.0260596489 	 25.22
181.0495347452 	 100
285.112135002 	 0.38
END IONS

BEGIN IONS
PEPMASS=412.1761
CHARGE=1
MSLEVEL=2
RT=0
SOURCE_INSTRUMENT=qTOF
FILENAME=CCMSLIB00000080359.ms
IONMODE=Positive
ORGANISM=Natural
NAME=MLS001141225-01!N-(furan-2-ylmethyl)-2-[(3,4,8,8-tetramethyl-2-oxo-9,10-dihydropyrano[2,3-h]chromen-5-yl)oxy]acetamide
PI=GNPS
DATACOLLECTOR=GNPS
SMILES=Cc1c(C)c(=O)oc2c3CCC(C)(C)Oc3cc(c12)OCC(=NCc1ccco1)O
INCHI=InChI=1S/C23H25NO6/c1-13-14(2)22(26)29-21-16-7-8-23(3,4)30-17(16)10-18(20(13)21)28-12-19(25)24-11-15-6-5-9-27-15/h5-6,9-10H,7-8,11-12H2,1-4H3,(H,24,25)
FORMULA=C23H25NO6
PUBMED=N/A
SUBMITUSER=BIOADREM
LIBRARYQUALITY=0
SPECTRUMID=CCMSLIB00000080359
SCANS=2547
ID=CCMSLIB00000080359
97.0284053726 	 28.2
105.0698762568 	 1.8
108.0443897878 	 1.34
109.0284053726 	 7.28
110.060039852 	 23.95
120.0443897878 	 2.67
121.0647908789 	 2.26
133.0647908789 	 1.23
138.0549544741 	 10.2
145.0647908789 	 3.14
149.059705501 	 3.89
161.059705501 	 1.54
162.0675305331 	 1.36
163.0753555652 	 6.02
173.059705501 	 4.59
175.0753555652 	 2.43
189.0546201231 	 2.67
190.0624451552 	 15.68
191.0702701873 	 20.16
203.0702701873 	 5.83
207.0651848094 	 1.96
218.0573597773 	 4.64
219.0651848094 	 100
230.0811692246 	 1.87
231.0651848094 	 10.13
259.0600994315 	 6.47
259.0964849378 	 3.31
274.1199600341 	 1.42
288.086648533 	 4.73
299.0913995599 	 3.59
311.0913995599 	 1.18
327.086314182 	 1.27
356.1128632835 	 49.85
412.1754635403 	 35.87
END IONS

BEGIN IONS
PEPMASS=463.2246
CHARGE=1
MSLEVEL=2
RT=0
SOURCE_INSTRUMENT=qTOF
FILENAME=CCMSLIB00000080360.ms
IONMODE=Positive
ORGANISM=Natural
NAME=MLS001160037-01!
PI=GNPS
DATACOLLECTOR=GNPS
SMILES=CCCCc1cc(=O)oc2c(C)c(ccc12)OCC(=O)N1C[C@H]2C[C@@H](C1)c1cccc(=O)n1C2
INCHI=InChI=1S/C27H30N2O5/c1-3-4-6-19-12-26(32)34-27-17(2)23(10-9-21(19)27)33-16-25(31)28-13-18-11-20(15-28)22-7-5-8-24(30)29(22)14-18/h5,7-10,12,18,20H,3-4,6,11,13-16H2,1-2H3/t18-,20+/m1/s1
FORMULA=C27H30N2O5
PUBMED=N/A
SUBMITUSER=BIOADREM
LIBRARYQUALITY=0
SPECTRUMID=CCMSLIB00000080360
SCANS=2548
ID=CCMSLIB00000080360
108.0443897878 	 0.63
109.0495347452 	 2.22
110.0573597773 	 0.56
115.0542261926 	 0.56
117.0573001978 	 0.64
118.0651252299 	 0.75
121.0396387609 	 0.63
122.060039852 	 3.24
123.0651848094 	 1.35
129.0698762568 	 0.59
132.0417097131 	 1.86
132.0807752941 	 0.59
133.0522148199 	 3.55
134.060039852 	 8.2
135.0651848094 	 1.53
136.0730098415 	 0.49
144.0807752941 	 0.55
145.0886003262 	 0.59
146.060039852 	 31.28
147.0651848094 	 19.36
148.0756899162 	 6.08
149.0709388893 	 1.73
158.060039852 	 0.56
159.0678648841 	 2.73
159.1168264494 	 0.8
160.0756899162 	 13.36
162.0913399804 	 1.58
163.0991650125 	 0.63
172.0756899162 	 4.3
173.0835149483 	 21.52
174.0886599057 	 3.57
175.0475233725 	 0.72
187.1117410715 	 2.51
188.0706045383 	 2.6
189.1022390177 	 100
190.1073839751 	 17.86
191.1152090072 	 6.64
203.0788235009 	 0.91
203.1178890819 	 2.34
217.1223057578 	 3.28
231.112803704 	 3.77
233.1257736935 	 1.45
245.1172203799 	 10.28
298.1437694814 	 0.75
463.2227480839 	 50.85
END IONS

BEGIN IONS
PEPMASS=227.0817
CHARGE=1
MSLEVEL=2
RT=0
SOURCE_INSTRUMENT=qTOF
FILENAME=CCMSLIB00000080361.ms
IONMODE=Positive
ORGANISM=Natural
NAME=MLS000574951-01!
PI=GNPS
DATACOLLECTOR=GNPS
SMILES=COC(=O)c1c2c(cc[nH]1)c1ccccc1n2
INCHI=InChI=1S/C13H10N2O2/c1-17-13(16)12-11-9(6-7-14-12)8-4-2-3-5-10(8)15-11/h2-7,14H,1H3
FORMULA=C13H10N2O2
PUBMED=N/A
SUBMITUSER=BIOADREM
LIBRARYQUALITY=0
SPECTRUMID=CCMSLIB00000080361
SCANS=2549
ID=CCMSLIB00000080361
113.0385761284 	 3.4
114.0338251015 	 1.56
140.0494751657 	 74.75
158.060039852 	 0.69
159.0552888251 	 0.47
167.060374203 	 100
185.0709388893 	 24.61
195.0552888251 	 0.39
213.0658535114 	 0.91
227.0815035756 	 0.3
END IONS

BEGIN IONS
PEPMASS=364.146
CHARGE=1
MSLEVEL=2
RT=0
SOURCE_INSTRUMENT=qTOF
FILENAME=CCMSLIB00000080362.ms
IONMODE=Positive
ORGANISM=Natural
NAME=MLS000697754-01!
PI=GNPS
DATACOLLECTOR=GNPS
SMILES=CC[C@H]1c2c(C[C@@H]3C(=O)N(c4ccc(cc4)F)C(=O)N13)c1ccccc1[nH]2
INCHI=InChI=1S/C21H18FN3O2/c1-2-17-19-15(14-5-3-4-6-16(14)23-19)11-18-20(26)24(21(27)25(17)18)13-9-7-12(22)8-10-13/h3-10,17-18,23H,2,11H2,1H3/t17-,18+/m0/s1
FORMULA=C21H18FN3O2
PUBMED=N/A
SUBMITUSER=BIOADREM
LIBRARYQUALITY=0
SPECTRUMID=CCMSLIB00000080362
SCANS=2550
ID=CCMSLIB00000080362
103.0542261926 	 0.71
117.0573001978 	 0.61
118.0651252299 	 0.79
128.0620512247 	 14.68
129.0698762568 	 16.5
130.0651252299 	 13.4
138.0338251015 	 0.71
141.0698762568 	 1.22
143.085526321 	 14.3
152.0620512247 	 2.37
153.0698762568 	 10.18
154.0651252299 	 18.39
155.072950262 	 45.01
158.0964253583 	 3.3
167.072950262 	 6.24
168.0807752941 	 5.08
170.0964253583 	 100
180.0807752941 	 1.31
182.0964253583 	 5.21
195.0552888251 	 1.31
197.1073243956 	 1.07
209.0709388893 	 0.71
225.1022390177 	 1.54
321.1397673782 	 0.74
364.1455810376 	 0
END IONS

BEGIN IONS
PEPMASS=848.386
CHARGE=1
MSLEVEL=2
RT=0
SOURCE_INSTRUMENT=qTOF
FILENAME=CCMSLIB00000080363.ms
IONMODE=Positive
ORGANISM=Natural
NAME=MLS001097652-01!
PI=GNPS
DATACOLLECTOR=GNPS
SMILES=CCCCCC(=N[C@@H](c1ccccc1)[C@H](C(=O)O[C@H]1C[C@]2([C@H](C3[C@@](C)([C@H](C[C@@H]4[C@]3(CO4)OC(=O)C)O)C(=O)[C@@H](C(=C1C)C2(C)C)OC(=O)C)OC(=O)c1ccccc1)O)O)O
INCHI=InChI=1S/C46H57NO14/c1-8-9-12-21-33(51)47-35(28-17-13-10-14-18-28)36(52)42(55)59-30-23-46(56)40(60-41(54)29-19-15-11-16-20-29)38-44(7,31(50)22-32-45(38,24-57-32)61-27(4)49)39(53)37(58-26(3)48)34(25(30)2)43(46,5)6/h10-11,13-20,30-32,35-38,40,50,52,56H,8-9,12,21-24H2,1-7H3,(H,47,51)/t30-,31-,32+,35-,36+,37+,38?,40-,44+,45-,46+/m0/s1
FORMULA=C46H57NO14
PUBMED=N/A
SUBMITUSER=BIOADREM
LIBRARYQUALITY=0
SPECTRUMID=CCMSLIB00000080363
SCANS=2551
ID=CCMSLIB00000080363
105.0334907505 	 100
118.0651252299 	 19.38
119.0491408147 	 20.75
119.085526321 	 13.32
121.0647908789 	 10.59
133.0647908789 	 16.3
133.1011763852 	 20.33
136.0756899162 	 87.97
147.0440554368 	 13.55
147.0804409431 	 17.83
149.059705501 	 10.24
149.0960910073 	 14.55
159.0804409431 	 17.58
161.0960910073 	 16.13
165.0546201231 	 11.4
169.1011763852 	 10.94
173.0960910073 	 12.29
177.0546201231 	 14.86
177.0910056294 	 12.23
181.1011763852 	 9.79
182.0811692246 	 82.05
183.1168264494 	 10.1
185.0960910073 	 10.13
193.1011763852 	 10.24
195.1168264494 	 16.37
197.0960910073 	 14.56
199.1117410715 	 11.26
206.1090014173 	 14.17
207.1168264494 	 14.09
209.1324765136 	 15.03
211.1117410715 	 18.78
211.1481265778 	 9.69
220.1246514815 	 9.82
221.1324765136 	 17.94
222.1039160394 	 10.53
223.1117410715 	 13.91
225.1273911357 	 16.85
234.1488548593 	 52.66
235.1481265778 	 24.49
237.1273911357 	 21.22
238.1352161678 	 10.07
239.1430411999 	 25.5
248.1195661036 	 18.7
249.1273911357 	 21.22
251.1430411999 	 14.75
253.1586912641 	 16.43
255.137955822 	 10.78
262.1437694814 	 12.52
263.1430411999 	 25.09
267.137955822 	 15.12
280.1543341677 	 30.99
281.1536058862 	 33.65
291.137955822 	 16.74
299.1641705725 	 20.71
309.1485205083 	 34.27
327.1590851946 	 29
509.2196740787 	 14.47
848.3851815443 	 0
END IONS

BEGIN IONS
PEPMASS=501.308
CHARGE=1
MSLEVEL=2
RT=0
SOURCE_INSTRUMENT=qTOF
FILENAME=CCMSLIB00000080364.ms
IONMODE=Positive
ORGANISM=Natural
NAME=MLS001142815-01!tert-butyl (2S)-2-[4-[[(2S)-1-[(4-methylphenyl)methylamino]-1-oxopropan-2-yl]carbamoyl]piperidine-1-carbonyl]pyrrolidine-1-carboxylate
PI=GNPS
DATACOLLECTOR=GNPS
SMILES=Cc1ccc(cc1)CN=C([C@H](C)N=C(C1CCN(CC1)C(=O)[C@@H]1CCCN1C(=O)OC(C)(C)C)O)O
INCHI=InChI=1S/C27H40N4O5/c1-18-8-10-20(11-9-18)17-28-23(32)19(2)29-24(33)21-12-15-30(16-13-21)25(34)22-7-6-14-31(22)26(35)36-27(3,4)5/h8-11,19,21-22H,6-7,12-17H2,1-5H3,(H,28,32)(H,29,33)/t19-,22-/m0/s1
FORMULA=C27H40N4O5
PUBMED=N/A
SUBMITUSER=BIOADREM
LIBRARYQUALITY=0
SPECTRUMID=CCMSLIB00000080364
SCANS=2552
ID=CCMSLIB00000080364
96.0807752941 	 0.51
105.0698762568 	 40.08
112.0756899162 	 100
140.0706045383 	 0.95
148.1120754225 	 2.06
155.1178890819 	 17.65
174.1277254867 	 1.58
183.112803704 	 35.98
193.1335391461 	 20.95
252.1706529339 	 4.19
253.1699246524 	 1.1
281.1648392745 	 1.3
304.2019530623 	 63.72
401.2547169143 	 28.81
501.3071464153 	 0
END IONS

BEGIN IONS
PEPMASS=449.2085
CHARGE=1
MSLEVEL=2
RT=0
SOURCE_INSTRUMENT=qTOF
FILENAME=CCMSLIB00000080365.ms
IONMODE=Positive
ORGANISM=Natural
NAME=MLS001032279-01!
PI=GNPS
DATACOLLECTOR=GNPS
SMILES=Cc1c(C)c(=O)oc2c(C)c(ccc12)OC(C)C(=O)N1C[C@H]2C[C@@H](C1)c1cccc(=O)n1C2
INCHI=InChI=1S/C26H28N2O5/c1-14-15(2)26(31)33-24-16(3)22(9-8-20(14)24)32-17(4)25(30)27-11-18-10-19(13-27)21-6-5-7-23(29)28(21)12-18/h5-9,17-19H,10-13H2,1-4H3/t17?,18-,19+/m1/s1
FORMULA=C26H28N2O5
PUBMED=N/A
SUBMITUSER=BIOADREM
LIBRARYQUALITY=0
SPECTRUMID=CCMSLIB00000080365
SCANS=2553
ID=CCMSLIB00000080365
109.0495347452 	 2.79
118.0651252299 	 0.72
122.060039852 	 2.29
131.085526321 	 1.44
132.0443897878 	 1.48
133.0522148199 	 2.07
134.060039852 	 3.33
135.0651848094 	 1.32
138.0913399804 	 1.25
144.0807752941 	 0.7
145.0859202515 	 0.63
146.060039852 	 19.59
147.0678648841 	 17.74
148.0756899162 	 9.17
149.0709388893 	 2.64
154.0651252299 	 0.78
158.0573597773 	 0.77
158.072615911 	 0.81
160.0756899162 	 6.12
162.0913399804 	 1.43
163.0964849378 	 1.25
172.0756899162 	 3.55
173.0808348736 	 22.7
175.0865889535 	 1.16
175.1117410715 	 1.28
176.0831805973 	 1.2
189.1022390177 	 100
190.1073839751 	 21.29
191.1178890819 	 15.52
203.1066556936 	 2.05
217.0971536398 	 4.63
231.1015703157 	 6.79
245.1284537682 	 17
278.1261080445 	 0.79
449.2070980197 	 8.2
END IONS

BEGIN IONS
PEPMASS=399.183
CHARGE=1
MSLEVEL=2
RT=0
SOURCE_INSTRUMENT=qTOF
FILENAME=CCMSLIB00000080366.ms
IONMODE=Positive
ORGANISM=Natural
NAME=MLS001142921-01!
PI=GNPS
DATACOLLECTOR=GNPS
SMILES=c1cc2[C@H]3C[C@H](CN(C3)C(=NCCC(=O)Nc3ccc(cc3)F)O)Cn2c(=O)c1
INCHI=InChI=1S/C21H23FN4O3/c22-16-4-6-17(7-5-16)24-19(27)8-9-23-21(29)25-11-14-10-15(13-25)18-2-1-3-20(28)26(18)12-14/h1-7,14-15H,8-13H2,(H,23,29)(H,24,27)/t14-,15+/m1/s1
FORMULA=C21H23FN4O3
PUBMED=N/A
SUBMITUSER=BIOADREM
LIBRARYQUALITY=0
SPECTRUMID=CCMSLIB00000080366
SCANS=2554
ID=CCMSLIB00000080366
99.0229260642 	 0.62
108.0443897878 	 0.63
116.0494751657 	 0.64
130.0651252299 	 0.94
132.0443897878 	 2.26
133.0522148199 	 4.39
134.060039852 	 1.95
144.0807752941 	 0.72
146.060039852 	 11.19
148.0756899162 	 19.79
158.060039852 	 3.43
159.0678648841 	 2.8
160.0756899162 	 27.52
162.0913399804 	 0.82
172.0756899162 	 3.92
174.0913399804 	 11.95
189.1022390177 	 16.06
191.1178890819 	 35.08
217.0971536398 	 100
234.1237027413 	 46.99
235.1077183261 	 18.32
246.1237027413 	 36.34
288.1342674276 	 15.44
399.1826948254 	 0
END IONS

BEGIN IONS
PEPMASS=487.2224
CHARGE=1
MSLEVEL=2
RT=0
SOURCE_INSTRUMENT=qTOF
FILENAME=CCMSLIB00000080367.ms
IONMODE=Positive
ORGANISM=Natural
NAME=MLS001160499-01!
PI=GNPS
DATACOLLECTOR=GNPS
SMILES=Cc1c2cc3c(coc3cc2oc(=O)c1CC(=O)N1C[C@H]2C[C@@H](C1)c1cccc(=O)n1C2)C(C)(C)C
INCHI=InChI=1S/C29H30N2O5/c1-16-19-9-21-22(29(2,3)4)15-35-24(21)11-25(19)36-28(34)20(16)10-27(33)30-12-17-8-18(14-30)23-6-5-7-26(32)31(23)13-17/h5-7,9,11,15,17-18H,8,10,12-14H2,1-4H3/t17-,18+/m1/s1
FORMULA=C29H30N2O5
PUBMED=N/A
SUBMITUSER=BIOADREM
LIBRARYQUALITY=0
SPECTRUMID=CCMSLIB00000080367
SCANS=2555
ID=CCMSLIB00000080367
141.0698762568 	 0.22
148.0756899162 	 3.36
185.059705501 	 0.31
191.1178890819 	 21.48
211.0753555652 	 0.51
213.0546201231 	 0.23
226.0988306615 	 0.72
239.0702701873 	 0.33
241.1223057578 	 3.38
242.1261080445 	 0.73
254.0937452836 	 1.36
255.0975475703 	 0.24
269.1172203799 	 100
270.1210226666 	 30.05
297.112135002 	 13.15
487.2227480839 	 4.1
END IONS

BEGIN IONS
PEPMASS=396.1442
CHARGE=1
MSLEVEL=2
RT=0
SOURCE_INSTRUMENT=qTOF
FILENAME=CCMSLIB00000080368.ms
IONMODE=Positive
ORGANISM=Natural
NAME=MLS001141237-01!1-[2-(4-methyl-6-oxobenzo[c]chromen-3-yl)oxyacetyl]piperidine-4-carboxylic acid
PI=GNPS
DATACOLLECTOR=GNPS
SMILES=Cc1c(ccc2c3ccccc3c(=O)oc12)OCC(=O)N1CCC(CC1)C(=O)O
INCHI=InChI=1S/C22H21NO6/c1-13-18(28-12-19(24)23-10-8-14(9-11-23)21(25)26)7-6-16-15-4-2-3-5-17(15)22(27)29-20(13)16/h2-7,14H,8-12H2,1H3,(H,25,26)
FORMULA=C22H21NO6
PUBMED=N/A
SUBMITUSER=BIOADREM
LIBRARYQUALITY=0
SPECTRUMID=CCMSLIB00000080368
SCANS=2556
ID=CCMSLIB00000080368
101.047129442 	 2.63
110.060039852 	 1.58
112.0756899162 	 9.08
114.0549544741 	 24.09
124.0756899162 	 1.58
126.0913399804 	 44.4
128.0706045383 	 100
130.0862546025 	 10.27
141.0698762568 	 2.03
142.0862546025 	 19.75
152.0620512247 	 5.68
153.0698762568 	 9.2
155.0491408147 	 2.04
155.085526321 	 6.55
156.0655191604 	 3.53
165.0698762568 	 8.92
167.085526321 	 2.7
169.0647908789 	 3.27
171.0440554368 	 1.56
172.0968192888 	 2.63
181.0647908789 	 39.58
183.0804409431 	 12.26
197.059705501 	 3.83
198.0675305331 	 3.1
209.059705501 	 2.58
211.0753555652 	 10.13
221.059705501 	 1.68
225.0546201231 	 5.2
226.0624451552 	 37.36
239.0702701873 	 54.72
267.0651848094 	 2.53
322.1437694814 	 1.51
350.1386841035 	 2.23
396.1441634119 	 2.96
END IONS

BEGIN IONS
PEPMASS=424.176
CHARGE=1
MSLEVEL=2
RT=0
SOURCE_INSTRUMENT=qTOF
FILENAME=CCMSLIB00000080369.ms
IONMODE=Positive
ORGANISM=Natural
NAME=MLS001141321-01!(2S)-2-[[2-(4-butyl-2-oxochromen-7-yl)oxyacetyl]amino]-3-phenylpropanoic acid
PI=GNPS
DATACOLLECTOR=GNPS
SMILES=CCCCc1cc(=O)oc2cc(ccc12)OCC(=N[C@@H](Cc1ccccc1)C(=O)O)O
INCHI=InChI=1S/C24H25NO6/c1-2-3-9-17-13-23(27)31-21-14-18(10-11-19(17)21)30-15-22(26)25-20(24(28)29)12-16-7-5-4-6-8-16/h4-8,10-11,13-14,20H,2-3,9,12,15H2,1H3,(H,25,26)(H,28,29)/t20-/m0/s1
FORMULA=C24H25NO6
PUBMED=N/A
SUBMITUSER=BIOADREM
LIBRARYQUALITY=0
SPECTRUMID=CCMSLIB00000080369
SCANS=2557
ID=CCMSLIB00000080369
103.0542261926 	 13.83
105.0698762568 	 46.89
107.0491408147 	 3.15
115.0542261926 	 12.5
117.0573001978 	 25.69
118.0651252299 	 2.72
120.0807752941 	 40.5
121.0647908789 	 2.4
129.0698762568 	 2.67
131.0491408147 	 5.47
132.0807752941 	 100
133.0647908789 	 5.29
135.0440554368 	 1.81
143.085526321 	 2.19
144.0569658468 	 2.11
145.1011763852 	 55.91
149.059705501 	 2.71
150.0913399804 	 2.59
155.085526321 	 5.33
159.0440554368 	 7.16
159.0804409431 	 1.6
161.059705501 	 20.73
163.0389700589 	 5.55
163.1117410715 	 3.55
172.0518804689 	 5.03
173.0960910073 	 25.41
177.0910056294 	 2.34
189.0546201231 	 10.23
201.0910056294 	 46.94
203.1066556936 	 10.3
219.1015703157 	 42.7
231.1015703157 	 33.6
259.0964849378 	 2.1
321.1485205083 	 5.51
378.1699842319 	 7.4
424.1754635403 	 0
END IONS

BEGIN IONS
PEPMASS=401.2065
CHARGE=1
MSLEVEL=2
RT=0
SOURCE_INSTRUMENT=qTOF
FILENAME=CCMSLIB00000080370.ms
IONMODE=Positive
ORGANISM=Natural
NAME=MLS001159060-01!1-[2-(4-butyl-8-methyl-2-oxochromen-7-yl)oxyacetyl]piperidine-4-carboxamide
PI=GNPS
DATACOLLECTOR=GNPS
SMILES=CCCCc1cc(=O)oc2c(C)c(ccc12)OCC(=O)N1CCC(CC1)C(=N)O
INCHI=InChI=1S/C22H28N2O5/c1-3-4-5-16-12-20(26)29-21-14(2)18(7-6-17(16)21)28-13-19(25)24-10-8-15(9-11-24)22(23)27/h6-7,12,15H,3-5,8-11,13H2,1-2H3,(H2,23,27)
FORMULA=C22H28N2O5
PUBMED=N/A
SUBMITUSER=BIOADREM
LIBRARYQUALITY=0
SPECTRUMID=CCMSLIB00000080370
SCANS=2558
ID=CCMSLIB00000080370
96.0807752941 	 5.93
98.060039852 	 7.27
99.0678648841 	 2.25
105.0698762568 	 2.87
110.060039852 	 4.58
112.0756899162 	 11.54
115.0542261926 	 3.28
117.0698762568 	 3.07
119.085526321 	 2.83
123.0440554368 	 6.58
124.0756899162 	 10.81
125.0835149483 	 7.6
126.0913399804 	 9.06
127.0865889535 	 52.21
131.085526321 	 4.79
141.1022390177 	 28.9
145.0647908789 	 11.14
147.0804409431 	 3.44
149.059705501 	 7.63
157.1011763852 	 3
159.0804409431 	 4.95
161.059705501 	 2.42
161.1324765136 	 2.87
162.0675305331 	 8.37
169.0971536398 	 3.96
172.0842432298 	 3.02
173.059705501 	 3.19
175.0753555652 	 4.45
185.0960910073 	 2.7
187.1117410715 	 16.75
188.0831805973 	 8.64
188.1155433582 	 4.54
189.0546201231 	 4.48
189.1273911357 	 7.35
202.0988306615 	 4.81
203.1066556936 	 2.76
217.1223057578 	 27.05
218.1261080445 	 8.61
245.1172203799 	 100
246.1210226666 	 13.56
273.112135002 	 5.92
285.1485205083 	 2.71
313.1434351304 	 2.91
328.190719674 	 11.77
356.1856342961 	 25.68
384.1805489182 	 6.05
401.2070980197 	 3.77
END IONS

BEGIN IONS
PEPMASS=353.1871
CHARGE=1
MSLEVEL=2
RT=0
SOURCE_INSTRUMENT=qTOF
FILENAME=CCMSLIB00000080371.ms
IONMODE=Positive
ORGANISM=Natural
NAME=MLS001141333-01!2-(7-methyl-2,3,4,7,9,10-hexahydro-[1,4]dioxepino[2,3-g]isoquinolin-8-yl)-N-phenylacetamide
PI=GNPS
DATACOLLECTOR=GNPS
SMILES=CC1c2cc3c(cc2CCN1CC(=Nc1ccccc1)O)OCCCO3
INCHI=InChI=1S/C21H24N2O3/c1-15-18-13-20-19(25-10-5-11-26-20)12-16(18)8-9-23(15)14-21(24)22-17-6-3-2-4-7-17/h2-4,6-7,12-13,15H,5,8-11,14H2,1H3,(H,22,24)
FORMULA=C21H24N2O3
PUBMED=N/A
SUBMITUSER=BIOADREM
LIBRARYQUALITY=0
SPECTRUMID=CCMSLIB00000080371
SCANS=2559
ID=CCMSLIB00000080371
103.0542261926 	 1.78
105.0698762568 	 4.43
106.0651252299 	 30.52
115.0542261926 	 9.08
117.0698762568 	 28.93
119.0491408147 	 3.99
119.085526321 	 2.42
128.0620512247 	 2.08
129.0698762568 	 6.22
131.0491408147 	 3.31
133.0647908789 	 8.13
135.0804409431 	 3.44
143.0491408147 	 4.42
145.0647908789 	 39.11
146.0964253583 	 3.14
147.0440554368 	 1.97
149.059705501 	 8.48
157.0647908789 	 5.49
158.072615911 	 2.47
161.059705501 	 8.42
162.0675305331 	 10.59
173.059705501 	 1.73
174.0913399804 	 9.29
175.0753555652 	 21.21
187.0753555652 	 2.86
188.0831805973 	 2.06
188.1069900446 	 1.87
201.0910056294 	 8.38
202.0862546025 	 48.59
215.1066556936 	 4.41
216.1019046667 	 5.05
217.1097296988 	 10.27
219.125379763 	 6.67
232.1332047951 	 100
296.1645049235 	 3.5
353.1859686471 	 11.37
END IONS

BEGIN IONS
PEPMASS=431.208
CHARGE=1
MSLEVEL=2
RT=0
SOURCE_INSTRUMENT=qTOF
FILENAME=CCMSLIB00000080372.ms
IONMODE=Positive
ORGANISM=Natural
NAME=MLS001142757-01!
PI=GNPS
DATACOLLECTOR=GNPS
SMILES=C[C@@H](C(=NCCc1ccccc1)O)N1C(=O)[C@]2(C)c3c(CCN2C1=O)c1ccccc1[nH]3
INCHI=InChI=1S/C25H26N4O3/c1-16(22(30)26-14-12-17-8-4-3-5-9-17)29-23(31)25(2)21-19(13-15-28(25)24(29)32)18-10-6-7-11-20(18)27-21/h3-11,16,27H,12-15H2,1-2H3,(H,26,30)/t16-,25-/m0/s1
FORMULA=C25H26N4O3
PUBMED=N/A
SUBMITUSER=BIOADREM
LIBRARYQUALITY=0
SPECTRUMID=CCMSLIB00000080372
SCANS=2560
ID=CCMSLIB00000080372
115.0542261926 	 0.38
117.0698762568 	 0.58
118.0651252299 	 0.22
130.0651252299 	 0.31
142.0651252299 	 0.37
144.0807752941 	 16.14
156.0807752941 	 0.77
168.0807752941 	 7.71
170.060039852 	 0.38
171.0916743314 	 0.73
183.0916743314 	 5.8
185.1073243956 	 25.26
196.0756899162 	 0.45
197.1073243956 	 0.43
211.0865889535 	 28.41
213.1022390177 	 4.02
221.1073243956 	 0.26
237.1022390177 	 0.4
239.1178890819 	 0.56
254.1287881192 	 100
264.113138055 	 0.29
282.1237027413 	 24.03
431.2077667217 	 0
END IONS

BEGIN IONS
PEPMASS=552.307
CHARGE=1
MSLEVEL=2
RT=0
SOURCE_INSTRUMENT=qTOF
FILENAME=CCMSLIB00000080373.ms
IONMODE=Positive
ORGANISM=Natural
NAME=MLS001140512-01!(2R)-2-[[(2S)-3-methyl-2-[[1-[(2-methylpropan-2-yl)oxycarbonyl]-4-phenylpiperidine-4-carbonyl]amino]pentanoyl]amino]-2-phenylacetic acid
PI=GNPS
DATACOLLECTOR=GNPS
SMILES=CCC(C)[C@@H](C(=N[C@H](c1ccccc1)C(=O)O)O)N=C(C1(CCN(CC1)C(=O)OC(C)(C)C)c1ccccc1)O
INCHI=InChI=1S/C31H41N3O6/c1-6-21(2)24(26(35)32-25(27(36)37)22-13-9-7-10-14-22)33-28(38)31(23-15-11-8-12-16-23)17-19-34(20-18-31)29(39)40-30(3,4)5/h7-16,21,24-25H,6,17-20H2,1-5H3,(H,32,35)(H,33,38)(H,36,37)/t21?,24-,25+/m0/s1
FORMULA=C31H41N3O6
PUBMED=N/A
SUBMITUSER=BIOADREM
LIBRARYQUALITY=0
SPECTRUMID=CCMSLIB00000080373
SCANS=2561
ID=CCMSLIB00000080373
100.0393044099 	 1.07
105.0698762568 	 0.62
106.0651252299 	 2.27
117.0698762568 	 1.61
126.0549544741 	 0.55
131.085526321 	 7.66
133.1011763852 	 0.86
135.0440554368 	 4.42
143.085526321 	 3.39
152.0706045383 	 2.28
158.0964253583 	 0.48
159.0804409431 	 0.55
160.1120754225 	 100
170.0964253583 	 0.99
186.0913399804 	 2.2
188.1069900446 	 44.52
204.1019046667 	 38.82
265.1546685187 	 6.05
271.1804893387 	 7.19
273.1961394029 	 5.58
299.1754039608 	 4.44
301.191054025 	 5.83
317.1859686471 	 8.49
345.1808832692 	 0.64
452.2543825633 	 0.99
552.3068120643 	 0
END IONS

BEGIN IONS
PEPMASS=358.2019
CHARGE=1
MSLEVEL=2
RT=0
SOURCE_INSTRUMENT=qTOF
FILENAME=CCMSLIB00000080374.ms
IONMODE=Positive
ORGANISM=Natural
NAME=MLS000060551-01!
PI=GNPS
DATACOLLECTOR=GNPS
SMILES=CN1CCc2cc(c(cc2C1Cc1ccc(c(c1)OC)OC)OC)OC
INCHI=InChI=1S/C21H27NO4/c1-22-9-8-15-12-20(25-4)21(26-5)13-16(15)17(22)10-14-6-7-18(23-2)19(11-14)24-3/h6-7,11-13,17H,8-10H2,1-5H3
FORMULA=C21H27NO4
PUBMED=N/A
SUBMITUSER=BIOADREM
LIBRARYQUALITY=0
SPECTRUMID=CCMSLIB00000080374
SCANS=2562
ID=CCMSLIB00000080374
107.0491408147 	 10.12
108.0569658468 	 4
115.0542261926 	 2.4
121.0647908789 	 2.06
128.0620512247 	 3.15
131.0491408147 	 3.45
135.0440554368 	 6.33
135.0804409431 	 3.04
136.0518804689 	 4.51
143.0491408147 	 6
145.0647908789 	 5.21
146.072615911 	 2.43
150.0675305331 	 9.42
151.0753555652 	 81.16
158.072615911 	 21.07
159.0440554368 	 5.96
162.0913399804 	 8.11
163.0753555652 	 3.95
165.0910056294 	 13.22
174.0675305331 	 20.85
175.0991650125 	 1.97
176.0706045383 	 2.93
189.0910056294 	 28.98
190.0862546025 	 29.51
191.0940796346 	 19.57
206.1175547309 	 100
237.0910056294 	 2.03
238.0988306615 	 2.46
252.1144807257 	 3.36
253.1223057578 	 3.11
266.0937452836 	 2.14
269.1172203799 	 3.67
280.1093953478 	 2.18
281.1172203799 	 9.7
284.1406954762 	 3.14
296.1406954762 	 8.42
297.112135002 	 5.09
312.1356100983 	 5.01
327.1590851946 	 5.34
358.2012843603 	 2.69
END IONS

BEGIN IONS
PEPMASS=422.16
CHARGE=1
MSLEVEL=2
RT=0
SOURCE_INSTRUMENT=qTOF
FILENAME=CCMSLIB00000080375.ms
IONMODE=Positive
ORGANISM=Natural
NAME=MLS001075491-01!(2S)-2-[[2-[(6-oxo-7,8,9,10-tetrahydrobenzo[c]chromen-3-yl)oxy]acetyl]amino]-3-phenylpropanoic acid
PI=GNPS
DATACOLLECTOR=GNPS
SMILES=c1ccc(cc1)C[C@@H](C(=O)O)N=C(COc1ccc2c3CCCCc3c(=O)oc2c1)O
INCHI=InChI=1S/C24H23NO6/c26-22(25-20(23(27)28)12-15-6-2-1-3-7-15)14-30-16-10-11-18-17-8-4-5-9-19(17)24(29)31-21(18)13-16/h1-3,6-7,10-11,13,20H,4-5,8-9,12,14H2,(H,25,26)(H,27,28)/t20-/m0/s1
FORMULA=C24H23NO6
PUBMED=N/A
SUBMITUSER=BIOADREM
LIBRARYQUALITY=0
SPECTRUMID=CCMSLIB00000080375
SCANS=2563
ID=CCMSLIB00000080375
103.0542261926 	 13.33
105.0698762568 	 34.95
107.0491408147 	 7.23
115.0542261926 	 9.77
117.0573001978 	 12.41
118.0651252299 	 2.91
120.0807752941 	 26.91
128.0620512247 	 17.3
129.0698762568 	 5.23
130.0651252299 	 18.11
131.0491408147 	 4.2
132.0807752941 	 100
141.0698762568 	 3.31
143.085526321 	 29.62
145.0647908789 	 6.27
145.1011763852 	 5.64
147.0440554368 	 2.84
153.0698762568 	 5.18
155.085526321 	 5.76
160.0518804689 	 2.52
171.0804409431 	 48.46
173.0960910073 	 5.37
175.0389700589 	 2.53
175.0753555652 	 2.11
178.0862546025 	 2.94
188.0831805973 	 4.17
189.0910056294 	 3.35
199.0753555652 	 16.47
201.0910056294 	 35.87
216.0780952194 	 5.85
217.0859202515 	 39.83
229.0859202515 	 74.09
320.1406954762 	 2.14
377.1621591998 	 2.53
422.1598134761 	 0
END IONS

BEGIN IONS
PEPMASS=421.107
CHARGE=1
MSLEVEL=2
RT=0
SOURCE_INSTRUMENT=qTOF
FILENAME=CCMSLIB00000080376.ms
IONMODE=Positive
ORGANISM=Natural
NAME=MLS001162662-01!2-[(5-hydroxy-2,2-dimethyl-4-oxo-3H-chromen-7-yl)oxy]-N-(4-sulfamoylphenyl)acetamide
PI=GNPS
DATACOLLECTOR=GNPS
SMILES=CC1(C)CC(=O)c2c(cc(cc2O1)OCC(=O)Nc1ccc(cc1)S(=O)(=O)N)O
INCHI=InChI=1S/C19H20N2O7S/c1-19(2)9-15(23)18-14(22)7-12(8-16(18)28-19)27-10-17(24)21-11-3-5-13(6-4-11)29(20,25)26/h3-8,22H,9-10H2,1-2H3,(H,21,24)(H2,20,25,26)
FORMULA=C19H20N2O7S
PUBMED=N/A
SUBMITUSER=BIOADREM
LIBRARYQUALITY=0
SPECTRUMID=CCMSLIB00000080376
SCANS=2564
ID=CCMSLIB00000080376
104.0494751657 	 12.66
105.0573001978 	 8.95
117.0573001978 	 4.27
118.0651252299 	 9.32
123.0076699305 	 4.03
123.0440554368 	 3.87
130.0651252299 	 12.41
132.0443897878 	 5.37
132.0807752941 	 4.48
133.0522148199 	 72
146.060039852 	 100
147.0651848094 	 16.89
151.0416501336 	 7
153.0182346168 	 61.62
158.060039852 	 13.23
160.0393044099 	 5.17
160.0756899162 	 8.79
170.060039852 	 5.05
172.0756899162 	 6.27
185.0379242014 	 19.09
186.0549544741 	 65.36
187.0600994315 	 12.25
188.0706045383 	 11.93
190.0624451552 	 5.45
200.0706045383 	 7.65
209.0808348736 	 20.68
213.0692243298 	 3.66
214.0498690962 	 34.92
215.0550140536 	 5.41
216.0655191604 	 27.68
228.0655191604 	 11.93
238.0498690962 	 7.41
242.0447837183 	 82.42
243.0499286757 	 15.26
256.0604337825 	 16.97
260.0553484046 	 9.97
280.0941392141 	 3.7
284.0553484046 	 57.79
312.1203539646 	 5.33
325.0944735651 	 3.79
340.1179486614 	 8.22
348.0172483388 	 32.76
404.0798485956 	 9.24
421.1063976971 	 0
END IONS

BEGIN IONS
PEPMASS=287.0537
CHARGE=1
MSLEVEL=2
RT=0
SOURCE_INSTRUMENT=qTOF
FILENAME=CCMSLIB00000080377.ms
IONMODE=Positive
ORGANISM=Natural
NAME=MLS002473235-01!3-(3,4-dihydroxyphenyl)-6,8-dihydroxyisochromen-1-one
PI=GNPS
DATACOLLECTOR=GNPS
SMILES=c1cc(c(cc1c1cc2cc(cc(c2c(=O)o1)O)O)O)O
INCHI=InChI=1S/C15H10O6/c16-9-3-8-5-13(7-1-2-10(17)11(18)4-7)21-15(20)14(8)12(19)6-9/h1-6,16-19H
FORMULA=C15H10O6
PUBMED=N/A
SUBMITUSER=BIOADREM
LIBRARYQUALITY=0
SPECTRUMID=CCMSLIB00000080377
SCANS=2565
ID=CCMSLIB00000080377
103.0542261926 	 3.15
121.0284053726 	 13.73
128.0620512247 	 5.9
129.0698762568 	 4.04
131.0491408147 	 2.36
137.0233199947 	 11.51
139.0542261926 	 33.29
147.0440554368 	 4.36
157.0647908789 	 5.61
161.0233199947 	 4.68
167.0491408147 	 12.37
171.0440554368 	 7.04
185.059705501 	 6.33
189.0546201231 	 3
213.0546201231 	 26.6
215.0702701873 	 2
223.0389700589 	 2.18
241.0495347452 	 15.19
251.033884681 	 3.97
269.0444493673 	 100
287.0550140536 	 12.26
END IONS

BEGIN IONS
PEPMASS=220.1122
CHARGE=1
MSLEVEL=2
RT=0
SOURCE_INSTRUMENT=qTOF
FILENAME=CCMSLIB00000080378.ms
IONMODE=Positive
ORGANISM=Natural
NAME=MLS002608023-01!
PI=GNPS
DATACOLLECTOR=GNPS
SMILES=c1ccc(cc1)Nc1ccc2ccccc2c1
INCHI=InChI=1S/C16H13N/c1-2-8-15(9-3-1)17-16-11-10-13-6-4-5-7-14(13)12-16/h1-12,17H
FORMULA=C16H13N
PUBMED=N/A
SUBMITUSER=BIOADREM
LIBRARYQUALITY=0
SPECTRUMID=CCMSLIB00000080378
SCANS=2566
ID=CCMSLIB00000080378
102.0464011605 	 0.28
115.0542261926 	 22
116.0620512247 	 12.26
126.0464011605 	 1.59
127.0542261926 	 2.12
128.0620512247 	 10.26
142.0651252299 	 6.95
143.072950262 	 100
177.0698762568 	 0.27
203.085526321 	 3.73
205.0886003262 	 1.23
220.1120754225 	 11.33
END IONS

BEGIN IONS
PEPMASS=323.177
CHARGE=1
MSLEVEL=2
RT=0
SOURCE_INSTRUMENT=qTOF
FILENAME=CCMSLIB00000080381.ms
IONMODE=Positive
ORGANISM=Natural
NAME=MLS000728649-01!
PI=GNPS
DATACOLLECTOR=GNPS
SMILES=C=CC12CN(C)[C@@H]3C4CO[C@H](C[C@@H]14)[C@@]1(c4ccccc4N=C1O)[C@H]23
INCHI=InChI=1S/C20H22N2O2/c1-3-19-10-22(2)16-11-9-24-15(8-13(11)19)20(17(16)19)12-6-4-5-7-14(12)21-18(20)23/h3-7,11,13,15-17H,1,8-10H2,2H3,(H,21,23)/t11?,13-,15-,16-,17+,19?,20+/m1/s1
FORMULA=C20H22N2O2
PUBMED=N/A
SUBMITUSER=BIOADREM
LIBRARYQUALITY=0
SPECTRUMID=CCMSLIB00000080381
SCANS=2567
ID=CCMSLIB00000080381
105.0698762568 	 4.03
115.0542261926 	 6.37
117.0698762568 	 10.75
130.0651252299 	 7.75
131.085526321 	 13.56
132.0443897878 	 14.54
134.0964253583 	 8.84
146.060039852 	 18.37
146.0964253583 	 5.39
158.060039852 	 15.32
159.0804409431 	 5.41
160.1120754225 	 3.94
166.0651252299 	 4.94
167.072950262 	 5.17
178.0651252299 	 10.64
180.0807752941 	 3.14
182.060039852 	 3.34
184.0756899162 	 9.04
190.1226401088 	 4.67
194.0964253583 	 3.78
195.0678648841 	 58.17
196.0756899162 	 32.84
203.072950262 	 7.55
204.0807752941 	 3.58
208.0756899162 	 14.56
210.0913399804 	 26.51
218.0964253583 	 20.33
220.0756899162 	 4.94
222.0913399804 	 5.39
236.1069900446 	 100
238.1226401088 	 19.17
262.1226401088 	 4.56
264.138290173 	 4.25
293.1648392745 	 3.49
323.1754039608 	 197.77
END IONS

BEGIN IONS
PEPMASS=429.2849
CHARGE=1
MSLEVEL=2
RT=0
SOURCE_INSTRUMENT=qTOF
FILENAME=CCMSLIB00000080382.ms
IONMODE=Positive
ORGANISM=Natural
NAME=MLS001141084-01!N-[(2S)-3-methyl-1-[(4-methylphenyl)methylamino]-1-oxobutan-2-yl]-1-[(2S)-pyrrolidine-2-carbonyl]piperidine-4-carboxamide
PI=GNPS
DATACOLLECTOR=GNPS
SMILES=CC(C)[C@@H](C(=NCc1ccc(C)cc1)O)N=C(C1CCN(CC1)C(=O)[C@@H]1CCCN1)O
INCHI=InChI=1S/C24H36N4O3/c1-16(2)21(23(30)26-15-18-8-6-17(3)7-9-18)27-22(29)19-10-13-28(14-11-19)24(31)20-5-4-12-25-20/h6-9,16,19-21,25H,4-5,10-15H2,1-3H3,(H,26,30)(H,27,29)/t20-,21-/m0/s1
FORMULA=C24H36N4O3
PUBMED=N/A
SUBMITUSER=BIOADREM
LIBRARYQUALITY=0
SPECTRUMID=CCMSLIB00000080382
SCANS=2568
ID=CCMSLIB00000080382
103.0542261926 	 1.28
105.0698762568 	 24.42
112.0756899162 	 100
114.0787639214 	 0.52
122.0964253583 	 3.63
163.1229744598 	 0.8
174.1277254867 	 1.51
176.1433755509 	 2.31
183.1491892103 	 21.86
204.138290173 	 0.66
208.1444381834 	 1.45
211.1441038324 	 33.55
221.1648392745 	 24.69
280.2019530623 	 8.39
281.2012247808 	 0.98
282.1852403656 	 0.62
308.1968676844 	 5.58
309.1961394029 	 0.67
332.2332531907 	 24.29
429.2860170427 	 10.79
END IONS

BEGIN IONS
PEPMASS=466.187
CHARGE=1
MSLEVEL=2
RT=0
SOURCE_INSTRUMENT=qTOF
FILENAME=CCMSLIB00000080383.ms
IONMODE=Positive
ORGANISM=Natural
NAME=MLS001140249-01!(2S)-3-phenyl-2-[[2-[(4,8,8-trimethyl-2-oxo-9,10-dihydropyrano[2,3-h]chromen-5-yl)oxy]acetyl]amino]propanoic acid
PI=GNPS
DATACOLLECTOR=GNPS
SMILES=Cc1cc(=O)oc2c3CCC(C)(C)Oc3cc(c12)OCC(=N[C@@H](Cc1ccccc1)C(=O)O)O
INCHI=InChI=1S/C26H27NO7/c1-15-11-22(29)33-24-17-9-10-26(2,3)34-19(17)13-20(23(15)24)32-14-21(28)27-18(25(30)31)12-16-7-5-4-6-8-16/h4-8,11,13,18H,9-10,12,14H2,1-3H3,(H,27,28)(H,30,31)/t18-/m0/s1
FORMULA=C26H27NO7
PUBMED=N/A
SUBMITUSER=BIOADREM
LIBRARYQUALITY=0
SPECTRUMID=CCMSLIB00000080383
SCANS=2569
ID=CCMSLIB00000080383
103.0542261926 	 4.12
105.0698762568 	 3.65
107.0491408147 	 1.25
109.0284053726 	 1.05
115.0542261926 	 7.79
117.0573001978 	 8.89
118.0651252299 	 3.06
120.0807752941 	 13.81
121.0647908789 	 1.43
130.0651252299 	 32.59
131.0491408147 	 2.63
132.0807752941 	 100
135.0440554368 	 1.13
142.0651252299 	 2.4
147.0440554368 	 1.16
148.0756899162 	 1.42
149.059705501 	 2.53
159.0440554368 	 1.23
160.0756899162 	 6.61
161.059705501 	 2.27
163.0389700589 	 2.33
176.046795091 	 1.47
177.0546201231 	 5.71
178.0862546025 	 3.94
187.0389700589 	 1.9
189.0546201231 	 8.61
205.0495347452 	 54.7
206.0811692246 	 4.09
217.0495347452 	 21
233.0444493673 	 1.52
245.0444493673 	 21.83
273.112135002 	 3.51
301.1070496241 	 2.46
364.1179486614 	 6.06
410.1234279698 	 17.65
466.1860282266 	 0
END IONS

BEGIN IONS
PEPMASS=432.213
CHARGE=1
MSLEVEL=2
RT=0
SOURCE_INSTRUMENT=qTOF
FILENAME=CCMSLIB00000080384.ms
IONMODE=Positive
ORGANISM=Natural
NAME=MLS001140205-01!(2S)-1-[(2S)-2-[(4,7-dimethoxy-1-methylindole-2-carbonyl)amino]-3-methylbutanoyl]pyrrolidine-2-carboxylic acid
PI=GNPS
DATACOLLECTOR=GNPS
SMILES=CC(C)[C@@H](C(=O)N1CCC[C@H]1C(=O)O)NC(=O)c1cc2c(ccc(c2n1C)OC)OC
INCHI=InChI=1S/C22H29N3O6/c1-12(2)18(21(27)25-10-6-7-14(25)22(28)29)23-20(26)15-11-13-16(30-4)8-9-17(31-5)19(13)24(15)3/h8-9,11-12,14,18H,6-7,10H2,1-5H3,(H,23,26)(H,28,29)/t14-,18-/m0/s1
FORMULA=C22H29N3O6
PUBMED=N/A
SUBMITUSER=BIOADREM
LIBRARYQUALITY=0
SPECTRUMID=CCMSLIB00000080384
SCANS=2570
ID=CCMSLIB00000080384
109.0647908789 	 0.42
116.0706045383 	 1.76
117.0573001978 	 0.76
118.0624451552 	 0.45
119.0491408147 	 0.69
119.072950262 	 0.41
121.0647908789 	 0.41
122.0362304047 	 0.33
131.072950262 	 0.41
133.0522148199 	 0.45
134.060039852 	 0.38
135.0678648841 	 0.38
137.059705501 	 0.5
145.0522148199 	 1.11
146.0573597773 	 0.66
147.0678648841 	 1.2
148.0393044099 	 1.04
148.0756899162 	 0.49
149.059705501 	 7.34
151.0389700589 	 0.54
151.0627795062 	 0.55
153.0546201231 	 0.35
160.0756899162 	 1.14
161.047129442 	 1.11
161.0808348736 	 0.38
162.0522743994 	 0.48
162.0913399804 	 0.64
163.0627795062 	 1.76
164.0315389573 	 0.88
175.0627795062 	 0.98
176.0679244636 	 0.46
178.0498690962 	 0.62
179.0576941283 	 8.09
180.0628390857 	 0.92
181.0495347452 	 0.81
189.0420440641 	 0.72
189.0757494957 	 0.45
190.0862546025 	 9.07
191.0913995599 	 1.93
194.0811692246 	 1.28
207.0526087504 	 1.26
218.0811692246 	 100
219.086314182 	 11.59
231.1226996883 	 0.44
246.1488548593 	 4.14
247.1539998167 	 0.91
289.151988444 	 0.57
317.1495831408 	 0.82
432.2129116791 	 0
END IONS

BEGIN IONS
PEPMASS=484.179
CHARGE=1
MSLEVEL=2
RT=0
SOURCE_INSTRUMENT=qTOF
FILENAME=CCMSLIB00000080385.ms
IONMODE=Positive
ORGANISM=Natural
NAME=MLS001162685-01!(2R)-3-benzylsulfanyl-2-[[2-(4-butyl-7-methyl-2-oxochromen-5-yl)oxyacetyl]amino]propanoic acid
PI=GNPS
DATACOLLECTOR=GNPS
SMILES=CCCCc1cc(=O)oc2cc(C)cc(c12)OCC(=N[C@@H](CSCc1ccccc1)C(=O)O)O
INCHI=InChI=1S/C26H29NO6S/c1-3-4-10-19-13-24(29)33-22-12-17(2)11-21(25(19)22)32-14-23(28)27-20(26(30)31)16-34-15-18-8-6-5-7-9-18/h5-9,11-13,20H,3-4,10,14-16H2,1-2H3,(H,27,28)(H,30,31)/t20-/m0/s1
FORMULA=C26H29NO6S
PUBMED=N/A
SUBMITUSER=BIOADREM
LIBRARYQUALITY=0
SPECTRUMID=CCMSLIB00000080385
SCANS=2571
ID=CCMSLIB00000080385
105.0698762568 	 14.78
113.0293708878 	 6.41
115.0542261926 	 28.8
116.0620512247 	 7.93
121.0647908789 	 8.26
128.0620512247 	 10.87
129.0420440641 	 12.07
139.0753555652 	 9.13
141.0698762568 	 8.91
145.0647908789 	 10.65
147.0804409431 	 14.67
149.0444493673 	 15.22
149.0630763194 	 10.22
151.0753555652 	 10.22
159.0838117615 	 12.17
161.0630763194 	 16.96
162.0675305331 	 9.46
165.0579909415 	 17.93
166.0709984688 	 7.83
173.0994618257 	 8.15
174.0675305331 	 7.93
175.0787263836 	 35.11
177.0579909415 	 20.33
185.0994618257 	 8.37
186.0675305331 	 8.8
186.1072868578 	 7.5
187.1151118899 	 11.96
189.0579909415 	 13.48
190.0624451552 	 34.57
190.1352161678 	 6.96
191.0736410057 	 9.67
199.1202943851 	 6.41
203.0736410057 	 100
204.0780952194 	 23.91
215.0736410057 	 18.7
217.0892910699 	 31.09
217.1256765762 	 32.07
231.1049411341 	 7.5
233.1205911983 	 58.26
234.125045412 	 8.91
245.1205911983 	 36.52
246.1284162304 	 14.02
257.1257736935 	 7.39
273.112135002 	 8.37
286.1563455404 	 7.72
291.1260705067 	 9.46
316.1543341677 	 13.59
318.1005840377 	 11.41
361.1553592624 	 8.7
484.1788343587 	 0
END IONS

BEGIN IONS
PEPMASS=444.2017
CHARGE=1
MSLEVEL=2
RT=0
SOURCE_INSTRUMENT=qTOF
FILENAME=CCMSLIB00000080386.ms
IONMODE=Positive
ORGANISM=Natural
NAME=MLS001160399-01!(2S)-1-[2-[(8,8-dimethyl-2-oxo-4-propyl-9,10-dihydropyrano[2,3-h]chromen-5-yl)oxy]acetyl]pyrrolidine-2-carboxylic acid
PI=GNPS
DATACOLLECTOR=GNPS
SMILES=CCCc1cc(=O)oc2c3CCC(C)(C)Oc3cc(c12)OCC(=O)N1CCC[C@H]1C(=O)O
INCHI=InChI=1S/C24H29NO7/c1-4-6-14-11-20(27)31-22-15-8-9-24(2,3)32-17(15)12-18(21(14)22)30-13-19(26)25-10-5-7-16(25)23(28)29/h11-12,16H,4-10,13H2,1-3H3,(H,28,29)/t16-/m0/s1
FORMULA=C24H29NO7
PUBMED=N/A
SUBMITUSER=BIOADREM
LIBRARYQUALITY=0
SPECTRUMID=CCMSLIB00000080386
SCANS=2572
ID=CCMSLIB00000080386
98.060039852 	 18.3
100.0756899162 	 12.3
112.0756899162 	 3.71
115.0542261926 	 1.97
119.085526321 	 1.61
128.0706045383 	 45.4
131.085526321 	 1.84
135.0440554368 	 1.29
135.0804409431 	 4.59
145.0647908789 	 1.44
149.0960910073 	 1.76
151.0389700589 	 1.27
156.0655191604 	 65.68
159.0804409431 	 4.41
161.059705501 	 1.29
163.0389700589 	 2.06
163.0753555652 	 4.68
177.0910056294 	 5.29
187.0753555652 	 5.43
191.033884681 	 7.74
191.0702701873 	 7.18
203.0702701873 	 2.17
205.0859202515 	 28.34
215.0702701873 	 4.77
217.0495347452 	 4.71
217.0859202515 	 10.61
231.0651848094 	 3.26
233.0808348736 	 100
245.0808348736 	 32.41
273.0757494957 	 18.16
290.1386841035 	 1.84
360.1441634119 	 2.26
388.139078034 	 27.67
444.2016782908 	 4.64
END IONS

BEGIN IONS
PEPMASS=441.1212
CHARGE=1
MSLEVEL=2
RT=0
SOURCE_INSTRUMENT=qTOF
FILENAME=CCMSLIB00000080387.ms
IONMODE=Positive
ORGANISM=Natural
NAME=MLS001160501-01!
PI=GNPS
DATACOLLECTOR=GNPS
SMILES=Cc1c2cc(c(cc2oc(=O)c1CC(=O)N1C[C@H]2C[C@@H](C1)c1cccc(=O)n1C2)O)Cl
INCHI=InChI=1S/C23H21ClN2O5/c1-12-15-6-17(24)19(27)8-20(15)31-23(30)16(12)7-22(29)25-9-13-5-14(11-25)18-3-2-4-21(28)26(18)10-13/h2-4,6,8,13-14,27H,5,7,9-11H2,1H3/t13-,14+/m1/s1
FORMULA=C23H21ClN2O5
PUBMED=N/A
SUBMITUSER=BIOADREM
LIBRARYQUALITY=0
SPECTRUMID=CCMSLIB00000080387
SCANS=2573
ID=CCMSLIB00000080387
103.0542261926 	 0.6
116.0620512247 	 0.35
117.0658535114 	 0.31
120.0807752941 	 0.31
132.0569658468 	 1.22
133.0607681335 	 0.34
144.0569658468 	 0.9
148.0756899162 	 8.57
159.0440554368 	 0.38
160.0518804689 	 3
161.0556827556 	 0.3
167.0258185568 	 0.79
174.0913399804 	 0.37
191.1178890819 	 32.74
195.0207331789 	 4.82
196.0245354656 	 0.82
223.015647801 	 100
224.0194500877 	 13.51
251.0105624231 	 5.83
441.121175505 	 3.55
END IONS

BEGIN IONS
PEPMASS=288.124
CHARGE=1
MSLEVEL=2
RT=0
SOURCE_INSTRUMENT=qTOF
FILENAME=CCMSLIB00000080388.ms
IONMODE=Positive
ORGANISM=Natural
NAME=MLS001157756-01!N-cyclopropyl-3-(7-hydroxy-4-methyl-2-oxochromen-3-yl)propanamide
PI=GNPS
DATACOLLECTOR=GNPS
SMILES=Cc1c2ccc(cc2oc(=O)c1CCC(=NC1CC1)O)O
INCHI=InChI=1S/C16H17NO4/c1-9-12-5-4-11(18)8-14(12)21-16(20)13(9)6-7-15(19)17-10-2-3-10/h4-5,8,10,18H,2-3,6-7H2,1H3,(H,17,19)
FORMULA=C16H17NO4
PUBMED=N/A
SUBMITUSER=BIOADREM
LIBRARYQUALITY=0
SPECTRUMID=CCMSLIB00000080388
SCANS=2574
ID=CCMSLIB00000080388
103.0542261926 	 1.5
105.0698762568 	 3.94
107.0491408147 	 0.68
115.0542261926 	 3.68
117.0698762568 	 0.47
119.085526321 	 0.77
127.0542261926 	 1.95
129.0698762568 	 1.16
131.0491408147 	 0.72
133.0647908789 	 8.31
135.0440554368 	 0.48
144.0569658468 	 2.71
145.0647908789 	 0.7
147.0440554368 	 1.41
147.0804409431 	 1.83
157.0647908789 	 0.52
160.0518804689 	 1.61
161.059705501 	 17.33
175.0753555652 	 2.88
189.0546201231 	 100
203.0702701873 	 17.42
231.0651848094 	 2.15
288.1230340393 	 0
END IONS

BEGIN IONS
PEPMASS=535.256
CHARGE=1
MSLEVEL=2
RT=0
SOURCE_INSTRUMENT=qTOF
FILENAME=CCMSLIB00000080389.ms
IONMODE=Positive
ORGANISM=Natural
NAME=MLS001140699-01!1-[(2S)-2-[[(2S)-2-(2,4-dioxo-1H-quinazolin-3-yl)-3-phenylpropanoyl]amino]-4-methylpentanoyl]piperidine-4-carboxylic acid
PI=GNPS
DATACOLLECTOR=GNPS
SMILES=CC(C)C[C@@H](C(=O)N1CCC(CC1)C(=O)O)N=C([C@H](Cc1ccccc1)n1c(=O)c2ccccc2nc1O)O
INCHI=InChI=1S/C29H34N4O6/c1-18(2)16-23(27(36)32-14-12-20(13-15-32)28(37)38)30-25(34)24(17-19-8-4-3-5-9-19)33-26(35)21-10-6-7-11-22(21)31-29(33)39/h3-11,18,20,23-24H,12-17H2,1-2H3,(H,30,34)(H,31,39)(H,37,38)/t23-,24-/m0/s1
FORMULA=C29H34N4O6
PUBMED=N/A
SUBMITUSER=BIOADREM
LIBRARYQUALITY=0
SPECTRUMID=CCMSLIB00000080389
SCANS=2575
ID=CCMSLIB00000080389
103.0542261926 	 3.76
112.0756899162 	 6.25
130.0862546025 	 15.08
146.0236543457 	 9.96
163.0502034472 	 5.3
222.0913399804 	 0.76
223.0964849378 	 0.49
237.099558943 	 0.51
239.0815035756 	 0.41
248.0706045383 	 0.37
265.0971536398 	 100
266.1022985972 	 17.17
275.0815035756 	 1.55
293.0920682619 	 11.99
294.0972132193 	 4.96
535.2551108448 	 0
END IONS

BEGIN IONS
PEPMASS=461.2071
CHARGE=1
MSLEVEL=2
RT=0
SOURCE_INSTRUMENT=qTOF
FILENAME=CCMSLIB00000080390.ms
IONMODE=Positive
ORGANISM=Natural
NAME=MLS001160391-01!
PI=GNPS
DATACOLLECTOR=GNPS
SMILES=Cc1c(ccc2c3CCCCc3c(=O)oc12)OCC(=O)N1C[C@H]2C[C@@H](C1)c1cccc(=O)n1C2
INCHI=InChI=1S/C27H28N2O5/c1-16-23(10-9-20-19-5-2-3-6-21(19)27(32)34-26(16)20)33-15-25(31)28-12-17-11-18(14-28)22-7-4-8-24(30)29(22)13-17/h4,7-10,17-18H,2-3,5-6,11-15H2,1H3/t17-,18+/m1/s1
FORMULA=C27H28N2O5
PUBMED=N/A
SUBMITUSER=BIOADREM
LIBRARYQUALITY=0
SPECTRUMID=CCMSLIB00000080390
SCANS=2576
ID=CCMSLIB00000080390
108.0807752941 	 0.65
117.0573001978 	 0.9
122.060039852 	 3.25
130.0651252299 	 0.59
132.0443897878 	 2.01
133.0522148199 	 1.83
134.060039852 	 8.41
135.0651848094 	 1.26
144.0807752941 	 0.66
145.0495347452 	 0.74
146.060039852 	 23.58
147.0678648841 	 12.94
148.0756899162 	 6.36
149.059705501 	 2.28
160.0756899162 	 7.63
161.0808348736 	 1.53
171.1168264494 	 0.62
172.0756899162 	 2.97
173.0835149483 	 19.06
174.0886599057 	 4.38
175.0502034472 	 0.63
175.0865889535 	 0.61
187.1117410715 	 0.59
188.0706045383 	 1.41
189.1022390177 	 100
190.1073839751 	 17.34
191.1178890819 	 13.89
201.0910056294 	 1.79
202.0988306615 	 1.17
203.1178890819 	 2.83
215.1066556936 	 11.08
229.0859202515 	 1.56
230.0937452836 	 2.41
231.112803704 	 3.81
243.1015703157 	 8.41
264.1104579803 	 0.96
271.0964849378 	 1.83
461.2070980197 	 47.03
END IONS

BEGIN IONS
PEPMASS=483.156
CHARGE=1
MSLEVEL=2
RT=0
SOURCE_INSTRUMENT=qTOF
FILENAME=CCMSLIB00000080391.ms
IONMODE=Positive
ORGANISM=Natural
NAME=MLS001075310-01!(2R)-3-(1H-indol-3-yl)-2-[[2-(2-oxo-4-phenylchromen-7-yl)oxyacetyl]amino]propanoic acid
PI=GNPS
DATACOLLECTOR=GNPS
SMILES=c1ccc(cc1)c1cc(=O)oc2cc(ccc12)OCC(=N[C@H](Cc1c[nH]c2ccccc12)C(=O)O)O
INCHI=InChI=1S/C28H22N2O6/c31-26(30-24(28(33)34)12-18-15-29-23-9-5-4-8-20(18)23)16-35-19-10-11-21-22(17-6-2-1-3-7-17)14-27(32)36-25(21)13-19/h1-11,13-15,24,29H,12,16H2,(H,30,31)(H,33,34)/t24-/m1/s1
FORMULA=C28H22N2O6
PUBMED=N/A
SUBMITUSER=BIOADREM
LIBRARYQUALITY=0
SPECTRUMID=CCMSLIB00000080391
SCANS=2577
ID=CCMSLIB00000080391
103.0542261926 	 2.08
115.0542261926 	 5.48
117.0573001978 	 4.76
118.0651252299 	 7.99
130.0651252299 	 100
132.0807752941 	 6.04
142.0651252299 	 15.2
143.072950262 	 13.19
144.0807752941 	 52.27
146.060039852 	 31.31
154.0651252299 	 12.36
157.0760242672 	 6.97
158.0838492993 	 31.47
160.0756899162 	 3.45
165.0698762568 	 15.81
167.085526321 	 2.93
170.060039852 	 41.78
171.0916743314 	 31.08
181.0760242672 	 4.73
182.0838492993 	 6.96
183.0916743314 	 10.98
185.0709388893 	 8.36
186.0787639214 	 2.75
188.0706045383 	 33.7
193.0647908789 	 7.2
195.0804409431 	 2.6
199.0865889535 	 8.61
200.0944139856 	 10.23
221.059705501 	 14.6
223.0753555652 	 5.84
239.0702701873 	 32.42
251.0702701873 	 12.19
278.0811692246 	 3.42
296.0917339109 	 2.93
419.1390184545 	 2.13
437.1495831408 	 14.06
483.1550624492 	 0
END IONS

BEGIN IONS
PEPMASS=285.0757
CHARGE=1
MSLEVEL=2
RT=0
SOURCE_INSTRUMENT=qTOF
FILENAME=CCMSLIB00000080392.ms
IONMODE=Positive
ORGANISM=Natural
NAME=MLS000863596-01!(2Z)-6-hydroxy-2-[(4-hydroxy-3-methoxyphenyl)methylidene]-1-benzofuran-3-one
PI=GNPS
DATACOLLECTOR=GNPS
SMILES=COc1cc(ccc1O)/C=C\1/C(=O)c2ccc(cc2O1)O
INCHI=InChI=1S/C16H12O5/c1-20-14-6-9(2-5-12(14)18)7-15-16(19)11-4-3-10(17)8-13(11)21-15/h2-8,17-18H,1H3/b15-7-
FORMULA=C16H12O5
PUBMED=N/A
SUBMITUSER=BIOADREM
LIBRARYQUALITY=0
SPECTRUMID=CCMSLIB00000080392
SCANS=2578
ID=CCMSLIB00000080392
105.0334907505 	 4.73
115.0542261926 	 10.09
134.0362304047 	 54.99
137.0233199947 	 50.05
141.0698762568 	 19.4
157.0647908789 	 4.78
163.0389700589 	 4.05
168.0569658468 	 12.93
169.0647908789 	 12.83
185.059705501 	 22.66
186.0675305331 	 7.47
196.0518804689 	 7.94
197.059705501 	 48.37
198.0675305331 	 9.52
199.0389700589 	 4.78
202.0260596489 	 4.21
213.0546201231 	 40.06
225.0546201231 	 73.34
226.0624451552 	 9.52
241.0495347452 	 20.82
242.0573597773 	 24.29
243.0651848094 	 7.57
251.033884681 	 3.68
254.0573597773 	 14.98
267.0651848094 	 4.57
269.0444493673 	 100
270.0522743994 	 57.31
285.0757494957 	 23.13
END IONS

BEGIN IONS
PEPMASS=355.202
CHARGE=1
MSLEVEL=2
RT=0
SOURCE_INSTRUMENT=qTOF
FILENAME=CCMSLIB00000080393.ms
IONMODE=Positive
ORGANISM=Natural
NAME=MLS000728624-01!
PI=GNPS
DATACOLLECTOR=GNPS
SMILES=CC[C@@H]1CN(C)[C@H]2Cc3c4ccccc4[nH]c3C(=O)C[C@@H]1[C@@H]2C(=O)OC
INCHI=InChI=1S/C21H26N2O3/c1-4-12-11-23(2)17-9-15-13-7-5-6-8-16(13)22-20(15)18(24)10-14(12)19(17)21(25)26-3/h5-8,12,14,17,19,22H,4,9-11H2,1-3H3/t12-,14+,17+,19+/m1/s1
FORMULA=C21H26N2O3
PUBMED=N/A
SUBMITUSER=BIOADREM
LIBRARYQUALITY=0
SPECTRUMID=CCMSLIB00000080393
SCANS=2579
ID=CCMSLIB00000080393
122.0964253583 	 12.11
130.0651252299 	 100
131.072950262 	 13.75
138.0913399804 	 31.37
144.0443897878 	 8.82
144.0807752941 	 12.04
150.0913399804 	 17.12
154.0651252299 	 9.38
156.0807752941 	 12.84
164.1069900446 	 12.86
167.072950262 	 28.8
168.0807752941 	 40.71
172.0756899162 	 18.38
180.0807752941 	 56.67
181.0886003262 	 21.41
182.0964253583 	 23.05
182.1175547309 	 18.44
183.0678648841 	 14.72
184.0756899162 	 23.91
192.0807752941 	 21.43
193.0886003262 	 27.44
194.060039852 	 31.63
194.0964253583 	 28.61
196.0756899162 	 59.98
206.0964253583 	 19.11
207.1042503904 	 16
208.0756899162 	 21.02
208.1120754225 	 19.57
210.0913399804 	 21.34
217.0886003262 	 20.71
220.0756899162 	 17.66
220.1120754225 	 9.64
221.0835149483 	 25.9
221.1199004546 	 9.62
222.0913399804 	 19.42
222.1277254867 	 25.77
231.1042503904 	 9.28
232.1120754225 	 11.5
235.0991650125 	 37.06
236.1433755509 	 30.88
238.1226401088 	 12.82
246.1277254867 	 9.66
249.1148150767 	 8.99
250.1226401088 	 73.34
264.138290173 	 38.27
281.1648392745 	 30.92
324.162790364 	 9.79
355.2049895297 	 14.38
END IONS

BEGIN IONS
PEPMASS=439.151
CHARGE=1
MSLEVEL=2
RT=0
SOURCE_INSTRUMENT=qTOF
FILENAME=CCMSLIB00000080394.ms
IONMODE=Positive
ORGANISM=Natural
NAME=MLS001157830-01!(2R)-2-[[2-[[2-(7-hydroxy-4-methyl-2-oxochromen-3-yl)acetyl]amino]acetyl]amino]-3-phenylpropanoic acid
PI=GNPS
DATACOLLECTOR=GNPS
SMILES=Cc1c2ccc(cc2oc(=O)c1CC(=NCC(=N[C@H](Cc1ccccc1)C(=O)O)O)O)O
INCHI=InChI=1S/C23H22N2O7/c1-13-16-8-7-15(26)10-19(16)32-23(31)17(13)11-20(27)24-12-21(28)25-18(22(29)30)9-14-5-3-2-4-6-14/h2-8,10,18,26H,9,11-12H2,1H3,(H,24,27)(H,25,28)(H,29,30)/t18-/m1/s1
FORMULA=C23H22N2O7
PUBMED=N/A
SUBMITUSER=BIOADREM
LIBRARYQUALITY=0
SPECTRUMID=CCMSLIB00000080394
SCANS=2580
ID=CCMSLIB00000080394
103.0542261926 	 1.01
105.0698762568 	 0.88
116.0620512247 	 0.85
133.0647908789 	 1.71
144.0569658468 	 0.61
161.059705501 	 5.75
162.0635077877 	 1.99
189.0546201231 	 100
190.0584224098 	 15.84
217.0495347452 	 10.61
218.0533370319 	 1.78
439.1499770713 	 0
END IONS

BEGIN IONS
PEPMASS=359.1135
CHARGE=1
MSLEVEL=2
RT=0
SOURCE_INSTRUMENT=qTOF
FILENAME=CCMSLIB00000080395.ms
IONMODE=Positive
ORGANISM=Natural
NAME=MLS000697640-01!
PI=GNPS
DATACOLLECTOR=GNPS
SMILES=COCOc1ccc(cc1)c1cc(=O)c2c(cc(cc2o1)OCOC)O
INCHI=InChI=1S/C19H18O7/c1-22-10-24-13-5-3-12(4-6-13)17-9-16(21)19-15(20)7-14(25-11-23-2)8-18(19)26-17/h3-9,20H,10-11H2,1-2H3
FORMULA=C19H18O7
PUBMED=N/A
SUBMITUSER=BIOADREM
LIBRARYQUALITY=0
SPECTRUMID=CCMSLIB00000080395
SCANS=2581
ID=CCMSLIB00000080395
137.0233199947 	 1.33
165.0182346168 	 0.73
215.0702701873 	 0.41
226.0624451552 	 0.44
242.0573597773 	 5.95
243.0651848094 	 1.21
253.0495347452 	 0.54
254.0573597773 	 0.47
255.0651848094 	 2.51
256.0730098415 	 3.2
270.0522743994 	 5.95
271.0600994315 	 100
283.0600994315 	 10.67
284.0679244636 	 3.45
285.0757494957 	 57.7
297.0757494957 	 1.49
299.0913995599 	 2.09
315.086314182 	 33.09
327.086314182 	 1.91
359.1125289325 	 2.97
END IONS

BEGIN IONS
PEPMASS=401.1506
CHARGE=1
MSLEVEL=2
RT=0
SOURCE_INSTRUMENT=qTOF
FILENAME=CCMSLIB00000080396.ms
IONMODE=Positive
ORGANISM=Natural
NAME=MLS001140580-01!2-(2-oxo-4-phenylchromen-7-yl)oxy-N-(pyridin-2-ylmethyl)propanamide
PI=GNPS
DATACOLLECTOR=GNPS
SMILES=CC(C(=NCc1ccccn1)O)Oc1ccc2c(cc(=O)oc2c1)c1ccccc1
INCHI=InChI=1S/C24H20N2O4/c1-16(24(28)26-15-18-9-5-6-12-25-18)29-19-10-11-20-21(17-7-3-2-4-8-17)14-23(27)30-22(20)13-19/h2-14,16H,15H2,1H3,(H,26,28)
FORMULA=C24H20N2O4
PUBMED=N/A
SUBMITUSER=BIOADREM
LIBRARYQUALITY=0
SPECTRUMID=CCMSLIB00000080396
SCANS=2582
ID=CCMSLIB00000080396
104.0494751657 	 3.7
105.0573001978 	 10.58
106.0651252299 	 14.07
107.060374203 	 100
109.0760242672 	 18.42
115.0542261926 	 1.57
118.0651252299 	 3.5
119.060374203 	 1.77
131.060374203 	 2.72
133.0522148199 	 5.14
135.0916743314 	 48.25
141.0698762568 	 3.17
145.0760242672 	 6.5
146.0838492993 	 7.8
153.0698762568 	 2.45
163.0865889535 	 21.37
164.0944139856 	 24.41
165.0698762568 	 38.65
166.0777012889 	 10.99
167.085526321 	 4.18
169.0647908789 	 3.12
177.0698762568 	 2.29
178.0777012889 	 11.25
181.0647908789 	 3.01
181.1011763852 	 6.4
191.085526321 	 7.09
192.0893286077 	 1.67
193.0647908789 	 5.95
193.1011763852 	 2.36
194.072615911 	 6.76
195.0804409431 	 5.14
197.059705501 	 7.41
203.085526321 	 1.68
209.0960910073 	 14.75
210.099893294 	 2.06
219.0804409431 	 3.63
221.059705501 	 5.69
221.0960910073 	 4.07
222.0675305331 	 2.26
223.0753555652 	 5.01
237.0910056294 	 23.16
238.0948079161 	 3.56
239.0702701873 	 16.55
247.0753555652 	 2.11
250.0624451552 	 1.92
265.0859202515 	 67.6
383.1390184545 	 1.95
401.1495831408 	 7
END IONS

BEGIN IONS
PEPMASS=223.0773
CHARGE=1
MSLEVEL=2
RT=0
SOURCE_INSTRUMENT=qTOF
FILENAME=CCMSLIB00000080397.ms
IONMODE=Positive
ORGANISM=Natural
NAME=MLS002177804-01!
PI=GNPS
DATACOLLECTOR=GNPS
SMILES=c1ccc(cc1)c1cc(=O)c2ccccc2o1
INCHI=InChI=1S/C15H10O2/c16-13-10-15(11-6-2-1-3-7-11)17-14-9-5-4-8-12(13)14/h1-10H
FORMULA=C15H10O2
PUBMED=N/A
SUBMITUSER=BIOADREM
LIBRARYQUALITY=0
SPECTRUMID=CCMSLIB00000080397
SCANS=2583
ID=CCMSLIB00000080397
101.0385761284 	 1.55
102.0464011605 	 3.17
103.0542261926 	 46.01
105.0334907505 	 6.13
115.0542261926 	 1.25
121.0284053726 	 77.44
128.0620512247 	 2.86
129.0334907505 	 100
141.0698762568 	 4.06
150.0464011605 	 1.7
151.0542261926 	 12.3
152.0620512247 	 39.51
165.0698762568 	 41.13
167.085526321 	 32.83
169.0647908789 	 1.04
176.0620512247 	 13.26
177.0698762568 	 12.37
178.0777012889 	 56.23
181.0647908789 	 2.4
182.072615911 	 1.1
195.0804409431 	 2.24
223.0753555652 	 382.15
END IONS

BEGIN IONS
PEPMASS=539.196
CHARGE=1
MSLEVEL=2
RT=0
SOURCE_INSTRUMENT=qTOF
FILENAME=CCMSLIB00000080398.ms
IONMODE=Positive
ORGANISM=Natural
NAME=MLS001140683-01!(2R)-1-[(2S)-2-[[(2S)-2-(2,4-dioxo-1H-quinazolin-3-yl)-3-phenylpropanoyl]amino]-4-methylsulfanylbutanoyl]pyrrolidine-2-carboxylic acid
PI=GNPS
DATACOLLECTOR=GNPS
SMILES=CSCC[C@@H](C(=O)N1CCC[C@@H]1C(=O)O)N=C([C@H](Cc1ccccc1)n1c(=O)c2ccccc2nc1O)O
INCHI=InChI=1S/C27H30N4O6S/c1-38-15-13-20(25(34)30-14-7-12-21(30)26(35)36)28-23(32)22(16-17-8-3-2-4-9-17)31-24(33)18-10-5-6-11-19(18)29-27(31)37/h2-6,8-11,20-22H,7,12-16H2,1H3,(H,28,32)(H,29,37)(H,35,36)/t20-,21+,22-/m0/s1
FORMULA=C27H30N4O6S
PUBMED=N/A
SUBMITUSER=BIOADREM
LIBRARYQUALITY=0
SPECTRUMID=CCMSLIB00000080398
SCANS=2584
ID=CCMSLIB00000080398
103.0542261926 	 3.17
105.0573001978 	 0.43
116.0706045383 	 4.94
120.0443897878 	 0.48
121.0647908789 	 0.3
131.0525116331 	 0.43
145.0396387609 	 0.37
146.0236543457 	 12.63
163.0502034472 	 6.11
182.0811692246 	 0.26
223.0951422671 	 0.24
237.1029297614 	 0.38
247.0872796972 	 1.62
265.0978443835 	 100
266.1009559265 	 21.28
275.0821943193 	 1.27
276.0853058623 	 0.26
293.0927590056 	 14.54
294.0958705486 	 2.27
539.1958814064 	 0
END IONS

BEGIN IONS
PEPMASS=388.1765
CHARGE=1
MSLEVEL=2
RT=0
SOURCE_INSTRUMENT=qTOF
FILENAME=CCMSLIB00000080399.ms
IONMODE=Positive
ORGANISM=Natural
NAME=MLS001141389-01!1-[2-(7-methyl-2-oxo-4-propylchromen-5-yl)oxyacetyl]piperidine-4-carboxylic acid
PI=GNPS
DATACOLLECTOR=GNPS
SMILES=CCCc1cc(=O)oc2cc(C)cc(c12)OCC(=O)N1CCC(CC1)C(=O)O
INCHI=InChI=1S/C21H25NO6/c1-3-4-15-11-19(24)28-17-10-13(2)9-16(20(15)17)27-12-18(23)22-7-5-14(6-8-22)21(25)26/h9-11,14H,3-8,12H2,1-2H3,(H,25,26)
FORMULA=C21H25NO6
PUBMED=N/A
SUBMITUSER=BIOADREM
LIBRARYQUALITY=0
SPECTRUMID=CCMSLIB00000080399
SCANS=2585
ID=CCMSLIB00000080399
96.0807752941 	 3.2
99.0440554368 	 6.55
112.0756899162 	 10.26
114.0549544741 	 8.15
115.0542261926 	 2.75
116.0620512247 	 2.9
119.085526321 	 4.11
126.0913399804 	 14.7
128.0706045383 	 76.49
129.0698762568 	 7.33
140.0706045383 	 4.17
141.0698762568 	 3.83
142.0862546025 	 100
145.0647908789 	 4.26
147.0804409431 	 6.1
148.0518804689 	 3.29
149.059705501 	 4.04
151.0753555652 	 2.78
156.0655191604 	 5.16
160.0882659752 	 3.44
161.0960910073 	 3.23
170.0811692246 	 19.14
174.0675305331 	 3.38
175.0753555652 	 18.77
177.0546201231 	 4.53
185.0960910073 	 3.89
188.0831805973 	 3.65
189.0910056294 	 7.64
190.0624451552 	 11.86
203.0702701873 	 67.1
203.1066556936 	 20.68
231.1015703157 	 40.93
259.0964849378 	 12.65
342.1699842319 	 3.35
388.1754635403 	 21.22
END IONS

BEGIN IONS
PEPMASS=430.187
CHARGE=1
MSLEVEL=2
RT=0
SOURCE_INSTRUMENT=qTOF
FILENAME=CCMSLIB00000080400.ms
IONMODE=Positive
ORGANISM=Natural
NAME=MLS001160493-01!1-[2-[(4,8,8-trimethyl-2-oxo-9,10-dihydropyrano[2,3-h]chromen-5-yl)oxy]acetyl]piperidine-4-carboxylic acid
PI=GNPS
DATACOLLECTOR=GNPS
SMILES=Cc1cc(=O)oc2c3CCC(C)(C)Oc3cc(c12)OCC(=O)N1CCC(CC1)C(=O)O
INCHI=InChI=1S/C23H27NO7/c1-13-10-19(26)30-21-15-4-7-23(2,3)31-16(15)11-17(20(13)21)29-12-18(25)24-8-5-14(6-9-24)22(27)28/h10-11,14H,4-9,12H2,1-3H3,(H,27,28)
FORMULA=C23H27NO7
PUBMED=N/A
SUBMITUSER=BIOADREM
LIBRARYQUALITY=0
SPECTRUMID=CCMSLIB00000080400
SCANS=2586
ID=CCMSLIB00000080400
96.0807752941 	 1.5
99.0440554368 	 4.79
109.0284053726 	 0.64
110.060039852 	 1.28
111.0440554368 	 0.79
112.0756899162 	 3.16
114.0549544741 	 1.06
124.0756899162 	 2.81
128.0706045383 	 100
142.0862546025 	 86.77
161.059705501 	 1.82
170.0811692246 	 46.46
189.0546201231 	 2.06
217.0495347452 	 13.57
245.0444493673 	 8.83
374.1234279698 	 10.09
430.1860282266 	 10.06
END IONS

BEGIN IONS
PEPMASS=438.192
CHARGE=1
MSLEVEL=2
RT=0
SOURCE_INSTRUMENT=qTOF
FILENAME=CCMSLIB00000080401.ms
IONMODE=Positive
ORGANISM=Natural
NAME=MLS001140943-01!(2S)-1-[3-(4,11-dimethyl-2-oxo-6,7,8,9-tetrahydro-[1]benzofuro[3,2-g]chromen-3-yl)propanoyl]pyrrolidine-2-carboxylic acid
PI=GNPS
DATACOLLECTOR=GNPS
SMILES=Cc1c(CCC(=O)N2CCC[C@H]2C(=O)O)c(=O)oc2c(C)c3c(cc12)c1CCCCc1o3
INCHI=InChI=1S/C25H27NO6/c1-13-15(9-10-21(27)26-11-5-7-19(26)24(28)29)25(30)32-22-14(2)23-18(12-17(13)22)16-6-3-4-8-20(16)31-23/h12,19H,3-11H2,1-2H3,(H,28,29)/t19-/m0/s1
FORMULA=C25H27NO6
PUBMED=N/A
SUBMITUSER=BIOADREM
LIBRARYQUALITY=0
SPECTRUMID=CCMSLIB00000080401
SCANS=2587
ID=CCMSLIB00000080401
197.0960910073 	 0.23
207.1168264494 	 0.23
209.0960910073 	 0.4
225.0910056294 	 2.21
225.1273911357 	 0.64
237.1273911357 	 0.42
239.1066556936 	 0.3
253.1223057578 	 13.16
267.1015703157 	 0.23
267.137955822 	 0.79
281.1172203799 	 100
282.125045412 	 23.15
295.1328704441 	 13.78
323.1277850662 	 14.9
438.1911136045 	 0
END IONS

BEGIN IONS
PEPMASS=249.164
CHARGE=1
MSLEVEL=2
RT=0
SOURCE_INSTRUMENT=qTOF
FILENAME=CCMSLIB00000080402.ms
IONMODE=Positive
ORGANISM=Natural
NAME=MLS001048956-01!1-(6-methylsulfinylhexyl)-3-propan-2-ylurea
PI=GNPS
DATACOLLECTOR=GNPS
SMILES=CC(C)NC(=NCCCCCCS(=O)C)O
INCHI=InChI=1S/C11H24N2O2S/c1-10(2)13-11(14)12-8-6-4-5-7-9-16(3)15/h10H,4-9H2,1-3H3,(H2,12,13,14)
FORMULA=C11H24N2O2S
PUBMED=N/A
SUBMITUSER=BIOADREM
LIBRARYQUALITY=0
SPECTRUMID=CCMSLIB00000080402
SCANS=2588
ID=CCMSLIB00000080402
97.0647908789 	 8.93
98.0964253583 	 57.19
100.1120754225 	 57.02
115.057597011 	 7.11
115.0865889535 	 9.59
126.0913399804 	 19.83
129.0732470752 	 7.11
129.1022390177 	 6.45
143.1178890819 	 36.03
147.0838117615 	 86.28
157.1335391461 	 5.45
164.110360863 	 31.4
188.1519288645 	 6.28
190.0896254209 	 100
249.163124715 	 0
END IONS

BEGIN IONS
PEPMASS=515.266
CHARGE=1
MSLEVEL=2
RT=0
SOURCE_INSTRUMENT=qTOF
FILENAME=CCMSLIB00000080403.ms
IONMODE=Positive
ORGANISM=Natural
NAME=MLS001140319-01!
PI=GNPS
DATACOLLECTOR=GNPS
SMILES=CCC(C)[C@@H](C(=NCC1CCCO1)O)N=C([C@@H]1Cc2c3ccccc3[nH]c2C2c3ccccc3C(=O)N12)O
INCHI=InChI=1S/C30H34N4O4/c1-3-17(2)25(29(36)31-16-18-9-8-14-38-18)33-28(35)24-15-22-19-10-6-7-13-23(19)32-26(22)27-20-11-4-5-12-21(20)30(37)34(24)27/h4-7,10-13,17-18,24-25,27,32H,3,8-9,14-16H2,1-2H3,(H,31,36)(H,33,35)/t17?,18?,24-,25-,27?/m0/s1
FORMULA=C30H34N4O4
PUBMED=N/A
SUBMITUSER=BIOADREM
LIBRARYQUALITY=0
SPECTRUMID=CCMSLIB00000080403
SCANS=2589
ID=CCMSLIB00000080403
129.0321480798 	 0.23
230.0924026129 	 0.47
231.100227645 	 0.45
245.1073243956 	 2.67
255.0916743314 	 1.26
256.0954766181 	 1.98
257.1033016502 	 1.74
259.0951422671 	 0.25
271.0865889535 	 6.39
273.1022390177 	 100
274.1060413044 	 17.39
301.0971536398 	 1.54
368.1842916254 	 0.3
386.1863029981 	 2.85
515.2652816006 	 0
END IONS

BEGIN IONS
PEPMASS=348.1027
CHARGE=1
MSLEVEL=2
RT=0
SOURCE_INSTRUMENT=qTOF
FILENAME=CCMSLIB00000080404.ms
IONMODE=Positive
ORGANISM=Natural
NAME=MLS001030267-01!3-[1-(3-nitrophenyl)sulfonylpiperidin-2-yl]pyridine
PI=GNPS
DATACOLLECTOR=GNPS
SMILES=C1CCN(C(C1)c1cccnc1)S(=O)(=O)c1cccc(c1)N(=O)=O
INCHI=InChI=1S/C16H17N3O4S/c20-19(21)14-6-3-7-15(11-14)24(22,23)18-10-2-1-8-16(18)13-5-4-9-17-12-13/h3-7,9,11-12,16H,1-2,8,10H2
FORMULA=C16H17N3O4S
PUBMED=N/A
SUBMITUSER=BIOADREM
LIBRARYQUALITY=0
SPECTRUMID=CCMSLIB00000080404
SCANS=2590
ID=CCMSLIB00000080404
103.0542261926 	 1.3
105.0447241388 	 27.17
106.0651252299 	 45.04
116.0494751657 	 1.02
117.0573001978 	 3.88
118.0651252299 	 11.51
120.0807752941 	 39.07
130.0651252299 	 4.63
132.0807752941 	 38.91
133.0760242672 	 100
134.0964253583 	 23.78
142.0651252299 	 1.16
144.0807752941 	 5.35
145.0760242672 	 2.49
146.0964253583 	 1.89
147.0916743314 	 17.59
159.0916743314 	 1.02
161.1073243956 	 32.13
162.1151494277 	 44.36
209.110695214 	 1.02
348.1012527397 	 43.14
END IONS

BEGIN IONS
PEPMASS=453.2496
CHARGE=1
MSLEVEL=2
RT=0
SOURCE_INSTRUMENT=qTOF
FILENAME=CCMSLIB00000080405.ms
IONMODE=Positive
ORGANISM=Natural
NAME=MLS001141056-01!
PI=GNPS
DATACOLLECTOR=GNPS
SMILES=CC1CCCCC1N=C([C@H](C)N1C(=O)[C@]2(C)c3c(CCN2C1=O)c1cc(ccc1[nH]3)OC)O
INCHI=InChI=1S/C25H32N4O4/c1-14-7-5-6-8-19(14)27-22(30)15(2)29-23(31)25(3)21-17(11-12-28(25)24(29)32)18-13-16(33-4)9-10-20(18)26-21/h9-10,13-15,19,26H,5-8,11-12H2,1-4H3,(H,27,30)/t14?,15-,19?,25-/m0/s1
FORMULA=C25H32N4O4
PUBMED=N/A
SUBMITUSER=BIOADREM
LIBRARYQUALITY=0
SPECTRUMID=CCMSLIB00000080405
SCANS=2591
ID=CCMSLIB00000080405
144.0807752941 	 0.34
159.0678648841 	 1.09
174.0913399804 	 15.27
198.0913399804 	 6.52
213.1022390177 	 3.78
215.1178890819 	 18.75
217.0971536398 	 0.33
225.1022390177 	 0.4
241.0971536398 	 25.32
243.112803704 	 3.4
269.0920682619 	 3.27
284.1393528055 	 100
295.1077183261 	 0.29
312.1342674276 	 26.08
339.1451664649 	 1.02
357.1557311512 	 0.6
453.2496315364 	 0.37
END IONS

BEGIN IONS
PEPMASS=450.192
CHARGE=1
MSLEVEL=2
RT=0
SOURCE_INSTRUMENT=qTOF
FILENAME=CCMSLIB00000080406.ms
IONMODE=Positive
ORGANISM=Natural
NAME=MLS001140908-01!4-[[[2-(8-methyl-2-oxo-4-phenylchromen-7-yl)oxyacetyl]amino]methyl]cyclohexane-1-carboxylic acid
PI=GNPS
DATACOLLECTOR=GNPS
SMILES=Cc1c(ccc2c(cc(=O)oc12)c1ccccc1)OCC(=NC[C@H]1CC[C@@H](CC1)C(=O)O)O
INCHI=InChI=1S/C26H27NO6/c1-16-22(32-15-23(28)27-14-17-7-9-19(10-8-17)26(30)31)12-11-20-21(13-24(29)33-25(16)20)18-5-3-2-4-6-18/h2-6,11-13,17,19H,7-10,14-15H2,1H3,(H,27,28)(H,30,31)/t17-,19-
FORMULA=C26H27NO6
PUBMED=N/A
SUBMITUSER=BIOADREM
LIBRARYQUALITY=0
SPECTRUMID=CCMSLIB00000080406
SCANS=2592
ID=CCMSLIB00000080406
110.0964253583 	 3.06
140.1559516099 	 4.72
152.1559516099 	 4.65
155.1430411999 	 2.77
177.1359444493 	 2.45
181.1308590714 	 2.95
191.1515945135 	 3.45
197.1324765136 	 2.34
209.1324765136 	 3.27
210.1403015457 	 2.98
224.1645049235 	 16.7
236.1559516099 	 3.2
255.1828946419 	 2.7
265.1825007114 	 76.23
293.1832885724 	 21.03
310.216540494 	 22.81
450.1911136045 	 0
END IONS

BEGIN IONS
PEPMASS=277.1061
CHARGE=1
MSLEVEL=2
RT=0
SOURCE_INSTRUMENT=qTOF
FILENAME=CCMSLIB00000080407.ms
IONMODE=Positive
ORGANISM=Natural
NAME=MLS001048925-01!2,3,4,6-tetramethoxybenzo[7]annulen-5-one
PI=GNPS
DATACOLLECTOR=GNPS
SMILES=COc1cccc2cc(c(c(c2c1=O)OC)OC)OC
INCHI=InChI=1S/C15H16O5/c1-17-10-7-5-6-9-8-11(18-2)14(19-3)15(20-4)12(9)13(10)16/h5-8H,1-4H3
FORMULA=C15H16O5
PUBMED=N/A
SUBMITUSER=BIOADREM
LIBRARYQUALITY=0
SPECTRUMID=CCMSLIB00000080407
SCANS=2593
ID=CCMSLIB00000080407
115.0542261926 	 22.15
117.0698762568 	 18.17
118.0413157826 	 10.06
127.0542261926 	 12.09
128.0620512247 	 20.79
129.0698762568 	 16.4
131.0491408147 	 16.82
145.0647908789 	 36.26
146.0362304047 	 16.15
147.0440554368 	 25.87
156.0569658468 	 12.34
157.0647908789 	 10.57
158.0362304047 	 33.73
158.072615911 	 11.92
159.0440554368 	 15.89
171.0440554368 	 18.6
173.059705501 	 84.28
176.046795091 	 51.48
189.0546201231 	 35
190.0624451552 	 37.11
191.0702701873 	 45.39
199.0753555652 	 18.6
201.0546201231 	 79.54
203.0702701873 	 10.31
204.0417097131 	 35.16
215.0702701873 	 30.85
216.0780952194 	 39.48
218.0573597773 	 57.48
219.0651848094 	 100
226.0624451552 	 9.97
229.0495347452 	 13.52
233.0808348736 	 54.52
234.0886599057 	 29.16
244.0730098415 	 9.64
245.0808348736 	 10.4
247.0600994315 	 89.69
262.0835745278 	 29.5
277.1070496241 	 8.45
END IONS

BEGIN IONS
PEPMASS=196.0762
CHARGE=1
MSLEVEL=2
RT=0
SOURCE_INSTRUMENT=qTOF
FILENAME=CCMSLIB00000080408.ms
IONMODE=Positive
ORGANISM=Natural
NAME=MLS000551242-01!10H-acridin-9-one
PI=GNPS
DATACOLLECTOR=GNPS
SMILES=c1ccc2c(c1)c(=O)c1ccccc1[nH]2
INCHI=InChI=1S/C13H9NO/c15-13-9-5-1-3-7-11(9)14-12-8-4-2-6-10(12)13/h1-8H,(H,14,15)
FORMULA=C13H9NO
PUBMED=N/A
SUBMITUSER=BIOADREM
LIBRARYQUALITY=0
SPECTRUMID=CCMSLIB00000080408
SCANS=2594
ID=CCMSLIB00000080408
115.0542261926 	 2.58
128.0494751657 	 2.17
139.0542261926 	 3.83
141.0698762568 	 1.92
146.060039852 	 0.68
166.0651252299 	 15.24
167.072950262 	 100
170.060039852 	 0.69
177.0573001978 	 1.52
178.0651252299 	 2.05
195.0678648841 	 14
196.0756899162 	 65.96
END IONS

BEGIN IONS
PEPMASS=421.175
CHARGE=1
MSLEVEL=2
RT=0
SOURCE_INSTRUMENT=qTOF
FILENAME=CCMSLIB00000080409.ms
IONMODE=Positive
ORGANISM=Natural
NAME=MLS001158176-01!
PI=GNPS
DATACOLLECTOR=GNPS
SMILES=Cc1c2ccc(c(C)c2oc(=O)c1CC(=O)N1C[C@H]2C[C@@H](C1)c1cccc(=O)n1C2)O
INCHI=InChI=1S/C24H24N2O5/c1-13-17-6-7-20(27)14(2)23(17)31-24(30)18(13)9-22(29)25-10-15-8-16(12-25)19-4-3-5-21(28)26(19)11-15/h3-7,15-16,27H,8-12H2,1-2H3/t15-,16+/m1/s1
FORMULA=C24H24N2O5
PUBMED=N/A
SUBMITUSER=BIOADREM
LIBRARYQUALITY=0
SPECTRUMID=CCMSLIB00000080409
SCANS=2595
ID=CCMSLIB00000080409
115.0542261926 	 0.57
116.0620512247 	 0.22
119.085526321 	 0.35
129.0698762568 	 0.21
131.0815035756 	 0.26
141.0698762568 	 0.22
142.0736785435 	 0.33
144.0569658468 	 1.28
147.0804409431 	 1.04
160.0518804689 	 0.65
173.059705501 	 0.23
175.0753555652 	 5.33
176.0791578519 	 1.1
203.0702701873 	 100
204.074072474 	 18.33
231.0651848094 	 5.87
421.1757978913 	 1.35
END IONS

BEGIN IONS
PEPMASS=147.0553
CHARGE=1
MSLEVEL=2
RT=0
SOURCE_INSTRUMENT=qTOF
FILENAME=CCMSLIB00000080410.ms
IONMODE=Positive
ORGANISM=Natural
NAME=MLS000551010-01!1H-quinazolin-4-one
PI=GNPS
DATACOLLECTOR=GNPS
SMILES=c1ccc2c(c1)c(ncn2)O
INCHI=InChI=1S/C8H6N2O/c11-8-6-3-1-2-4-7(6)9-5-10-8/h1-5H,(H,9,10,11)
FORMULA=C8H6N2O
PUBMED=N/A
SUBMITUSER=BIOADREM
LIBRARYQUALITY=0
SPECTRUMID=CCMSLIB00000080410
SCANS=2596
ID=CCMSLIB00000080410
102.0338251015 	 44.55
104.0494751657 	 25.83
117.0573001978 	 8.53
119.060374203 	 19.67
129.0447241388 	 25.12
147.0552888251 	 188.86
END IONS

BEGIN IONS
PEPMASS=399.338
CHARGE=1
MSLEVEL=2
RT=0
SOURCE_INSTRUMENT=qTOF
FILENAME=CCMSLIB00000080411.ms
IONMODE=Positive
ORGANISM=Natural
NAME=MLS001049060-01!N-[2-(1H-indol-3-yl)ethyl]hexadecanamide
PI=GNPS
DATACOLLECTOR=GNPS
SMILES=CCCCCCCCCCCCCCCC(=NCCc1c[nH]c2ccccc12)O
INCHI=InChI=1S/C26H42N2O/c1-2-3-4-5-6-7-8-9-10-11-12-13-14-19-26(29)27-21-20-23-22-28-25-18-16-15-17-24(23)25/h15-18,22,28H,2-14,19-21H2,1H3,(H,27,29)
FORMULA=C26H42N2O
PUBMED=N/A
SUBMITUSER=BIOADREM
LIBRARYQUALITY=0
SPECTRUMID=CCMSLIB00000080411
SCANS=2597
ID=CCMSLIB00000080411
115.0542261926 	 2.68
117.0698762568 	 5.85
127.0542261926 	 1.35
128.0494751657 	 0.8
129.0573001978 	 0.2
143.072950262 	 7.34
144.0807752941 	 100
172.0756899162 	 0.63
382.3104408792 	 1.66
399.3369899807 	 0
END IONS

BEGIN IONS
PEPMASS=868.354
CHARGE=1
MSLEVEL=2
RT=0
SOURCE_INSTRUMENT=qTOF
FILENAME=CCMSLIB00000080413.ms
IONMODE=Positive
ORGANISM=Natural
NAME=MLS001097690-01!
PI=GNPS
DATACOLLECTOR=GNPS
SMILES=CC1=C2[C@H](C(=O)[C@]3(C)[C@H](C[C@@H]4[C@@](CO4)(C3[C@@H]([C@](C[C@@H]1OC(=O)[C@@H]([C@H](c1ccccc1)N=C(Cc1ccccc1)O)O)(C2(C)C)O)OC(=O)c1ccccc1)OC(=O)C)O)OC(=O)C
INCHI=InChI=1S/C48H53NO14/c1-26-32(61-44(57)38(54)37(30-18-12-8-13-19-30)49-35(53)22-29-16-10-7-11-17-29)24-48(58)42(62-43(56)31-20-14-9-15-21-31)40-46(6,33(52)23-34-47(40,25-59-34)63-28(3)51)41(55)39(60-27(2)50)36(26)45(48,4)5/h7-21,32-34,37-40,42,52,54,58H,22-25H2,1-6H3,(H,49,53)/t32-,33-,34+,37-,38+,39+,40?,42-,46+,47-,48+/m0/s1
FORMULA=C48H53NO14
PUBMED=N/A
SUBMITUSER=BIOADREM
LIBRARYQUALITY=0
SPECTRUMID=CCMSLIB00000080413
SCANS=2599
ID=CCMSLIB00000080413
105.0334907505 	 50.36
106.0651252299 	 6.32
118.0651252299 	 16.52
119.0491408147 	 15.96
119.085526321 	 6.37
121.0647908789 	 7.92
133.0647908789 	 11.84
133.1011763852 	 8.9
136.0756899162 	 100
147.0440554368 	 8.21
149.059705501 	 9.24
149.0960910073 	 7.46
159.0804409431 	 11.81
161.0960910073 	 11.04
169.1011763852 	 8.75
173.0960910073 	 6.58
175.0753555652 	 6.35
177.0910056294 	 7.59
182.0811692246 	 25.36
183.1168264494 	 7.4
187.1117410715 	 5.43
194.1090014173 	 5.54
195.1168264494 	 10.96
197.0960910073 	 5.71
199.1117410715 	 5.2
206.1090014173 	 7.57
207.1168264494 	 8.47
209.1324765136 	 8.56
211.1117410715 	 12.53
211.1481265778 	 8.66
221.1324765136 	 9.55
223.1117410715 	 10.38
225.1273911357 	 5.86
235.1481265778 	 10.21
237.1273911357 	 12.75
239.1066556936 	 5.93
239.1430411999 	 11.71
248.1195661036 	 5.78
249.1273911357 	 8.89
251.1430411999 	 7
253.1586912641 	 9
254.1175547309 	 41.4
263.1430411999 	 18.69
265.1223057578 	 6.04
267.137955822 	 9.69
281.1536058862 	 16.16
282.112469353 	 5.51
291.137955822 	 10.3
299.1641705725 	 9.9
300.1230340393 	 24.78
309.1485205083 	 15.52
327.1590851946 	 18.86
868.3538814159 	 0
END IONS

BEGIN IONS
PEPMASS=275.0557
CHARGE=1
MSLEVEL=2
RT=0
SOURCE_INSTRUMENT=qTOF
FILENAME=CCMSLIB00000080414.ms
IONMODE=Positive
ORGANISM=Natural
NAME=MLS002473044-01!1,5,8-trihydroxy-3-methoxyxanthen-9-one
PI=GNPS
DATACOLLECTOR=GNPS
SMILES=COc1cc(c2c(c1)oc1c(ccc(c1c2=O)O)O)O
INCHI=InChI=1S/C14H10O6/c1-19-6-4-9(17)11-10(5-6)20-14-8(16)3-2-7(15)12(14)13(11)18/h2-5,15-17H,1H3
FORMULA=C14H10O6
PUBMED=N/A
SUBMITUSER=BIOADREM
LIBRARYQUALITY=0
SPECTRUMID=CCMSLIB00000080414
SCANS=2600
ID=CCMSLIB00000080414
102.0464011605 	 4.27
115.0542261926 	 5.45
117.0698762568 	 3.19
123.0076699305 	 4.73
136.0154949626 	 3.29
150.0311450268 	 6.53
153.0182346168 	 3.7
158.0362304047 	 21.7
159.0440554368 	 7.35
171.0440554368 	 3.55
176.046795091 	 9.46
177.0182346168 	 5.35
178.0260596489 	 3.75
186.0311450268 	 35.48
193.0495347452 	 13.73
205.0495347452 	 4.16
214.0260596489 	 33.32
218.020974271 	 3.65
219.0651848094 	 4.83
229.0495347452 	 30.75
231.0287993031 	 18.41
232.0366243352 	 100
242.020974271 	 5.14
246.0158888931 	 3.24
260.0315389573 	 16.97
275.0550140536 	 89
END IONS

BEGIN IONS
PEPMASS=185.1074
CHARGE=1
MSLEVEL=2
RT=0
SOURCE_INSTRUMENT=qTOF
FILENAME=CCMSLIB00000080415.ms
IONMODE=Positive
ORGANISM=Natural
NAME=MLS001048999-01!1-methyl-3,4-dihydro-2H-pyrido[3,4-b]indole
PI=GNPS
DATACOLLECTOR=GNPS
SMILES=CC1=NCCc2c3ccccc3[nH]c12
INCHI=InChI=1S/C12H12N2/c1-8-12-10(6-7-13-8)9-4-2-3-5-11(9)14-12/h2-5,14H,6-7H2,1H3
FORMULA=C12H12N2
PUBMED=N/A
SUBMITUSER=BIOADREM
LIBRARYQUALITY=0
SPECTRUMID=CCMSLIB00000080415
SCANS=2601
ID=CCMSLIB00000080415
103.0542261926 	 5.05
115.0542261926 	 40.56
126.0464011605 	 1.42
127.0542261926 	 3.3
128.0494751657 	 6.65
129.0573001978 	 2.65
130.0651252299 	 10.84
140.0494751657 	 2.58
141.0698762568 	 5.57
142.0651252299 	 18.61
143.072950262 	 40.25
144.0807752941 	 100
154.0651252299 	 2.78
155.060374203 	 5.88
156.0807752941 	 4.64
158.0964253583 	 6.14
166.0651252299 	 3.45
167.072950262 	 36.54
168.0807752941 	 25.94
169.0760242672 	 50.6
170.0838492993 	 26.02
183.0916743314 	 8.58
185.1073243956 	 50.2
END IONS

BEGIN IONS
PEPMASS=387.1914
CHARGE=1
MSLEVEL=2
RT=0
SOURCE_INSTRUMENT=qTOF
FILENAME=CCMSLIB00000080416.ms
IONMODE=Positive
ORGANISM=Natural
NAME=MLS001158923-01!3-(7-hydroxy-4,8-dimethyl-2-oxochromen-3-yl)-N-[3-(2-oxopyrrolidin-1-yl)propyl]propanamide
PI=GNPS
DATACOLLECTOR=GNPS
SMILES=Cc1c2ccc(c(C)c2oc(=O)c1CCC(=NCCCN1CCCC1=O)O)O
INCHI=InChI=1S/C21H26N2O5/c1-13-15-6-8-17(24)14(2)20(15)28-21(27)16(13)7-9-18(25)22-10-4-12-23-11-3-5-19(23)26/h6,8,24H,3-5,7,9-12H2,1-2H3,(H,22,25)
FORMULA=C21H26N2O5
PUBMED=N/A
SUBMITUSER=BIOADREM
LIBRARYQUALITY=0
SPECTRUMID=CCMSLIB00000080416
SCANS=2602
ID=CCMSLIB00000080416
98.060039852 	 1.11
105.0698762568 	 0.32
115.0542261926 	 0.72
116.0620512247 	 0.47
117.0698762568 	 0.34
126.0913399804 	 3.78
131.0491408147 	 0.29
131.085526321 	 0.27
132.0569658468 	 0.44
144.0569658468 	 1.31
146.072615911 	 0.34
147.0804409431 	 1.48
159.0764181977 	 0.8
160.0518804689 	 0.9
175.0753555652 	 5.74
189.0910056294 	 1.29
203.0702701873 	 100
204.074072474 	 16.71
217.0859202515 	 13.45
218.0897225382 	 2.23
245.0808348736 	 20.49
387.1914479555 	 0.29
END IONS

BEGIN IONS
PEPMASS=245.129
CHARGE=1
MSLEVEL=2
RT=0
SOURCE_INSTRUMENT=qTOF
FILENAME=CCMSLIB00000080417.ms
IONMODE=Positive
ORGANISM=Natural
NAME=MLS000575011-01!
PI=GNPS
DATACOLLECTOR=GNPS
SMILES=CCC1c2c(CC(C(=O)O)N1)c1ccccc1[nH]2
INCHI=InChI=1S/C14H16N2O2/c1-2-10-13-9(7-12(15-10)14(17)18)8-5-3-4-6-11(8)16-13/h3-6,10,12,15-16H,2,7H2,1H3,(H,17,18)
FORMULA=C14H16N2O2
PUBMED=N/A
SUBMITUSER=BIOADREM
LIBRARYQUALITY=0
SPECTRUMID=CCMSLIB00000080417
SCANS=2603
ID=CCMSLIB00000080417
116.0620512247 	 4.21
118.0651252299 	 15.34
130.0651252299 	 45.84
131.072950262 	 16.91
142.0777012889 	 4.82
143.072950262 	 28.92
144.0807752941 	 36.72
154.0651252299 	 15.95
156.0807752941 	 27.17
157.0886003262 	 23.75
158.0964253583 	 12.8
167.072950262 	 76.69
168.0807752941 	 100
170.0964253583 	 11.57
172.1120754225 	 39.09
182.0964253583 	 64.33
186.0913399804 	 7.8
245.1284537682 	 0
END IONS

BEGIN IONS
PEPMASS=274.1084
CHARGE=1
MSLEVEL=2
RT=0
SOURCE_INSTRUMENT=qTOF
FILENAME=CCMSLIB00000080418.ms
IONMODE=Positive
ORGANISM=Natural
NAME=MLS001048848-01!4-ethoxy-7,8-dimethoxyfuro[2,3-b]quinoline
PI=GNPS
DATACOLLECTOR=GNPS
SMILES=CCOc1c2ccc(c(c2nc2c1cco2)OC)OC
INCHI=InChI=1S/C15H15NO4/c1-4-19-13-9-5-6-11(17-2)14(18-3)12(9)16-15-10(13)7-8-20-15/h5-8H,4H2,1-3H3
FORMULA=C15H15NO4
PUBMED=N/A
SUBMITUSER=BIOADREM
LIBRARYQUALITY=0
SPECTRUMID=CCMSLIB00000080418
SCANS=2604
ID=CCMSLIB00000080418
104.0494751657 	 1.32
128.0494751657 	 4.22
132.0443897878 	 2.8
144.0443897878 	 3.38
145.0522148199 	 1.43
156.0443897878 	 17.49
158.060039852 	 2.38
159.0314793778 	 2.02
160.0393044099 	 4.67
169.0522148199 	 1.68
170.060039852 	 3.52
172.0393044099 	 7.86
173.047129442 	 1.54
174.0549544741 	 1.86
184.0393044099 	 26.9
186.0549544741 	 7.43
187.0263939999 	 3.52
187.0627795062 	 2.67
188.034219032 	 27.28
198.0549544741 	 3.08
199.0627795062 	 25
200.034219032 	 9.53
201.0420440641 	 16.48
202.0498690962 	 35.53
212.034219032 	 1.13
214.0498690962 	 5.39
215.0576941283 	 6.25
216.0291336541 	 68.94
216.0655191604 	 20.48
225.0420440641 	 20.29
226.0498690962 	 10.16
227.0576941283 	 26.34
228.0655191604 	 5.88
229.0369586862 	 20.63
230.0447837183 	 25.47
231.0526087504 	 100
240.0655191604 	 78.79
241.0733441925 	 28.86
242.0447837183 	 10.83
244.0604337825 	 84.87
246.0760838467 	 10.19
258.0760838467 	 3.47
259.0839088788 	 3.77
274.1073839751 	 12.79
END IONS

BEGIN IONS
PEPMASS=313.1075
CHARGE=1
MSLEVEL=2
RT=0
SOURCE_INSTRUMENT=qTOF
FILENAME=CCMSLIB00000080419.ms
IONMODE=Positive
ORGANISM=Natural
NAME=MLS001048876-01!3-(3,4-dimethoxyphenyl)-7-methoxychromen-4-one
PI=GNPS
DATACOLLECTOR=GNPS
SMILES=COc1ccc2c(c1)occ(c1ccc(c(c1)OC)OC)c2=O
INCHI=InChI=1S/C18H16O5/c1-20-12-5-6-13-16(9-12)23-10-14(18(13)19)11-4-7-15(21-2)17(8-11)22-3/h4-10H,1-3H3
FORMULA=C18H16O5
PUBMED=N/A
SUBMITUSER=BIOADREM
LIBRARYQUALITY=0
SPECTRUMID=CCMSLIB00000080419
SCANS=2605
ID=CCMSLIB00000080419
122.0362304047 	 4.12
134.0362304047 	 2.4
145.0284053726 	 2.69
148.0518804689 	 2.79
150.0311450268 	 3.79
151.0389700589 	 18.58
163.0389700589 	 4.83
169.0647908789 	 2.12
176.046795091 	 8.17
177.0546201231 	 2.23
181.0647908789 	 4.79
182.072615911 	 3.24
184.0518804689 	 2.77
197.059705501 	 5.61
198.0675305331 	 5.11
199.0753555652 	 2.61
208.0518804689 	 3.76
209.059705501 	 5.63
210.0675305331 	 3.4
211.0753555652 	 9.1
212.0831805973 	 2.45
213.0910056294 	 13.01
224.0831805973 	 3.28
226.0624451552 	 8.72
227.0702701873 	 12.69
236.046795091 	 4.47
237.0546201231 	 4.95
239.0702701873 	 4.87
240.0780952194 	 3.33
241.0859202515 	 11.69
251.0702701873 	 50.09
252.0780952194 	 17.32
253.0859202515 	 5.96
254.0573597773 	 4.04
255.0651848094 	 8.72
257.1172203799 	 2.77
264.0417097131 	 2.23
265.0495347452 	 2.72
266.0573597773 	 2.72
267.0651848094 	 5.84
269.0808348736 	 64.95
279.0651848094 	 15.31
280.0730098415 	 12.67
281.0808348736 	 9.86
282.0886599057 	 3.63
283.0600994315 	 8.84
297.0757494957 	 100
313.1070496241 	 35.17
END IONS

BEGIN IONS
PEPMASS=449.084
CHARGE=1
MSLEVEL=2
RT=0
SOURCE_INSTRUMENT=qTOF
FILENAME=CCMSLIB00000080420.ms
IONMODE=Positive
ORGANISM=Natural
NAME=MLS001049003-01!2-benzamido-3-[(2-benzamido-2-carboxyethyl)disulfanyl]propanoic acid
PI=GNPS
DATACOLLECTOR=GNPS
SMILES=c1ccc(cc1)C(=NC(CSSCC(C(=O)O)N=C(c1ccccc1)O)C(=O)O)O
INCHI=InChI=1S/C20H20N2O6S2/c23-17(13-7-3-1-4-8-13)21-15(19(25)26)11-29-30-12-16(20(27)28)22-18(24)14-9-5-2-6-10-14/h1-10,15-16H,11-12H2,(H,21,23)(H,22,24)(H,25,26)(H,27,28)
FORMULA=C20H20N2O6S2
PUBMED=N/A
SUBMITUSER=BIOADREM
LIBRARYQUALITY=0
SPECTRUMID=CCMSLIB00000080420
SCANS=2606
ID=CCMSLIB00000080420
102.9848259984 	 5.59
104.0494751657 	 2.71
105.0334907505 	 100
116.0130896594 	 1.62
120.9953906847 	 16.28
130.0651252299 	 10.99
174.0549544741 	 12.64
178.032110542 	 16.67
180.0477606062 	 2.06
208.0426752283 	 4.66
226.0532399146 	 10.5
449.083553765 	 0
END IONS

BEGIN IONS
PEPMASS=371.186
CHARGE=1
MSLEVEL=2
RT=0
SOURCE_INSTRUMENT=qTOF
FILENAME=CCMSLIB00000080421.ms
IONMODE=Positive
ORGANISM=Natural
NAME=MLS000697603-01!
PI=GNPS
DATACOLLECTOR=GNPS
SMILES=CC(=CCc1c(cc2c(C[C@@H](CO2)c2ccc(cc2O)O)c1OC)OC)C
INCHI=InChI=1S/C22H26O5/c1-13(2)5-7-17-20(25-3)11-21-18(22(17)26-4)9-14(12-27-21)16-8-6-15(23)10-19(16)24/h5-6,8,10-11,14,23-24H,7,9,12H2,1-4H3/t14-/m0/s1
FORMULA=C22H26O5
PUBMED=N/A
SUBMITUSER=BIOADREM
LIBRARYQUALITY=0
SPECTRUMID=CCMSLIB00000080421
SCANS=2607
ID=CCMSLIB00000080421
95.0491408147 	 5.06
103.0542261926 	 3.65
105.0334907505 	 2.75
105.0698762568 	 2.75
106.0413157826 	 4.22
108.0569658468 	 3.88
109.0647908789 	 5.96
121.0647908789 	 8.51
123.0440554368 	 84.06
135.0440554368 	 6.1
135.0804409431 	 3.95
136.0518804689 	 3.72
137.059705501 	 27.49
139.0753555652 	 9.41
145.0284053726 	 3.18
147.0440554368 	 3.01
147.0804409431 	 3.01
148.0518804689 	 2.81
149.059705501 	 41.23
151.0389700589 	 3.05
151.0753555652 	 9.71
153.0910056294 	 8.04
155.0702701873 	 2.98
161.059705501 	 7.33
162.0675305331 	 2.68
163.0753555652 	 4.32
165.0910056294 	 8.87
167.0702701873 	 100
177.0546201231 	 6.26
179.0702701873 	 15.04
181.0859202515 	 35.97
182.0937452836 	 3.18
205.0859202515 	 3.38
235.1328704441 	 28.16
371.1852999451 	 0
END IONS

BEGIN IONS
PEPMASS=257.0822
CHARGE=1
MSLEVEL=2
RT=0
SOURCE_INSTRUMENT=qTOF
FILENAME=CCMSLIB00000080422.ms
IONMODE=Positive
ORGANISM=Natural
NAME=MLS001049097-01!3,8-dimethoxybenzo[c]chromen-6-one
PI=GNPS
DATACOLLECTOR=GNPS
SMILES=COc1ccc2c3ccc(cc3oc(=O)c2c1)OC
INCHI=InChI=1S/C15H12O4/c1-17-9-3-5-11-12-6-4-10(18-2)8-14(12)19-15(16)13(11)7-9/h3-8H,1-2H3
FORMULA=C15H12O4
PUBMED=N/A
SUBMITUSER=BIOADREM
LIBRARYQUALITY=0
SPECTRUMID=CCMSLIB00000080422
SCANS=2608
ID=CCMSLIB00000080422
103.0542261926 	 5.22
115.0542261926 	 6.47
127.0542261926 	 12.93
128.0620512247 	 4.88
131.0491408147 	 1.25
139.0542261926 	 14.32
140.0620512247 	 20.98
141.0698762568 	 13.22
142.0777012889 	 6.08
143.0491408147 	 2.26
144.0569658468 	 1.22
152.0620512247 	 9.81
154.0413157826 	 1.24
154.0777012889 	 3.34
155.0491408147 	 46.16
158.072615911 	 4.21
167.0491408147 	 6.32
168.0569658468 	 6.19
169.0647908789 	 15.12
170.072615911 	 22.68
171.0440554368 	 11.07
180.0569658468 	 1.22
181.0284053726 	 1.3
182.072615911 	 10.59
183.0440554368 	 48.99
185.059705501 	 2.11
186.0675305331 	 6.53
196.0518804689 	 1.36
197.059705501 	 5.53
198.0675305331 	 100
199.0389700589 	 5.91
211.0389700589 	 2.62
213.0910056294 	 12.63
214.0624451552 	 6.16
226.0624451552 	 3.48
229.0859202515 	 1.7
242.0573597773 	 3.51
257.0808348736 	 9.46
END IONS

BEGIN IONS
PEPMASS=419.2653
CHARGE=1
MSLEVEL=2
RT=0
SOURCE_INSTRUMENT=qTOF
FILENAME=CCMSLIB00000080423.ms
IONMODE=Positive
ORGANISM=Natural
NAME=MLS001141044-01!1-[(2S)-2-amino-3-methylbutanoyl]-N-[(2S)-1-[(2-methoxyphenyl)methylamino]-1-oxopropan-2-yl]piperidine-4-carboxamide
PI=GNPS
DATACOLLECTOR=GNPS
SMILES=CC(C)[C@@H](C(=O)N1CCC(CC1)C(=N[C@@H](C)C(=NCc1ccccc1OC)O)O)N
INCHI=InChI=1S/C22H34N4O4/c1-14(2)19(23)22(29)26-11-9-16(10-12-26)21(28)25-15(3)20(27)24-13-17-7-5-6-8-18(17)30-4/h5-8,14-16,19H,9-13,23H2,1-4H3,(H,24,27)(H,25,28)/t15-,19-/m0/s1
FORMULA=C22H34N4O4
PUBMED=N/A
SUBMITUSER=BIOADREM
LIBRARYQUALITY=0
SPECTRUMID=CCMSLIB00000080423
SCANS=2609
ID=CCMSLIB00000080423
95.0491408147 	 0.67
110.060039852 	 0.74
112.0756899162 	 80.13
121.0647908789 	 100
135.0804409431 	 0.67
138.0913399804 	 3.83
153.1022390177 	 0.95
155.1178890819 	 13.59
181.0971536398 	 1.03
183.112803704 	 24.39
192.138290173 	 1.83
195.112803704 	 0.66
209.1284537682 	 22.47
229.1546685187 	 0.61
254.1863029981 	 3.81
282.1812176202 	 2.94
320.1968676844 	 21.95
419.2652816006 	 1.48
END IONS

BEGIN IONS
PEPMASS=565.209
CHARGE=1
MSLEVEL=2
RT=0
SOURCE_INSTRUMENT=qTOF
FILENAME=CCMSLIB00000080424.ms
IONMODE=Positive
ORGANISM=Natural
NAME=MLS001140670-01!
PI=GNPS
DATACOLLECTOR=GNPS
SMILES=COc1cccc(c1)C1c2c(C[C@H]3C(=O)N(c4ccccc4C(=O)N4CCCC4C(=O)O)C(=O)N13)c1ccccc1[nH]2
INCHI=InChI=1S/C32H28N4O6/c1-42-19-9-6-8-18(16-19)28-27-22(20-10-2-4-12-23(20)33-27)17-26-30(38)36(32(41)35(26)28)24-13-5-3-11-21(24)29(37)34-15-7-14-25(34)31(39)40/h2-6,8-13,16,25-26,28,33H,7,14-15,17H2,1H3,(H,39,40)/t25?,26-,28?/m0/s1
FORMULA=C32H28N4O6
PUBMED=N/A
SUBMITUSER=BIOADREM
LIBRARYQUALITY=0
SPECTRUMID=CCMSLIB00000080424
SCANS=2610
ID=CCMSLIB00000080424
120.0443897878 	 5.19
121.0647908789 	 12.89
146.0236543457 	 22.79
206.0964253583 	 4.26
210.0913399804 	 1.96
217.0886003262 	 14.59
218.0964253583 	 61.77
219.1015703157 	 17.04
220.0994993635 	 2.99
232.0730098415 	 4.94
233.0835149483 	 10.13
234.0913399804 	 16.63
235.0627795062 	 6.61
235.0964849378 	 3.38
238.0862546025 	 44.98
239.0900568892 	 8.16
245.0835149483 	 3.23
246.0913399804 	 5.34
247.0964849378 	 21.43
248.1069900446 	 100
249.112135002 	 63.03
250.1199600341 	 12.48
260.1069900446 	 82.62
262.0862546025 	 5.55
263.085526321 	 2.06
266.0811692246 	 39.35
267.0849715113 	 6.37
275.1178890819 	 4.58
288.099224592 	 11.47
289.1011763852 	 2.42
290.0811692246 	 10.44
303.112803704 	 17.47
304.1179486614 	 4.51
342.0846371603 	 4.05
358.1100640498 	 2.07
372.1190112939 	 2.77
374.1049786719 	 3.57
376.1206287361 	 2.33
379.1441038324 	 2.9
389.1284537682 	 5.63
390.1237027413 	 3.38
392.1155433582 	 4.57
407.1390184545 	 38.47
422.1499174918 	 13.17
450.1448321139 	 29.46
565.2081606522 	 0
END IONS

BEGIN IONS
PEPMASS=303.1826
CHARGE=1
MSLEVEL=2
RT=0
SOURCE_INSTRUMENT=qTOF
FILENAME=CCMSLIB00000080425.ms
IONMODE=Positive
ORGANISM=Natural
NAME=MLS000877015-01!(3Z)-3-[[5-(2-methylbut-3-en-2-yl)-1H-imidazol-4-yl]methylidene]-6-propan-2-ylpiperazine-2,5-dione
PI=GNPS
DATACOLLECTOR=GNPS
SMILES=C=CC(C)(C)c1c(/C=C\2/C(=NC(C(C)C)C(=N2)O)O)nc[nH]1
INCHI=InChI=1S/C16H22N4O2/c1-6-16(4,5)13-10(17-8-18-13)7-11-14(21)20-12(9(2)3)15(22)19-11/h6-9,12H,1H2,2-5H3,(H,17,18)(H,19,22)(H,20,21)/b11-7-
FORMULA=C16H22N4O2
PUBMED=N/A
SUBMITUSER=BIOADREM
LIBRARYQUALITY=0
SPECTRUMID=CCMSLIB00000080425
SCANS=2611
ID=CCMSLIB00000080425
95.060374203 	 1.76
105.0698762568 	 1.93
106.0651252299 	 1.66
107.060374203 	 3.69
108.0569658468 	 6.28
108.0807752941 	 4.66
109.0647908789 	 1.77
117.0573001978 	 4.35
118.0651252299 	 1.87
119.060374203 	 2.66
120.0569658468 	 3.54
121.0760242672 	 3.04
122.0964253583 	 10.93
131.060374203 	 5.08
132.0807752941 	 6.75
133.0760242672 	 19.42
134.072615911 	 26.16
135.0916743314 	 9
144.0681992351 	 2.85
145.0760242672 	 8.12
146.072615911 	 7.57
147.0916743314 	 42.17
149.1073243956 	 42.55
159.0916743314 	 43.34
160.0882659752 	 22.05
161.0960910073 	 34.09
162.1025733687 	 8.34
172.0869233045 	 3.43
174.1025733687 	 3.31
176.1182234329 	 100
187.0865889535 	 2.36
188.0831805973 	 2.55
190.0974879908 	 2.45
200.0818379266 	 2.91
204.113138055 	 4.12
207.1240370923 	 1.91
217.1083870281 	 4.34
228.0767525487 	 1.57
235.1189517144 	 10.49
245.1033016502 	 37
258.1600882476 	 2.36
260.1267767465 	 9.48
261.1346017786 	 3.33
275.1866373491 	 1.53
286.1550028697 	 1.51
303.1815519712 	 14.28
END IONS

BEGIN IONS
PEPMASS=426.2035
CHARGE=1
MSLEVEL=2
RT=0
SOURCE_INSTRUMENT=qTOF
FILENAME=CCMSLIB00000080426.ms
IONMODE=Positive
ORGANISM=Natural
NAME=MLS001159029-01!N-(3-imidazol-1-ylpropyl)-2-[(4,8,8-trimethyl-2-oxo-9,10-dihydropyrano[2,3-h]chromen-5-yl)oxy]acetamide
PI=GNPS
DATACOLLECTOR=GNPS
SMILES=Cc1cc(=O)oc2c3CCC(C)(C)Oc3cc(c12)OCC(=NCCCn1ccnc1)O
INCHI=InChI=1S/C23H27N3O5/c1-15-11-20(28)30-22-16-5-6-23(2,3)31-17(16)12-18(21(15)22)29-13-19(27)25-7-4-9-26-10-8-24-14-26/h8,10-12,14H,4-7,9,13H2,1-3H3,(H,25,27)
FORMULA=C23H27N3O5
PUBMED=N/A
SUBMITUSER=BIOADREM
LIBRARYQUALITY=0
SPECTRUMID=CCMSLIB00000080426
SCANS=2612
ID=CCMSLIB00000080426
95.060374203 	 3.78
98.060039852 	 1.2
99.0678648841 	 35.64
121.0647908789 	 0.61
149.059705501 	 0.77
161.059705501 	 3.48
163.0389700589 	 0.86
189.0546201231 	 7.78
201.0546201231 	 0.61
203.033884681 	 1.14
205.0495347452 	 5.18
206.0811692246 	 1.17
216.0655191604 	 2.91
217.0495347452 	 66.93
219.0526087504 	 1.7
228.0655191604 	 1.09
233.0444493673 	 1.33
234.112469353 	 0.56
244.0604337825 	 6.44
245.0444493673 	 22.74
256.0604337825 	 1.86
256.0968192888 	 1.06
260.0917339109 	 1.67
261.099558943 	 0.86
272.0917339109 	 0.61
273.1107923313 	 20.84
274.0709984688 	 1.09
284.0917339109 	 2.29
285.086982884 	 0.83
289.0944735651 	 1.3
290.1022985972 	 4.24
301.1057069534 	 1.67
302.1022985972 	 100
330.1335987256 	 0.66
358.164898854 	 41.6
370.139746736 	 10.89
426.2023469928 	 7.18
END IONS

BEGIN IONS
PEPMASS=368.161
CHARGE=1
MSLEVEL=2
RT=0
SOURCE_INSTRUMENT=qTOF
FILENAME=CCMSLIB00000080427.ms
IONMODE=Positive
ORGANISM=Natural
NAME=MLS001158978-01!(3S)-N-[(2R)-1-(1,3-benzodioxol-5-ylamino)-1-oxopropan-2-yl]-1,2,3,4-tetrahydroisoquinoline-3-carboxamide
PI=GNPS
DATACOLLECTOR=GNPS
SMILES=C[C@H](C(=Nc1ccc2c(c1)OCO2)O)N=C([C@@H]1Cc2ccccc2CN1)O
INCHI=InChI=1S/C20H21N3O4/c1-12(19(24)23-15-6-7-17-18(9-15)27-11-26-17)22-20(25)16-8-13-4-2-3-5-14(13)10-21-16/h2-7,9,12,16,21H,8,10-11H2,1H3,(H,22,25)(H,23,24)/t12-,16+/m1/s1
FORMULA=C20H21N3O4
PUBMED=N/A
SUBMITUSER=BIOADREM
LIBRARYQUALITY=0
SPECTRUMID=CCMSLIB00000080427
SCANS=2613
ID=CCMSLIB00000080427
103.0542261926 	 1.4
105.0698762568 	 2.5
115.0542261926 	 6.32
117.0573001978 	 5.28
130.0651252299 	 46.42
132.0807752941 	 100
185.1073243956 	 0.35
203.1178890819 	 1.73
368.1604821781 	 0
END IONS

BEGIN IONS
PEPMASS=423.1924
CHARGE=1
MSLEVEL=2
RT=0
SOURCE_INSTRUMENT=qTOF
FILENAME=CCMSLIB00000080428.ms
IONMODE=Positive
ORGANISM=Natural
NAME=MLS001158355-01!2-[(4-ethyl-8,8-dimethyl-2-oxo-9,10-dihydropyrano[2,3-h]chromen-5-yl)oxy]-N-(pyridin-3-ylmethyl)acetamide
PI=GNPS
DATACOLLECTOR=GNPS
SMILES=CCc1cc(=O)oc2c3CCC(C)(C)Oc3cc(c12)OCC(=NCc1cccnc1)O
INCHI=InChI=1S/C24H26N2O5/c1-4-16-10-21(28)30-23-17-7-8-24(2,3)31-18(17)11-19(22(16)23)29-14-20(27)26-13-15-6-5-9-25-12-15/h5-6,9-12H,4,7-8,13-14H2,1-3H3,(H,26,27)
FORMULA=C24H26N2O5
PUBMED=N/A
SUBMITUSER=BIOADREM
LIBRARYQUALITY=0
SPECTRUMID=CCMSLIB00000080428
SCANS=2614
ID=CCMSLIB00000080428
96.0443897878 	 2.71
107.060374203 	 21.36
108.0443897878 	 12.48
119.060374203 	 29.79
121.0760242672 	 32.71
133.0647908789 	 0.47
135.0552888251 	 0.63
135.0804409431 	 0.64
149.0709388893 	 41.15
161.059705501 	 0.47
163.0753555652 	 1.4
173.059705501 	 0.75
175.0753555652 	 0.96
176.046795091 	 0.46
189.0546201231 	 1.35
191.0702701873 	 7.65
203.0702701873 	 4.98
217.0495347452 	 0.91
219.0651848094 	 11.63
231.0651848094 	 20.09
259.0600994315 	 3.07
276.086648533 	 0.52
327.1339330766 	 0.82
339.1339330766 	 2.22
355.1288476987 	 11.84
367.1288476987 	 100
423.1914479555 	 7.38
END IONS

BEGIN IONS
PEPMASS=355.2014
CHARGE=1
MSLEVEL=2
RT=0
SOURCE_INSTRUMENT=qTOF
FILENAME=CCMSLIB00000080429.ms
IONMODE=Positive
ORGANISM=Natural
NAME=MLS000728582-01!methyl (1S,4aS,8aS)-7-[2-(1H-indol-3-yl)ethyl]-1-methyl-1,4a,5,6,8,8a-hexahydropyrano[3,4-c]pyridine-4-carboxylate
PI=GNPS
DATACOLLECTOR=GNPS
SMILES=C[C@H]1[C@@H]2CN(CCc3c[nH]c4ccccc34)CC[C@@H]2C(=CO1)C(=O)OC
INCHI=InChI=1S/C21H26N2O3/c1-14-18-12-23(10-8-17(18)19(13-26-14)21(24)25-2)9-7-15-11-22-20-6-4-3-5-16(15)20/h3-6,11,13-14,17-18,22H,7-10,12H2,1-2H3/t14-,17-,18-/m0/s1
FORMULA=C21H26N2O3
PUBMED=N/A
SUBMITUSER=BIOADREM
LIBRARYQUALITY=0
SPECTRUMID=CCMSLIB00000080429
SCANS=2615
ID=CCMSLIB00000080429
103.0542261926 	 1.13
115.0542261926 	 5.05
117.0698762568 	 7.92
118.0651252299 	 1.61
121.0647908789 	 1.09
127.0542261926 	 1.32
128.0494751657 	 1.25
131.0491408147 	 0.31
142.0651252299 	 1.14
144.0807752941 	 100
149.059705501 	 1.48
167.0702701873 	 0.29
180.1019046667 	 0.86
196.1332047951 	 0.4
224.1281194172 	 14.36
355.2016187113 	 0.43
END IONS

BEGIN IONS
PEPMASS=372.1809
CHARGE=1
MSLEVEL=2
RT=0
SOURCE_INSTRUMENT=qTOF
FILENAME=CCMSLIB00000080430.ms
IONMODE=Positive
ORGANISM=Natural
NAME=MLS001157729-01!N-cyclopropyl-2-[(3,4,8,8-tetramethyl-2-oxo-9,10-dihydropyrano[2,3-h]chromen-5-yl)oxy]acetamide
PI=GNPS
DATACOLLECTOR=GNPS
SMILES=Cc1c(C)c(=O)oc2c3CCC(C)(C)Oc3cc(c12)OCC(=NC1CC1)O
INCHI=InChI=1S/C21H25NO5/c1-11-12(2)20(24)26-19-14-7-8-21(3,4)27-15(14)9-16(18(11)19)25-10-17(23)22-13-5-6-13/h9,13H,5-8,10H2,1-4H3,(H,22,23)
FORMULA=C21H25NO5
PUBMED=N/A
SUBMITUSER=BIOADREM
LIBRARYQUALITY=0
SPECTRUMID=CCMSLIB00000080430
SCANS=2616
ID=CCMSLIB00000080430
103.0542261926 	 1.51
105.0698762568 	 1.29
109.0284053726 	 1.41
117.0698762568 	 2.86
119.085526321 	 1.49
121.0647908789 	 4.31
129.0698762568 	 1.25
133.0647908789 	 2.09
135.0440554368 	 1.8
145.0647908789 	 3.98
147.0440554368 	 1.51
147.0804409431 	 2.17
161.059705501 	 3.74
163.0753555652 	 9.63
173.059705501 	 7.26
185.059705501 	 2.22
189.0546201231 	 4.63
190.0624451552 	 25.48
191.0702701873 	 20.64
203.0702701873 	 5.64
205.0859202515 	 1.62
213.0546201231 	 2.15
217.0495347452 	 5.94
218.0573597773 	 2.98
219.0651848094 	 100
231.0651848094 	 21.97
233.0808348736 	 1.32
259.0600994315 	 38.37
316.1179486614 	 91.08
372.1805489182 	 55.44
END IONS

BEGIN IONS
PEPMASS=386.197
CHARGE=1
MSLEVEL=2
RT=0
SOURCE_INSTRUMENT=qTOF
FILENAME=CCMSLIB00000080431.ms
IONMODE=Positive
ORGANISM=Natural
NAME=MLS001142944-01!7-[2-[(4aS,8aS)-4a-hydroxy-1,3,4,5,6,7,8,8a-octahydroisoquinolin-2-yl]-2-oxoethoxy]-4-ethylchromen-2-one
PI=GNPS
DATACOLLECTOR=GNPS
SMILES=CCc1cc(=O)oc2cc(ccc12)OCC(=O)N1CC[C@]2(CCCC[C@H]2C1)O
INCHI=InChI=1S/C22H27NO5/c1-2-15-11-21(25)28-19-12-17(6-7-18(15)19)27-14-20(24)23-10-9-22(26)8-4-3-5-16(22)13-23/h6-7,11-12,16,26H,2-5,8-10,13-14H2,1H3/t16-,22-/m0/s1
FORMULA=C22H27NO5
PUBMED=N/A
SUBMITUSER=BIOADREM
LIBRARYQUALITY=0
SPECTRUMID=CCMSLIB00000080431
SCANS=2617
ID=CCMSLIB00000080431
96.0807752941 	 2.19
103.0542261926 	 3.16
105.0698762568 	 8.03
108.0807752941 	 46.45
109.0886003262 	 18.1
115.0542261926 	 9.62
116.0620512247 	 4.53
117.0698762568 	 46.41
120.0933513531 	 6.28
121.1011763852 	 27.91
122.0964253583 	 15.94
135.1042503904 	 4.87
136.1120754225 	 74.21
137.1199004546 	 85.77
138.1277254867 	 49.65
145.0647908789 	 21.52
147.0440554368 	 4.31
147.0804409431 	 11.15
149.059705501 	 2.45
150.1277254867 	 67.6
151.1355505188 	 21.63
164.1069900446 	 5.13
173.059705501 	 66.96
175.0753555652 	 28.24
178.1226401088 	 21.22
179.1304651409 	 100
191.0702701873 	 12.11
203.0702701873 	 66.85
231.0651848094 	 7.06
248.0917339109 	 15.31
340.190719674 	 18.32
368.1856342961 	 28.32
386.1961989824 	 0
END IONS

BEGIN IONS
PEPMASS=384.2535
CHARGE=1
MSLEVEL=2
RT=0
SOURCE_INSTRUMENT=qTOF
FILENAME=CCMSLIB00000080432.ms
IONMODE=Positive
ORGANISM=Natural
NAME=MLS002473215-01!(2E,4E,12E)-13-(1,3-benzodioxol-5-yl)-N-(2-methylpropyl)trideca-2,4,12-trienamide
PI=GNPS
DATACOLLECTOR=GNPS
SMILES=CC(C)CN=C(/C=C/C=C/CCCCCC/C=C/c1ccc2c(c1)OCO2)O
INCHI=InChI=1S/C24H33NO3/c1-20(2)18-25-24(26)14-12-10-8-6-4-3-5-7-9-11-13-21-15-16-22-23(17-21)28-19-27-22/h8,10-17,20H,3-7,9,18-19H2,1-2H3,(H,25,26)/b10-8+,13-11+,14-12+
FORMULA=C24H33NO3
PUBMED=N/A
SUBMITUSER=BIOADREM
LIBRARYQUALITY=0
SPECTRUMID=CCMSLIB00000080432
SCANS=2618
ID=CCMSLIB00000080432
103.0542261926 	 18.07
105.0334907505 	 2.46
105.0698762568 	 1.46
107.0491408147 	 2.57
115.0542261926 	 2.32
117.0698762568 	 3.85
119.0491408147 	 0.87
119.085526321 	 0.75
121.0647908789 	 0.69
123.0440554368 	 5.08
127.0542261926 	 0.58
128.0620512247 	 0.87
129.0698762568 	 2.34
131.0491408147 	 26.42
133.0647908789 	 3.35
135.0440554368 	 100
141.0698762568 	 0.99
143.0491408147 	 0.78
145.0647908789 	 4.74
147.0440554368 	 0.97
147.0804409431 	 0.87
149.059705501 	 3.61
153.0698762568 	 0.58
155.085526321 	 0.78
157.0647908789 	 4.54
159.0440554368 	 1.82
159.0804409431 	 1.2
161.059705501 	 10.37
163.0753555652 	 1.29
165.0698762568 	 0.64
169.0647908789 	 0.72
171.0804409431 	 1.89
173.059705501 	 2.47
175.0753555652 	 2.57
183.0804409431 	 0.82
185.059705501 	 1.19
187.0753555652 	 3.76
189.0910056294 	 0.79
201.0910056294 	 1
283.1692559504 	 1.33
311.1641705725 	 0.64
384.2533199308 	 2.74
END IONS

BEGIN IONS
PEPMASS=543.1762
CHARGE=1
MSLEVEL=2
RT=0
SOURCE_INSTRUMENT=qTOF
FILENAME=CCMSLIB00000080433.ms
IONMODE=Positive
ORGANISM=Natural
NAME=MLS001158027-01!3-(5-hydroxy-1H-indol-3-yl)-2-[2-[4-(4-methoxyphenyl)-2-oxochromen-7-yl]oxypropanoylamino]propanoic acid
PI=GNPS
DATACOLLECTOR=GNPS
SMILES=CC(C(=NC(Cc1c[nH]c2ccc(cc12)O)C(=O)O)O)Oc1ccc2c(cc(=O)oc2c1)c1ccc(cc1)OC
INCHI=InChI=1S/C30H26N2O8/c1-16(29(35)32-26(30(36)37)11-18-15-31-25-10-5-19(33)12-24(18)25)39-21-8-9-22-23(14-28(34)40-27(22)13-21)17-3-6-20(38-2)7-4-17/h3-10,12-16,26,31,33H,11H2,1-2H3,(H,32,35)(H,36,37)
FORMULA=C30H26N2O8
PUBMED=N/A
SUBMITUSER=BIOADREM
LIBRARYQUALITY=0
SPECTRUMID=CCMSLIB00000080433
SCANS=2619
ID=CCMSLIB00000080433
131.0491408147 	 3.15
132.0807752941 	 3.36
133.0522148199 	 3.68
134.060039852 	 8.65
135.0440554368 	 4.92
146.060039852 	 100
148.0756899162 	 10.97
156.0807752941 	 3.62
158.060039852 	 18.98
159.0440554368 	 3.04
160.0756899162 	 15.33
162.0549544741 	 32.46
171.0678648841 	 4.08
172.0756899162 	 2.68
175.0865889535 	 32.12
184.0756899162 	 16.21
186.0549544741 	 32.08
186.0913399804 	 7.34
195.0804409431 	 6.3
200.0706045383 	 3.42
201.1022390177 	 12.74
204.0655191604 	 53.46
211.1117410715 	 3.73
215.0815035756 	 10.87
223.0753555652 	 3.43
224.0831805973 	 2.85
225.0910056294 	 5.33
227.0702701873 	 7.04
229.0971536398 	 5.69
230.1049786719 	 9.2
239.1066556936 	 7.45
251.0702701873 	 4.76
252.0780952194 	 3.05
253.0859202515 	 7.55
267.1015703157 	 22.03
268.1053726024 	 3.67
269.0808348736 	 37.83
270.0846371603 	 8.98
280.0730098415 	 3.08
295.0964849378 	 59.9
296.1002872245 	 12.84
426.1335987256 	 3.9
497.1707125134 	 12.23
543.1761918218 	 1.34
END IONS

BEGIN IONS
PEPMASS=454.1494
CHARGE=1
MSLEVEL=2
RT=0
SOURCE_INSTRUMENT=qTOF
FILENAME=CCMSLIB00000080434.ms
IONMODE=Positive
ORGANISM=Natural
NAME=MLS001157771-01!(2S)-1-[2-[[(2Z)-2-[(2,4-dimethoxyphenyl)methylidene]-3-oxo-1-benzofuran-6-yl]oxy]acetyl]pyrrolidine-2-carboxylic acid
PI=GNPS
DATACOLLECTOR=GNPS
SMILES=COc1ccc(/C=C\2/C(=O)c3ccc(cc3O2)OCC(=O)N2CCC[C@H]2C(=O)O)c(c1)OC
INCHI=InChI=1S/C24H23NO8/c1-30-15-6-5-14(19(11-15)31-2)10-21-23(27)17-8-7-16(12-20(17)33-21)32-13-22(26)25-9-3-4-18(25)24(28)29/h5-8,10-12,18H,3-4,9,13H2,1-2H3,(H,28,29)/b21-10-/t18-/m0/s1
FORMULA=C24H23NO8
PUBMED=N/A
SUBMITUSER=BIOADREM
LIBRARYQUALITY=0
SPECTRUMID=CCMSLIB00000080434
SCANS=2620
ID=CCMSLIB00000080434
98.060039852 	 7.01
100.0756899162 	 6.4
107.0491408147 	 3.67
112.0756899162 	 9.02
123.0440554368 	 2.11
128.0706045383 	 7.92
133.0284053726 	 3.22
137.0233199947 	 5.68
137.059705501 	 11.73
148.0518804689 	 29.41
151.0389700589 	 1.87
156.0655191604 	 3.01
163.0389700589 	 7.28
213.0546201231 	 1.93
239.0702701873 	 2.56
240.0780952194 	 2.11
250.0624451552 	 2.82
251.0702701873 	 2.94
252.0417097131 	 9.24
256.0730098415 	 5.2
267.0651848094 	 28.64
269.0444493673 	 2.19
270.0886599057 	 5.11
271.0964849378 	 3.06
279.0651848094 	 4.1
281.0808348736 	 2.46
282.0522743994 	 2.29
282.0886599057 	 3.01
283.0600994315 	 8.84
283.0964849378 	 2.89
284.0679244636 	 36.81
296.0679244636 	 1.71
298.0835745278 	 7.47
299.0913995599 	 100
300.099224592 	 17.72
301.0944735651 	 1.87
311.0913995599 	 17.94
313.0706641178 	 2.14
339.086314182 	 1.99
357.0968788683 	 5.27
380.1492487898 	 3.07
426.1547280982 	 2.1
454.1496427203 	 21.51
END IONS

BEGIN IONS
PEPMASS=478.223
CHARGE=1
MSLEVEL=2
RT=0
SOURCE_INSTRUMENT=qTOF
FILENAME=CCMSLIB00000080435.ms
IONMODE=Positive
ORGANISM=Natural
NAME=MLS001140934-01!4-[[2-(6-ethyl-2-oxo-4-phenylchromen-7-yl)oxypropanoylamino]methyl]cyclohexane-1-carboxylic acid
PI=GNPS
DATACOLLECTOR=GNPS
SMILES=CCc1cc2c(cc(=O)oc2cc1OC(C)C(=NCC1CCC(CC1)C(=O)O)O)c1ccccc1
INCHI=InChI=1S/C28H31NO6/c1-3-19-13-23-22(20-7-5-4-6-8-20)14-26(30)35-25(23)15-24(19)34-17(2)27(31)29-16-18-9-11-21(12-10-18)28(32)33/h4-8,13-15,17-18,21H,3,9-12,16H2,1-2H3,(H,29,31)(H,32,33)
FORMULA=C28H31NO6
PUBMED=N/A
SUBMITUSER=BIOADREM
LIBRARYQUALITY=0
SPECTRUMID=CCMSLIB00000080435
SCANS=2621
ID=CCMSLIB00000080435
95.085526321 	 4.41
105.0334907505 	 0.68
110.0964253583 	 0.88
111.1042503904 	 2.87
112.1120754225 	 3.49
138.0913399804 	 2.13
138.1277254867 	 5.14
140.1069900446 	 15.39
152.1069900446 	 2.02
166.1226401088 	 2.54
167.1304651409 	 13.43
177.0698762568 	 1.18
179.085526321 	 0.82
183.0804409431 	 0.75
184.1332047951 	 2.2
194.072615911 	 2.67
195.0804409431 	 2.85
197.0960910073 	 1.9
209.0960910073 	 0.95
210.0675305331 	 0.77
211.1117410715 	 1.47
223.0753555652 	 1.6
223.1117410715 	 1.6
236.0831805973 	 1.59
237.0910056294 	 1.91
237.1273911357 	 0.83
249.0910056294 	 1.56
249.1273911357 	 0.8
251.0702701873 	 2.14
252.0780952194 	 0.82
264.0780952194 	 2.47
265.0859202515 	 22.27
267.1015703157 	 100
293.1172203799 	 54.85
321.112135002 	 3.49
338.1386841035 	 8.87
432.2169344245 	 9.33
478.2224137329 	 0
END IONS

BEGIN IONS
PEPMASS=452.207
CHARGE=1
MSLEVEL=2
RT=0
SOURCE_INSTRUMENT=qTOF
FILENAME=CCMSLIB00000080436.ms
IONMODE=Positive
ORGANISM=Natural
NAME=MLS001141224-01!N-(2-hydroxy-2-phenylethyl)-2-[(3,4,8,8-tetramethyl-2-oxo-9,10-dihydropyrano[2,3-h]chromen-5-yl)oxy]acetamide
PI=GNPS
DATACOLLECTOR=GNPS
SMILES=Cc1c(C)c(=O)oc2c3CCC(C)(C)Oc3cc(c12)OCC(=NCC(c1ccccc1)O)O
INCHI=InChI=1S/C26H29NO6/c1-15-16(2)25(30)32-24-18-10-11-26(3,4)33-20(18)12-21(23(15)24)31-14-22(29)27-13-19(28)17-8-6-5-7-9-17/h5-9,12,19,28H,10-11,13-14H2,1-4H3,(H,27,29)
FORMULA=C26H29NO6
PUBMED=N/A
SUBMITUSER=BIOADREM
LIBRARYQUALITY=0
SPECTRUMID=CCMSLIB00000080436
SCANS=2622
ID=CCMSLIB00000080436
103.0542261926 	 7.17
105.0698762568 	 13.19
109.0284053726 	 2.7
115.0542261926 	 28.87
117.0698762568 	 43.25
118.0651252299 	 12.84
119.0491408147 	 3.77
120.0807752941 	 35.44
121.0647908789 	 3.42
130.0651252299 	 14.71
132.0807752941 	 67.58
135.0804409431 	 2.78
142.0651252299 	 2.48
145.0647908789 	 3.7
147.0804409431 	 4.25
149.059705501 	 2.67
160.0756899162 	 7.57
161.059705501 	 3.31
163.0753555652 	 2.28
173.059705501 	 4.93
175.0753555652 	 14.13
177.0546201231 	 7.81
178.0862546025 	 2.88
189.0546201231 	 3.06
191.0702701873 	 10.8
203.0702701873 	 19.54
207.0651848094 	 2.5
219.0651848094 	 61.45
229.1223057578 	 8.31
231.0651848094 	 100
247.0600994315 	 6.98
259.0600994315 	 84.66
287.1277850662 	 10.13
315.1226996883 	 6.74
378.1335987256 	 12.64
434.1961989824 	 2.46
452.2067636687 	 0
END IONS

BEGIN IONS
PEPMASS=455.1388
CHARGE=1
MSLEVEL=2
RT=0
SOURCE_INSTRUMENT=qTOF
FILENAME=CCMSLIB00000080437.ms
IONMODE=Positive
ORGANISM=Natural
NAME=MLS001160333-01!
PI=GNPS
DATACOLLECTOR=GNPS
SMILES=Cc1c2cc(c(cc2oc(=O)c1CC(=O)N1C[C@H]2C[C@@H](C1)c1cccc(=O)n1C2)OC)Cl
INCHI=InChI=1S/C24H23ClN2O5/c1-13-16-7-18(25)21(31-2)9-20(16)32-24(30)17(13)8-23(29)26-10-14-6-15(12-26)19-4-3-5-22(28)27(19)11-14/h3-5,7,9,14-15H,6,8,10-12H2,1-2H3/t14-,15+/m1/s1
FORMULA=C24H23ClN2O5
PUBMED=N/A
SUBMITUSER=BIOADREM
LIBRARYQUALITY=0
SPECTRUMID=CCMSLIB00000080437
SCANS=2623
ID=CCMSLIB00000080437
103.0542261926 	 0.21
128.0620512247 	 0.23
131.0491408147 	 0.24
143.0491408147 	 0.48
145.0647908789 	 0.22
146.072615911 	 0.79
148.0756899162 	 6.46
159.0440554368 	 1.03
166.0179935247 	 0.31
174.0675305331 	 2.57
191.1178890819 	 26.64
194.0129081468 	 0.82
195.0314793778 	 0.3
209.0363832431 	 7.6
237.0312978652 	 100
238.0372930372 	 15.83
265.0262124873 	 5.29
266.0322076593 	 0.48
455.1368255692 	 1.8
END IONS

BEGIN IONS
PEPMASS=697.216
CHARGE=1
MSLEVEL=2
RT=0
SOURCE_INSTRUMENT=qTOF
FILENAME=CCMSLIB00000080438.ms
IONMODE=Positive
ORGANISM=Natural
NAME=MLS000756558-01!
PI=GNPS
DATACOLLECTOR=GNPS
SMILES=CC(=CCc1cc(ccc1O)C(=O)Nc1c(c2ccc(c(c2oc1=O)Cl)OC1C(C(C(C(C)(C)O1)OC)OC(=O)c1ccc(C)[nH]1)O)O)C
INCHI=InChI=1S/C35H37ClN2O11/c1-16(2)7-9-18-15-19(10-13-22(18)39)31(42)38-25-26(40)20-11-14-23(24(36)28(20)47-33(25)44)46-34-27(41)29(30(45-6)35(4,5)49-34)48-32(43)21-12-8-17(3)37-21/h7-8,10-15,27,29-30,34,37,39-41H,9H2,1-6H3,(H,38,42)
FORMULA=C35H37ClN2O11
PUBMED=N/A
SUBMITUSER=BIOADREM
LIBRARYQUALITY=0
SPECTRUMID=CCMSLIB00000080438
SCANS=2624
ID=CCMSLIB00000080438
97.0647908789 	 4.57
105.0334907505 	 1.32
106.0049302763 	 0.41
108.0443897878 	 58.64
111.0804409431 	 0.99
125.059705501 	 3.47
126.0549544741 	 6.71
129.0910056294 	 0.37
133.0284053726 	 30.55
139.0753555652 	 0.85
147.0440554368 	 1.68
157.0859202515 	 1.07
189.0910056294 	 100
282.1335987256 	 0.76
697.2158637512 	 0
END IONS

BEGIN IONS
PEPMASS=364.146
CHARGE=1
MSLEVEL=2
RT=0
SOURCE_INSTRUMENT=qTOF
FILENAME=CCMSLIB00000080440.ms
IONMODE=Positive
ORGANISM=Natural
NAME=MLS001143604-01!
PI=GNPS
DATACOLLECTOR=GNPS
SMILES=CC[C@H]1c2c(C[C@H]3C(=O)N(c4ccc(cc4)F)C(=O)N13)c1ccccc1[nH]2
INCHI=InChI=1S/C21H18FN3O2/c1-2-17-19-15(14-5-3-4-6-16(14)23-19)11-18-20(26)24(21(27)25(17)18)13-9-7-12(22)8-10-13/h3-10,17-18,23H,2,11H2,1H3/t17-,18-/m0/s1
FORMULA=C21H18FN3O2
PUBMED=N/A
SUBMITUSER=BIOADREM
LIBRARYQUALITY=0
SPECTRUMID=CCMSLIB00000080440
SCANS=2625
ID=CCMSLIB00000080440
103.0542261926 	 1.67
115.0542261926 	 1.15
117.0573001978 	 1.17
127.0502034472 	 1.43
128.0620512247 	 12.89
129.0698762568 	 11.69
130.0651252299 	 8.77
138.0338251015 	 0.63
140.0494751657 	 1.41
142.0736785435 	 2.44
143.085526321 	 11.94
145.0886003262 	 0.6
153.0698762568 	 7.99
154.0651252299 	 13.66
155.072950262 	 45.39
156.0767525487 	 4.82
166.0651252299 	 0.57
167.072950262 	 3.18
168.0807752941 	 9.3
169.0845775808 	 6.39
170.0964253583 	 100
180.0807752941 	 0.76
184.1080526771 	 0.93
195.0552888251 	 1.88
197.1073243956 	 1.15
225.1022390177 	 1.16
364.1455810376 	 0
END IONS

BEGIN IONS
PEPMASS=410.2456
CHARGE=1
MSLEVEL=2
RT=0
SOURCE_INSTRUMENT=qTOF
FILENAME=CCMSLIB00000080441.ms
IONMODE=Positive
ORGANISM=Natural
NAME=MLS001157935-01!(3S)-N-[(2S)-1-[(4-methoxyphenyl)methylamino]-3-methyl-1-oxopentan-2-yl]-1,2,3,4-tetrahydroisoquinoline-3-carboxamide
PI=GNPS
DATACOLLECTOR=GNPS
SMILES=CCC(C)[C@@H](C(=NCc1ccc(cc1)OC)O)N=C([C@@H]1Cc2ccccc2CN1)O
INCHI=InChI=1S/C24H31N3O3/c1-4-16(2)22(24(29)26-14-17-9-11-20(30-3)12-10-17)27-23(28)21-13-18-7-5-6-8-19(18)15-25-21/h5-12,16,21-22,25H,4,13-15H2,1-3H3,(H,26,29)(H,27,28)/t16?,21-,22-/m0/s1
FORMULA=C24H31N3O3
PUBMED=N/A
SUBMITUSER=BIOADREM
LIBRARYQUALITY=0
SPECTRUMID=CCMSLIB00000080441
SCANS=2626
ID=CCMSLIB00000080441
103.0542261926 	 0.98
105.0698762568 	 1.38
106.0413157826 	 0.72
107.0491408147 	 0.25
115.0542261926 	 3.23
117.0573001978 	 2.89
121.0647908789 	 71.12
130.0651252299 	 30.92
132.0807752941 	 100
141.0698762568 	 0.23
157.1011763852 	 0.22
175.0865889535 	 0.25
185.0960910073 	 0.46
197.0960910073 	 0.25
213.0910056294 	 3.33
227.1066556936 	 0.29
241.0859202515 	 41.31
245.1648392745 	 3.35
254.1175547309 	 0.24
255.1015703157 	 3.97
257.1046443209 	 0.23
282.112469353 	 4.66
410.243817877 	 0.05
END IONS

BEGIN IONS
PEPMASS=408.1924
CHARGE=1
MSLEVEL=2
RT=0
SOURCE_INSTRUMENT=qTOF
FILENAME=CCMSLIB00000080442.ms
IONMODE=Positive
ORGANISM=Natural
NAME=MLS001157820-01!N-(3-imidazol-1-ylpropyl)-3-(2,3,5-trimethyl-7-oxofuro[3,2-g]chromen-6-yl)propanamide
PI=GNPS
DATACOLLECTOR=GNPS
SMILES=Cc1c(C)oc2cc3c(cc12)c(C)c(CCC(=NCCCn1ccnc1)O)c(=O)o3
INCHI=InChI=1S/C23H25N3O4/c1-14-16(3)29-20-12-21-19(11-18(14)20)15(2)17(23(28)30-21)5-6-22(27)25-7-4-9-26-10-8-24-13-26/h8,10-13H,4-7,9H2,1-3H3,(H,25,27)
FORMULA=C23H25N3O4
PUBMED=N/A
SUBMITUSER=BIOADREM
LIBRARYQUALITY=0
SPECTRUMID=CCMSLIB00000080442
SCANS=2627
ID=CCMSLIB00000080442
115.0542261926 	 0.23
128.0620512247 	 0.39
129.0698762568 	 0.74
141.0698762568 	 1.06
142.0777012889 	 0.36
143.085526321 	 0.35
154.0777012889 	 0.73
157.0647908789 	 0.49
157.1011763852 	 0.79
167.085526321 	 0.25
170.072615911 	 0.21
182.072615911 	 0.6
184.0882659752 	 0.26
185.0960910073 	 2.01
197.0960910073 	 0.76
198.0675305331 	 0.92
212.0831805973 	 0.26
213.0910056294 	 17.75
227.1066556936 	 0.67
241.0859202515 	 100
254.1175547309 	 0.39
255.1015703157 	 25.6
282.112469353 	 29.79
283.0964849378 	 46.82
322.1437694814 	 0.46
340.1543341677 	 54.03
408.1917823065 	 0.53
END IONS

BEGIN IONS
PEPMASS=423.217
CHARGE=1
MSLEVEL=2
RT=0
SOURCE_INSTRUMENT=qTOF
FILENAME=CCMSLIB00000080443.ms
IONMODE=Positive
ORGANISM=Natural
NAME=MLS000876982-01!5,7-dihydroxy-2-[4-methoxy-3,5-bis(3-methylbut-2-enyl)phenyl]-2,3-dihydrochromen-4-one
PI=GNPS
DATACOLLECTOR=GNPS
SMILES=CC(=CCc1cc(cc(CC=C(C)C)c1OC)C1CC(=O)c2c(cc(cc2O1)O)O)C
INCHI=InChI=1S/C26H30O5/c1-15(2)6-8-17-10-19(11-18(26(17)30-5)9-7-16(3)4)23-14-22(29)25-21(28)12-20(27)13-24(25)31-23/h6-7,10-13,23,27-28H,8-9,14H2,1-5H3
FORMULA=C26H30O5
PUBMED=N/A
SUBMITUSER=BIOADREM
LIBRARYQUALITY=0
SPECTRUMID=CCMSLIB00000080443
SCANS=2628
ID=CCMSLIB00000080443
115.0542261926 	 1.93
117.0698762568 	 2.44
123.0440554368 	 5.35
133.0647908789 	 2.56
143.0491408147 	 2.41
143.085526321 	 1.67
145.0647908789 	 2.32
147.0804409431 	 9.76
151.0389700589 	 6.43
153.0182346168 	 100
159.0804409431 	 2.22
161.059705501 	 6.11
165.0698762568 	 1.33
171.0804409431 	 1.59
173.059705501 	 5.46
173.0960910073 	 1.72
179.033884681 	 27.44
181.0647908789 	 1.62
183.0804409431 	 1.71
185.059705501 	 3.19
185.0960910073 	 1.95
187.0753555652 	 4.86
197.059705501 	 1.37
199.0753555652 	 3.2
201.0910056294 	 1.35
211.0753555652 	 2.36
213.0910056294 	 3.82
235.0753555652 	 2.52
238.0624451552 	 1.92
239.0702701873 	 2.65
253.0859202515 	 1.42
257.0808348736 	 1.57
266.0573597773 	 7.65
281.0808348736 	 54.29
299.0913995599 	 12.32
423.2166000735 	 0
END IONS

BEGIN IONS
PEPMASS=357.207
CHARGE=1
MSLEVEL=2
RT=0
SOURCE_INSTRUMENT=qTOF
FILENAME=CCMSLIB00000080444.ms
IONMODE=Positive
ORGANISM=Natural
NAME=MLS002695914-01!
PI=GNPS
DATACOLLECTOR=GNPS
SMILES=CC(=O)Oc1ccc2c(CCC3C2CCC2(C)C3CCC2OC(=O)C)c1
INCHI=InChI=1S/C22H28O4/c1-13(23)25-16-5-7-17-15(12-16)4-6-19-18(17)10-11-22(3)20(19)8-9-21(22)26-14(2)24/h5,7,12,18-21H,4,6,8-11H2,1-3H3
FORMULA=C22H28O4
PUBMED=N/A
SUBMITUSER=BIOADREM
LIBRARYQUALITY=0
SPECTRUMID=CCMSLIB00000080444
SCANS=2629
ID=CCMSLIB00000080444
105.0698762568 	 16.12
107.0491408147 	 76.7
119.0491408147 	 8.54
120.0933513531 	 8.93
129.0698762568 	 9.9
135.1168264494 	 100
144.0569658468 	 16.31
147.0804409431 	 12.23
159.0804409431 	 72.23
173.0960910073 	 37.67
185.0960910073 	 16.12
199.1117410715 	 20.78
225.1273911357 	 9.51
273.1849060146 	 23.3
357.2060353872 	 0
END IONS

BEGIN IONS
PEPMASS=337.238
CHARGE=1
MSLEVEL=2
RT=0
SOURCE_INSTRUMENT=qTOF
FILENAME=CCMSLIB00000080445.ms
IONMODE=Positive
ORGANISM=Natural
NAME=MLS000574941-01!
PI=GNPS
DATACOLLECTOR=GNPS
SMILES=C[C@@H]1CC(=O)[C@H]2CC(=CCC[C@@H]2[C@@]1(C)CC/C(=C/CO)/CO)CO
INCHI=InChI=1S/C20H32O4/c1-14-10-19(24)17-11-16(13-23)4-3-5-18(17)20(14,2)8-6-15(12-22)7-9-21/h4,7,14,17-18,21-23H,3,5-6,8-13H2,1-2H3/b15-7-/t14-,17+,18+,20+/m1/s1
FORMULA=C20H32O4
PUBMED=N/A
SUBMITUSER=BIOADREM
LIBRARYQUALITY=0
SPECTRUMID=CCMSLIB00000080445
SCANS=2630
ID=CCMSLIB00000080445
105.0698762568 	 100
107.085526321 	 33.66
117.0698762568 	 14.15
119.0491408147 	 13.82
119.085526321 	 51.87
128.0620512247 	 20.65
129.0698762568 	 26.67
131.085526321 	 36.26
133.1011763852 	 36.91
141.0698762568 	 14.47
142.0777012889 	 33.5
143.085526321 	 63.74
144.0933513531 	 21.14
145.1011763852 	 44.07
147.0804409431 	 19.67
154.0777012889 	 20.49
155.085526321 	 29.11
156.0933513531 	 22.28
157.1011763852 	 77.89
159.1168264494 	 47.48
162.1039160394 	 13.33
167.085526321 	 39.67
170.1090014173 	 26.5
171.1168264494 	 47.32
179.085526321 	 28.13
180.0933513531 	 31.06
181.1011763852 	 30.24
182.1090014173 	 16.75
183.1168264494 	 43.58
184.1246514815 	 14.8
185.1324765136 	 44.88
195.1168264494 	 40.98
197.1324765136 	 18.86
199.1481265778 	 15.61
209.1324765136 	 20
213.1273911357 	 16.59
223.1481265778 	 26.67
225.163776642 	 16.42
227.1430411999 	 12.85
255.1743413283 	 12.68
283.2056414567 	 22.93
337.2373355156 	 0
END IONS

BEGIN IONS
PEPMASS=430.187
CHARGE=1
MSLEVEL=2
RT=0
SOURCE_INSTRUMENT=qTOF
FILENAME=CCMSLIB00000080446.ms
IONMODE=Positive
ORGANISM=Natural
NAME=MLS001160409-01!(2S)-1-[2-[(3,4,8,8-tetramethyl-2-oxo-9,10-dihydropyrano[2,3-h]chromen-5-yl)oxy]acetyl]pyrrolidine-2-carboxylic acid
PI=GNPS
DATACOLLECTOR=GNPS
SMILES=Cc1c(C)c(=O)oc2c3CCC(C)(C)Oc3cc(c12)OCC(=O)N1CCC[C@H]1C(=O)O
INCHI=InChI=1S/C23H27NO7/c1-12-13(2)22(28)30-20-14-7-8-23(3,4)31-16(14)10-17(19(12)20)29-11-18(25)24-9-5-6-15(24)21(26)27/h10,15H,5-9,11H2,1-4H3,(H,26,27)/t15-/m0/s1
FORMULA=C23H27NO7
PUBMED=N/A
SUBMITUSER=BIOADREM
LIBRARYQUALITY=0
SPECTRUMID=CCMSLIB00000080446
SCANS=2631
ID=CCMSLIB00000080446
98.060039852 	 15.64
100.0756899162 	 10.26
117.0698762568 	 1.26
121.0647908789 	 3.09
128.0706045383 	 24.56
135.0804409431 	 1.38
145.0647908789 	 1.83
147.0804409431 	 0.69
149.059705501 	 2.21
156.0655191604 	 46.56
163.0753555652 	 6.65
173.059705501 	 3.59
175.0753555652 	 3.29
177.0546201231 	 1.44
190.0624451552 	 2.5
191.0702701873 	 15.23
201.0546201231 	 0.66
203.0702701873 	 4.88
219.0651848094 	 100
221.0682588146 	 1.96
231.0651848094 	 27.28
247.0600994315 	 1.74
259.0600994315 	 11.61
277.0706641178 	 0.98
374.1234279698 	 17.99
430.1860282266 	 0
END IONS

BEGIN IONS
PEPMASS=295.097
CHARGE=1
MSLEVEL=2
RT=0
SOURCE_INSTRUMENT=qTOF
FILENAME=CCMSLIB00000080447.ms
IONMODE=Positive
ORGANISM=Natural
NAME=MLS001049043-01!(2-methyl-4-oxo-3-phenylchromen-7-yl) acetate
PI=GNPS
DATACOLLECTOR=GNPS
SMILES=Cc1c(c2ccccc2)c(=O)c2ccc(cc2o1)OC(=O)C
INCHI=InChI=1S/C18H14O4/c1-11-17(13-6-4-3-5-7-13)18(20)15-9-8-14(22-12(2)19)10-16(15)21-11/h3-10H,1-2H3
FORMULA=C18H14O4
PUBMED=N/A
SUBMITUSER=BIOADREM
LIBRARYQUALITY=0
SPECTRUMID=CCMSLIB00000080447
SCANS=2632
ID=CCMSLIB00000080447
103.0542261926 	 1.57
115.0542261926 	 2.81
117.0698762568 	 1.36
119.0491408147 	 1.65
131.0491408147 	 0.28
141.0698762568 	 0.46
147.0440554368 	 1.56
153.0698762568 	 0.53
154.0777012889 	 0.52
169.0647908789 	 0.21
169.1011763852 	 0.28
175.0389700589 	 0.28
179.085526321 	 2.01
181.0647908789 	 0.77
182.072615911 	 1.07
197.0960910073 	 2.48
207.0804409431 	 0.78
210.0675305331 	 3.35
225.0910056294 	 0.92
253.0859202515 	 100
295.0964849378 	 0
END IONS

BEGIN IONS
PEPMASS=499.151
CHARGE=1
MSLEVEL=2
RT=0
SOURCE_INSTRUMENT=qTOF
FILENAME=CCMSLIB00000080448.ms
IONMODE=Positive
ORGANISM=Natural
NAME=MLS001140964-01!(2S)-3-(5-hydroxy-1H-indol-3-yl)-2-[[2-(2-oxo-4-phenylchromen-7-yl)oxyacetyl]amino]propanoic acid
PI=GNPS
DATACOLLECTOR=GNPS
SMILES=c1ccc(cc1)c1cc(=O)oc2cc(ccc12)OCC(=N[C@@H](Cc1c[nH]c2ccc(cc12)O)C(=O)O)O
INCHI=InChI=1S/C28H22N2O7/c31-18-6-9-23-22(11-18)17(14-29-23)10-24(28(34)35)30-26(32)15-36-19-7-8-20-21(16-4-2-1-3-5-16)13-27(33)37-25(20)12-19/h1-9,11-14,24,29,31H,10,15H2,(H,30,32)(H,34,35)/t24-/m0/s1
FORMULA=C28H22N2O7
PUBMED=N/A
SUBMITUSER=BIOADREM
LIBRARYQUALITY=0
SPECTRUMID=CCMSLIB00000080448
SCANS=2633
ID=CCMSLIB00000080448
103.0542261926 	 1.61
106.0651252299 	 1.52
117.0573001978 	 1.42
118.0651252299 	 1.87
128.0494751657 	 2.45
130.0651252299 	 2.25
131.0491408147 	 1.92
133.0522148199 	 3.34
134.060039852 	 8.54
142.0651252299 	 4.21
145.0647908789 	 1.35
146.060039852 	 100
148.0756899162 	 5.1
158.060039852 	 17.01
159.0678648841 	 8.66
160.0756899162 	 26.35
162.0549544741 	 15.98
165.0698762568 	 9.53
167.085526321 	 1.91
170.060039852 	 6.15
172.0756899162 	 4.23
174.0787639214 	 22.31
176.0706045383 	 3.06
186.0549544741 	 39.22
187.0865889535 	 24.94
195.0804409431 	 1.63
198.0787639214 	 3.32
199.0865889535 	 9.24
204.0655191604 	 26.29
215.0815035756 	 5.12
216.0893286077 	 6.02
221.059705501 	 10.02
223.0753555652 	 3.88
239.0702701873 	 16.32
251.0702701873 	 9.81
278.0811692246 	 1.94
296.0917339109 	 1.96
453.1444977629 	 16.3
499.1499770713 	 0
END IONS

BEGIN IONS
PEPMASS=642.329
CHARGE=1
MSLEVEL=2
RT=0
SOURCE_INSTRUMENT=qTOF
FILENAME=CCMSLIB00000080450.ms
IONMODE=Positive
ORGANISM=Natural
NAME=MLS000863624-01!(4S,7S,10S,13S)-7-benzyl-13-[(4-hydroxyphenyl)methyl]-4,6,12-trimethyl-10-(2-methylpropyl)-3,6,9,12,15-pentazabicyclo[14.4.0]icosa-1(20),16,18-triene-2,5,8,11,14-pentone
PI=GNPS
DATACOLLECTOR=GNPS
SMILES=CC(C)C[C@H]1C(=O)N(C)[C@@H](Cc2ccc(cc2)O)C(=Nc2ccccc2C(=N[C@@H](C)C(=O)N(C)[C@@H](Cc2ccccc2)C(=N1)O)O)O
INCHI=InChI=1S/C36H43N5O6/c1-22(2)19-29-36(47)41(5)31(21-25-15-17-26(42)18-16-25)33(44)38-28-14-10-9-13-27(28)32(43)37-23(3)35(46)40(4)30(34(45)39-29)20-24-11-7-6-8-12-24/h6-18,22-23,29-31,42H,19-21H2,1-5H3,(H,37,43)(H,38,44)(H,39,45)/t23-,29-,30-,31-/m0/s1
FORMULA=C36H43N5O6
PUBMED=N/A
SUBMITUSER=BIOADREM
LIBRARYQUALITY=0
SPECTRUMID=CCMSLIB00000080450
SCANS=2635
ID=CCMSLIB00000080450
105.0698762568 	 1.98
107.0491408147 	 1.06
109.0647908789 	 0.86
118.0651252299 	 2.2
119.0491408147 	 1.35
119.072950262 	 3.98
120.0443897878 	 29.19
121.0647908789 	 2.85
134.0964253583 	 100
135.0678648841 	 3.8
146.0236543457 	 1.77
148.0393044099 	 1.62
150.0913399804 	 81.95
162.0913399804 	 11.98
163.0865889535 	 19.34
173.0709388893 	 0.72
178.0862546025 	 2.02
190.0862546025 	 3.53
191.0815035756 	 14.48
205.1335391461 	 2.43
230.1539402372 	 0.54
233.1284537682 	 4.38
238.0862546025 	 0.67
247.1804893387 	 5.24
266.0811692246 	 0.85
275.1754039608 	 2.83
297.1233683903 	 4.88
352.165567556 	 16.77
380.1604821781 	 0.5
394.2125177486 	 0.5
421.2121833976 	 0.89
465.2496315364 	 0.83
571.2914963511 	 0.58
642.3286101389 	 0
END IONS

BEGIN IONS
PEPMASS=282.171
CHARGE=1
MSLEVEL=2
RT=0
SOURCE_INSTRUMENT=qTOF
FILENAME=CCMSLIB00000080451.ms
IONMODE=Positive
ORGANISM=Natural
NAME=MLS001049073-01!4-[(2R)-2-[(1R,3R,5S)-3,5-dimethyl-2-oxocyclohexyl]-2-hydroxyethyl]piperidine-2,6-dione
PI=GNPS
DATACOLLECTOR=GNPS
SMILES=C[C@H]1C[C@@H](C)C(=O)[C@H](C1)[C@@H](CC1CC(=NC(=O)C1)O)O
INCHI=InChI=1S/C15H23NO4/c1-8-3-9(2)15(20)11(4-8)12(17)5-10-6-13(18)16-14(19)7-10/h8-12,17H,3-7H2,1-2H3,(H,16,18,19)/t8-,9+,11+,12+/m0/s1
FORMULA=C15H23NO4
PUBMED=N/A
SUBMITUSER=BIOADREM
LIBRARYQUALITY=0
SPECTRUMID=CCMSLIB00000080451
SCANS=2636
ID=CCMSLIB00000080451
95.085526321 	 17.17
97.0647908789 	 11.68
105.0698762568 	 44.09
107.0491408147 	 24.18
107.085526321 	 29.4
108.0569658468 	 14.15
117.0698762568 	 25.55
119.085526321 	 25
121.0647908789 	 24.59
123.0804409431 	 12.36
125.0960910073 	 12.77
128.0620512247 	 24.59
129.0698762568 	 22.39
131.085526321 	 34.48
133.0647908789 	 11.26
133.1011763852 	 14.01
134.072615911 	 11.68
141.0698762568 	 21.57
143.085526321 	 36.68
145.1011763852 	 36.95
147.0804409431 	 21.98
154.0777012889 	 19.92
155.085526321 	 21.43
157.1011763852 	 25.96
159.1168264494 	 100
161.0960910073 	 22.53
163.1117410715 	 27.61
168.0933513531 	 13.05
169.1011763852 	 28.43
172.0882659752 	 11.95
173.1324765136 	 25.82
177.1273911357 	 51.65
183.1168264494 	 29.67
187.1117410715 	 56.04
201.1273911357 	 33.52
205.1223057578 	 42.72
219.137955822 	 33.24
229.1223057578 	 43.13
247.1328704441 	 38.19
282.1699842319 	 0
END IONS

BEGIN IONS
PEPMASS=374.1618
CHARGE=1
MSLEVEL=2
RT=0
SOURCE_INSTRUMENT=qTOF
FILENAME=CCMSLIB00000080452.ms
IONMODE=Positive
ORGANISM=Natural
NAME=MLS001141369-01!1-[2-(4-ethyl-8-methyl-2-oxochromen-7-yl)oxyacetyl]piperidine-4-carboxylic acid
PI=GNPS
DATACOLLECTOR=GNPS
SMILES=CCc1cc(=O)oc2c(C)c(ccc12)OCC(=O)N1CCC(CC1)C(=O)O
INCHI=InChI=1S/C20H23NO6/c1-3-13-10-18(23)27-19-12(2)16(5-4-15(13)19)26-11-17(22)21-8-6-14(7-9-21)20(24)25/h4-5,10,14H,3,6-9,11H2,1-2H3,(H,24,25)
FORMULA=C20H23NO6
PUBMED=N/A
SUBMITUSER=BIOADREM
LIBRARYQUALITY=0
SPECTRUMID=CCMSLIB00000080452
SCANS=2637
ID=CCMSLIB00000080452
96.0807752941 	 3.29
99.0440554368 	 10.27
105.0698762568 	 4.42
112.0756899162 	 11.31
114.0549544741 	 12.42
114.0913399804 	 2.94
115.0542261926 	 2.55
116.0620512247 	 3.94
124.0756899162 	 3.41
126.0913399804 	 23.53
128.0706045383 	 93.41
130.0862546025 	 15.11
131.085526321 	 4.27
133.0647908789 	 1.33
142.0862546025 	 100
144.0569658468 	 2.03
145.0647908789 	 3.31
146.072615911 	 2.87
156.0655191604 	 1.66
159.0804409431 	 18.44
161.059705501 	 3.24
161.0960910073 	 9.73
170.0811692246 	 8.6
174.0675305331 	 1.48
176.0831805973 	 9.34
189.0910056294 	 20.33
217.0859202515 	 56.82
219.0889942567 	 1.81
245.0808348736 	 4.15
328.1543341677 	 6.32
356.1492487898 	 1.66
374.1598134761 	 11.11
END IONS

BEGIN IONS
PEPMASS=402.192
CHARGE=1
MSLEVEL=2
RT=0
SOURCE_INSTRUMENT=qTOF
FILENAME=CCMSLIB00000080454.ms
IONMODE=Positive
ORGANISM=Natural
NAME=MLS001140887-01!4-[[2-(4,7-dimethyl-2-oxochromen-5-yl)oxypropanoylamino]methyl]cyclohexane-1-carboxylic acid
PI=GNPS
DATACOLLECTOR=GNPS
SMILES=Cc1cc(c2c(C)cc(=O)oc2c1)OC(C)C(=NC[C@H]1CC[C@@H](CC1)C(=O)O)O
INCHI=InChI=1S/C22H27NO6/c1-12-8-17(20-13(2)10-19(24)29-18(20)9-12)28-14(3)21(25)23-11-15-4-6-16(7-5-15)22(26)27/h8-10,14-16H,4-7,11H2,1-3H3,(H,23,25)(H,26,27)/t14?,15-,16-
FORMULA=C22H27NO6
PUBMED=N/A
SUBMITUSER=BIOADREM
LIBRARYQUALITY=0
SPECTRUMID=CCMSLIB00000080454
SCANS=2638
ID=CCMSLIB00000080454
95.085526321 	 7.23
105.0698762568 	 1.39
107.085526321 	 0.77
110.0964253583 	 2.45
112.1120754225 	 1.99
115.0542261926 	 1.89
117.0698762568 	 1.99
119.085526321 	 3.06
121.0647908789 	 0.9
129.0698762568 	 1.67
131.0491408147 	 0.9
132.0569658468 	 4.77
133.0647908789 	 1.03
133.1011763852 	 1.47
135.0804409431 	 1.52
138.1277254867 	 5.59
140.1069900446 	 6.26
145.0647908789 	 1.23
147.0804409431 	 2.72
161.0960910073 	 2
166.1226401088 	 3.77
173.0960910073 	 1.12
189.0910056294 	 7.11
191.0702701873 	 100
194.1175547309 	 1.89
217.0859202515 	 21.37
245.0808348736 	 5.5
262.1073839751 	 4.48
356.1856342961 	 5.8
402.1911136045 	 0
END IONS

BEGIN IONS
PEPMASS=469.144
CHARGE=1
MSLEVEL=2
RT=0
SOURCE_INSTRUMENT=qTOF
FILENAME=CCMSLIB00000080455.ms
IONMODE=Positive
ORGANISM=Natural
NAME=MLS001142796-01!
PI=GNPS
DATACOLLECTOR=GNPS
SMILES=C[C@@H](C(=NCc1c(cccc1F)Cl)O)N1C(=O)[C@]2(C)c3c(CCN2C1=O)c1ccccc1[nH]3
INCHI=InChI=1S/C24H22ClFN4O3/c1-13(21(31)27-12-16-17(25)7-5-8-18(16)26)30-22(32)24(2)20-15(10-11-29(24)23(30)33)14-6-3-4-9-19(14)28-20/h3-9,13,28H,10-12H2,1-2H3,(H,27,31)/t13-,24-/m0/s1
FORMULA=C24H22ClFN4O3
PUBMED=N/A
SUBMITUSER=BIOADREM
LIBRARYQUALITY=0
SPECTRUMID=CCMSLIB00000080455
SCANS=2639
ID=CCMSLIB00000080455
107.0291542963 	 0.68
117.071019111 	 0.52
130.0624451552 	 0.35
143.0058320384 	 5.68
143.0740931162 	 0.71
144.0819181483 	 13.41
145.0859202515 	 1.29
154.0662680841 	 0.38
155.0740931162 	 0.72
156.0819181483 	 0.99
167.0707573767 	 0.69
168.0819181483 	 5.93
170.0975682125 	 0.81
171.0928171856 	 0.42
182.0868220136 	 0.49
183.0928171856 	 6.15
184.0973064782 	 2.3
185.1084672498 	 24.89
187.0877318077 	 0.35
195.0928171856 	 0.63
196.0768327704 	 0.64
196.1132182767 	 0.42
198.118122142 	 0.51
209.093898122 	 0.36
211.0877318077 	 28.49
212.0922211003 	 3.42
213.1033818719 	 2.59
238.1350163513 	 0.87
239.0826464298 	 2.55
239.1190319361 	 0.68
254.1299309734 	 100
256.1348348387 	 1.44
264.1235212287 	 0.45
282.1248455955 	 17.4
284.1297494608 	 0.94
286.0793313325 	 0.91
327.105880434 	 0.56
353.0851449919 	 0.39
396.1273441576 	 1.21
424.1222587797 	 0.36
469.1437225033 	 0
END IONS

BEGIN IONS
PEPMASS=354.1814
CHARGE=1
MSLEVEL=2
RT=0
SOURCE_INSTRUMENT=qTOF
FILENAME=CCMSLIB00000080456.ms
IONMODE=Positive
ORGANISM=Natural
NAME=MLS001142805-01!
PI=GNPS
DATACOLLECTOR=GNPS
SMILES=CCOc1ccc(cc1)NC(=O)N1C[C@H]2C[C@@H](C1)c1cccc(=O)n1C2
INCHI=InChI=1S/C20H23N3O3/c1-2-26-17-8-6-16(7-9-17)21-20(25)22-11-14-10-15(13-22)18-4-3-5-19(24)23(18)12-14/h3-9,14-15H,2,10-13H2,1H3,(H,21,25)/t14-,15+/m1/s1
FORMULA=C20H23N3O3
PUBMED=N/A
SUBMITUSER=BIOADREM
LIBRARYQUALITY=0
SPECTRUMID=CCMSLIB00000080456
SCANS=2640
ID=CCMSLIB00000080456
96.0443897878 	 1.42
103.0542261926 	 1.22
104.0494751657 	 1.58
105.0573001978 	 0.82
106.0651252299 	 3.36
108.0443897878 	 4.44
115.0542261926 	 1.07
116.0494751657 	 0.97
117.0573001978 	 2.88
118.0651252299 	 2.3
120.0807752941 	 1.16
122.060039852 	 1.18
128.0494751657 	 0.84
129.0698762568 	 2.51
130.0651252299 	 3.69
131.072950262 	 4.27
132.0443897878 	 8.67
132.0807752941 	 2.83
133.0522148199 	 14.95
134.060039852 	 6.93
136.0756899162 	 1.48
142.0651252299 	 2.25
144.0807752941 	 3.17
145.0522148199 	 1.1
146.060039852 	 40.05
148.0756899162 	 40.07
150.0787639214 	 0.83
154.0651252299 	 0.88
156.0807752941 	 2.5
158.060039852 	 10.05
159.0678648841 	 6.41
160.0756899162 	 84.96
164.0706045383 	 1.62
172.0756899162 	 11.39
174.0913399804 	 43.33
176.0944139856 	 0.66
189.1022390177 	 35.19
191.1178890819 	 21.46
199.0865889535 	 0.82
217.0971536398 	 100
235.1077183261 	 4.7
354.1812176202 	 4.95
END IONS

BEGIN IONS
PEPMASS=323.177
CHARGE=1
MSLEVEL=2
RT=0
SOURCE_INSTRUMENT=qTOF
FILENAME=CCMSLIB00000080457.ms
IONMODE=Positive
ORGANISM=Natural
NAME=MLS001075525-01!
PI=GNPS
DATACOLLECTOR=GNPS
SMILES=c1ccc(cc1)CCC(=O)N1C[C@H]2C[C@@H](C1)c1cccc(=O)n1C2
INCHI=InChI=1S/C20H22N2O2/c23-19(10-9-15-5-2-1-3-6-15)21-12-16-11-17(14-21)18-7-4-8-20(24)22(18)13-16/h1-8,16-17H,9-14H2/t16-,17+/m1/s1
FORMULA=C20H22N2O2
PUBMED=N/A
SUBMITUSER=BIOADREM
LIBRARYQUALITY=0
SPECTRUMID=CCMSLIB00000080457
SCANS=2641
ID=CCMSLIB00000080457
103.0542261926 	 3.02
105.0698762568 	 29.25
109.0647908789 	 0.32
115.0542261926 	 0.46
117.0573001978 	 0.75
120.0807752941 	 1.5
130.0651252299 	 0.52
132.0443897878 	 0.44
132.0807752941 	 0.5
134.060039852 	 1.08
146.060039852 	 1.77
147.0678648841 	 1.37
148.0756899162 	 75.06
160.0756899162 	 3.29
162.0913399804 	 3.17
175.0865889535 	 0.37
191.1178890819 	 100
323.1754039608 	 25.22
END IONS

BEGIN IONS
PEPMASS=345.1697
CHARGE=1
MSLEVEL=2
RT=0
SOURCE_INSTRUMENT=qTOF
FILENAME=CCMSLIB00000080458.ms
IONMODE=Positive
ORGANISM=Natural
NAME=MLS002694164-01!
PI=GNPS
DATACOLLECTOR=GNPS
SMILES=CC1(C)C=Cc2c(c3C=CC(C)(C)Oc3c(CCC(=O)O)c2O1)OC
INCHI=InChI=1S/C20H24O5/c1-19(2)10-8-13-16(23-5)14-9-11-20(3,4)25-18(14)12(17(13)24-19)6-7-15(21)22/h8-11H,6-7H2,1-5H3,(H,21,22)
FORMULA=C20H24O5
PUBMED=N/A
SUBMITUSER=BIOADREM
LIBRARYQUALITY=0
SPECTRUMID=CCMSLIB00000080458
SCANS=2642
ID=CCMSLIB00000080458
129.0698762568 	 2.69
141.0698762568 	 2.36
145.0647908789 	 2.4
153.0698762568 	 3.03
155.085526321 	 7.04
156.0933513531 	 4.16
167.085526321 	 3.24
168.0933513531 	 2.25
169.1011763852 	 5.58
171.0804409431 	 3.07
171.1168264494 	 4.79
179.085526321 	 2.26
181.0647908789 	 2.78
181.1011763852 	 2.91
182.1090014173 	 3.19
183.0804409431 	 7.18
183.1168264494 	 4
185.0960910073 	 2.38
192.0933513531 	 12.45
193.1011763852 	 6.98
195.0804409431 	 9.05
196.0882659752 	 5.9
197.0960910073 	 3.36
197.1324765136 	 4.15
199.0753555652 	 3.09
199.1117410715 	 3.47
207.1168264494 	 19.44
209.0960910073 	 5.57
210.1039160394 	 15.51
211.0753555652 	 7.53
211.1117410715 	 14.77
217.0859202515 	 4.04
225.0910056294 	 12.53
225.1273911357 	 8.4
227.1066556936 	 4.66
235.1117410715 	 7.12
237.0910056294 	 8.98
238.0988306615 	 36.48
239.1066556936 	 15
253.1223057578 	 100
255.1015703157 	 15.68
267.137955822 	 5.97
269.1172203799 	 7.06
285.1485205083 	 79.65
297.112135002 	 4.45
327.1590851946 	 7.26
345.1696498809 	 1.71
END IONS

BEGIN IONS
PEPMASS=408.1817
CHARGE=1
MSLEVEL=2
RT=0
SOURCE_INSTRUMENT=qTOF
FILENAME=CCMSLIB00000080459.ms
IONMODE=Positive
ORGANISM=Natural
NAME=MLS001141219-01!N-benzyl-2-[(4,8,8-trimethyl-2-oxo-9,10-dihydropyrano[2,3-h]chromen-5-yl)oxy]acetamide
PI=GNPS
DATACOLLECTOR=GNPS
SMILES=Cc1cc(=O)oc2c3CCC(C)(C)Oc3cc(c12)OCC(=NCc1ccccc1)O
INCHI=InChI=1S/C24H25NO5/c1-15-11-21(27)29-23-17-9-10-24(2,3)30-18(17)12-19(22(15)23)28-14-20(26)25-13-16-7-5-4-6-8-16/h4-8,11-12H,9-10,13-14H2,1-3H3,(H,25,26)
FORMULA=C24H25NO5
PUBMED=N/A
SUBMITUSER=BIOADREM
LIBRARYQUALITY=0
SPECTRUMID=CCMSLIB00000080459
SCANS=2643
ID=CCMSLIB00000080459
95.0491408147 	 1
103.0542261926 	 2.64
107.0491408147 	 95.22
120.0807752941 	 5.11
121.0647908789 	 1.15
130.0651252299 	 2.51
133.0647908789 	 1.77
135.0440554368 	 2.9
148.0756899162 	 100
149.059705501 	 4.99
159.0440554368 	 2.64
161.059705501 	 1.38
175.0389700589 	 1.7
176.046795091 	 9.11
177.0546201231 	 11.4
187.0389700589 	 2.97
189.0546201231 	 2.79
193.0495347452 	 1.55
204.0417097131 	 6.15
205.0495347452 	 96.77
217.0495347452 	 8.68
247.0600994315 	 1.16
352.1179486614 	 41.7
408.1805489182 	 33.55
END IONS

BEGIN IONS
PEPMASS=283.155
CHARGE=1
MSLEVEL=2
RT=0
SOURCE_INSTRUMENT=qTOF
FILENAME=CCMSLIB00000080460.ms
IONMODE=Positive
ORGANISM=Natural
NAME=MLS001097650-01!
PI=GNPS
DATACOLLECTOR=GNPS
SMILES=C[C@@H]1CC[C@H]2[C@@H](C)C(=O)O[C@H]3[C@]42[C@H]1CC[C@](C)(O3)OO4
INCHI=InChI=1S/C15H22O5/c1-8-4-5-11-9(2)12(16)17-13-15(11)10(8)6-7-14(3,18-13)19-20-15/h8-11,13H,4-7H2,1-3H3/t8-,9-,10+,11+,13-,14-,15-/m1/s1
FORMULA=C15H22O5
PUBMED=N/A
SUBMITUSER=BIOADREM
LIBRARYQUALITY=0
SPECTRUMID=CCMSLIB00000080460
SCANS=2644
ID=CCMSLIB00000080460
95.0491408147 	 28
95.085526321 	 17.33
105.0698762568 	 100
107.0491408147 	 23.62
107.085526321 	 43.43
111.0440554368 	 38.48
115.0542261926 	 30.48
116.0620512247 	 26.48
117.0698762568 	 24
119.085526321 	 56.57
121.0647908789 	 31.43
121.1011763852 	 16.95
123.0440554368 	 13.9
123.0804409431 	 21.14
128.0620512247 	 40.95
129.0698762568 	 30.1
131.0491408147 	 20
131.085526321 	 68.76
132.0933513531 	 16.76
133.0647908789 	 15.24
133.1011763852 	 46.86
135.0804409431 	 34.1
135.1168264494 	 30.67
141.0698762568 	 31.62
143.085526321 	 47.43
144.0933513531 	 45.9
145.1011763852 	 82.48
146.072615911 	 15.05
148.0882659752 	 21.14
149.0960910073 	 36.95
151.0753555652 	 15.43
151.1117410715 	 14.67
154.0777012889 	 21.33
155.085526321 	 31.43
157.1011763852 	 16.76
158.072615911 	 38.67
158.1090014173 	 19.62
159.0804409431 	 31.81
159.1168264494 	 45.71
161.0960910073 	 71.43
172.0882659752 	 14.29
173.0960910073 	 16.76
173.1324765136 	 22.48
177.1273911357 	 20.19
189.0910056294 	 27.62
207.1015703157 	 26.67
283.1539998167 	 0
END IONS

BEGIN IONS
PEPMASS=277.108
CHARGE=1
MSLEVEL=2
RT=0
SOURCE_INSTRUMENT=qTOF
FILENAME=CCMSLIB00000080461.ms
IONMODE=Positive
ORGANISM=Natural
NAME=MLS002638967-01!
PI=GNPS
DATACOLLECTOR=GNPS
SMILES=COC1=CC(=O)OC(CCc2ccc3c(c2)OCO3)C1
INCHI=InChI=1S/C15H16O5/c1-17-12-7-11(20-15(16)8-12)4-2-10-3-5-13-14(6-10)19-9-18-13/h3,5-6,8,11H,2,4,7,9H2,1H3
FORMULA=C15H16O5
PUBMED=N/A
SUBMITUSER=BIOADREM
LIBRARYQUALITY=0
SPECTRUMID=CCMSLIB00000080461
SCANS=2645
ID=CCMSLIB00000080461
102.0464011605 	 1.49
103.0542261926 	 32.05
105.0334907505 	 4.91
107.0127553084 	 0.79
109.0647908789 	 2.8
115.0542261926 	 1.92
128.0620512247 	 1.81
131.0491408147 	 37.41
135.0440554368 	 100
141.0698762568 	 4.08
159.0440554368 	 0.97
159.0804409431 	 0.97
161.059705501 	 10.62
173.059705501 	 1.87
185.059705501 	 1.99
203.0702701873 	 0.84
277.1070496241 	 0
END IONS

BEGIN IONS
PEPMASS=466.187
CHARGE=1
MSLEVEL=2
RT=0
SOURCE_INSTRUMENT=qTOF
FILENAME=CCMSLIB00000080462.ms
IONMODE=Positive
ORGANISM=Natural
NAME=MLS001140948-01!4-[[[2-[4-(4-methoxyphenyl)-2-oxochromen-7-yl]oxyacetyl]amino]methyl]cyclohexane-1-carboxylic acid
PI=GNPS
DATACOLLECTOR=GNPS
SMILES=COc1ccc(cc1)c1cc(=O)oc2cc(ccc12)OCC(=NC[C@H]1CC[C@@H](CC1)C(=O)O)O
INCHI=InChI=1S/C26H27NO7/c1-32-19-8-6-17(7-9-19)22-13-25(29)34-23-12-20(10-11-21(22)23)33-15-24(28)27-14-16-2-4-18(5-3-16)26(30)31/h6-13,16,18H,2-5,14-15H2,1H3,(H,27,28)(H,30,31)/t16-,18-
FORMULA=C26H27NO7
PUBMED=N/A
SUBMITUSER=BIOADREM
LIBRARYQUALITY=0
SPECTRUMID=CCMSLIB00000080462
SCANS=2646
ID=CCMSLIB00000080462
135.0440554368 	 3.89
152.0620512247 	 1.01
165.0698762568 	 1.23
195.0804409431 	 16.33
199.0753555652 	 1.41
208.0518804689 	 1.27
210.0675305331 	 1.5
211.0753555652 	 2.36
213.0910056294 	 3.77
223.0753555652 	 4.77
225.0910056294 	 3.18
227.0702701873 	 4.91
239.0702701873 	 2.27
240.0780952194 	 6.89
241.0859202515 	 1.54
251.0702701873 	 21.41
253.0859202515 	 12.31
254.0573597773 	 1.53
268.0730098415 	 5.97
269.0808348736 	 100
281.0808348736 	 42.83
284.0679244636 	 1.16
309.0757494957 	 13.54
311.0788235009 	 1.04
326.1022985972 	 65.93
420.1805489182 	 21.26
466.1860282266 	 0
END IONS

BEGIN IONS
PEPMASS=373.1771
CHARGE=1
MSLEVEL=2
RT=0
SOURCE_INSTRUMENT=qTOF
FILENAME=CCMSLIB00000080463.ms
IONMODE=Positive
ORGANISM=Natural
NAME=MLS001140561-01!1-[2-(3,4,7-trimethyl-2-oxochromen-5-yl)oxyacetyl]piperidine-4-carboxamide
PI=GNPS
DATACOLLECTOR=GNPS
SMILES=Cc1cc(c2c(C)c(C)c(=O)oc2c1)OCC(=O)N1CCC(CC1)C(=N)O
INCHI=InChI=1S/C20H24N2O5/c1-11-8-15(18-12(2)13(3)20(25)27-16(18)9-11)26-10-17(23)22-6-4-14(5-7-22)19(21)24/h8-9,14H,4-7,10H2,1-3H3,(H2,21,24)
FORMULA=C20H24N2O5
PUBMED=N/A
SUBMITUSER=BIOADREM
LIBRARYQUALITY=0
SPECTRUMID=CCMSLIB00000080463
SCANS=2647
ID=CCMSLIB00000080463
96.0807752941 	 27.53
98.060039852 	 17.8
110.060039852 	 14.77
112.0756899162 	 47.85
119.0815035756 	 10.35
124.0756899162 	 8.21
126.0913399804 	 12.88
127.0865889535 	 100
129.1022390177 	 12.5
133.1011763852 	 13.76
141.1022390177 	 75.38
142.1100640498 	 12.25
143.085526321 	 13.51
146.072615911 	 8.08
147.0804409431 	 13.76
152.0706045383 	 7.58
160.0842432298 	 12.37
161.059705501 	 29.8
161.0960910073 	 31.31
170.1049786719 	 6.44
174.0675305331 	 8.33
176.0831805973 	 52.27
177.0784295704 	 7.95
187.0753555652 	 7.32
189.0910056294 	 88.01
190.0948079161 	 17.05
205.0859202515 	 6.57
217.0859202515 	 88.26
218.0897225382 	 29.55
245.0808348736 	 41.92
300.1594195456 	 9.85
328.1543341677 	 30.05
329.1621591998 	 15.03
373.1757978913 	 24.24
END IONS

BEGIN IONS
PEPMASS=326.2133
CHARGE=1
MSLEVEL=2
RT=0
SOURCE_INSTRUMENT=qTOF
FILENAME=CCMSLIB00000080464.ms
IONMODE=Positive
ORGANISM=Natural
NAME=MLS001047529-01!3-(diethylamino)propyl 2,2-diphenylacetate
PI=GNPS
DATACOLLECTOR=GNPS
SMILES=CCN(CC)CCCOC(=O)C(c1ccccc1)c1ccccc1
INCHI=InChI=1S/C21H27NO2/c1-3-22(4-2)16-11-17-24-21(23)20(18-12-7-5-8-13-18)19-14-9-6-10-15-19/h5-10,12-15,20H,3-4,11,16-17H2,1-2H3
FORMULA=C21H27NO2
PUBMED=N/A
SUBMITUSER=BIOADREM
LIBRARYQUALITY=0
SPECTRUMID=CCMSLIB00000080464
SCANS=2648
ID=CCMSLIB00000080464
115.0542261926 	 0.21
141.0698762568 	 0.75
151.0542261926 	 1.23
152.0620512247 	 23.57
165.0698762568 	 24.9
166.0777012889 	 12.4
167.085526321 	 100
253.1223057578 	 8.99
326.2114551161 	 2.6
END IONS

BEGIN IONS
PEPMASS=287.092
CHARGE=1
MSLEVEL=2
RT=0
SOURCE_INSTRUMENT=qTOF
FILENAME=CCMSLIB00000080465.ms
IONMODE=Positive
ORGANISM=Natural
NAME=MLS002472924-01!9-(3-methyl-2-oxobutoxy)furo[3,2-g]chromen-7-one
PI=GNPS
DATACOLLECTOR=GNPS
SMILES=CC(C)C(=O)COc1c2c(cco2)cc2ccc(=O)oc12
INCHI=InChI=1S/C16H14O5/c1-9(2)12(17)8-20-16-14-11(5-6-19-14)7-10-3-4-13(18)21-15(10)16/h3-7,9H,8H2,1-2H3
FORMULA=C16H14O5
PUBMED=N/A
SUBMITUSER=BIOADREM
LIBRARYQUALITY=0
SPECTRUMID=CCMSLIB00000080465
SCANS=2649
ID=CCMSLIB00000080465
102.0464011605 	 2.99
103.0542261926 	 3.71
117.0334907505 	 1.86
118.0413157826 	 2.77
129.0334907505 	 8.72
130.0413157826 	 2.73
131.0491408147 	 11.52
145.0284053726 	 12.76
147.0440554368 	 57.91
159.0440554368 	 7.36
173.0233199947 	 22.88
174.0311450268 	 7.94
175.0389700589 	 23.57
185.0233199947 	 5.5
202.0260596489 	 13.25
203.033884681 	 100
287.0913995599 	 0
END IONS

BEGIN IONS
PEPMASS=271.0984
CHARGE=1
MSLEVEL=2
RT=0
SOURCE_INSTRUMENT=qTOF
FILENAME=CCMSLIB00000080466.ms
IONMODE=Positive
ORGANISM=Natural
NAME=MLS000876950-01!5,7-dihydroxy-6-methyl-2-phenyl-2,3-dihydrochromen-4-one
PI=GNPS
DATACOLLECTOR=GNPS
SMILES=Cc1c(cc2c(C(=O)CC(c3ccccc3)O2)c1O)O
INCHI=InChI=1S/C16H14O4/c1-9-11(17)7-14-15(16(9)19)12(18)8-13(20-14)10-5-3-2-4-6-10/h2-7,13,17,19H,8H2,1H3
FORMULA=C16H14O4
PUBMED=N/A
SUBMITUSER=BIOADREM
LIBRARYQUALITY=0
SPECTRUMID=CCMSLIB00000080466
SCANS=2650
ID=CCMSLIB00000080466
103.0542261926 	 36.1
111.0440554368 	 0.87
131.0491408147 	 15.07
137.059705501 	 2.16
165.0182346168 	 3.88
167.033884681 	 100
193.0495347452 	 1.38
253.0859202515 	 1.55
271.0964849378 	 6.44
END IONS

BEGIN IONS
PEPMASS=580.2554
CHARGE=1
MSLEVEL=2
RT=0
SOURCE_INSTRUMENT=qTOF
FILENAME=CCMSLIB00000080467.ms
IONMODE=Positive
ORGANISM=Natural
NAME=MLS001140704-01!
PI=GNPS
DATACOLLECTOR=GNPS
SMILES=COc1ccc(cc1)C1c2c(C[C@H]3C(=O)N(c4ccccc4C(=NCCN4CCOCC4)O)C(=O)N13)c1ccccc1[nH]2
INCHI=InChI=1S/C33H33N5O5/c1-42-22-12-10-21(11-13-22)30-29-25(23-6-2-4-8-26(23)35-29)20-28-32(40)38(33(41)37(28)30)27-9-5-3-7-24(27)31(39)34-14-15-36-16-18-43-19-17-36/h2-13,28,30,35H,14-20H2,1H3,(H,34,39)/t28-,30?/m0/s1
FORMULA=C33H33N5O5
PUBMED=N/A
SUBMITUSER=BIOADREM
LIBRARYQUALITY=0
SPECTRUMID=CCMSLIB00000080467
SCANS=2651
ID=CCMSLIB00000080467
121.0647908789 	 41.56
130.0651252299 	 2.81
135.0440554368 	 2.14
144.0807752941 	 4.72
145.0396387609 	 1.97
146.0236543457 	 37.37
169.0760242672 	 3.42
173.0709388893 	 3.27
189.0658535114 	 91.25
200.0818379266 	 2.21
204.0807752941 	 1.96
206.0964253583 	 2.71
217.0886003262 	 6.74
218.0964253583 	 100
219.100227645 	 18.76
228.0767525487 	 2.09
233.0835149483 	 2.39
234.0913399804 	 13.21
235.0951422671 	 2.87
236.1069900446 	 3.92
238.0862546025 	 16.71
244.0716671708 	 26
246.087317235 	 2.19
247.0991650125 	 5.43
248.1069900446 	 70.74
249.1148150767 	 76.32
250.1186173634 	 33.98
260.1069900446 	 32.63
261.1107923313 	 5.26
266.0811692246 	 50.72
277.1295164007 	 6.47
288.1019046667 	 43.67
289.1057069534 	 7.43
290.1009559265 	 1.77
299.0815035756 	 3.12
303.112803704 	 6.33
331.140081087 	 8.04
342.087317235 	 2.34
379.1441038324 	 3.26
392.1155433582 	 1.8
407.1390184545 	 35.11
422.1499174918 	 4.33
450.1448321139 	 74.2
452.1479061191 	 3.38
493.1870312796 	 41.9
580.2554451958 	 10.67
END IONS

BEGIN IONS
PEPMASS=285.0772
CHARGE=1
MSLEVEL=2
RT=0
SOURCE_INSTRUMENT=qTOF
FILENAME=CCMSLIB00000080468.ms
IONMODE=Positive
ORGANISM=Natural
NAME=MLS002473006-01!5,7-dihydroxy-8-methoxy-2-phenylchromen-4-one
PI=GNPS
DATACOLLECTOR=GNPS
SMILES=COc1c(cc(c2c(=O)cc(c3ccccc3)oc12)O)O
INCHI=InChI=1S/C16H12O5/c1-20-15-12(19)7-10(17)14-11(18)8-13(21-16(14)15)9-5-3-2-4-6-9/h2-8,17,19H,1H3
FORMULA=C16H12O5
PUBMED=N/A
SUBMITUSER=BIOADREM
LIBRARYQUALITY=0
SPECTRUMID=CCMSLIB00000080468
SCANS=2652
ID=CCMSLIB00000080468
103.0542261926 	 3.72
105.0334907505 	 1.12
112.0154949626 	 1.99
115.0542261926 	 1.85
116.0620512247 	 1.47
126.0464011605 	 0.8
127.0542261926 	 0.84
131.0491408147 	 3.49
140.0104095847 	 3.75
140.0620512247 	 2.89
141.0698762568 	 1.38
143.0491408147 	 0.97
144.0569658468 	 3.17
145.0647908789 	 1.29
150.0464011605 	 0.51
151.0542261926 	 8.83
155.0491408147 	 1.86
157.0647908789 	 0.99
168.0569658468 	 6.75
169.0647908789 	 1.29
171.0440554368 	 3.16
172.0518804689 	 0.9
173.059705501 	 1.03
179.0491408147 	 14.62
185.059705501 	 0.77
186.0675305331 	 0.99
196.0518804689 	 1.57
197.059705501 	 2.32
200.046795091 	 1.33
213.0546201231 	 4.19
218.0573597773 	 0.74
224.046795091 	 2.26
241.0495347452 	 7.57
242.0573597773 	 8.6
252.0417097131 	 2.08
269.0444493673 	 6.76
270.0522743994 	 100
285.0757494957 	 10.32
END IONS

BEGIN IONS
PEPMASS=659.161
CHARGE=1
MSLEVEL=2
RT=0
SOURCE_INSTRUMENT=qTOF
FILENAME=CCMSLIB00000080470.ms
IONMODE=Positive
ORGANISM=Natural
NAME=MLS000876756-01!
PI=GNPS
DATACOLLECTOR=GNPS
SMILES=CC(CC(=O)O)(CC(=O)OCC1C(C(C(C(Oc2cc3c(cc2OC)cc(c(=O)o3)Oc2ccc3ccc(=O)oc3c2)O1)O)O)O)O
INCHI=InChI=1S/C31H30O16/c1-31(40,11-23(32)33)12-25(35)42-13-22-26(36)27(37)28(38)30(47-22)46-20-10-18-15(7-19(20)41-2)8-21(29(39)45-18)43-16-5-3-14-4-6-24(34)44-17(14)9-16/h3-10,22,26-28,30,36-38,40H,11-13H2,1-2H3,(H,32,33)
FORMULA=C31H30O16
PUBMED=N/A
SUBMITUSER=BIOADREM
LIBRARYQUALITY=0
SPECTRUMID=CCMSLIB00000080470
SCANS=2653
ID=CCMSLIB00000080470
97.0284053726 	 2.39
99.0440554368 	 0.8
103.0389700589 	 3.35
109.0284053726 	 3.32
127.0389700589 	 12.35
145.0495347452 	 2
149.0233199947 	 0.46
151.0389700589 	 0.43
164.046795091 	 1.05
165.0182346168 	 0.44
177.0182346168 	 0.43
178.0260596489 	 1.07
179.033884681 	 10.96
191.033884681 	 0.75
192.0417097131 	 2.34
193.0495347452 	 0.33
199.0600994315 	 0.44
271.0812288041 	 0.56
294.0522743994 	 0.59
310.0471890215 	 2.37
337.0342786115 	 0.52
338.0421036436 	 10.74
353.0655787399 	 100
354.073403772 	 22.77
407.0761434262 	 0.41
659.1606609166 	 0
END IONS

BEGIN IONS
PEPMASS=243.065
CHARGE=1
MSLEVEL=2
RT=0
SOURCE_INSTRUMENT=qTOF
FILENAME=CCMSLIB00000080471.ms
IONMODE=Positive
ORGANISM=Natural
NAME=MLS001048889-01!7-(2-chloroethyl)-1,3-dimethylpurine-2,6-dione
PI=GNPS
DATACOLLECTOR=GNPS
SMILES=Cn1c2c(c(=O)n(C)c1=O)n(CCCl)cn2
INCHI=InChI=1S/C9H11ClN4O2/c1-12-7-6(8(15)13(2)9(12)16)14(4-3-10)5-11-7/h5H,3-4H2,1-2H3
FORMULA=C9H11ClN4O2
PUBMED=N/A
SUBMITUSER=BIOADREM
LIBRARYQUALITY=0
SPECTRUMID=CCMSLIB00000080471
SCANS=2654
ID=CCMSLIB00000080471
96.0556231761 	 10.13
97.0396387609 	 4.76
109.0270627019 	 2.49
124.0505377982 	 100
150.0661878624 	 1.25
158.0479509824 	 1.33
181.0720015218 	 74.92
186.0428656045 	 8.89
243.0643293281 	 5.63
END IONS

BEGIN IONS
PEPMASS=480.202
CHARGE=1
MSLEVEL=2
RT=0
SOURCE_INSTRUMENT=qTOF
FILENAME=CCMSLIB00000080472.ms
IONMODE=Positive
ORGANISM=Natural
NAME=MLS001140905-01!4-[[2-[4-(4-methoxyphenyl)-2-oxochromen-7-yl]oxypropanoylamino]methyl]cyclohexane-1-carboxylic acid
PI=GNPS
DATACOLLECTOR=GNPS
SMILES=CC(C(=NC[C@H]1CC[C@@H](CC1)C(=O)O)O)Oc1ccc2c(cc(=O)oc2c1)c1ccc(cc1)OC
INCHI=InChI=1S/C27H29NO7/c1-16(26(30)28-15-17-3-5-19(6-4-17)27(31)32)34-21-11-12-22-23(14-25(29)35-24(22)13-21)18-7-9-20(33-2)10-8-18/h7-14,16-17,19H,3-6,15H2,1-2H3,(H,28,30)(H,31,32)/t16?,17-,19-
FORMULA=C27H29NO7
PUBMED=N/A
SUBMITUSER=BIOADREM
LIBRARYQUALITY=0
SPECTRUMID=CCMSLIB00000080472
SCANS=2655
ID=CCMSLIB00000080472
95.085526321 	 3.65
112.1120754225 	 3.02
135.0440554368 	 5.05
137.0233199947 	 3.02
138.1277254867 	 3.68
140.1069900446 	 13.14
159.0440554368 	 1.05
163.0389700589 	 1.74
165.0698762568 	 0.84
166.1226401088 	 1.29
182.072615911 	 1.3
187.0389700589 	 0.83
194.1175547309 	 4.43
207.0804409431 	 0.87
210.0675305331 	 1.34
211.1117410715 	 1.08
213.0910056294 	 2.13
224.0831805973 	 1.53
225.0910056294 	 1.17
227.0702701873 	 4.92
239.1066556936 	 2.96
240.0780952194 	 0.78
251.0702701873 	 1.8
253.0859202515 	 2.6
254.0573597773 	 1.68
267.1015703157 	 7.78
269.0808348736 	 100
271.0839088788 	 3.46
280.0730098415 	 1.17
281.0808348736 	 0.78
295.0964849378 	 44.14
297.099558943 	 1.11
323.0913995599 	 3.33
340.1179486614 	 10.3
434.1961989824 	 10.07
480.2016782908 	 0
END IONS

BEGIN IONS
PEPMASS=349.201
CHARGE=1
MSLEVEL=2
RT=0
SOURCE_INSTRUMENT=qTOF
FILENAME=CCMSLIB00000080473.ms
IONMODE=Positive
ORGANISM=Natural
NAME=MLS001143521-01!
PI=GNPS
DATACOLLECTOR=GNPS
SMILES=C[C@@H]1[C@@H](C[C@@]23COC(=O)C2=CCCC3[C@@]1(C)CCC1CC(=O)OC1)O
INCHI=InChI=1S/C20H28O5/c1-12-15(21)9-20-11-25-18(23)14(20)4-3-5-16(20)19(12,2)7-6-13-8-17(22)24-10-13/h4,12-13,15-16,21H,3,5-11H2,1-2H3/t12-,13?,15-,16?,19+,20-/m1/s1
FORMULA=C20H28O5
PUBMED=N/A
SUBMITUSER=BIOADREM
LIBRARYQUALITY=0
SPECTRUMID=CCMSLIB00000080473
SCANS=2656
ID=CCMSLIB00000080473
95.085526321 	 44.09
105.0698762568 	 62.04
115.0542261926 	 27.88
116.0620512247 	 15.18
117.0698762568 	 45.69
119.085526321 	 32.12
123.0804409431 	 15.33
128.0620512247 	 24.23
129.0698762568 	 52.41
130.0777012889 	 28.61
131.085526321 	 96.79
133.1011763852 	 48.32
141.0698762568 	 45.11
143.085526321 	 100
145.1011763852 	 79.12
147.1168264494 	 47.59
153.0698762568 	 17.52
155.085526321 	 32.7
157.1011763852 	 54.31
159.0804409431 	 37.96
159.1168264494 	 46.42
167.085526321 	 39.56
169.1011763852 	 63.65
171.1168264494 	 50.66
179.085526321 	 27.15
185.0960910073 	 17.37
187.1117410715 	 21.46
195.1168264494 	 42.34
197.1324765136 	 59.12
199.1481265778 	 17.08
211.1481265778 	 23.5
223.1481265778 	 21.61
229.1223057578 	 20.88
285.1849060146 	 77.08
313.1798206367 	 45.26
331.190385323 	 16.93
349.2009500093 	 0
END IONS

BEGIN IONS
PEPMASS=229.0858
CHARGE=1
MSLEVEL=2
RT=0
SOURCE_INSTRUMENT=qTOF
FILENAME=CCMSLIB00000080474.ms
IONMODE=Positive
ORGANISM=Natural
NAME=MLS000863611-01!2,2-dimethylpyrano[3,2-g]chromen-8-one
PI=GNPS
DATACOLLECTOR=GNPS
SMILES=CC1(C)C=Cc2cc3ccc(=O)oc3cc2O1
INCHI=InChI=1S/C14H12O3/c1-14(2)6-5-10-7-9-3-4-13(15)16-11(9)8-12(10)17-14/h3-8H,1-2H3
FORMULA=C14H12O3
PUBMED=N/A
SUBMITUSER=BIOADREM
LIBRARYQUALITY=0
SPECTRUMID=CCMSLIB00000080474
SCANS=2657
ID=CCMSLIB00000080474
115.0542261926 	 26.27
127.0542261926 	 5.74
129.0698762568 	 38.67
130.0777012889 	 7.4
131.0491408147 	 21
141.0698762568 	 11.01
143.0491408147 	 12.77
152.0620512247 	 17.02
153.0698762568 	 15.54
155.085526321 	 21.09
157.0647908789 	 21.37
158.072615911 	 29.6
165.0698762568 	 9.16
171.0440554368 	 25.07
175.0389700589 	 15.45
183.0804409431 	 8.7
185.059705501 	 36.91
186.0675305331 	 15.73
197.059705501 	 10.27
199.0389700589 	 12.49
201.0546201231 	 6.2
211.0753555652 	 25.16
213.0546201231 	 100
214.0624451552 	 61.79
229.0859202515 	 85.29
END IONS

BEGIN IONS
PEPMASS=285.0766
CHARGE=1
MSLEVEL=2
RT=0
SOURCE_INSTRUMENT=qTOF
FILENAME=CCMSLIB00000080475.ms
IONMODE=Positive
ORGANISM=Natural
NAME=MLS000876988-01!7-hydroxy-3-(3-hydroxy-4-methoxyphenyl)chromen-4-one
PI=GNPS
DATACOLLECTOR=GNPS
SMILES=COc1ccc(cc1O)c1coc2cc(ccc2c1=O)O
INCHI=InChI=1S/C16H12O5/c1-20-14-5-2-9(6-13(14)18)12-8-21-15-7-10(17)3-4-11(15)16(12)19/h2-8,17-18H,1H3
FORMULA=C16H12O5
PUBMED=N/A
SUBMITUSER=BIOADREM
LIBRARYQUALITY=0
SPECTRUMID=CCMSLIB00000080475
SCANS=2658
ID=CCMSLIB00000080475
108.0205803405 	 3.16
115.0542261926 	 7.26
121.0284053726 	 4.04
129.0698762568 	 4.6
130.0777012889 	 2.48
134.0362304047 	 52.46
136.0154949626 	 3.42
137.0233199947 	 58.54
141.0698762568 	 21.48
155.0491408147 	 10.48
157.0647908789 	 6.96
158.072615911 	 10.89
168.0569658468 	 13.78
169.0647908789 	 14.1
181.0647908789 	 3.22
183.0440554368 	 6.29
185.059705501 	 16.47
186.0675305331 	 21.57
196.0518804689 	 12.13
197.059705501 	 47.06
198.0675305331 	 2.45
213.0546201231 	 100
214.0624451552 	 37.71
216.0417097131 	 2.18
224.046795091 	 7.26
225.0546201231 	 51.55
227.0702701873 	 3.01
241.0495347452 	 6.37
242.0573597773 	 7.55
253.0495347452 	 45.88
269.0444493673 	 29.8
270.0522743994 	 89.94
285.0757494957 	 38.57
END IONS

BEGIN IONS
PEPMASS=549.214
CHARGE=1
MSLEVEL=2
RT=0
SOURCE_INSTRUMENT=qTOF
FILENAME=CCMSLIB00000080476.ms
IONMODE=Positive
ORGANISM=Natural
NAME=MLS001140352-01!
PI=GNPS
DATACOLLECTOR=GNPS
SMILES=Cc1ccc(cc1)C1c2c(C[C@H]3C(=O)N(c4ccccc4C(=O)N4CCC[C@H]4C(=O)O)C(=O)N13)c1ccccc1[nH]2
INCHI=InChI=1S/C32H28N4O5/c1-18-12-14-19(15-13-18)28-27-22(20-7-2-4-9-23(20)33-27)17-26-30(38)36(32(41)35(26)28)24-10-5-3-8-21(24)29(37)34-16-6-11-25(34)31(39)40/h2-5,7-10,12-15,25-26,28,33H,6,11,16-17H2,1H3,(H,39,40)/t25-,26-,28?/m0/s1
FORMULA=C32H28N4O5
PUBMED=N/A
SUBMITUSER=BIOADREM
LIBRARYQUALITY=0
SPECTRUMID=CCMSLIB00000080476
SCANS=2659
ID=CCMSLIB00000080476
217.0886003262 	 5.59
218.0964253583 	 100
219.1015703157 	 19.05
222.0913399804 	 46.46
232.1120754225 	 50.58
244.1120754225 	 30.88
245.1172203799 	 4.71
250.0862546025 	 31.29
271.0865889535 	 1.13
272.1069900446 	 16.64
273.112135002 	 3.73
299.0815035756 	 2.47
335.1542745882 	 0.95
345.138624524 	 0.79
356.1281194172 	 0.69
363.1491892103 	 4.46
364.1543341677 	 1.43
374.1386841035 	 1.77
376.1206287361 	 0.93
391.1441038324 	 41.43
392.1492487898 	 12.57
406.1550028697 	 7.25
416.1393528055 	 0.66
434.1499174918 	 30.48
549.2132460301 	 0
END IONS

BEGIN IONS
PEPMASS=409.201
CHARGE=1
MSLEVEL=2
RT=0
SOURCE_INSTRUMENT=qTOF
FILENAME=CCMSLIB00000080477.ms
IONMODE=Positive
ORGANISM=Natural
NAME=MLS002472953-01!(E)-1-[2,4-dihydroxy-3-[(2E)-6-hydroxy-3,7-dimethylocta-2,7-dienyl]phenyl]-3-(4-hydroxyphenyl)prop-2-en-1-one
PI=GNPS
DATACOLLECTOR=GNPS
SMILES=C=C(C)C(CC/C(=C/Cc1c(ccc(C(=O)/C=C/c2ccc(cc2)O)c1O)O)/C)O
INCHI=InChI=1S/C25H28O5/c1-16(2)22(27)13-5-17(3)4-11-20-24(29)15-12-21(25(20)30)23(28)14-8-18-6-9-19(26)10-7-18/h4,6-10,12,14-15,22,26-27,29-30H,1,5,11,13H2,2-3H3/b14-8+,17-4+
FORMULA=C25H28O5
PUBMED=N/A
SUBMITUSER=BIOADREM
LIBRARYQUALITY=0
SPECTRUMID=CCMSLIB00000080477
SCANS=2660
ID=CCMSLIB00000080477
107.0491408147 	 0.38
119.0491408147 	 1.44
119.085526321 	 0.34
121.0284053726 	 3.22
121.0647908789 	 0.86
131.0127553084 	 6.26
133.0647908789 	 0.72
137.0233199947 	 0.45
147.0440554368 	 3.69
147.0804409431 	 0.87
149.0233199947 	 100
159.0804409431 	 0.39
161.0233199947 	 1.29
163.0389700589 	 3.45
167.033884681 	 9.27
175.0753555652 	 0.25
189.0546201231 	 3.95
203.0702701873 	 3.98
215.0702701873 	 1.59
251.0702701873 	 0.31
269.0808348736 	 2.98
309.112135002 	 1.99
409.2009500093 	 0
END IONS

BEGIN IONS
PEPMASS=391.248
CHARGE=1
MSLEVEL=2
RT=0
SOURCE_INSTRUMENT=qTOF
FILENAME=CCMSLIB00000080479.ms
IONMODE=Positive
ORGANISM=Natural
NAME=MLS000563101-01![(2S,3S,5S,8R,9S,10S,13S,14S)-2-acetyloxy-10,13-dimethyl-17-oxo-1,2,3,4,5,6,7,8,9,11,12,14,15,16-tetradecahydrocyclopenta[a]phenanthren-3-yl] acetate
PI=GNPS
DATACOLLECTOR=GNPS
SMILES=CC(=O)O[C@H]1C[C@@H]2CC[C@H]3[C@@H]4CCC(=O)[C@@]4(C)CC[C@@H]3[C@@]2(C)C[C@@H]1OC(=O)C
INCHI=InChI=1S/C23H34O5/c1-13(24)27-19-11-15-5-6-16-17-7-8-21(26)22(17,3)10-9-18(16)23(15,4)12-20(19)28-14(2)25/h15-20H,5-12H2,1-4H3/t15-,16-,17-,18-,19-,20-,22-,23-/m0/s1
FORMULA=C23H34O5
PUBMED=N/A
SUBMITUSER=BIOADREM
LIBRARYQUALITY=0
SPECTRUMID=CCMSLIB00000080479
SCANS=2661
ID=CCMSLIB00000080479
95.085526321 	 7.83
97.0647908789 	 8.22
105.0698762568 	 14.07
107.085526321 	 12.73
117.0698762568 	 8.37
119.085526321 	 13.5
121.1011763852 	 11.08
123.0804409431 	 5.14
128.0620512247 	 4.48
129.0698762568 	 8.49
130.0777012889 	 5.32
131.085526321 	 10.85
133.1011763852 	 14.43
135.1168264494 	 7.71
141.0698762568 	 4.06
143.085526321 	 15.39
145.1011763852 	 25.99
147.1168264494 	 14.85
149.1324765136 	 9.05
155.085526321 	 9.17
157.1011763852 	 22.44
159.1168264494 	 24.41
161.0960910073 	 7.68
161.1324765136 	 22.5
163.1117410715 	 4.27
171.1168264494 	 29.01
173.1324765136 	 15.06
175.1117410715 	 9.95
175.1481265778 	 12.97
177.1273911357 	 5.11
183.1168264494 	 11.05
185.1324765136 	 10.04
187.1481265778 	 10.46
189.1273911357 	 8.04
189.163776642 	 5.14
197.1324765136 	 30.03
199.1481265778 	 6.39
203.1430411999 	 4.15
211.1481265778 	 11.23
213.163776642 	 58.98
215.1430411999 	 7.23
217.1586912641 	 4.42
225.163776642 	 4.9
227.1794267062 	 16.55
231.1743413283 	 21.51
253.1950767704 	 42.19
271.2056414567 	 100
289.216206143 	 44.04
391.2479002019 	 0
END IONS

BEGIN IONS
PEPMASS=289.217
CHARGE=1
MSLEVEL=2
RT=0
SOURCE_INSTRUMENT=qTOF
FILENAME=CCMSLIB00000080480.ms
IONMODE=Positive
ORGANISM=Natural
NAME=MLS000113817-01!
PI=GNPS
DATACOLLECTOR=GNPS
SMILES=CC12CCC(=O)C=C1CCC1C3CCC(C3(C)CCC21)O
INCHI=InChI=1S/C19H28O2/c1-18-9-7-13(20)11-12(18)3-4-14-15-5-6-17(21)19(15,2)10-8-16(14)18/h11,14-17,21H,3-10H2,1-2H3
FORMULA=C19H28O2
PUBMED=N/A
SUBMITUSER=BIOADREM
LIBRARYQUALITY=0
SPECTRUMID=CCMSLIB00000080480
SCANS=2662
ID=CCMSLIB00000080480
95.085526321 	 3.12
97.0647908789 	 61.86
105.0698762568 	 10.4
107.0491408147 	 2.31
107.085526321 	 3.23
109.0647908789 	 100
117.0698762568 	 2.31
119.085526321 	 10.54
121.0647908789 	 4.03
121.1011763852 	 2.8
123.0804409431 	 19.92
128.0620512247 	 2.64
129.0698762568 	 3.1
130.0777012889 	 2.26
131.085526321 	 8.18
133.1011763852 	 4.35
135.1168264494 	 2.71
142.0777012889 	 2.31
143.085526321 	 4.19
144.0933513531 	 1.64
145.1011763852 	 7.09
146.1090014173 	 2.18
147.1168264494 	 6.58
149.0960910073 	 1.78
149.1324765136 	 1.26
155.085526321 	 3.18
157.1011763852 	 3.65
159.1168264494 	 6.53
161.1324765136 	 5.51
169.1011763852 	 1.93
171.1168264494 	 4.02
177.1273911357 	 2.9
183.1168264494 	 3.36
185.1324765136 	 2.78
187.1481265778 	 3.54
213.163776642 	 3.34
271.2090122751 	 3.92
289.2195769614 	 4.03
END IONS

BEGIN IONS
PEPMASS=453.214
CHARGE=1
MSLEVEL=2
RT=0
SOURCE_INSTRUMENT=qTOF
FILENAME=CCMSLIB00000080481.ms
IONMODE=Positive
ORGANISM=Natural
NAME=MLS001158630-01!(2S)-2-[[(2S)-4-methyl-2-[(3-oxo-2,4-dihydroquinoxaline-1-carbonyl)amino]pentanoyl]amino]-3-phenylpropanoic acid
PI=GNPS
DATACOLLECTOR=GNPS
SMILES=CC(C)C[C@@H](C(=N[C@@H](Cc1ccccc1)C(=O)O)O)N=C(N1CC(=Nc2ccccc12)O)O
INCHI=InChI=1S/C24H28N4O5/c1-15(2)12-18(22(30)26-19(23(31)32)13-16-8-4-3-5-9-16)27-24(33)28-14-21(29)25-17-10-6-7-11-20(17)28/h3-11,15,18-19H,12-14H2,1-2H3,(H,25,29)(H,26,30)(H,27,33)(H,31,32)/t18-,19-/m0/s1
FORMULA=C24H28N4O5
PUBMED=N/A
SUBMITUSER=BIOADREM
LIBRARYQUALITY=0
SPECTRUMID=CCMSLIB00000080481
SCANS=2663
ID=CCMSLIB00000080481
103.0542261926 	 0.57
119.060374203 	 14.54
120.0807752941 	 9.98
121.0760242672 	 11.55
128.0494751657 	 1
132.0681992351 	 0.62
146.060039852 	 4.36
147.0552888251 	 100
149.0709388893 	 3.89
150.0787639214 	 1.06
175.0502034472 	 55.72
189.138624524 	 1.72
192.0767525487 	 1.48
204.0767525487 	 5.96
215.1178890819 	 0.79
217.1335391461 	 1.6
218.0924026129 	 0.5
232.1444381834 	 4.11
260.1393528055 	 32.75
453.2132460301 	 0
END IONS

BEGIN IONS
PEPMASS=581.243
CHARGE=1
MSLEVEL=2
RT=0
SOURCE_INSTRUMENT=qTOF
FILENAME=CCMSLIB00000080482.ms
IONMODE=Positive
ORGANISM=Natural
NAME=MLS001140682-01!4-[[[(2S)-2-[[(2S)-2-(2,4-dioxo-1H-quinazolin-3-yl)-3-phenylpropanoyl]amino]-4-methylsulfanylbutanoyl]amino]methyl]cyclohexane-1-carboxylic acid
PI=GNPS
DATACOLLECTOR=GNPS
SMILES=CSCC[C@@H](C(=NCC1CCC(CC1)C(=O)O)O)N=C([C@H](Cc1ccccc1)n1c(=O)c2ccccc2nc1O)O
INCHI=InChI=1S/C30H36N4O6S/c1-41-16-15-24(26(35)31-18-20-11-13-21(14-12-20)29(38)39)32-27(36)25(17-19-7-3-2-4-8-19)34-28(37)22-9-5-6-10-23(22)33-30(34)40/h2-10,20-21,24-25H,11-18H2,1H3,(H,31,35)(H,32,36)(H,33,40)(H,38,39)/t20?,21?,24-,25-/m0/s1
FORMULA=C30H36N4O6S
PUBMED=N/A
SUBMITUSER=BIOADREM
LIBRARYQUALITY=0
SPECTRUMID=CCMSLIB00000080482
SCANS=2664
ID=CCMSLIB00000080482
95.085526321 	 0.61
123.0804409431 	 0.64
141.0910056294 	 0.24
158.1175547309 	 1.43
194.097116102 	 0.25
204.0814660378 	 0.26
222.0920307241 	 0.69
237.1029297614 	 0.44
247.0872796972 	 1.95
265.0978443835 	 100
275.0821943193 	 1.88
293.0927590056 	 15.56
581.242831599 	 0
END IONS

BEGIN IONS
PEPMASS=478.209
CHARGE=1
MSLEVEL=2
RT=0
SOURCE_INSTRUMENT=qTOF
FILENAME=CCMSLIB00000080483.ms
IONMODE=Positive
ORGANISM=Natural
NAME=MLS001157897-01!(2S)-3-(1H-indol-3-yl)-2-[[(2S)-3-methyl-2-[(3-oxo-2,4-dihydroquinoxaline-1-carbonyl)amino]butanoyl]amino]propanoic acid
PI=GNPS
DATACOLLECTOR=GNPS
SMILES=CC(C)[C@@H](C(=N[C@@H](Cc1c[nH]c2ccccc12)C(=O)O)O)N=C(N1CC(=Nc2ccccc12)O)O
INCHI=InChI=1S/C25H27N5O5/c1-14(2)22(29-25(35)30-13-21(31)27-18-9-5-6-10-20(18)30)23(32)28-19(24(33)34)11-15-12-26-17-8-4-3-7-16(15)17/h3-10,12,14,19,22,26H,11,13H2,1-2H3,(H,27,31)(H,28,32)(H,29,35)(H,33,34)/t19-,22-/m0/s1
FORMULA=C25H27N5O5
PUBMED=N/A
SUBMITUSER=BIOADREM
LIBRARYQUALITY=0
SPECTRUMID=CCMSLIB00000080483
SCANS=2665
ID=CCMSLIB00000080483
117.0546201231 	 1.42
118.0651252299 	 2.35
119.060374203 	 9.99
120.0655191604 	 1
121.0760242672 	 29.21
130.0651252299 	 8.6
131.0702701873 	 2.02
132.0807752941 	 2.63
133.0284053726 	 1.01
142.0651252299 	 0.92
143.0702701873 	 1.38
144.0807752941 	 2.21
146.060039852 	 6.29
147.0552888251 	 82.52
148.0604337825 	 12.53
149.0709388893 	 3.94
157.0760242672 	 1.14
158.0838492993 	 2.2
159.0916743314 	 9.48
160.0968192888 	 1.26
170.060039852 	 2.85
175.0502034472 	 46.25
176.0553484046 	 4.97
185.0709388893 	 2.69
187.0740128945 	 0.86
188.0706045383 	 18.1
191.1178890819 	 1.38
201.1022390177 	 1.93
203.1178890819 	 0.94
205.0971536398 	 1.06
217.0845775808 	 3.93
218.1287881192 	 4.67
229.0971536398 	 2.9
246.1237027413 	 100
284.1366727308 	 11.91
285.1346017786 	 3.6
478.2084950032 	 0
END IONS

BEGIN IONS
PEPMASS=253.1058
CHARGE=1
MSLEVEL=2
RT=0
SOURCE_INSTRUMENT=qTOF
FILENAME=CCMSLIB00000080484.ms
IONMODE=Positive
ORGANISM=Natural
NAME=MLS000877003-01!(2R)-7-hydroxy-8-(2-hydroxyethyl)-5-methoxy-2-methyl-2,3-dihydrochromen-4-one
PI=GNPS
DATACOLLECTOR=GNPS
SMILES=C[C@@H]1CC(=O)c2c(cc(c(CCO)c2O1)O)OC
INCHI=InChI=1S/C13H16O5/c1-7-5-10(16)12-11(17-2)6-9(15)8(3-4-14)13(12)18-7/h6-7,14-15H,3-5H2,1-2H3/t7-/m1/s1
FORMULA=C13H16O5
PUBMED=N/A
SUBMITUSER=BIOADREM
LIBRARYQUALITY=0
SPECTRUMID=CCMSLIB00000080484
SCANS=2666
ID=CCMSLIB00000080484
105.0334907505 	 3.85
105.0698762568 	 4.76
107.0491408147 	 4.22
107.085526321 	 5.67
108.0205803405 	 18.36
109.0647908789 	 6.94
115.0542261926 	 6.94
121.0647908789 	 3.58
122.0362304047 	 17.36
123.0440554368 	 3.94
125.059705501 	 3.4
128.0620512247 	 3.58
135.0804409431 	 5.03
137.0233199947 	 57.16
147.0440554368 	 6.12
149.0233199947 	 5.76
150.0311450268 	 71.03
160.0154949626 	 4.99
163.0389700589 	 6.53
165.0182346168 	 69.36
174.0675305331 	 3.45
176.046795091 	 6.48
177.0182346168 	 18.31
178.0260596489 	 88.12
179.033884681 	 57.3
184.0518804689 	 4.53
191.0702701873 	 9.02
192.0417097131 	 5.94
193.0495347452 	 91.48
199.0753555652 	 5.49
202.0624451552 	 14.55
205.0495347452 	 100
207.0651848094 	 9.02
217.0859202515 	 5.26
219.0651848094 	 9.56
220.0730098415 	 59.97
235.0964849378 	 98.96
253.1070496241 	 12.78
END IONS

BEGIN IONS
PEPMASS=287.092
CHARGE=1
MSLEVEL=2
RT=0
SOURCE_INSTRUMENT=qTOF
FILENAME=CCMSLIB00000080485.ms
IONMODE=Positive
ORGANISM=Natural
NAME=MLS000876957-01!5,7-dihydroxy-2-(4-hydroxyphenyl)-6-methyl-2,3-dihydrochromen-4-one
PI=GNPS
DATACOLLECTOR=GNPS
SMILES=Cc1c(cc2c(C(=O)CC(c3ccc(cc3)O)O2)c1O)O
INCHI=InChI=1S/C16H14O5/c1-8-11(18)6-14-15(16(8)20)12(19)7-13(21-14)9-2-4-10(17)5-3-9/h2-6,13,17-18,20H,7H2,1H3
FORMULA=C16H14O5
PUBMED=N/A
SUBMITUSER=BIOADREM
LIBRARYQUALITY=0
SPECTRUMID=CCMSLIB00000080485
SCANS=2667
ID=CCMSLIB00000080485
119.0491408147 	 31.49
139.0389700589 	 4.38
147.0440554368 	 29.95
149.0233199947 	 2.22
167.033884681 	 100
270.0886599057 	 2.22
287.0913995599 	 0
END IONS

BEGIN IONS
PEPMASS=227.0715
CHARGE=1
MSLEVEL=2
RT=0
SOURCE_INSTRUMENT=qTOF
FILENAME=CCMSLIB00000080487.ms
IONMODE=Positive
ORGANISM=Natural
NAME=MLS001143180-01!3-methoxyxanthen-9-one
PI=GNPS
DATACOLLECTOR=GNPS
SMILES=COc1ccc2c(c1)oc1ccccc1c2=O
INCHI=InChI=1S/C14H10O3/c1-16-9-6-7-11-13(8-9)17-12-5-3-2-4-10(12)14(11)15/h2-8H,1H3
FORMULA=C14H10O3
PUBMED=N/A
SUBMITUSER=BIOADREM
LIBRARYQUALITY=0
SPECTRUMID=CCMSLIB00000080487
SCANS=2669
ID=CCMSLIB00000080487
102.0464011605 	 2.23
104.0256657184 	 0.44
107.0127553084 	 3.03
115.0542261926 	 0.57
127.0542261926 	 1.18
128.0620512247 	 21.19
130.0413157826 	 0.24
141.0698762568 	 0.35
145.0647908789 	 0.47
153.0698762568 	 0.27
155.0491408147 	 3.11
156.0569658468 	 9.1
171.0804409431 	 0.45
181.0647908789 	 0.47
183.0440554368 	 6.62
184.0518804689 	 100
199.0753555652 	 0.5
211.0389700589 	 1.28
212.046795091 	 13.09
227.0702701873 	 36.48
END IONS

BEGIN IONS
PEPMASS=422.1614
CHARGE=1
MSLEVEL=2
RT=0
SOURCE_INSTRUMENT=qTOF
FILENAME=CCMSLIB00000080488.ms
IONMODE=Positive
ORGANISM=Natural
NAME=MLS001075334-01!(2S)-2-[[2-[(7-methyl-4-oxo-2,3-dihydro-1H-cyclopenta[c]chromen-9-yl)oxy]acetyl]amino]-3-phenylpropanoic acid
PI=GNPS
DATACOLLECTOR=GNPS
SMILES=Cc1cc(c2c3CCCc3c(=O)oc2c1)OCC(=N[C@@H](Cc1ccccc1)C(=O)O)O
INCHI=InChI=1S/C24H23NO6/c1-14-10-19(22-16-8-5-9-17(16)24(29)31-20(22)11-14)30-13-21(26)25-18(23(27)28)12-15-6-3-2-4-7-15/h2-4,6-7,10-11,18H,5,8-9,12-13H2,1H3,(H,25,26)(H,27,28)/t18-/m0/s1
FORMULA=C24H23NO6
PUBMED=N/A
SUBMITUSER=BIOADREM
LIBRARYQUALITY=0
SPECTRUMID=CCMSLIB00000080488
SCANS=2670
ID=CCMSLIB00000080488
103.0542261926 	 4.03
105.0698762568 	 15.17
115.0542261926 	 5.35
117.0573001978 	 8.23
120.0807752941 	 23.37
128.0620512247 	 1.81
129.0698762568 	 5.88
130.0651252299 	 14.3
132.0807752941 	 50.49
141.0698762568 	 4.92
142.0777012889 	 11.57
145.0647908789 	 8.33
145.1011763852 	 4.23
147.0440554368 	 3.23
153.0698762568 	 2.16
155.0491408147 	 2.56
155.085526321 	 3.38
157.0647908789 	 1.9
158.072615911 	 10.49
159.0804409431 	 7.09
161.059705501 	 3.15
165.0698762568 	 1.9
169.0647908789 	 3.98
170.072615911 	 19.04
171.0804409431 	 5.33
173.059705501 	 2.98
173.0960910073 	 9.64
174.0675305331 	 3.13
178.0862546025 	 2.89
183.0804409431 	 5.13
185.0960910073 	 12.85
186.0675305331 	 3.42
187.0753555652 	 5.12
188.0831805973 	 5.82
189.0910056294 	 6.42
201.0910056294 	 32.33
202.0624451552 	 2.41
214.0624451552 	 16.26
215.0702701873 	 76.5
216.0780952194 	 33.31
217.0859202515 	 54.05
229.0859202515 	 100
231.0889942567 	 1.77
257.0808348736 	 12.65
275.0913995599 	 1.99
376.1543341677 	 4.19
422.1598134761 	 3.57
END IONS

BEGIN IONS
PEPMASS=435.1913
CHARGE=1
MSLEVEL=2
RT=0
SOURCE_INSTRUMENT=qTOF
FILENAME=CCMSLIB00000080489.ms
IONMODE=Positive
ORGANISM=Natural
NAME=MLS001158371-01!
PI=GNPS
DATACOLLECTOR=GNPS
SMILES=Cc1cc(c2c(C)c(CC(=O)N3C[C@H]4C[C@@H](C3)c3cccc(=O)n3C4)c(=O)oc2c1)OC
INCHI=InChI=1S/C25H26N2O5/c1-14-7-20(31-3)24-15(2)18(25(30)32-21(24)8-14)10-23(29)26-11-16-9-17(13-26)19-5-4-6-22(28)27(19)12-16/h4-8,16-17H,9-13H2,1-3H3/t16-,17+/m1/s1
FORMULA=C25H26N2O5
PUBMED=N/A
SUBMITUSER=BIOADREM
LIBRARYQUALITY=0
SPECTRUMID=CCMSLIB00000080489
SCANS=2671
ID=CCMSLIB00000080489
105.0698762568 	 0.68
115.0542261926 	 0.66
128.0620512247 	 1.14
129.0698762568 	 0.62
130.0777012889 	 0.2
131.0491408147 	 0.23
131.085526321 	 0.5
133.0647908789 	 0.26
133.1011763852 	 0.39
141.0698762568 	 0.82
142.0777012889 	 0.37
143.0491408147 	 0.23
143.085526321 	 0.44
144.0569658468 	 0.39
145.0647908789 	 0.58
146.072615911 	 0.65
147.0804409431 	 0.24
157.0647908789 	 0.29
158.072615911 	 2.01
159.0804409431 	 6.76
160.0842432298 	 1
161.0960910073 	 1.4
173.0960910073 	 0.8
174.0675305331 	 2.51
187.0753555652 	 0.27
189.0910056294 	 4.14
190.0948079161 	 0.43
202.0624451552 	 1.17
203.0662474419 	 0.2
217.0859202515 	 100
218.0897225382 	 18.25
219.0916743314 	 1.77
245.0808348736 	 6.63
247.0865889535 	 0.21
435.1914479555 	 0.75
END IONS

BEGIN IONS
PEPMASS=345.0977
CHARGE=1
MSLEVEL=2
RT=0
SOURCE_INSTRUMENT=qTOF
FILENAME=CCMSLIB00000080490.ms
IONMODE=Positive
ORGANISM=Natural
NAME=MLS000863609-01!5,7-dihydroxy-3,6-dimethoxy-2-(4-methoxyphenyl)chromen-4-one
PI=GNPS
DATACOLLECTOR=GNPS
SMILES=COc1ccc(cc1)c1c(c(=O)c2c(cc(c(c2O)OC)O)o1)OC
INCHI=InChI=1S/C18H16O7/c1-22-10-6-4-9(5-7-10)16-18(24-3)15(21)13-12(25-16)8-11(19)17(23-2)14(13)20/h4-8,19-20H,1-3H3
FORMULA=C18H16O7
PUBMED=N/A
SUBMITUSER=BIOADREM
LIBRARYQUALITY=0
SPECTRUMID=CCMSLIB00000080490
SCANS=2672
ID=CCMSLIB00000080490
121.0647908789 	 2.89
133.0647908789 	 2.41
135.0440554368 	 11.33
145.0647908789 	 1.61
149.059705501 	 2.37
157.0647908789 	 2.24
161.059705501 	 8.17
171.0804409431 	 1.67
173.059705501 	 1.89
185.059705501 	 4.23
189.0546201231 	 3.34
199.0753555652 	 3.24
201.0546201231 	 6.85
203.0702701873 	 5.37
213.0546201231 	 8.85
217.0495347452 	 2.01
227.0702701873 	 5.22
231.0651848094 	 11.96
241.0495347452 	 6.6
244.0366243352 	 2.15
253.0495347452 	 33.56
255.0651848094 	 6.93
256.0366243352 	 2.17
259.0600994315 	 5.14
269.0444493673 	 13.08
272.0315389573 	 2.02
281.0444493673 	 18.74
283.0600994315 	 15.88
284.0679244636 	 15.54
287.0550140536 	 100
297.0393639894 	 2.24
299.0550140536 	 3.02
300.0264535794 	 1.78
311.0550140536 	 5.31
312.0628390857 	 25.91
315.0499286757 	 13.07
329.0655787399 	 36.61
330.073403772 	 15.63
345.0968788683 	 11.31
END IONS

BEGIN IONS
PEPMASS=432.213
CHARGE=1
MSLEVEL=2
RT=0
SOURCE_INSTRUMENT=qTOF
FILENAME=CCMSLIB00000080491.ms
IONMODE=Positive
ORGANISM=Natural
NAME=MLS001141233-01!(2S)-1-[(2S)-2-[(4,6-dimethoxy-1-methylindole-2-carbonyl)amino]-3-methylbutanoyl]pyrrolidine-2-carboxylic acid
PI=GNPS
DATACOLLECTOR=GNPS
SMILES=CC(C)[C@@H](C(=O)N1CCC[C@H]1C(=O)O)NC(=O)c1cc2c(cc(cc2OC)OC)n1C
INCHI=InChI=1S/C22H29N3O6/c1-12(2)19(21(27)25-8-6-7-15(25)22(28)29)23-20(26)17-11-14-16(24(17)3)9-13(30-4)10-18(14)31-5/h9-12,15,19H,6-8H2,1-5H3,(H,23,26)(H,28,29)/t15-,19-/m0/s1
FORMULA=C22H29N3O6
PUBMED=N/A
SUBMITUSER=BIOADREM
LIBRARYQUALITY=0
SPECTRUMID=CCMSLIB00000080491
SCANS=2673
ID=CCMSLIB00000080491
139.0753555652 	 0.25
147.0678648841 	 0.35
149.059705501 	 16.72
162.0549544741 	 0.2
166.0862546025 	 0.26
175.0600994315 	 0.3
176.0706045383 	 0.26
178.0862546025 	 0.61
179.0576941283 	 0.51
190.0862546025 	 6.53
194.0811692246 	 3.05
203.0550140536 	 0.27
218.0811692246 	 100
219.086314182 	 11.84
222.0760838467 	 1.05
290.1598134761 	 0.21
432.2129116791 	 0
END IONS

BEGIN IONS
PEPMASS=261.0025
CHARGE=1
MSLEVEL=2
RT=0
SOURCE_INSTRUMENT=qTOF
FILENAME=CCMSLIB00000080492.ms
IONMODE=Positive
ORGANISM=Natural
NAME=MLS000574962-01!
PI=GNPS
DATACOLLECTOR=GNPS
SMILES=Cc1c2c(ccn1)c1cc(ccc1[nH]2)Br
INCHI=InChI=1S/C12H9BrN2/c1-7-12-9(4-5-14-7)10-6-8(13)2-3-11(10)15-12/h2-6,15H,1H3
FORMULA=C12H9BrN2
PUBMED=N/A
SUBMITUSER=BIOADREM
LIBRARYQUALITY=0
SPECTRUMID=CCMSLIB00000080492
SCANS=2674
ID=CCMSLIB00000080492
140.0494751657 	 3.7
154.0651252299 	 21.65
155.072950262 	 12.46
167.060374203 	 4.29
181.0760242672 	 53.06
182.0838492993 	 100
245.978711803 	 1.4
261.0021868993 	 36.37
END IONS

BEGIN IONS
PEPMASS=491.122
CHARGE=1
MSLEVEL=2
RT=0
SOURCE_INSTRUMENT=qTOF
FILENAME=CCMSLIB00000080493.ms
IONMODE=Positive
ORGANISM=Natural
NAME=MLS001157768-01!(2S)-N-(5-chloro-2,4-dimethoxyphenyl)-1-(4,5-dimethoxy-3-oxo-1H-2-benzofuran-1-yl)-5-oxopyrrolidine-2-carboxamide
PI=GNPS
DATACOLLECTOR=GNPS
SMILES=COc1ccc2c(c1OC)C(=O)OC2N1[C@@H](CCC1=O)C(=Nc1cc(c(cc1OC)OC)Cl)O
INCHI=InChI=1S/C23H23ClN2O8/c1-30-15-7-5-11-19(20(15)33-4)23(29)34-22(11)26-14(6-8-18(26)27)21(28)25-13-9-12(24)16(31-2)10-17(13)32-3/h5,7,9-10,14,22H,6,8H2,1-4H3,(H,25,28)/t14-,22?/m0/s1
FORMULA=C23H23ClN2O8
PUBMED=N/A
SUBMITUSER=BIOADREM
LIBRARYQUALITY=0
SPECTRUMID=CCMSLIB00000080493
SCANS=2675
ID=CCMSLIB00000080493
103.0178406863 	 0.31
107.0491408147 	 2.3
109.0284053726 	 2.5
117.0334907505 	 0.34
119.0127553084 	 0.3
119.0491408147 	 0.25
120.0205803405 	 0.32
121.0284053726 	 3.12
122.0362304047 	 4.61
123.0076699305 	 0.37
132.0205803405 	 0.27
135.0440554368 	 6.75
137.0233199947 	 1.73
137.059705501 	 0.62
145.0284053726 	 0.27
149.0233199947 	 4.21
150.0311450268 	 5.01
163.0389700589 	 20.09
165.0546201231 	 1.03
175.0389700589 	 0.27
178.0260596489 	 2.82
193.0495347452 	 100
362.0789763393 	 0.75
491.1215694355 	 0
END IONS

BEGIN IONS
PEPMASS=371.149
CHARGE=1
MSLEVEL=2
RT=0
SOURCE_INSTRUMENT=qTOF
FILENAME=CCMSLIB00000080494.ms
IONMODE=Positive
ORGANISM=Natural
NAME=MLS000697734-01!(2S,3S,3aR)-2-(1,3-benzodioxol-5-yl)-5,7-dimethoxy-3-methyl-3a-prop-2-enyl-2,3-dihydro-1-benzofuran-6-one
PI=GNPS
DATACOLLECTOR=GNPS
SMILES=C=CC[C@]12C=C(C(=O)C(=C2O[C@@H]([C@H]1C)c1ccc2c(c1)OCO2)OC)OC
INCHI=InChI=1S/C21H22O6/c1-5-8-21-10-16(23-3)17(22)19(24-4)20(21)27-18(12(21)2)13-6-7-14-15(9-13)26-11-25-14/h5-7,9-10,12,18H,1,8,11H2,2-4H3/t12-,18+,21+/m1/s1
FORMULA=C21H22O6
PUBMED=N/A
SUBMITUSER=BIOADREM
LIBRARYQUALITY=0
SPECTRUMID=CCMSLIB00000080494
SCANS=2676
ID=CCMSLIB00000080494
103.0542261926 	 6.61
106.0413157826 	 5.92
107.0491408147 	 12.35
119.0491408147 	 4.76
121.0647908789 	 5.96
129.0698762568 	 6.81
135.0440554368 	 20.58
147.0440554368 	 20.09
149.0233199947 	 5.07
149.059705501 	 20.92
157.0647908789 	 6.06
160.0518804689 	 7.6
163.0389700589 	 6.02
165.0546201231 	 11.27
167.0702701873 	 5.45
177.0546201231 	 21.59
180.0417097131 	 11.37
183.0651848094 	 15.12
185.059705501 	 11.01
195.0651848094 	 32.03
197.059705501 	 7.66
209.0808348736 	 18.2
213.0546201231 	 22.46
225.0546201231 	 13.36
226.0624451552 	 7.32
227.0702701873 	 17.25
237.0546201231 	 5.37
253.0495347452 	 7.16
254.0573597773 	 27.81
257.0808348736 	 6.55
265.0495347452 	 8.86
267.0651848094 	 10.12
269.0808348736 	 27.08
279.0651848094 	 7.24
281.0808348736 	 4.87
282.0522743994 	 5.64
283.0600994315 	 44.25
284.0679244636 	 14.92
285.0757494957 	 4.97
287.0913995599 	 29.47
297.0757494957 	 13.3
298.0835745278 	 10.58
299.0913995599 	 5.01
315.086314182 	 25.42
330.1097892783 	 100
371.1489144388 	 0
END IONS

BEGIN IONS
PEPMASS=247.097
CHARGE=1
MSLEVEL=2
RT=0
SOURCE_INSTRUMENT=qTOF
FILENAME=CCMSLIB00000080495.ms
IONMODE=Positive
ORGANISM=Natural
NAME=MLS002415725-01!
PI=GNPS
DATACOLLECTOR=GNPS
SMILES=C=CCOC(=O)c1ccccc1C(=O)OCC=C
INCHI=InChI=1S/C14H14O4/c1-3-9-17-13(15)11-7-5-6-8-12(11)14(16)18-10-4-2/h3-8H,1-2,9-10H2
FORMULA=C14H14O4
PUBMED=N/A
SUBMITUSER=BIOADREM
LIBRARYQUALITY=0
SPECTRUMID=CCMSLIB00000080495
SCANS=2677
ID=CCMSLIB00000080495
121.0284053726 	 40.98
149.0233199947 	 100
247.0964849378 	 0
END IONS

BEGIN IONS
PEPMASS=416.207
CHARGE=1
MSLEVEL=2
RT=0
SOURCE_INSTRUMENT=qTOF
FILENAME=CCMSLIB00000080496.ms
IONMODE=Positive
ORGANISM=Natural
NAME=MLS001140980-01!4-[[2-(2-oxo-4-propylchromen-7-yl)oxypropanoylamino]methyl]cyclohexane-1-carboxylic acid
PI=GNPS
DATACOLLECTOR=GNPS
SMILES=CCCc1cc(=O)oc2cc(ccc12)OC(C)C(=NC[C@H]1CC[C@@H](CC1)C(=O)O)O
INCHI=InChI=1S/C23H29NO6/c1-3-4-17-11-21(25)30-20-12-18(9-10-19(17)20)29-14(2)22(26)24-13-15-5-7-16(8-6-15)23(27)28/h9-12,14-16H,3-8,13H2,1-2H3,(H,24,26)(H,27,28)/t14?,15-,16-
FORMULA=C23H29NO6
PUBMED=N/A
SUBMITUSER=BIOADREM
LIBRARYQUALITY=0
SPECTRUMID=CCMSLIB00000080496
SCANS=2678
ID=CCMSLIB00000080496
95.085526321 	 7.97
105.0698762568 	 0.89
107.0491408147 	 1.31
110.0964253583 	 0.75
112.1120754225 	 3.02
119.0491408147 	 1.28
122.0964253583 	 1.27
123.0440554368 	 0.65
129.0698762568 	 0.7
131.085526321 	 2.25
133.0647908789 	 2.23
135.0804409431 	 1.8
138.0913399804 	 1.91
138.1277254867 	 5.95
140.1069900446 	 19.08
145.0647908789 	 0.86
147.0804409431 	 0.69
147.1168264494 	 1.02
148.0518804689 	 1.46
152.1069900446 	 0.85
159.0804409431 	 0.96
160.0882659752 	 0.84
161.059705501 	 2.1
163.0389700589 	 6.04
166.1226401088 	 1.45
167.1304651409 	 9.39
175.0389700589 	 1.88
175.0753555652 	 1.07
175.1117410715 	 2.65
176.046795091 	 6.38
184.1332047951 	 2.87
187.0753555652 	 2.09
189.0546201231 	 16.72
203.1066556936 	 8.25
205.0859202515 	 100
231.1015703157 	 45.62
259.0964849378 	 1.9
276.1230340393 	 12.03
370.2012843603 	 9.75
416.2067636687 	 0
END IONS

BEGIN IONS
PEPMASS=445.2333
CHARGE=1
MSLEVEL=2
RT=0
SOURCE_INSTRUMENT=qTOF
FILENAME=CCMSLIB00000080497.ms
IONMODE=Positive
ORGANISM=Natural
NAME=MLS001159033-01!2-[(4-ethyl-8,8-dimethyl-2-oxo-9,10-dihydropyrano[2,3-h]chromen-5-yl)oxy]-N-(2-morpholin-4-ylethyl)acetamide
PI=GNPS
DATACOLLECTOR=GNPS
SMILES=CCc1cc(=O)oc2c3CCC(C)(C)Oc3cc(c12)OCC(=NCCN1CCOCC1)O
INCHI=InChI=1S/C24H32N2O6/c1-4-16-13-21(28)31-23-17-5-6-24(2,3)32-18(17)14-19(22(16)23)30-15-20(27)25-7-8-26-9-11-29-12-10-26/h13-14H,4-12,15H2,1-3H3,(H,25,27)
FORMULA=C24H32N2O6
PUBMED=N/A
SUBMITUSER=BIOADREM
LIBRARYQUALITY=0
SPECTRUMID=CCMSLIB00000080497
SCANS=2679
ID=CCMSLIB00000080497
98.060039852 	 1.03
100.0756899162 	 24.21
113.0835149483 	 3.09
114.0913399804 	 8.82
141.1022390177 	 0.85
147.0804409431 	 1.22
161.059705501 	 2.24
171.112803704 	 20.63
175.0753555652 	 2.99
185.059705501 	 0.93
189.0546201231 	 3.85
191.0702701873 	 2.76
202.0862546025 	 0.87
203.0702701873 	 18.48
204.074072474 	 3.27
206.0811692246 	 2.04
213.0546201231 	 0.84
215.0702701873 	 0.82
217.0495347452 	 3.74
218.0533370319 	 1.09
219.0651848094 	 17.61
230.0811692246 	 2.75
231.0651848094 	 48.17
232.0689870961 	 7.75
233.0768121282 	 1.27
245.1172203799 	 1.6
248.0917339109 	 1.67
256.0968192888 	 2.38
258.0760838467 	 5.11
259.0600994315 	 7.66
260.0917339109 	 5.97
273.112135002 	 1.41
274.1159372887 	 7.43
284.0917339109 	 3.11
287.1277850662 	 15.18
290.1022985972 	 5.15
302.1022985972 	 100
315.1226996883 	 3.5
358.164898854 	 34.26
371.1601478271 	 0.87
389.1707125134 	 3.07
445.2333127702 	 26.79
END IONS

BEGIN IONS
PEPMASS=419.1354
CHARGE=1
MSLEVEL=2
RT=0
SOURCE_INSTRUMENT=qTOF
FILENAME=CCMSLIB00000080498.ms
IONMODE=Positive
ORGANISM=Natural
NAME=MLS000876958-01!2-(3,4-dimethoxyphenyl)-5-hydroxy-3,6,7,8-tetramethoxychromen-4-one
PI=GNPS
DATACOLLECTOR=GNPS
SMILES=COc1ccc(cc1OC)c1c(c(=O)c2c(c(c(c(c2o1)OC)OC)OC)O)OC
INCHI=InChI=1S/C21H22O9/c1-24-11-8-7-10(9-12(11)25-2)16-18(26-3)14(22)13-15(23)19(27-4)21(29-6)20(28-5)17(13)30-16/h7-9,23H,1-6H3
FORMULA=C21H22O9
PUBMED=N/A
SUBMITUSER=BIOADREM
LIBRARYQUALITY=0
SPECTRUMID=CCMSLIB00000080498
SCANS=2680
ID=CCMSLIB00000080498
165.0546201231 	 10.95
191.0702701873 	 1.11
229.0495347452 	 1.21
244.0730098415 	 1.5
247.0600994315 	 1.74
257.0444493673 	 1.83
272.0679244636 	 1.99
274.0471890215 	 4.8
275.0550140536 	 4.32
285.0393639894 	 2.89
287.0550140536 	 1.64
287.0913995599 	 1.26
297.0393639894 	 1.68
299.0550140536 	 1.21
300.0628390857 	 6.26
303.0499286757 	 10.52
313.0342786115 	 10.18
315.0499286757 	 4.17
315.086314182 	 2.71
317.0655787399 	 1.77
318.073403772 	 2.83
325.0706641178 	 1.2
327.0499286757 	 1.72
328.0577537078 	 37.38
331.0448432978 	 23.25
341.0291932336 	 2.03
343.0812288041 	 11.33
345.060493362 	 3.98
346.0683183941 	 28.13
356.0526683299 	 2.96
359.0397579199 	 4.4
361.0917934904 	 36.1
371.0761434262 	 7.32
373.0554079841 	 2.29
374.0632330162 	 8.72
386.0996185225 	 2.28
389.0867081125 	 100
404.1101832088 	 7.76
419.1336583051 	 7.92
END IONS

BEGIN IONS
PEPMASS=465.166
CHARGE=1
MSLEVEL=2
RT=0
SOURCE_INSTRUMENT=qTOF
FILENAME=CCMSLIB00000080499.ms
IONMODE=Positive
ORGANISM=Natural
NAME=MLS001140974-01!3-(5-hydroxy-1H-indol-3-yl)-2-[[2-(3,4,7-trimethyl-2-oxochromen-5-yl)oxyacetyl]amino]propanoic acid
PI=GNPS
DATACOLLECTOR=GNPS
SMILES=Cc1cc(c2c(C)c(C)c(=O)oc2c1)OCC(=NC(Cc1c[nH]c2ccc(cc12)O)C(=O)O)O
INCHI=InChI=1S/C25H24N2O7/c1-12-6-20(23-13(2)14(3)25(32)34-21(23)7-12)33-11-22(29)27-19(24(30)31)8-15-10-26-18-5-4-16(28)9-17(15)18/h4-7,9-10,19,26,28H,8,11H2,1-3H3,(H,27,29)(H,30,31)
FORMULA=C25H24N2O7
PUBMED=N/A
SUBMITUSER=BIOADREM
LIBRARYQUALITY=0
SPECTRUMID=CCMSLIB00000080499
SCANS=2681
ID=CCMSLIB00000080499
105.0698762568 	 1.8
115.0542261926 	 2.8
117.0573001978 	 1.53
118.0651252299 	 2.62
130.0651252299 	 2.04
131.0491408147 	 4.11
132.0807752941 	 2.39
133.0522148199 	 1.95
133.1011763852 	 2.31
134.060039852 	 11.27
142.0651252299 	 1.88
143.072950262 	 1.45
145.0647908789 	 6.65
146.060039852 	 100
148.0756899162 	 10.2
157.0522148199 	 1.58
158.060039852 	 23.58
160.0756899162 	 40.18
161.059705501 	 2.39
161.0960910073 	 5.65
162.0549544741 	 26.94
170.060039852 	 5.57
172.0756899162 	 8.22
173.0709388893 	 9.73
174.0787639214 	 21.58
176.0831805973 	 10.5
177.0910056294 	 2.95
186.0549544741 	 23.84
187.0865889535 	 12.64
189.0910056294 	 21.37
199.0627795062 	 3.37
200.0706045383 	 2.99
201.0658535114 	 2.93
204.0655191604 	 18.7
205.0859202515 	 13.49
215.0815035756 	 3.99
216.0893286077 	 6.77
217.0859202515 	 13.02
245.0808348736 	 4.47
262.1073839751 	 1.88
419.1601478271 	 7.54
465.1656271355 	 0
END IONS

BEGIN IONS
PEPMASS=339.1713
CHARGE=1
MSLEVEL=2
RT=0
SOURCE_INSTRUMENT=qTOF
FILENAME=CCMSLIB00000080500.ms
IONMODE=Positive
ORGANISM=Natural
NAME=MLS001075542-01!
PI=GNPS
DATACOLLECTOR=GNPS
SMILES=COc1ccc(cc1)CC(=O)N1C[C@H]2C[C@@H](C1)c1cccc(=O)n1C2
INCHI=InChI=1S/C20H22N2O3/c1-25-17-7-5-14(6-8-17)10-20(24)21-11-15-9-16(13-21)18-3-2-4-19(23)22(18)12-15/h2-8,15-16H,9-13H2,1H3/t15-,16+/m1/s1
FORMULA=C20H22N2O3
PUBMED=N/A
SUBMITUSER=BIOADREM
LIBRARYQUALITY=0
SPECTRUMID=CCMSLIB00000080500
SCANS=2682
ID=CCMSLIB00000080500
103.0542261926 	 0.37
105.0698762568 	 0.44
106.0413157826 	 0.86
106.0651252299 	 0.53
117.0573001978 	 1.33
118.0651252299 	 0.61
120.0807752941 	 2.07
121.0647908789 	 100
130.0651252299 	 1.23
132.0443897878 	 0.44
132.0807752941 	 0.8
133.0522148199 	 1.69
134.060039852 	 1.14
142.0651252299 	 0.73
144.0807752941 	 0.6
146.060039852 	 2.52
147.0678648841 	 1.1
148.0756899162 	 77.46
159.0678648841 	 0.45
160.0756899162 	 6.36
162.0913399804 	 3.14
173.1073243956 	 0.34
174.0913399804 	 1.44
191.1178890819 	 96.74
321.1597538966 	 0.32
339.1703185829 	 27.55
END IONS

BEGIN IONS
PEPMASS=459.249
CHARGE=1
MSLEVEL=2
RT=0
SOURCE_INSTRUMENT=qTOF
FILENAME=CCMSLIB00000080502.ms
IONMODE=Positive
ORGANISM=Natural
NAME=MLS001162645-01!2-[(8,8-dimethyl-2-oxo-4-propyl-9,10-dihydropyrano[2,3-h]chromen-5-yl)oxy]-N-(2-morpholin-4-ylethyl)acetamide
PI=GNPS
DATACOLLECTOR=GNPS
SMILES=CCCc1cc(=O)oc2c3CCC(C)(C)Oc3cc(c12)OCC(=NCCN1CCOCC1)O
INCHI=InChI=1S/C25H34N2O6/c1-4-5-17-14-22(29)32-24-18-6-7-25(2,3)33-19(18)15-20(23(17)24)31-16-21(28)26-8-9-27-10-12-30-13-11-27/h14-15H,4-13,16H2,1-3H3,(H,26,28)
FORMULA=C25H34N2O6
PUBMED=N/A
SUBMITUSER=BIOADREM
LIBRARYQUALITY=0
SPECTRUMID=CCMSLIB00000080502
SCANS=2683
ID=CCMSLIB00000080502
98.060039852 	 1.13
100.0756899162 	 21.93
113.0835149483 	 4.08
114.0913399804 	 10.21
135.0804409431 	 0.84
161.059705501 	 0.84
171.112803704 	 21.16
175.0753555652 	 1.21
189.0546201231 	 2.67
189.0910056294 	 1.81
199.0753555652 	 1.43
203.0702701873 	 5.88
204.074072474 	 1.49
205.0859202515 	 3.38
217.0859202515 	 22.6
220.0968192888 	 2.55
227.0702701873 	 1.61
231.0651848094 	 3.77
232.0689870961 	 1.08
233.0808348736 	 19.03
244.0968192888 	 2.26
245.0808348736 	 38.31
247.0924621924 	 2.05
255.0651848094 	 1
259.1328704441 	 0.9
262.1073839751 	 1.79
270.112469353 	 1.95
272.0917339109 	 3.33
273.0757494957 	 8.67
274.1073839751 	 5.68
287.1277850662 	 0.93
298.1073839751 	 2.94
301.1434351304 	 13.43
304.1179486614 	 5.12
316.1179486614 	 100
329.1383497525 	 2.8
354.1699842319 	 0.96
372.1805489182 	 36.16
385.1757978913 	 0.78
403.1863625776 	 3.54
459.2489628344 	 31.48
END IONS

BEGIN IONS
PEPMASS=473.363
CHARGE=1
MSLEVEL=2
RT=0
SOURCE_INSTRUMENT=qTOF
FILENAME=CCMSLIB00000080503.ms
IONMODE=Positive
ORGANISM=Natural
NAME=MLS000563157-01!
PI=GNPS
DATACOLLECTOR=GNPS
SMILES=CC1(C)CC[C@@]2(CC[C@]3(C)C(=CCC4[C@@]5(C)CC[C@@H](C(C)(C)C5[C@@H](C[C@@]34C)O)O)[C@@H]2C1)C(=O)O
INCHI=InChI=1S/C30H48O4/c1-25(2)12-14-30(24(33)34)15-13-28(6)18(19(30)16-25)8-9-21-27(5)11-10-22(32)26(3,4)23(27)20(31)17-29(21,28)7/h8,19-23,31-32H,9-17H2,1-7H3,(H,33,34)/t19-,20+,21?,22-,23?,27+,28+,29+,30-/m0/s1
FORMULA=C30H48O4
PUBMED=N/A
SUBMITUSER=BIOADREM
LIBRARYQUALITY=0
SPECTRUMID=CCMSLIB00000080503
SCANS=2684
ID=CCMSLIB00000080503
105.0698762568 	 20.51
107.085526321 	 22.03
109.1011763852 	 39.75
119.085526321 	 51.39
121.1011763852 	 28.61
133.1011763852 	 37.22
135.0804409431 	 19.75
135.1168264494 	 44.81
145.1011763852 	 36.96
147.1168264494 	 45.82
149.1324765136 	 33.16
151.1117410715 	 15.44
159.1168264494 	 29.37
161.1324765136 	 25.06
173.1324765136 	 21.01
175.1481265778 	 31.65
177.163776642 	 65.57
187.1481265778 	 20.51
189.163776642 	 79.75
191.1794267062 	 39.49
203.1794267062 	 100
205.1586912641 	 39.24
205.1950767704 	 21.01
207.1743413283 	 39.49
233.1899913925 	 16.71
473.3625360292 	 0
END IONS

BEGIN IONS
PEPMASS=373.1299
CHARGE=1
MSLEVEL=2
RT=0
SOURCE_INSTRUMENT=qTOF
FILENAME=CCMSLIB00000080504.ms
IONMODE=Positive
ORGANISM=Natural
NAME=MLS002667634-01!
PI=GNPS
DATACOLLECTOR=GNPS
SMILES=COc1ccc(cc1)c1cc(=O)c2c(c(c(c(c2o1)OC)OC)OC)OC
INCHI=InChI=1S/C20H20O7/c1-22-12-8-6-11(7-9-12)14-10-13(21)15-16(23-2)18(24-3)20(26-5)19(25-4)17(15)27-14/h6-10H,1-5H3
FORMULA=C20H20O7
PUBMED=N/A
SUBMITUSER=BIOADREM
LIBRARYQUALITY=0
SPECTRUMID=CCMSLIB00000080504
SCANS=2685
ID=CCMSLIB00000080504
99.0440554368 	 1.29
127.0389700589 	 4.78
133.0647908789 	 5.53
135.0440554368 	 8.23
137.0233199947 	 1.81
165.0182346168 	 3.9
168.0053242068 	 6.35
183.0287993031 	 37.34
193.0131492389 	 5.23
201.0546201231 	 2.39
211.0237139252 	 35.08
214.0624451552 	 2.41
216.0780952194 	 1.49
227.0702701873 	 3.3
228.0417097131 	 5.84
229.0495347452 	 9.35
242.0573597773 	 1.94
243.0651848094 	 2.06
244.0730098415 	 3.25
254.0573597773 	 2.44
257.0444493673 	 1.33
269.0808348736 	 4.23
271.0600994315 	 20.32
272.0679244636 	 6.14
282.0522743994 	 7.78
283.0600994315 	 10.04
285.0393639894 	 8.32
297.0757494957 	 23.27
299.0550140536 	 12.5
300.0628390857 	 25.59
312.099224592 	 1.67
315.086314182 	 12.45
325.0706641178 	 16.76
327.0499286757 	 1.53
328.0577537078 	 21.18
343.0812288041 	 100
358.1047039004 	 13.86
373.1281789967 	 12.7
END IONS

BEGIN IONS
PEPMASS=375.1091
CHARGE=1
MSLEVEL=2
RT=0
SOURCE_INSTRUMENT=qTOF
FILENAME=CCMSLIB00000080505.ms
IONMODE=Positive
ORGANISM=Natural
NAME=MLS000863593-01!5-hydroxy-2-(4-hydroxy-3,5-dimethoxyphenyl)-6,7-dimethoxychromen-4-one
PI=GNPS
DATACOLLECTOR=GNPS
SMILES=COc1cc(cc(c1O)OC)c1cc(=O)c2c(cc(c(c2O)OC)OC)o1
INCHI=InChI=1S/C19H18O8/c1-23-13-5-9(6-14(24-2)17(13)21)11-7-10(20)16-12(27-11)8-15(25-3)19(26-4)18(16)22/h5-8,21-22H,1-4H3
FORMULA=C19H18O8
PUBMED=N/A
SUBMITUSER=BIOADREM
LIBRARYQUALITY=0
SPECTRUMID=CCMSLIB00000080505
SCANS=2686
ID=CCMSLIB00000080505
173.059705501 	 2.56
197.059705501 	 2.1
225.0546201231 	 2.27
229.0495347452 	 7.34
241.0495347452 	 4.06
243.0651848094 	 7.39
257.0444493673 	 15.93
269.0444493673 	 4.19
271.0600994315 	 18.73
285.0393639894 	 10.93
297.0393639894 	 3.51
298.0471890215 	 7.93
299.0550140536 	 18.38
301.0342786115 	 2.02
302.0421036436 	 14.84
314.0421036436 	 10.64
314.0784891499 	 11.78
315.0499286757 	 4.71
316.0577537078 	 8.16
317.0655787399 	 8.09
326.0421036436 	 8.89
327.0499286757 	 32.37
329.0655787399 	 14.65
330.0370182657 	 28.88
341.0655787399 	 7.52
344.0526683299 	 14.43
345.060493362 	 19.65
359.0761434262 	 10.02
360.0839684583 	 100
375.1074435546 	 31.58
END IONS

BEGIN IONS
PEPMASS=315.0866
CHARGE=1
MSLEVEL=2
RT=0
SOURCE_INSTRUMENT=qTOF
FILENAME=CCMSLIB00000080506.ms
IONMODE=Positive
ORGANISM=Natural
NAME=MLS001049045-01!5,7-dihydroxy-6-methoxy-2-(4-methoxyphenyl)chromen-4-one
PI=GNPS
DATACOLLECTOR=GNPS
SMILES=COc1ccc(cc1)c1cc(=O)c2c(cc(c(c2O)OC)O)o1
INCHI=InChI=1S/C17H14O6/c1-21-10-5-3-9(4-6-10)13-7-11(18)15-14(23-13)8-12(19)17(22-2)16(15)20/h3-8,19-20H,1-2H3
FORMULA=C17H14O6
PUBMED=N/A
SUBMITUSER=BIOADREM
LIBRARYQUALITY=0
SPECTRUMID=CCMSLIB00000080506
SCANS=2687
ID=CCMSLIB00000080506
99.0076699305 	 5.62
103.0542261926 	 1.21
112.0154949626 	 10.39
117.0334907505 	 0.67
127.0025845526 	 5.37
131.0491408147 	 0.61
133.0647908789 	 7.68
135.0440554368 	 9.99
140.0104095847 	 10.4
154.9974991747 	 1.99
161.059705501 	 1.41
168.0053242068 	 78.52
173.059705501 	 0.46
186.0158888931 	 4.5
197.059705501 	 0.51
198.0675305331 	 0.69
201.0546201231 	 0.84
215.0702701873 	 0.51
216.0780952194 	 0.58
229.0495347452 	 2.2
243.0651848094 	 1.09
257.0444493673 	 12.66
272.0679244636 	 4.15
285.0393639894 	 4.72
299.0550140536 	 2.49
300.0628390857 	 100
315.086314182 	 8.14
END IONS

BEGIN IONS
PEPMASS=396.145
CHARGE=1
MSLEVEL=2
RT=0
SOURCE_INSTRUMENT=qTOF
FILENAME=CCMSLIB00000080507.ms
IONMODE=Positive
ORGANISM=Natural
NAME=MLS001139403-01!(2S)-2-[[2-(4-ethyl-2-oxochromen-7-yl)oxyacetyl]amino]-3-phenylpropanoic acid
PI=GNPS
DATACOLLECTOR=GNPS
SMILES=CCc1cc(=O)oc2cc(ccc12)OCC(=N[C@@H](Cc1ccccc1)C(=O)O)O
INCHI=InChI=1S/C22H21NO6/c1-2-15-11-21(25)29-19-12-16(8-9-17(15)19)28-13-20(24)23-18(22(26)27)10-14-6-4-3-5-7-14/h3-9,11-12,18H,2,10,13H2,1H3,(H,23,24)(H,26,27)/t18-/m0/s1
FORMULA=C22H21NO6
PUBMED=N/A
SUBMITUSER=BIOADREM
LIBRARYQUALITY=0
SPECTRUMID=CCMSLIB00000080507
SCANS=2688
ID=CCMSLIB00000080507
103.0542261926 	 18.22
104.0620512247 	 6.58
105.0698762568 	 31.29
107.0491408147 	 4.36
117.0698762568 	 32.89
120.0807752941 	 49.24
130.0651252299 	 18.49
131.072950262 	 6.93
132.0807752941 	 100
135.0804409431 	 6.13
142.0651252299 	 7.91
147.0804409431 	 8.62
150.0675305331 	 4.8
159.0678648841 	 3.91
173.059705501 	 68.44
175.0753555652 	 18.76
191.072950262 	 33.16
193.0733441925 	 4.71
203.0702701873 	 59.11
293.1257736935 	 9.16
350.1386841035 	 12.44
396.1441634119 	 0
END IONS

BEGIN IONS
PEPMASS=564.2617
CHARGE=1
MSLEVEL=2
RT=0
SOURCE_INSTRUMENT=qTOF
FILENAME=CCMSLIB00000080508.ms
IONMODE=Positive
ORGANISM=Natural
NAME=MLS001140662-01!
PI=GNPS
DATACOLLECTOR=GNPS
SMILES=Cc1ccccc1C1c2c(C[C@H]3C(=O)N(c4ccccc4C(=NCCN4CCOCC4)O)C(=O)N13)c1ccccc1[nH]2
INCHI=InChI=1S/C33H33N5O4/c1-21-8-2-3-9-22(21)30-29-25(23-10-4-6-12-26(23)35-29)20-28-32(40)38(33(41)37(28)30)27-13-7-5-11-24(27)31(39)34-14-15-36-16-18-42-19-17-36/h2-13,28,30,35H,14-20H2,1H3,(H,34,39)/t28-,30?/m0/s1
FORMULA=C33H33N5O4
PUBMED=N/A
SUBMITUSER=BIOADREM
LIBRARYQUALITY=0
SPECTRUMID=CCMSLIB00000080508
SCANS=2689
ID=CCMSLIB00000080508
105.0698762568 	 20.32
144.0807752941 	 2.49
145.0396387609 	 2.21
146.0236543457 	 38.68
184.0631138572 	 5.43
189.0658535114 	 91.07
200.0818379266 	 3.35
217.0886003262 	 3.69
218.0964253583 	 100
219.100227645 	 18.29
222.0913399804 	 46.61
223.0951422671 	 6.63
228.0767525487 	 2.03
232.1120754225 	 37.88
234.1277254867 	 21.25
244.0716671708 	 27.71
244.1120754225 	 30.29
245.1158777092 	 6.45
246.087317235 	 3.38
250.0862546025 	 42.7
251.0900568892 	 9.59
261.138624524 	 5.11
272.1069900446 	 39.09
273.1107923313 	 8.02
274.0822318571 	 3.18
287.1178890819 	 11
299.0815035756 	 2.38
315.112803704 	 2.9
331.140081087 	 7.17
332.1393528055 	 1.93
363.1491892103 	 2.85
373.1335391461 	 3.62
391.1441038324 	 67.65
392.1479061191 	 18.91
406.1550028697 	 5.79
434.1499174918 	 66.74
477.1921166575 	 60.51
564.2605305737 	 10.96
END IONS

BEGIN IONS
PEPMASS=480.2162
CHARGE=1
MSLEVEL=2
RT=0
SOURCE_INSTRUMENT=qTOF
FILENAME=CCMSLIB00000080509.ms
IONMODE=Positive
ORGANISM=Natural
NAME=MLS001142768-01!methyl 1-[1-[(2S)-2-[(4-methylphenyl)sulfonylamino]propanoyl]piperidine-4-carbonyl]piperidine-4-carboxylate
PI=GNPS
DATACOLLECTOR=GNPS
SMILES=Cc1ccc(cc1)S(=O)(=O)N[C@@H](C)C(=O)N1CCC(CC1)C(=O)N1CCC(CC1)C(=O)OC
INCHI=InChI=1S/C23H33N3O6S/c1-16-4-6-20(7-5-16)33(30,31)24-17(2)21(27)25-12-8-18(9-13-25)22(28)26-14-10-19(11-15-26)23(29)32-3/h4-7,17-19,24H,8-15H2,1-3H3/t17-/m0/s1
FORMULA=C23H33N3O6S
PUBMED=N/A
SUBMITUSER=BIOADREM
LIBRARYQUALITY=0
SPECTRUMID=CCMSLIB00000080509
SCANS=2690
ID=CCMSLIB00000080509
110.060039852 	 1.59
110.0964253583 	 2.12
112.0756899162 	 53.6
127.0753555652 	 1.39
138.0913399804 	 2.1
142.0862546025 	 6.58
144.1019046667 	 100
146.1049786719 	 1.61
155.0161261268 	 66.82
170.0811692246 	 2.49
182.0634106704 	 1.54
198.0583252925 	 29.45
237.1597538966 	 4.16
238.0896254209 	 1.41
238.1437694814 	 7.55
253.1546685187 	 2.14
255.1703185829 	 96.87
263.1212599003 	 2.88
281.1495831408 	 7.34
281.1859686471 	 4.22
309.1267392087 	 4.59
325.1996073386 	 1.33
480.2162824975 	 1.97
END IONS

BEGIN IONS
PEPMASS=367.2032
CHARGE=1
MSLEVEL=2
RT=0
SOURCE_INSTRUMENT=qTOF
FILENAME=CCMSLIB00000080510.ms
IONMODE=Positive
ORGANISM=Natural
NAME=MLS000863636-01!
PI=GNPS
DATACOLLECTOR=GNPS
SMILES=C/C=C\1/CN2C3CC1C(CO)(C2Cc1c2ccccc2n(C)c31)C(=O)OC
INCHI=InChI=1S/C22H26N2O3/c1-4-13-11-24-18-10-16(13)22(12-25,21(26)27-3)19(24)9-15-14-7-5-6-8-17(14)23(2)20(15)18/h4-8,16,18-19,25H,9-12H2,1-3H3/b13-4-
FORMULA=C22H26N2O3
PUBMED=N/A
SUBMITUSER=BIOADREM
LIBRARYQUALITY=0
SPECTRUMID=CCMSLIB00000080510
SCANS=2691
ID=CCMSLIB00000080510
106.0651252299 	 3.11
129.0698762568 	 3.31
131.072950262 	 3.16
132.0807752941 	 3.06
134.060039852 	 3.97
136.0756899162 	 2.16
143.072950262 	 2.8
144.0807752941 	 14.03
145.0859202515 	 5.18
146.0964253583 	 3.1
151.0627795062 	 3.7
154.0651252299 	 3.98
155.072950262 	 6.14
156.0807752941 	 3.96
157.0886003262 	 9.07
158.0964253583 	 23.88
160.0756899162 	 2.34
166.0862546025 	 39.97
167.072950262 	 10.08
168.0807752941 	 5.19
169.0886003262 	 6.52
170.0964253583 	 100
171.1015703157 	 26.3
172.1120754225 	 27.19
182.0964253583 	 12.32
184.1120754225 	 10.6
192.1019046667 	 3.35
194.0964253583 	 3.21
206.0964253583 	 2.7
210.1277254867 	 2.18
220.1120754225 	 4.68
221.1172203799 	 3.82
231.1042503904 	 2.63
232.1120754225 	 2.29
236.1406954762 	 4.3
246.1277254867 	 2.8
261.138624524 	 3.15
263.1515945135 	 2.5
277.1699246524 	 2.51
305.1648392745 	 7.9
307.1804893387 	 2.12
335.1754039608 	 2.1
349.191054025 	 2.41
367.2016187113 	 10.92
END IONS

BEGIN IONS
PEPMASS=435.1914
CHARGE=1
MSLEVEL=2
RT=0
SOURCE_INSTRUMENT=qTOF
FILENAME=CCMSLIB00000080511.ms
IONMODE=Positive
ORGANISM=Natural
NAME=MLS001159946-01!
PI=GNPS
DATACOLLECTOR=GNPS
SMILES=Cc1c(C)c(=O)oc2c(C)c(ccc12)OCC(=O)N1C[C@H]2C[C@@H](C1)c1cccc(=O)n1C2
INCHI=InChI=1S/C25H26N2O5/c1-14-15(2)25(30)32-24-16(3)21(8-7-19(14)24)31-13-23(29)26-10-17-9-18(12-26)20-5-4-6-22(28)27(20)11-17/h4-8,17-18H,9-13H2,1-3H3/t17-,18+/m1/s1
FORMULA=C25H26N2O5
PUBMED=N/A
SUBMITUSER=BIOADREM
LIBRARYQUALITY=0
SPECTRUMID=CCMSLIB00000080511
SCANS=2692
ID=CCMSLIB00000080511
104.0494751657 	 0.59
109.0522148199 	 1.75
117.0573001978 	 0.53
118.0651252299 	 1.06
122.060039852 	 2.27
124.0756899162 	 0.66
129.0698762568 	 0.49
130.0624451552 	 0.71
131.085526321 	 1.31
132.0443897878 	 2.06
133.0522148199 	 2.78
134.060039852 	 8.4
142.0651252299 	 0.56
146.060039852 	 27.17
147.0678648841 	 21.27
148.0756899162 	 6.58
149.0709388893 	 2.02
154.0651252299 	 0.49
158.0573597773 	 0.73
159.0764181977 	 4.51
160.0756899162 	 9.77
162.0913399804 	 1.51
163.0991650125 	 0.64
172.0756899162 	 4.64
173.0835149483 	 18.68
174.0886599057 	 3.63
175.0502034472 	 1.46
175.0865889535 	 0.94
176.0831805973 	 2.12
177.086982884 	 0.49
188.0706045383 	 0.95
189.1022390177 	 100
191.0815035756 	 1.56
203.0815035756 	 0.84
203.1178890819 	 1.59
204.0780952194 	 1.72
217.0859202515 	 11.59
219.0889942567 	 0.56
231.112803704 	 2.52
232.1206287361 	 6.79
264.1104579803 	 1.08
417.1808832692 	 0.57
435.1914479555 	 43.13
END IONS

BEGIN IONS
PEPMASS=422.137
CHARGE=1
MSLEVEL=2
RT=0
SOURCE_INSTRUMENT=qTOF
FILENAME=CCMSLIB00000080512.ms
IONMODE=Positive
ORGANISM=Natural
NAME=MLS001140940-01!4-[[2-(6-chloro-4-methyl-2-oxochromen-7-yl)oxypropanoylamino]methyl]cyclohexane-1-carboxylic acid
PI=GNPS
DATACOLLECTOR=GNPS
SMILES=Cc1cc(=O)oc2cc(c(cc12)Cl)OC(C)C(=NC[C@H]1CC[C@@H](CC1)C(=O)O)O
INCHI=InChI=1S/C21H24ClNO6/c1-11-7-19(24)29-17-9-18(16(22)8-15(11)17)28-12(2)20(25)23-10-13-3-5-14(6-4-13)21(26)27/h7-9,12-14H,3-6,10H2,1-2H3,(H,23,25)(H,26,27)/t12?,13-,14-
FORMULA=C21H24ClNO6
PUBMED=N/A
SUBMITUSER=BIOADREM
LIBRARYQUALITY=0
SPECTRUMID=CCMSLIB00000080512
SCANS=2693
ID=CCMSLIB00000080512
95.085526321 	 10.21
103.0542261926 	 1.41
110.0964253583 	 1.16
111.1042503904 	 5.07
112.1120754225 	 4.72
117.0698762568 	 1.28
129.0698762568 	 2.85
131.0491408147 	 1.98
132.0569658468 	 4.37
138.0913399804 	 3.35
138.1277254867 	 8.41
140.1069900446 	 35.06
145.0647908789 	 3.13
147.0440554368 	 1.17
148.0518804689 	 2.78
152.1069900446 	 2.62
153.0465539989 	 1.01
155.0258185568 	 2.08
158.072615911 	 1.93
166.1226401088 	 3.41
167.0258185568 	 1.21
167.1304651409 	 25.98
173.059705501 	 1.93
174.0675305331 	 5.34
181.041468621 	 1.43
184.1332047951 	 9.65
193.041468621 	 1.49
195.0207331789 	 1.42
201.0546201231 	 2.07
202.0624451552 	 2.74
209.0363832431 	 8.23
210.0396983404 	 1.18
211.015647801 	 100
212.0189628983 	 8.36
219.0207331789 	 1.18
237.0312978652 	 63.57
238.0346129625 	 7.11
265.0262124873 	 1.22
282.0527615888 	 4.56
376.1310119098 	 5.64
422.1364912182 	 0
END IONS

BEGIN IONS
PEPMASS=301.119
CHARGE=1
MSLEVEL=2
RT=0
SOURCE_INSTRUMENT=qTOF
FILENAME=CCMSLIB00000080513.ms
IONMODE=Positive
ORGANISM=Natural
NAME=MLS001049004-01!2,3-dihydroxy-N,N'-diphenylbutanediamide
PI=GNPS
DATACOLLECTOR=GNPS
SMILES=c1ccc(cc1)N=C(C(C(C(=Nc1ccccc1)O)O)O)O
INCHI=InChI=1S/C16H16N2O4/c19-13(15(21)17-11-7-3-1-4-8-11)14(20)16(22)18-12-9-5-2-6-10-12/h1-10,13-14,19-20H,(H,17,21)(H,18,22)
FORMULA=C16H16N2O4
PUBMED=N/A
SUBMITUSER=BIOADREM
LIBRARYQUALITY=0
SPECTRUMID=CCMSLIB00000080513
SCANS=2694
ID=CCMSLIB00000080513
105.0334907505 	 5.1
106.0651252299 	 7.15
107.072950262 	 1.28
116.0494751657 	 2.86
120.0443897878 	 100
126.0338251015 	 1.39
132.0443897878 	 1.55
134.060039852 	 25.48
135.0678648841 	 3.44
144.0443897878 	 1.59
150.0549544741 	 1.86
162.0549544741 	 9.9
180.0655191604 	 10.44
301.1182830124 	 0
END IONS

BEGIN IONS
PEPMASS=449.199
CHARGE=1
MSLEVEL=2
RT=0
SOURCE_INSTRUMENT=qTOF
FILENAME=CCMSLIB00000080514.ms
IONMODE=Positive
ORGANISM=Natural
NAME=MLS001142728-01!
PI=GNPS
DATACOLLECTOR=GNPS
SMILES=C[C@@H](C(=NCCc1ccc(cc1)F)O)N1C(=O)[C@]2(C)c3c(CCN2C1=O)c1ccccc1[nH]3
INCHI=InChI=1S/C25H25FN4O3/c1-15(22(31)27-13-11-16-7-9-17(26)10-8-16)30-23(32)25(2)21-19(12-14-29(25)24(30)33)18-5-3-4-6-20(18)28-21/h3-10,15,28H,11-14H2,1-2H3,(H,27,31)/t15-,25-/m0/s1
FORMULA=C25H25FN4O3
PUBMED=N/A
SUBMITUSER=BIOADREM
LIBRARYQUALITY=0
SPECTRUMID=CCMSLIB00000080514
SCANS=2695
ID=CCMSLIB00000080514
103.0865889535 	 1.05
105.0784295704 	 0.54
110.0236543457 	 0.47
144.1308797136 	 12.52
156.1308797136 	 0.51
167.1304651409 	 1.42
168.138290173 	 3.52
170.1539402372 	 0.94
171.1543548099 	 0.89
183.1543548099 	 3.88
184.162179842 	 1.04
185.1700048741 	 16.45
186.1778299062 	 2.14
194.1651736255 	 0.47
196.137027724 	 0.75
211.1605028203 	 15.83
213.1761528845 	 3.17
214.1801549877 	 0.82
237.1887289435 	 0.69
239.1628279018 	 2.28
240.1706529339 	 0.69
449.1983448896 	 0
END IONS

BEGIN IONS
PEPMASS=414.149
CHARGE=1
MSLEVEL=2
RT=0
SOURCE_INSTRUMENT=qTOF
FILENAME=CCMSLIB00000080515.ms
IONMODE=Positive
ORGANISM=Natural
NAME=MLS001076853-01!
PI=GNPS
DATACOLLECTOR=GNPS
SMILES=COc1ccc(cc1OC)C(=NC(=S)N1C[C@H]2C[C@H](C1)c1cccc(=O)n1C2)O
INCHI=InChI=1S/C21H23N3O4S/c1-27-17-7-6-14(9-18(17)28-2)20(26)22-21(29)23-10-13-8-15(12-23)16-4-3-5-19(25)24(16)11-13/h3-7,9,13,15H,8,10-12H2,1-2H3,(H,22,26,29)/t13-,15-/m1/s1
FORMULA=C21H23N3O4S
PUBMED=N/A
SUBMITUSER=BIOADREM
LIBRARYQUALITY=0
SPECTRUMID=CCMSLIB00000080515
SCANS=2696
ID=CCMSLIB00000080515
98.0362304047 	 0.5
105.0334907505 	 0.75
107.0127553084 	 0.41
107.0491408147 	 0.52
109.0284053726 	 0.55
109.0647908789 	 2.38
111.0076699305 	 0.54
121.0284053726 	 1.07
122.0362304047 	 5.53
126.0311450268 	 1.22
130.0651252299 	 0.24
133.0495347452 	 0.52
134.060039852 	 0.27
135.0440554368 	 0.35
137.059705501 	 6.63
139.0025845526 	 0.22
141.0546201231 	 0.38
146.060039852 	 0.56
148.0756899162 	 9.65
154.0260596489 	 0.57
158.060039852 	 0.28
159.0651848094 	 0.38
160.0756899162 	 3.7
162.0913399804 	 0.52
165.0546201231 	 100
172.0756899162 	 0.87
174.0913399804 	 2.51
191.1178890819 	 26.36
234.0760838467 	 1.07
414.1482029323 	 0
END IONS

BEGIN IONS
PEPMASS=315.0873
CHARGE=1
MSLEVEL=2
RT=0
SOURCE_INSTRUMENT=qTOF
FILENAME=CCMSLIB00000080516.ms
IONMODE=Positive
ORGANISM=Natural
NAME=MLS001049144-01!7,8-dihydroxy-5,6-dimethoxy-2-phenylchromen-4-one
PI=GNPS
DATACOLLECTOR=GNPS
SMILES=COc1c2c(=O)cc(c3ccccc3)oc2c(c(c1OC)O)O
INCHI=InChI=1S/C17H14O6/c1-21-16-12-10(18)8-11(9-6-4-3-5-7-9)23-15(12)13(19)14(20)17(16)22-2/h3-8,19-20H,1-2H3
FORMULA=C17H14O6
PUBMED=N/A
SUBMITUSER=BIOADREM
LIBRARYQUALITY=0
SPECTRUMID=CCMSLIB00000080516
SCANS=2697
ID=CCMSLIB00000080516
102.0464011605 	 2.26
103.0542261926 	 6.73
105.0334907505 	 11.3
115.0542261926 	 2.41
124.0154949626 	 3.27
128.0620512247 	 1.78
131.0491408147 	 2.73
139.0542261926 	 1.98
141.0698762568 	 2.3
142.0777012889 	 1.7
152.0104095847 	 10.73
152.0620512247 	 4.29
153.0698762568 	 17.93
154.0777012889 	 11.87
154.9974991747 	 47.71
169.0647908789 	 4.91
170.020974271 	 2.18
170.072615911 	 3.72
180.0053242068 	 7.34
181.0647908789 	 10.39
182.072615911 	 5.58
182.9924137968 	 85.24
197.059705501 	 17.04
198.0158888931 	 2.16
198.0675305331 	 13.58
199.0389700589 	 5.38
209.059705501 	 8.89
210.0675305331 	 40.33
211.0389700589 	 3.15
225.0546201231 	 2.69
253.0495347452 	 2.83
254.0573597773 	 6.43
257.0444493673 	 28.83
271.0600994315 	 2.36
282.0522743994 	 59.29
285.0393639894 	 100
299.0550140536 	 4.12
300.0628390857 	 14.03
315.086314182 	 18.21
END IONS

BEGIN IONS
PEPMASS=375.1074
CHARGE=1
MSLEVEL=2
RT=0
SOURCE_INSTRUMENT=qTOF
FILENAME=CCMSLIB00000080517.ms
IONMODE=Positive
ORGANISM=Natural
NAME=MLS001049065-01!6-hydroxy-2-(3-hydroxy-4-methoxyphenyl)-3,5,7-trimethoxychromen-4-one
PI=GNPS
DATACOLLECTOR=GNPS
SMILES=COc1ccc(cc1O)c1c(c(=O)c2c(cc(c(c2OC)O)OC)o1)OC
INCHI=InChI=1S/C19H18O8/c1-23-11-6-5-9(7-10(11)20)17-19(26-4)16(22)14-12(27-17)8-13(24-2)15(21)18(14)25-3/h5-8,20-21H,1-4H3
FORMULA=C19H18O8
PUBMED=N/A
SUBMITUSER=BIOADREM
LIBRARYQUALITY=0
SPECTRUMID=CCMSLIB00000080517
SCANS=2698
ID=CCMSLIB00000080517
183.0287993031 	 3.77
226.0624451552 	 3.32
229.0495347452 	 3.56
243.0651848094 	 6.42
246.0522743994 	 2.7
254.0573597773 	 3.32
256.0366243352 	 6.62
257.0444493673 	 4.05
258.0522743994 	 3.34
261.0757494957 	 6.18
269.0444493673 	 3.84
270.0522743994 	 4.25
271.0600994315 	 25.02
274.0471890215 	 20.32
283.0600994315 	 7.7
284.0315389573 	 8.58
284.0679244636 	 6.87
285.0393639894 	 5.63
285.0757494957 	 7.95
288.0628390857 	 2.69
289.0706641178 	 10.25
297.0757494957 	 10.47
299.0550140536 	 63.21
301.0706641178 	 3.85
302.0421036436 	 19.46
311.0550140536 	 12.2
312.0264535794 	 6.61
313.0706641178 	 10.44
314.0784891499 	 9.75
317.0655787399 	 100
325.0706641178 	 8.11
327.0499286757 	 8.93
328.0577537078 	 3.81
329.0655787399 	 10.23
331.0812288041 	 4.1
341.0655787399 	 13.33
342.073403772 	 38.4
343.0812288041 	 10.23
344.0526683299 	 7.12
345.060493362 	 46.76
359.0761434262 	 30.49
360.0839684583 	 25.78
375.1074435546 	 42.7
END IONS

BEGIN IONS
PEPMASS=414.203
CHARGE=1
MSLEVEL=2
RT=0
SOURCE_INSTRUMENT=qTOF
FILENAME=CCMSLIB00000080518.ms
IONMODE=Positive
ORGANISM=Natural
NAME=MLS001141335-01!(2R)-1-[6-[(10aS)-1,3-dioxo-10,10a-dihydro-5H-imidazo[1,5-b]isoquinolin-2-yl]hexanoyl]pyrrolidine-2-carboxylic acid
PI=GNPS
DATACOLLECTOR=GNPS
SMILES=C(CCC(=O)N1CCC[C@@H]1C(=O)O)CCN1C(=O)[C@@H]2Cc3ccccc3CN2C1=O
INCHI=InChI=1S/C22H27N3O5/c26-19(23-12-6-9-17(23)21(28)29)10-2-1-5-11-24-20(27)18-13-15-7-3-4-8-16(15)14-25(18)22(24)30/h3-4,7-8,17-18H,1-2,5-6,9-14H2,(H,28,29)/t17-,18+/m1/s1
FORMULA=C22H27N3O5
PUBMED=N/A
SUBMITUSER=BIOADREM
LIBRARYQUALITY=0
SPECTRUMID=CCMSLIB00000080518
SCANS=2699
ID=CCMSLIB00000080518
105.0698762568 	 2.82
115.0542261926 	 4.29
116.0706045383 	 55.56
130.0651252299 	 74.61
131.0702701873 	 9.89
132.0807752941 	 43.16
133.0859202515 	 3.28
144.0807752941 	 10.94
158.060039852 	 25.7
160.0756899162 	 7.26
175.0865889535 	 10.86
176.0679244636 	 4.52
176.0917339109 	 2.94
185.0709388893 	 6.45
187.0865889535 	 93.7
203.0815035756 	 100
204.086648533 	 21.75
215.0815035756 	 6.34
233.0920682619 	 3.59
238.1226401088 	 7.07
271.1441038324 	 22.91
272.1492487898 	 6.18
281.1284537682 	 3.94
299.1390184545 	 24.23
414.2023469928 	 0
END IONS

BEGIN IONS
PEPMASS=259.0975
CHARGE=1
MSLEVEL=2
RT=0
SOURCE_INSTRUMENT=qTOF
FILENAME=CCMSLIB00000080519.ms
IONMODE=Positive
ORGANISM=Natural
NAME=MLS000876794-01!5-methoxy-2,2-dimethylpyrano[3,2-g]chromen-8-one
PI=GNPS
DATACOLLECTOR=GNPS
SMILES=CC1(C)C=Cc2c(cc3c(ccc(=O)o3)c2OC)O1
INCHI=InChI=1S/C15H14O4/c1-15(2)7-6-10-12(19-15)8-11-9(14(10)17-3)4-5-13(16)18-11/h4-8H,1-3H3
FORMULA=C15H14O4
PUBMED=N/A
SUBMITUSER=BIOADREM
LIBRARYQUALITY=0
SPECTRUMID=CCMSLIB00000080519
SCANS=2700
ID=CCMSLIB00000080519
115.0542261926 	 3.68
117.0698762568 	 3.49
119.0491408147 	 0.87
127.0542261926 	 0.91
128.0620512247 	 7
129.0698762568 	 4.96
131.0491408147 	 2.68
131.085526321 	 0.89
141.0698762568 	 1.57
143.085526321 	 2.85
144.0569658468 	 1.31
145.0647908789 	 9.43
147.0440554368 	 4.76
152.0620512247 	 1.41
153.0698762568 	 2.29
156.0569658468 	 0.9
157.0647908789 	 2.02
159.0440554368 	 1.26
159.0804409431 	 2.93
169.0647908789 	 1.36
171.0804409431 	 6.94
173.059705501 	 11.2
175.0389700589 	 1.6
181.0647908789 	 0.85
184.0518804689 	 3.48
185.059705501 	 2.12
187.0389700589 	 1.83
187.0753555652 	 3.33
198.0675305331 	 1.21
199.0753555652 	 4.94
200.046795091 	 2.03
201.0546201231 	 34.23
203.033884681 	 12.57
213.0546201231 	 10.84
215.0702701873 	 4.75
226.0624451552 	 2.61
227.0702701873 	 21.66
229.0495347452 	 100
241.0859202515 	 0.86
243.0651848094 	 15.41
259.0964849378 	 10.09
END IONS

BEGIN IONS
PEPMASS=529.174
CHARGE=1
MSLEVEL=2
RT=0
SOURCE_INSTRUMENT=qTOF
FILENAME=CCMSLIB00000080520.ms
IONMODE=Positive
ORGANISM=Natural
NAME=MLS001140720-01!3-(4-chlorophenyl)-2-[2-[[2-(7-methoxy-4,8-dimethyl-2-oxochromen-3-yl)acetyl]amino]butanoylamino]propanoic acid
PI=GNPS
DATACOLLECTOR=GNPS
SMILES=CCC(C(=NC(Cc1ccc(cc1)Cl)C(=O)O)O)N=C(Cc1c(C)c2ccc(c(C)c2oc1=O)OC)O
INCHI=InChI=1S/C27H29ClN2O7/c1-5-20(25(32)30-21(26(33)34)12-16-6-8-17(28)9-7-16)29-23(31)13-19-14(2)18-10-11-22(36-4)15(3)24(18)37-27(19)35/h6-11,20-21H,5,12-13H2,1-4H3,(H,29,31)(H,30,32)(H,33,34)
FORMULA=C27H29ClN2O7
PUBMED=N/A
SUBMITUSER=BIOADREM
LIBRARYQUALITY=0
SPECTRUMID=CCMSLIB00000080520
SCANS=2701
ID=CCMSLIB00000080520
105.0698762568 	 0.2
128.0620512247 	 0.43
141.0698762568 	 0.26
142.0777012889 	 0.29
146.072615911 	 0.33
154.0413157826 	 0.3
155.0451180693 	 0.2
158.072615911 	 0.71
173.0960910073 	 0.47
174.0675305331 	 0.93
189.0910056294 	 2.43
190.0948079161 	 0.23
202.0584224098 	 0.22
217.0859202515 	 100
218.0897225382 	 21.09
245.0808348736 	 21.68
246.0846371603 	 3.46
529.173605006 	 0
END IONS

BEGIN IONS
PEPMASS=411.2027
CHARGE=1
MSLEVEL=2
RT=0
SOURCE_INSTRUMENT=qTOF
FILENAME=CCMSLIB00000080521.ms
IONMODE=Positive
ORGANISM=Natural
NAME=MLS001142718-01!
PI=GNPS
DATACOLLECTOR=GNPS
SMILES=C[C@@H](C(=NCC1CCCO1)O)N1C(=O)[C@]2(C)c3c(CCN2C1=O)c1ccccc1[nH]3
INCHI=InChI=1S/C22H26N4O4/c1-13(19(27)23-12-14-6-5-11-30-14)26-20(28)22(2)18-16(9-10-25(22)21(26)29)15-7-3-4-8-17(15)24-18/h3-4,7-8,13-14,24H,5-6,9-12H2,1-2H3,(H,23,27)/t13-,14?,22-/m0/s1
FORMULA=C22H26N4O4
PUBMED=N/A
SUBMITUSER=BIOADREM
LIBRARYQUALITY=0
SPECTRUMID=CCMSLIB00000080521
SCANS=2702
ID=CCMSLIB00000080521
116.0494751657 	 0.44
124.0181750373 	 0.37
144.0807752941 	 8.33
156.0807752941 	 0.93
168.0807752941 	 6.25
169.0760242672 	 2.16
170.060039852 	 0.51
183.0916743314 	 4.85
185.1073243956 	 16.85
195.0916743314 	 0.45
196.0756899162 	 0.57
211.0865889535 	 18.58
213.1022390177 	 2.25
239.0815035756 	 2.44
239.1178890819 	 1.42
254.1287881192 	 100
282.1237027413 	 37.77
310.1186173634 	 0.71
411.2026813438 	 0.42
END IONS

BEGIN IONS
PEPMASS=533.222
CHARGE=1
MSLEVEL=2
RT=0
SOURCE_INSTRUMENT=qTOF
FILENAME=CCMSLIB00000080522.ms
IONMODE=Positive
ORGANISM=Natural
NAME=MLS001141315-01!
PI=GNPS
DATACOLLECTOR=GNPS
SMILES=CSCC[C@@H](C(=NCC1CCCO1)O)N=C([C@@H]1Cc2c3ccccc3[nH]c2C2c3ccccc3C(=O)N12)O
INCHI=InChI=1S/C29H32N4O4S/c1-38-14-12-23(27(34)30-16-17-7-6-13-37-17)32-28(35)24-15-21-18-8-4-5-11-22(18)31-25(21)26-19-9-2-3-10-20(19)29(36)33(24)26/h2-5,8-11,17,23-24,26,31H,6-7,12-16H2,1H3,(H,30,34)(H,32,35)/t17?,23-,24-,26?/m0/s1
FORMULA=C29H32N4O4S
PUBMED=N/A
SUBMITUSER=BIOADREM
LIBRARYQUALITY=0
SPECTRUMID=CCMSLIB00000080522
SCANS=2703
ID=CCMSLIB00000080522
170.060039852 	 0.37
218.0964253583 	 0.35
245.1073243956 	 3.45
246.0913399804 	 1.48
247.0951422671 	 0.45
255.0916743314 	 1.65
256.0994993635 	 2.17
257.1033016502 	 0.8
258.1111266823 	 0.21
271.0865889535 	 7
272.0903912402 	 3.25
273.1022390177 	 100
274.1060413044 	 23.46
284.0944139856 	 0.3
285.1022390177 	 3.95
301.0971536398 	 1.1
302.1009559265 	 0.27
311.1178890819 	 0.62
328.1444381834 	 0.54
333.1056098361 	 0.42
356.1393528055 	 3.07
359.1212599003 	 0.24
404.1427236239 	 2.95
533.2217022264 	 0
END IONS

BEGIN IONS
PEPMASS=441.2404
CHARGE=1
MSLEVEL=2
RT=0
SOURCE_INSTRUMENT=qTOF
FILENAME=CCMSLIB00000080523.ms
IONMODE=Positive
ORGANISM=Natural
NAME=MLS001158081-01!N-(3-morpholin-4-ylpropyl)-3-(2,3,5,9-tetramethyl-7-oxofuro[3,2-g]chromen-6-yl)propanamide
PI=GNPS
DATACOLLECTOR=GNPS
SMILES=Cc1c(C)oc2c(C)c3c(cc12)c(C)c(CCC(=NCCCN1CCOCC1)O)c(=O)o3
INCHI=InChI=1S/C25H32N2O5/c1-15-18(4)31-23-17(3)24-21(14-20(15)23)16(2)19(25(29)32-24)6-7-22(28)26-8-5-9-27-10-12-30-13-11-27/h14H,5-13H2,1-4H3,(H,26,28)
FORMULA=C25H32N2O5
PUBMED=N/A
SUBMITUSER=BIOADREM
LIBRARYQUALITY=0
SPECTRUMID=CCMSLIB00000080523
SCANS=2704
ID=CCMSLIB00000080523
100.0756899162 	 1.03
112.0756899162 	 0.32
128.1069900446 	 3.12
143.085526321 	 0.42
156.0933513531 	 0.26
171.0804409431 	 0.29
171.1168264494 	 0.35
183.1168264494 	 0.23
184.0882659752 	 0.6
198.1039160394 	 0.25
199.1117410715 	 1.25
211.1117410715 	 0.67
212.0831805973 	 0.85
226.0988306615 	 0.46
227.1066556936 	 16.29
228.1104579803 	 3.15
241.1223057578 	 0.85
255.1015703157 	 100
256.1053726024 	 33.49
268.1332047951 	 0.31
269.1172203799 	 21.1
296.1281194172 	 17.45
297.112135002 	 43.43
354.1699842319 	 55.67
441.2383981481 	 6.83
END IONS

BEGIN IONS
PEPMASS=442.1057
CHARGE=1
MSLEVEL=2
RT=0
SOURCE_INSTRUMENT=qTOF
FILENAME=CCMSLIB00000080524.ms
IONMODE=Positive
ORGANISM=Natural
NAME=MLS001141249-01!3-(4-chlorophenyl)-2-[[2-[(4-oxo-2,3-dihydro-1H-cyclopenta[c]chromen-7-yl)oxy]acetyl]amino]propanoic acid
PI=GNPS
DATACOLLECTOR=GNPS
SMILES=C1Cc2c3ccc(cc3oc(=O)c2C1)OCC(=NC(Cc1ccc(cc1)Cl)C(=O)O)O
INCHI=InChI=1S/C23H20ClNO6/c24-14-6-4-13(5-7-14)10-19(22(27)28)25-21(26)12-30-15-8-9-17-16-2-1-3-18(16)23(29)31-20(17)11-15/h4-9,11,19H,1-3,10,12H2,(H,25,26)(H,27,28)
FORMULA=C23H20ClNO6
PUBMED=N/A
SUBMITUSER=BIOADREM
LIBRARYQUALITY=0
SPECTRUMID=CCMSLIB00000080524
SCANS=2705
ID=CCMSLIB00000080524
103.0542261926 	 13.47
115.0542261926 	 3.01
116.0620512247 	 2.87
118.0651252299 	 4.99
119.072950262 	 4.58
125.0152538705 	 9.11
127.0542261926 	 3.38
128.0620512247 	 26.35
129.0698762568 	 28.43
130.0651252299 	 38.13
131.072950262 	 33.16
133.0647908789 	 6.78
137.0152538705 	 4.01
139.0309039347 	 23.71
141.0698762568 	 5.32
144.0569658468 	 5.76
145.0647908789 	 3.86
147.0440554368 	 2.9
147.0804409431 	 2.54
151.0309039347 	 5.14
154.041802972 	 31.34
157.0647908789 	 29.54
159.0804409431 	 13.78
166.041802972 	 100
169.041468621 	 2.51
169.0652780683 	 2.58
173.059705501 	 2.7
184.0523676583 	 2.46
185.059705501 	 71.92
187.0758427546 	 46.32
202.0629323446 	 8.04
203.0702701873 	 52.13
215.0707573767 	 86.4
243.0656719988 	 4.77
339.0782480578 	 3.42
396.0997117814 	 6.85
442.1051910898 	 0.32
END IONS

BEGIN IONS
PEPMASS=414.228
CHARGE=1
MSLEVEL=2
RT=0
SOURCE_INSTRUMENT=qTOF
FILENAME=CCMSLIB00000080525.ms
IONMODE=Positive
ORGANISM=Natural
NAME=MLS001142409-01!7-[1-[(4aS,8aS)-4a-hydroxy-1,3,4,5,6,7,8,8a-octahydroisoquinolin-2-yl]-1-oxopropan-2-yl]oxy-3,4,8-trimethylchromen-2-one
PI=GNPS
DATACOLLECTOR=GNPS
SMILES=Cc1c(C)c(=O)oc2c(C)c(ccc12)OC(C)C(=O)N1CC[C@]2(CCCC[C@H]2C1)O
INCHI=InChI=1S/C24H31NO5/c1-14-15(2)23(27)30-21-16(3)20(9-8-19(14)21)29-17(4)22(26)25-12-11-24(28)10-6-5-7-18(24)13-25/h8-9,17-18,28H,5-7,10-13H2,1-4H3/t17?,18-,24-/m0/s1
FORMULA=C24H31NO5
PUBMED=N/A
SUBMITUSER=BIOADREM
LIBRARYQUALITY=0
SPECTRUMID=CCMSLIB00000080525
SCANS=2706
ID=CCMSLIB00000080525
95.072950262 	 1.39
105.0698762568 	 2.06
108.0807752941 	 14.17
115.0542261926 	 1.3
116.0620512247 	 2.19
117.0698762568 	 1.66
119.085526321 	 3.77
120.0933513531 	 3.66
121.1011763852 	 6.12
122.0964253583 	 14.98
129.0698762568 	 2.25
131.085526321 	 6.63
134.0964253583 	 1.65
136.1120754225 	 42.29
137.1199004546 	 74.86
138.1277254867 	 100
147.1168264494 	 2.62
150.1277254867 	 5.3
154.1226401088 	 14.66
159.0804409431 	 19.65
161.0960910073 	 2.39
164.1069900446 	 5.1
164.1433755509 	 23.89
165.151200583 	 14.97
175.0753555652 	 4.35
178.1226401088 	 7.14
185.0960910073 	 2.06
192.138290173 	 8.47
193.1461152051 	 70.09
203.0702701873 	 8.19
203.1066556936 	 9.97
205.0859202515 	 8.82
210.1488548593 	 1.68
231.1015703157 	 50.1
414.2274991108 	 0
END IONS

BEGIN IONS
PEPMASS=361.0921
CHARGE=1
MSLEVEL=2
RT=0
SOURCE_INSTRUMENT=qTOF
FILENAME=CCMSLIB00000080526.ms
IONMODE=Positive
ORGANISM=Natural
NAME=MLS000876977-01!5,8-dihydroxy-2-(4-hydroxy-3-methoxyphenyl)-6,7-dimethoxychromen-4-one
PI=GNPS
DATACOLLECTOR=GNPS
SMILES=COc1cc(ccc1O)c1cc(=O)c2c(c(c(c(c2o1)O)OC)OC)O
INCHI=InChI=1S/C18H16O8/c1-23-12-6-8(4-5-9(12)19)11-7-10(20)13-14(21)17(24-2)18(25-3)15(22)16(13)26-11/h4-7,19,21-22H,1-3H3
FORMULA=C18H16O8
PUBMED=N/A
SUBMITUSER=BIOADREM
LIBRARYQUALITY=0
SPECTRUMID=CCMSLIB00000080526
SCANS=2707
ID=CCMSLIB00000080526
96.0205803405 	 5.1
133.0284053726 	 5.88
134.0362304047 	 7.29
139.0025845526 	 5.22
149.059705501 	 21.75
152.0104095847 	 11.18
154.9974991747 	 27.01
156.0053242068 	 4.97
157.0647908789 	 5.63
159.0440554368 	 3.81
182.9924137968 	 58.45
184.0002388289 	 4.14
185.059705501 	 14.04
201.0029784831 	 7.42
201.0546201231 	 4.89
216.0780952194 	 4.06
229.0495347452 	 5.59
244.0366243352 	 5.14
244.0730098415 	 6.88
245.0444493673 	 4.35
255.0651848094 	 4.85
256.0730098415 	 26.72
272.0679244636 	 4.35
285.0393639894 	 8.53
288.0264535794 	 5.68
300.0628390857 	 7.71
303.0499286757 	 25.31
304.0577537078 	 6.71
313.0342786115 	 11.31
317.0291932336 	 6.26
318.073403772 	 4.02
328.0577537078 	 49.46
329.0655787399 	 8.41
331.0448432978 	 100
332.0526683299 	 11.64
345.060493362 	 4.1
346.0683183941 	 31.57
347.0761434262 	 10.73
361.0917934904 	 33.1
END IONS

BEGIN IONS
PEPMASS=263.128
CHARGE=1
MSLEVEL=2
RT=0
SOURCE_INSTRUMENT=qTOF
FILENAME=CCMSLIB00000080527.ms
IONMODE=Positive
ORGANISM=Natural
NAME=MLS002694604-01!
PI=GNPS
DATACOLLECTOR=GNPS
SMILES=CC1CCC2C(=C)C(=O)OC2C2(C)C(=O)C=CC12O
INCHI=InChI=1S/C15H18O4/c1-8-4-5-10-9(2)13(17)19-12(10)14(3)11(16)6-7-15(8,14)18/h6-8,10,12,18H,2,4-5H2,1,3H3
FORMULA=C15H18O4
PUBMED=N/A
SUBMITUSER=BIOADREM
LIBRARYQUALITY=0
SPECTRUMID=CCMSLIB00000080527
SCANS=2708
ID=CCMSLIB00000080527
105.0698762568 	 17.42
107.0491408147 	 13.12
116.0620512247 	 13.66
127.0542261926 	 7.85
128.0620512247 	 45.48
129.0698762568 	 22.37
130.0777012889 	 20.32
131.085526321 	 31.83
141.0698762568 	 52.58
142.0777012889 	 41.61
143.085526321 	 35.27
144.0569658468 	 7.63
145.0647908789 	 19.25
145.1011763852 	 12.26
147.0804409431 	 9.03
149.0960910073 	 17.85
153.0698762568 	 23.87
154.0777012889 	 9.25
155.085526321 	 16.99
156.0933513531 	 33.66
157.0647908789 	 11.72
158.072615911 	 19.14
160.0882659752 	 10.65
165.0698762568 	 100
166.0777012889 	 94.73
169.0647908789 	 23.55
171.0804409431 	 19.25
173.0960910073 	 14.09
181.1011763852 	 30.97
183.0804409431 	 9.14
185.0960910073 	 18.82
199.1117410715 	 20.97
200.1195661036 	 9.57
263.1277850662 	 0
END IONS

BEGIN IONS
PEPMASS=327.123
CHARGE=1
MSLEVEL=2
RT=0
SOURCE_INSTRUMENT=qTOF
FILENAME=CCMSLIB00000080528.ms
IONMODE=Positive
ORGANISM=Natural
NAME=MLS000863578-01!7-[(E)-3-methyl-4-(4-methyl-5-oxo-2H-furan-2-yl)but-2-enoxy]chromen-2-one
PI=GNPS
DATACOLLECTOR=GNPS
SMILES=C/C(=C\COc1ccc2ccc(=O)oc2c1)/CC1C=C(C)C(=O)O1
INCHI=InChI=1S/C19H18O5/c1-12(9-16-10-13(2)19(21)23-16)7-8-22-15-5-3-14-4-6-18(20)24-17(14)11-15/h3-7,10-11,16H,8-9H2,1-2H3/b12-7+
FORMULA=C19H18O5
PUBMED=N/A
SUBMITUSER=BIOADREM
LIBRARYQUALITY=0
SPECTRUMID=CCMSLIB00000080528
SCANS=2709
ID=CCMSLIB00000080528
97.0284053726 	 6.5
104.0620512247 	 5.31
106.0777012889 	 3.45
107.0491408147 	 20.04
108.0569658468 	 3.85
109.1011763852 	 10.95
117.0698762568 	 5.11
119.0491408147 	 13.67
119.085526321 	 13.07
121.0284053726 	 3.65
129.0698762568 	 7.43
132.0569658468 	 2.65
147.0804409431 	 9.82
163.0389700589 	 100
165.0910056294 	 2.52
175.0389700589 	 7.43
327.1226996883 	 0
END IONS

BEGIN IONS
PEPMASS=501.249
CHARGE=1
MSLEVEL=2
RT=0
SOURCE_INSTRUMENT=qTOF
FILENAME=CCMSLIB00000080529.ms
IONMODE=Positive
ORGANISM=Natural
NAME=MLS000863654-01!
PI=GNPS
DATACOLLECTOR=GNPS
SMILES=CC1=CC2[C@@](C)(CC3C4C(C)(C)[C@@H](CC[C@]24C(=O)O3)OC(=O)C)[C@]2(C(=C(C)C(=O)[C@@]12C)O)C(=O)OC
INCHI=InChI=1S/C28H36O8/c1-13-11-17-25(6,28(23(33)34-8)21(31)14(2)20(30)26(13,28)7)12-16-19-24(4,5)18(35-15(3)29)9-10-27(17,19)22(32)36-16/h11,16-19,31H,9-10,12H2,1-8H3/t16?,17?,18-,19?,25-,26-,27+,28+/m1/s1
FORMULA=C28H36O8
PUBMED=N/A
SUBMITUSER=BIOADREM
LIBRARYQUALITY=0
SPECTRUMID=CCMSLIB00000080529
SCANS=2710
ID=CCMSLIB00000080529
119.085526321 	 46.47
131.085526321 	 40.8
133.1011763852 	 21.32
143.085526321 	 29.48
145.1011763852 	 38.73
155.085526321 	 19.49
157.1011763852 	 40.44
159.1168264494 	 43.24
161.1324765136 	 24.06
163.0753555652 	 38.73
165.0910056294 	 19.49
169.1011763852 	 19.49
170.1090014173 	 25.82
171.1168264494 	 66.75
173.0960910073 	 21.13
173.1324765136 	 44.7
175.0753555652 	 24.85
177.0910056294 	 38.79
181.1011763852 	 25.94
183.1168264494 	 62.97
185.1324765136 	 35.51
187.1117410715 	 23.87
187.1481265778 	 31.36
189.1273911357 	 30.09
196.1246514815 	 40.13
197.1324765136 	 32.22
199.1117410715 	 22.11
201.1273911357 	 19.49
203.1066556936 	 56.76
205.1223057578 	 26.13
209.1324765136 	 32.34
211.1117410715 	 19.55
211.1481265778 	 100
213.163776642 	 37.52
217.1223057578 	 57.92
221.1324765136 	 41.66
239.1430411999 	 38.61
261.163776642 	 24.91
279.1743413283 	 40.19
307.1692559504 	 30.33
325.1798206367 	 20.65
335.2005560788 	 47.32
337.216206143 	 22.72
345.1849060146 	 28.87
353.2111207651 	 21.38
363.1954707009 	 62.61
365.2111207651 	 27.47
373.1798206367 	 21.13
381.2060353872 	 30.02
391.190385323 	 45.13
409.2009500093 	 22.66
501.2482941324 	 0
END IONS

BEGIN IONS
PEPMASS=387.1339
CHARGE=1
MSLEVEL=2
RT=0
SOURCE_INSTRUMENT=qTOF
FILENAME=CCMSLIB00000080530.ms
IONMODE=Positive
ORGANISM=Natural
NAME=MLS001140579-01!2-(2-oxo-4-phenylchromen-7-yl)oxy-N-(pyridin-2-ylmethyl)acetamide
PI=GNPS
DATACOLLECTOR=GNPS
SMILES=c1ccc(cc1)c1cc(=O)oc2cc(ccc12)OCC(=NCc1ccccn1)O
INCHI=InChI=1S/C23H18N2O4/c26-22(25-14-17-8-4-5-11-24-17)15-28-18-9-10-19-20(16-6-2-1-3-7-16)13-23(27)29-21(19)12-18/h1-13H,14-15H2,(H,25,26)
FORMULA=C23H18N2O4
PUBMED=N/A
SUBMITUSER=BIOADREM
LIBRARYQUALITY=0
SPECTRUMID=CCMSLIB00000080530
SCANS=2711
ID=CCMSLIB00000080530
105.0447241388 	 2.51
107.060374203 	 100
109.0760242672 	 13.94
119.0365647557 	 34.47
121.0760242672 	 36.08
131.060374203 	 17.45
132.0681992351 	 37.1
149.0709388893 	 53.56
150.0787639214 	 24.36
152.0620512247 	 2.21
153.0698762568 	 1.51
165.0698762568 	 62.95
166.0736785435 	 10.75
167.085526321 	 7.28
177.0698762568 	 1.49
181.0647908789 	 3.55
193.0647908789 	 16.25
194.0685931656 	 3
195.0804409431 	 4.88
197.059705501 	 3.63
209.059705501 	 1.99
221.059705501 	 19.25
222.0635077877 	 2.98
223.0753555652 	 11.01
239.0702701873 	 10.49
244.1120754225 	 2.6
251.0702701873 	 25.87
256.1120754225 	 1.36
272.1069900446 	 2.97
273.1148150767 	 1.76
284.1069900446 	 5.91
301.1097296988 	 1.6
312.1019046667 	 11.11
329.1046443209 	 19.53
369.1233683903 	 13.25
387.1339330766 	 29.89
END IONS

BEGIN IONS
PEPMASS=187.0403
CHARGE=1
MSLEVEL=2
RT=0
SOURCE_INSTRUMENT=qTOF
FILENAME=CCMSLIB00000080531.ms
IONMODE=Positive
ORGANISM=Natural
NAME=MLS001304059-01!
PI=GNPS
DATACOLLECTOR=GNPS
SMILES=c1cc(=O)oc2cc3c(cco3)cc12
INCHI=InChI=1S/C11H6O3/c12-11-2-1-7-5-8-3-4-13-9(8)6-10(7)14-11/h1-6H
FORMULA=C11H6O3
PUBMED=N/A
SUBMITUSER=BIOADREM
LIBRARYQUALITY=0
SPECTRUMID=CCMSLIB00000080531
SCANS=2712
ID=CCMSLIB00000080531
103.0542261926 	 9.13
115.0542261926 	 57.61
131.0491408147 	 100
143.0491408147 	 8.2
187.0389700589 	 19.91
END IONS

BEGIN IONS
PEPMASS=467.2653
CHARGE=1
MSLEVEL=2
RT=0
SOURCE_INSTRUMENT=qTOF
FILENAME=CCMSLIB00000080532.ms
IONMODE=Positive
ORGANISM=Natural
NAME=MLS001141013-01!1-[(2S)-2-amino-3-phenylpropanoyl]-N-[(2S)-1-[(4-methoxyphenyl)methylamino]-1-oxopropan-2-yl]piperidine-4-carboxamide
PI=GNPS
DATACOLLECTOR=GNPS
SMILES=C[C@@H](C(=NCc1ccc(cc1)OC)O)N=C(C1CCN(CC1)C(=O)[C@H](Cc1ccccc1)N)O
INCHI=InChI=1S/C26H34N4O4/c1-18(24(31)28-17-20-8-10-22(34-2)11-9-20)29-25(32)21-12-14-30(15-13-21)26(33)23(27)16-19-6-4-3-5-7-19/h3-11,18,21,23H,12-17,27H2,1-2H3,(H,28,31)(H,29,32)/t18-,23-/m0/s1
FORMULA=C26H34N4O4
PUBMED=N/A
SUBMITUSER=BIOADREM
LIBRARYQUALITY=0
SPECTRUMID=CCMSLIB00000080532
SCANS=2713
ID=CCMSLIB00000080532
97.0522148199 	 0.26
103.0542261926 	 4.31
105.0334907505 	 0.31
112.0756899162 	 42.52
120.0807752941 	 44.28
121.0647908789 	 100
148.1120754225 	 0.41
183.112803704 	 8.82
209.1284537682 	 3.76
302.1903257435 	 2.45
320.2008904298 	 10.53
330.1812176202 	 2.12
467.2652816006 	 0.77
END IONS

BEGIN IONS
PEPMASS=545.334
CHARGE=1
MSLEVEL=2
RT=0
SOURCE_INSTRUMENT=qTOF
FILENAME=CCMSLIB00000080533.ms
IONMODE=Positive
ORGANISM=Natural
NAME=MLS001141014-01!tert-butyl (2S)-2-[4-[[(2S)-1-[(4-methoxyphenyl)methylamino]-3-methyl-1-oxobutan-2-yl]carbamoyl]piperidine-1-carbonyl]pyrrolidine-1-carboxylate
PI=GNPS
DATACOLLECTOR=GNPS
SMILES=CC(C)[C@@H](C(=NCc1ccc(cc1)OC)O)N=C(C1CCN(CC1)C(=O)[C@@H]1CCCN1C(=O)OC(C)(C)C)O
INCHI=InChI=1S/C29H44N4O6/c1-19(2)24(26(35)30-18-20-9-11-22(38-6)12-10-20)31-25(34)21-13-16-32(17-14-21)27(36)23-8-7-15-33(23)28(37)39-29(3,4)5/h9-12,19,21,23-24H,7-8,13-18H2,1-6H3,(H,30,35)(H,31,34)/t23-,24-/m0/s1
FORMULA=C29H44N4O6
PUBMED=N/A
SUBMITUSER=BIOADREM
LIBRARYQUALITY=0
SPECTRUMID=CCMSLIB00000080533
SCANS=2714
ID=CCMSLIB00000080533
106.0413157826 	 0.55
112.0756899162 	 71.47
121.0647908789 	 100
127.0865889535 	 0.6
129.1022390177 	 0.57
181.1335391461 	 0.7
183.1491892103 	 25.44
208.1457808541 	 1.29
209.1284537682 	 1.32
211.1441038324 	 37.75
226.1563455404 	 1.06
235.1441038324 	 0.42
237.1597538966 	 14
262.1927310467 	 0.41
280.203295733 	 13.18
306.1812176202 	 0.44
308.1982103551 	 10.11
348.2295104835 	 70.04
445.2809316648 	 51.75
545.3333611658 	 0
END IONS

BEGIN IONS
PEPMASS=274.144
CHARGE=1
MSLEVEL=2
RT=0
SOURCE_INSTRUMENT=qTOF
FILENAME=CCMSLIB00000080534.ms
IONMODE=Positive
ORGANISM=Natural
NAME=MLS000728636-01!
PI=GNPS
DATACOLLECTOR=GNPS
SMILES=C[C@@]12C3=CC(CC1Oc1c(ccc(CN(C)C3)c21)O)O
INCHI=InChI=1S/C16H19NO3/c1-16-10-5-11(18)6-13(16)20-15-12(19)4-3-9(14(15)16)7-17(2)8-10/h3-5,11,13,18-19H,6-8H2,1-2H3/t11?,13?,16-/m1/s1
FORMULA=C16H19NO3
PUBMED=N/A
SUBMITUSER=BIOADREM
LIBRARYQUALITY=0
SPECTRUMID=CCMSLIB00000080534
SCANS=2715
ID=CCMSLIB00000080534
128.0620512247 	 10.71
143.085526321 	 6.72
147.0804409431 	 6.17
148.0518804689 	 4.54
152.0620512247 	 8.98
156.0569658468 	 5.17
165.0910056294 	 5.35
178.0777012889 	 6.62
181.1011763852 	 5.9
182.072615911 	 12.07
184.0518804689 	 78.95
185.059705501 	 12.79
194.072615911 	 7.08
197.0960910073 	 13.79
199.0753555652 	 100
200.0831805973 	 17.42
209.0960910073 	 12.7
241.1223057578 	 4.72
274.1437694814 	 0
END IONS

BEGIN IONS
PEPMASS=578.199
CHARGE=1
MSLEVEL=2
RT=0
SOURCE_INSTRUMENT=qTOF
FILENAME=CCMSLIB00000080535.ms
IONMODE=Positive
ORGANISM=Natural
NAME=MLS001142709-01!(2S)-3-(4-hydroxyphenyl)-2-[[1-[(2S)-2-[(4-methylphenyl)sulfonylamino]-4-methylsulfanylbutanoyl]piperidine-4-carbonyl]amino]propanoic acid
PI=GNPS
DATACOLLECTOR=GNPS
SMILES=Cc1ccc(cc1)S(=O)(=O)N[C@@H](CCSC)C(=O)N1CCC(CC1)C(=N[C@@H](Cc1ccc(cc1)O)C(=O)O)O
INCHI=InChI=1S/C27H35N3O7S2/c1-18-3-9-22(10-4-18)39(36,37)29-23(13-16-38-2)26(33)30-14-11-20(12-15-30)25(32)28-24(27(34)35)17-19-5-7-21(31)8-6-19/h3-10,20,23-24,29,31H,11-17H2,1-2H3,(H,28,32)(H,34,35)/t23-,24-/m0/s1
FORMULA=C27H35N3O7S2
PUBMED=N/A
SUBMITUSER=BIOADREM
LIBRARYQUALITY=0
SPECTRUMID=CCMSLIB00000080535
SCANS=2716
ID=CCMSLIB00000080535
111.0916743314 	 4.18
112.0756899162 	 100
119.0525116331 	 4.59
130.0862546025 	 8.44
136.0756899162 	 12.61
155.0161261268 	 51.71
165.1022390177 	 13.12
182.0872201177 	 6.43
210.0583252925 	 24.23
211.1077183261 	 5.6
245.1410298272 	 4.93
247.1441038324 	 15.37
258.0616961109 	 87.47
260.0562168025 	 8.44
284.1552996829 	 4.59
291.137955822 	 20.13
292.1332047951 	 6.77
293.1495831408 	 52.21
315.1788718965 	 5.01
321.1359444493 	 6.85
329.1733925881 	 5.76
330.1812176202 	 4.93
349.1308590714 	 10.69
367.1348985918 	 6.35
374.1744176828 	 11.36
375.1788718965 	 17.63
410.109040234 	 4.26
484.190067747 	 9.11
485.1866593908 	 4.68
530.1955470554 	 48.2
531.1981895923 	 25.48
532.1934385654 	 11.28
578.1989178738 	 0
END IONS

BEGIN IONS
PEPMASS=589.212
CHARGE=1
MSLEVEL=2
RT=0
SOURCE_INSTRUMENT=qTOF
FILENAME=CCMSLIB00000080536.ms
IONMODE=Positive
ORGANISM=Natural
NAME=MLS001140679-01!(2S)-2-[[(2S)-2-[[(2S)-2-(2,4-dioxo-1H-quinazolin-3-yl)-3-phenylpropanoyl]amino]-4-methylsulfanylbutanoyl]amino]-3-phenylpropanoic acid
PI=GNPS
DATACOLLECTOR=GNPS
SMILES=CSCC[C@@H](C(=N[C@@H](Cc1ccccc1)C(=O)O)O)N=C([C@H](Cc1ccccc1)n1c(=O)c2ccccc2nc1O)O
INCHI=InChI=1S/C31H32N4O6S/c1-42-17-16-24(27(36)33-25(30(39)40)18-20-10-4-2-5-11-20)32-28(37)26(19-21-12-6-3-7-13-21)35-29(38)22-14-8-9-15-23(22)34-31(35)41/h2-15,24-26H,16-19H2,1H3,(H,32,37)(H,33,36)(H,34,41)(H,39,40)/t24-,25-,26-/m0/s1
FORMULA=C31H32N4O6S
PUBMED=N/A
SUBMITUSER=BIOADREM
LIBRARYQUALITY=0
SPECTRUMID=CCMSLIB00000080536
SCANS=2717
ID=CCMSLIB00000080536
103.0542261926 	 3.58
106.0498690962 	 0.33
120.0443897878 	 0.6
120.0780952194 	 1.69
131.0491408147 	 0.27
145.0396387609 	 0.4
146.0236543457 	 13.79
148.0267283509 	 0.29
163.0502034472 	 7.04
187.0502034472 	 0.36
194.097116102 	 0.25
204.0767525487 	 0.28
222.0920307241 	 0.65
223.0951422671 	 0.36
237.1029297614 	 0.23
247.0872796972 	 1.12
248.0903912402 	 0.39
265.0978443835 	 100
266.1009559265 	 19.58
275.0821943193 	 1.4
293.0927590056 	 13.3
294.0958705486 	 3.59
589.2115314706 	 0
END IONS

BEGIN IONS
PEPMASS=303.0511
CHARGE=1
MSLEVEL=2
RT=0
SOURCE_INSTRUMENT=qTOF
FILENAME=CCMSLIB00000080537.ms
IONMODE=Positive
ORGANISM=Natural
NAME=MLS000736839-01!5,6,7,8-tetrahydroxy-2-(4-hydroxyphenyl)chromen-4-one
PI=GNPS
DATACOLLECTOR=GNPS
SMILES=c1cc(ccc1c1cc(=O)c2c(c(c(c(c2o1)O)O)O)O)O
INCHI=InChI=1S/C15H10O7/c16-7-3-1-6(2-4-7)9-5-8(17)10-11(18)12(19)13(20)14(21)15(10)22-9/h1-5,16,18-21H
FORMULA=C15H10O7
PUBMED=N/A
SUBMITUSER=BIOADREM
LIBRARYQUALITY=0
SPECTRUMID=CCMSLIB00000080537
SCANS=2718
ID=CCMSLIB00000080537
103.0542261926 	 12.13
111.0076699305 	 11.59
119.0491408147 	 17.25
121.0284053726 	 10.78
139.0025845526 	 23.72
155.0491408147 	 14.82
171.0440554368 	 16.44
185.008063861 	 100
303.0499286757 	 132.61
END IONS

BEGIN IONS
PEPMASS=353.102
CHARGE=1
MSLEVEL=2
RT=0
SOURCE_INSTRUMENT=qTOF
FILENAME=CCMSLIB00000080538.ms
IONMODE=Positive
ORGANISM=Natural
NAME=MLS000697602-01!
PI=GNPS
DATACOLLECTOR=GNPS
SMILES=CC1(C)C=Cc2cc(cc(c2O1)O)c1coc2cc(cc(c2c1=O)O)O
INCHI=InChI=1S/C20H16O6/c1-20(2)4-3-10-5-11(6-15(23)19(10)26-20)13-9-25-16-8-12(21)7-14(22)17(16)18(13)24/h3-9,21-23H,1-2H3
FORMULA=C20H16O6
PUBMED=N/A
SUBMITUSER=BIOADREM
LIBRARYQUALITY=0
SPECTRUMID=CCMSLIB00000080538
SCANS=2719
ID=CCMSLIB00000080538
121.0284053726 	 4.68
130.0777012889 	 3.52
149.0233199947 	 3.63
153.0182346168 	 100
153.0698762568 	 17.33
155.085526321 	 5.84
181.0647908789 	 8.63
184.0518804689 	 5.18
187.0753555652 	 6.06
203.033884681 	 4.24
209.059705501 	 5.73
227.0702701873 	 7.76
229.0495347452 	 4.75
237.0546201231 	 4.17
243.0651848094 	 8.63
255.0651848094 	 11.28
264.0780952194 	 3.99
266.0573597773 	 6.02
267.0651848094 	 4.82
270.0522743994 	 4.68
279.1015703157 	 7.61
283.0600994315 	 8.45
289.0859202515 	 4.06
291.0651848094 	 4.75
298.0471890215 	 5
303.0651848094 	 4.57
307.0964849378 	 15.59
309.0757494957 	 3.48
311.0550140536 	 20.27
317.0808348736 	 8.7
319.0600994315 	 8.23
320.0679244636 	 4.42
335.0913995599 	 23.53
337.0706641178 	 3.59
338.0784891499 	 5.73
353.1019642462 	 26.5
END IONS

BEGIN IONS
PEPMASS=547.219
CHARGE=1
MSLEVEL=2
RT=0
SOURCE_INSTRUMENT=qTOF
FILENAME=CCMSLIB00000080539.ms
IONMODE=Positive
ORGANISM=Natural
NAME=MLS000863642-01![1-[3-(3-hydroxy-2,2-dimethyl-1,2'-dioxospiro[3aH-imidazo[1,2-a]indole-4,5'-oxolane]-3'-yl)-4-oxoquinazolin-2-yl]-2-methylpropyl] acetate
PI=GNPS
DATACOLLECTOR=GNPS
SMILES=CC(C)C(c1nc2ccccc2c(=O)n1C1CC2(c3ccccc3N3C2N(C(C)(C)C3=O)O)OC1=O)OC(=O)C
INCHI=InChI=1S/C29H30N4O7/c1-15(2)22(39-16(3)34)23-30-19-12-8-6-10-17(19)24(35)31(23)21-14-29(40-25(21)36)18-11-7-9-13-20(18)32-26(29)33(38)28(4,5)27(32)37/h6-13,15,21-22,26,38H,14H2,1-5H3
FORMULA=C29H30N4O7
PUBMED=N/A
SUBMITUSER=BIOADREM
LIBRARYQUALITY=0
SPECTRUMID=CCMSLIB00000080539
SCANS=2720
ID=CCMSLIB00000080539
128.0620512247 	 2.14
129.0698762568 	 18.82
130.0651252299 	 4.17
144.0807752941 	 3.89
154.0651252299 	 2.59
156.0807752941 	 48.93
158.060039852 	 2.17
168.0807752941 	 6.6
170.0838492993 	 4.15
171.0916743314 	 1.72
180.0807752941 	 1.85
182.0838492993 	 12.52
183.0916743314 	 12.64
184.0631138572 	 2.04
184.0968192888 	 2.04
185.1073243956 	 79.42
195.0916743314 	 5.82
196.0994993635 	 5.87
197.1073243956 	 100
198.112469353 	 13.81
199.0865889535 	 2.15
199.1202943851 	 3.08
200.0917339109 	 3.59
201.1022390177 	 24.47
209.1046443209 	 2.13
210.0787639214 	 3.05
211.0839088788 	 2.3
213.1022390177 	 64.35
223.0865889535 	 3.65
224.0944139856 	 6.52
225.1022390177 	 27.56
226.1073839751 	 5.68
227.1152090072 	 4.66
241.0971536398 	 10.69
242.1049786719 	 4.8
243.1101236293 	 2.18
252.0893286077 	 4.72
253.0944735651 	 1.98
259.1077183261 	 3.06
270.099893294 	 14.34
271.1050382514 	 4.42
379.1890426523 	 2.36
451.1737865186 	 1.68
547.2187253385 	 0
END IONS

BEGIN IONS
PEPMASS=464.207
CHARGE=1
MSLEVEL=2
RT=0
SOURCE_INSTRUMENT=qTOF
FILENAME=CCMSLIB00000080540.ms
IONMODE=Positive
ORGANISM=Natural
NAME=MLS001157806-01!4-[[2-(8-methyl-2-oxo-4-phenylchromen-7-yl)oxypropanoylamino]methyl]cyclohexane-1-carboxylic acid
PI=GNPS
DATACOLLECTOR=GNPS
SMILES=Cc1c(ccc2c(cc(=O)oc12)c1ccccc1)OC(C)C(=NC[C@H]1CC[C@@H](CC1)C(=O)O)O
INCHI=InChI=1S/C27H29NO6/c1-16-23(33-17(2)26(30)28-15-18-8-10-20(11-9-18)27(31)32)13-12-21-22(14-24(29)34-25(16)21)19-6-4-3-5-7-19/h3-7,12-14,17-18,20H,8-11,15H2,1-2H3,(H,28,30)(H,31,32)/t17?,18-,20-
FORMULA=C27H29NO6
PUBMED=N/A
SUBMITUSER=BIOADREM
LIBRARYQUALITY=0
SPECTRUMID=CCMSLIB00000080540
SCANS=2721
ID=CCMSLIB00000080540
194.1903257435 	 6.3
224.2008904298 	 3.16
233.1899913925 	 1.83
251.1641705725 	 3.34
251.2005560788 	 4.6
252.2083811109 	 1.91
253.1798206367 	 100
254.1876456688 	 19.59
307.2141947703 	 5.28
308.2220198024 	 3.27
464.2067636687 	 0
END IONS

BEGIN IONS
PEPMASS=427.2245
CHARGE=1
MSLEVEL=2
RT=0
SOURCE_INSTRUMENT=qTOF
FILENAME=CCMSLIB00000080541.ms
IONMODE=Positive
ORGANISM=Natural
NAME=MLS001032409-01!N-(3-morpholin-4-ylpropyl)-3-(2,3,5-trimethyl-7-oxofuro[3,2-g]chromen-6-yl)propanamide
PI=GNPS
DATACOLLECTOR=GNPS
SMILES=Cc1c(C)oc2cc3c(cc12)c(C)c(CCC(=NCCCN1CCOCC1)O)c(=O)o3
INCHI=InChI=1S/C24H30N2O5/c1-15-17(3)30-21-14-22-20(13-19(15)21)16(2)18(24(28)31-22)5-6-23(27)25-7-4-8-26-9-11-29-12-10-26/h13-14H,4-12H2,1-3H3,(H,25,27)
FORMULA=C24H30N2O5
PUBMED=N/A
SUBMITUSER=BIOADREM
LIBRARYQUALITY=0
SPECTRUMID=CCMSLIB00000080541
SCANS=2722
ID=CCMSLIB00000080541
112.0756899162 	 0.3
126.0913399804 	 0.51
128.1069900446 	 3.74
129.0698762568 	 0.4
141.0698762568 	 0.61
142.0777012889 	 0.45
154.0777012889 	 0.4
155.085526321 	 0.2
157.0647908789 	 0.33
157.1011763852 	 0.77
169.1011763852 	 0.26
170.072615911 	 0.36
182.072615911 	 0.52
185.0960910073 	 1.5
195.0804409431 	 0.26
197.0960910073 	 0.42
198.0675305331 	 0.64
199.0713328198 	 0.27
199.1117410715 	 0.32
212.0831805973 	 0.27
213.0910056294 	 11.32
214.0948079161 	 1.56
227.1066556936 	 0.65
241.0859202515 	 100
242.0897225382 	 33.87
254.1175547309 	 0.21
255.1015703157 	 27.57
265.0859202515 	 0.2
282.112469353 	 21.84
283.0964849378 	 55.6
340.1543341677 	 62.07
427.2227480839 	 10.22
END IONS

BEGIN IONS
PEPMASS=445.1765
CHARGE=1
MSLEVEL=2
RT=0
SOURCE_INSTRUMENT=qTOF
FILENAME=CCMSLIB00000080542.ms
IONMODE=Positive
ORGANISM=Natural
NAME=MLS001159093-01!2-[4-(4-methoxyphenyl)-8-methyl-2-oxochromen-7-yl]oxy-N-(pyridin-2-ylmethyl)propanamide
PI=GNPS
DATACOLLECTOR=GNPS
SMILES=Cc1c(ccc2c(cc(=O)oc12)c1ccc(cc1)OC)OC(C)C(=NCc1ccccn1)O
INCHI=InChI=1S/C26H24N2O5/c1-16-23(32-17(2)26(30)28-15-19-6-4-5-13-27-19)12-11-21-22(14-24(29)33-25(16)21)18-7-9-20(31-3)10-8-18/h4-14,17H,15H2,1-3H3,(H,28,30)
FORMULA=C26H24N2O5
PUBMED=N/A
SUBMITUSER=BIOADREM
LIBRARYQUALITY=0
SPECTRUMID=CCMSLIB00000080542
SCANS=2723
ID=CCMSLIB00000080542
104.0494751657 	 3.31
105.0573001978 	 9.4
106.0651252299 	 18.39
107.060374203 	 100
109.0760242672 	 8.43
131.060374203 	 3.47
133.0522148199 	 7
135.0916743314 	 27.17
145.0760242672 	 5.4
146.0838492993 	 5.82
163.0865889535 	 20.18
164.0944139856 	 32.07
165.0698762568 	 1.72
166.0777012889 	 2.43
173.059705501 	 1.26
194.072615911 	 5.44
195.0764181977 	 1.26
201.0546201231 	 1.38
207.0804409431 	 1.33
209.0960910073 	 8.26
210.099893294 	 2.35
225.0910056294 	 1.81
225.1273911357 	 1.17
227.0702701873 	 1.98
237.0910056294 	 17.39
238.0988306615 	 5.45
239.1026329482 	 1.99
253.0859202515 	 1.5
253.1223057578 	 1.71
265.0859202515 	 1.95
266.0937452836 	 3.9
267.0975475703 	 1.14
281.0808348736 	 4.83
281.1172203799 	 10.28
282.1210226666 	 2.53
283.0964849378 	 20.62
294.0886599057 	 1.9
309.112135002 	 30.85
427.165233205 	 1.77
445.1757978913 	 3.14
END IONS

BEGIN IONS
PEPMASS=450.168
CHARGE=1
MSLEVEL=2
RT=0
SOURCE_INSTRUMENT=qTOF
FILENAME=CCMSLIB00000080543.ms
IONMODE=Positive
ORGANISM=Natural
NAME=MLS001140849-01!4-[[2-(6-chloro-2-oxo-4-propylchromen-7-yl)oxypropanoylamino]methyl]cyclohexane-1-carboxylic acid
PI=GNPS
DATACOLLECTOR=GNPS
SMILES=CCCc1cc(=O)oc2cc(c(cc12)Cl)OC(C)C(=NC[C@H]1CC[C@@H](CC1)C(=O)O)O
INCHI=InChI=1S/C23H28ClNO6/c1-3-4-16-9-21(26)31-19-11-20(18(24)10-17(16)19)30-13(2)22(27)25-12-14-5-7-15(8-6-14)23(28)29/h9-11,13-15H,3-8,12H2,1-2H3,(H,25,27)(H,28,29)/t13?,14-,15-
FORMULA=C23H28ClNO6
PUBMED=N/A
SUBMITUSER=BIOADREM
LIBRARYQUALITY=0
SPECTRUMID=CCMSLIB00000080543
SCANS=2724
ID=CCMSLIB00000080543
124.1246514815 	 1.51
141.163776642 	 5.01
153.0698762568 	 1.71
161.1199004546 	 1.43
169.0733441925 	 2.08
197.0727687494 	 3.87
198.0805937815 	 1.31
210.0886599057 	 3.75
221.1199004546 	 1.47
223.0991650125 	 10.38
225.099558943 	 3.8
239.1363383798 	 100
240.1441634119 	 17.14
241.1353690062 	 23.62
242.1386841035 	 4.01
265.164564503 	 48.87
266.1665162962 	 8.04
267.1617652693 	 14.53
268.1669102267 	 1.76
293.1666691346 	 2.22
312.1958050519 	 3.04
322.2012843603 	 1.85
450.1677913466 	 0
END IONS

BEGIN IONS
PEPMASS=436.176
CHARGE=1
MSLEVEL=2
RT=0
SOURCE_INSTRUMENT=qTOF
FILENAME=CCMSLIB00000080544.ms
IONMODE=Positive
ORGANISM=Natural
NAME=MLS001142405-01!(2S)-2-[2-[(6-methyl-4-oxo-2,3-dihydro-1H-cyclopenta[c]chromen-7-yl)oxy]propanoylamino]-3-phenylpropanoic acid
PI=GNPS
DATACOLLECTOR=GNPS
SMILES=Cc1c(ccc2c3CCCc3c(=O)oc12)OC(C)C(=N[C@@H](Cc1ccccc1)C(=O)O)O
INCHI=InChI=1S/C25H25NO6/c1-14-21(12-11-18-17-9-6-10-19(17)25(30)32-22(14)18)31-15(2)23(27)26-20(24(28)29)13-16-7-4-3-5-8-16/h3-5,7-8,11-12,15,20H,6,9-10,13H2,1-2H3,(H,26,27)(H,28,29)/t15?,20-/m0/s1
FORMULA=C25H25NO6
PUBMED=N/A
SUBMITUSER=BIOADREM
LIBRARYQUALITY=0
SPECTRUMID=CCMSLIB00000080544
SCANS=2725
ID=CCMSLIB00000080544
120.0807752941 	 34.88
121.0859202515 	 8.33
130.0498690962 	 10.85
143.085526321 	 17.44
144.0780952194 	 8.53
145.0647908789 	 14.53
146.0964253583 	 35.27
147.0440554368 	 14.53
147.0804409431 	 15.31
148.0518804689 	 9.11
151.0475233725 	 8.91
166.0835745278 	 8.91
171.0804409431 	 44.19
187.0753555652 	 14.15
189.0910056294 	 12.6
203.072950262 	 9.5
205.0944735651 	 9.88
215.1066556936 	 28.88
216.0780952194 	 21.32
217.0859202515 	 52.71
218.0964253583 	 22.29
243.1015703157 	 100
312.1356100983 	 11.24
353.1019642462 	 9.5
436.1754635403 	 0
END IONS

BEGIN IONS
PEPMASS=435.2424
CHARGE=1
MSLEVEL=2
RT=0
SOURCE_INSTRUMENT=qTOF
FILENAME=CCMSLIB00000080545.ms
IONMODE=Positive
ORGANISM=Natural
NAME=MLS001141008-01!1-[(2S)-2-amino-4-methylsulfanylbutanoyl]-N-[(2R)-1-oxo-1-(1-phenylethylamino)propan-2-yl]piperidine-4-carboxamide
PI=GNPS
DATACOLLECTOR=GNPS
SMILES=CC(c1ccccc1)N=C([C@@H](C)N=C(C1CCN(CC1)C(=O)[C@H](CCSC)N)O)O
INCHI=InChI=1S/C22H34N4O3S/c1-15(17-7-5-4-6-8-17)24-20(27)16(2)25-21(28)18-9-12-26(13-10-18)22(29)19(23)11-14-30-3/h4-8,15-16,18-19H,9-14,23H2,1-3H3,(H,24,27)(H,25,28)/t15?,16-,19+/m1/s1
FORMULA=C22H34N4O3S
PUBMED=N/A
SUBMITUSER=BIOADREM
LIBRARYQUALITY=0
SPECTRUMID=CCMSLIB00000080545
SCANS=2726
ID=CCMSLIB00000080545
103.0542261926 	 2.41
104.0528459841 	 9.63
105.0698762568 	 42.27
111.0916743314 	 0.56
112.0756899162 	 100
114.0787639214 	 0.63
122.0964253583 	 0.52
130.0651252299 	 1.1
132.0807752941 	 0.55
139.0865889535 	 3.02
149.1073243956 	 0.58
153.1022390177 	 0.48
155.1178890819 	 16.13
165.1022390177 	 0.79
167.0815035756 	 2.16
167.1178890819 	 1.03
181.0919711446 	 0.59
183.112803704 	 25.63
193.1335391461 	 8.51
195.1076212088 	 0.5
196.1154462409 	 0.93
200.1393528055 	 13.08
207.112803704 	 1.27
210.1237027413 	 1.01
211.1263452782 	 0.52
212.1393528055 	 0.58
238.1186173634 	 1.74
238.1550028697 	 5.82
239.1576454066 	 1.23
283.1764665933 	 2.94
286.1583736881 	 2.21
304.2019530623 	 26.22
314.1532883102 	 2.95
331.1798374117 	 0.9
387.2390668501 	 6.91
418.215888567 	 0.68
435.2424376685 	 2.65
END IONS

BEGIN IONS
PEPMASS=382.129
CHARGE=1
MSLEVEL=2
RT=0
SOURCE_INSTRUMENT=qTOF
FILENAME=CCMSLIB00000080546.ms
IONMODE=Positive
ORGANISM=Natural
NAME=MLS001141236-01!1-[2-(6-oxobenzo[c]chromen-3-yl)oxyacetyl]piperidine-4-carboxylic acid
PI=GNPS
DATACOLLECTOR=GNPS
SMILES=c1ccc2c(c1)c1ccc(cc1oc2=O)OCC(=O)N1CCC(CC1)C(=O)O
INCHI=InChI=1S/C21H19NO6/c23-19(22-9-7-13(8-10-22)20(24)25)12-27-14-5-6-16-15-3-1-2-4-17(15)21(26)28-18(16)11-14/h1-6,11,13H,7-10,12H2,(H,24,25)
FORMULA=C21H19NO6
PUBMED=N/A
SUBMITUSER=BIOADREM
LIBRARYQUALITY=0
SPECTRUMID=CCMSLIB00000080546
SCANS=2727
ID=CCMSLIB00000080546
101.047129442 	 3.41
110.060039852 	 6.6
112.0756899162 	 9.59
113.0835149483 	 2.03
114.0549544741 	 35.39
115.0542261926 	 2.03
125.0835149483 	 6.79
128.0706045383 	 100
130.0862546025 	 14
139.0542261926 	 11.23
141.0698762568 	 9.74
142.0862546025 	 32.25
153.0698762568 	 6.52
156.0655191604 	 2.76
157.0158293136 	 2.07
167.0491408147 	 33.78
169.0647908789 	 18.33
171.0440554368 	 8.63
184.0518804689 	 11.43
195.0440554368 	 14.99
196.0518804689 	 4.45
197.059705501 	 15.8
212.046795091 	 28.41
225.0546201231 	 58.9
227.0702701873 	 3.18
294.0760838467 	 3.07
309.1359444493 	 3.64
337.1308590714 	 2.61
382.1285133477 	 0
END IONS

BEGIN IONS
PEPMASS=422.172
CHARGE=1
MSLEVEL=2
RT=0
SOURCE_INSTRUMENT=qTOF
FILENAME=CCMSLIB00000080547.ms
IONMODE=Positive
ORGANISM=Natural
NAME=MLS001141376-01!(2R)-2-[3-[(10aS)-1,3-dioxo-10,10a-dihydro-5H-imidazo[1,5-b]isoquinolin-2-yl]propanoylamino]-3-phenylpropanoic acid
PI=GNPS
DATACOLLECTOR=GNPS
SMILES=c1ccc(cc1)C[C@H](C(=O)O)N=C(CCN1C(=O)[C@@H]2Cc3ccccc3CN2C1=O)O
INCHI=InChI=1S/C23H23N3O5/c27-20(24-18(22(29)30)12-15-6-2-1-3-7-15)10-11-25-21(28)19-13-16-8-4-5-9-17(16)14-26(19)23(25)31/h1-9,18-19H,10-14H2,(H,24,27)(H,29,30)/t18-,19+/m1/s1
FORMULA=C23H23N3O5
PUBMED=N/A
SUBMITUSER=BIOADREM
LIBRARYQUALITY=0
SPECTRUMID=CCMSLIB00000080547
SCANS=2728
ID=CCMSLIB00000080547
105.0698762568 	 1.23
115.0542261926 	 2.48
117.0573001978 	 1.6
117.0698762568 	 1.68
120.0807752941 	 5.99
130.0651252299 	 46.91
131.0491408147 	 2.6
132.0807752941 	 44.27
144.0807752941 	 7.24
158.060039852 	 28.96
160.0756899162 	 2.16
175.0865889535 	 12.65
185.0709388893 	 2
187.0865889535 	 100
201.1022390177 	 2.93
203.0815035756 	 59.2
215.0815035756 	 16.68
229.0971536398 	 4.01
257.0920682619 	 37.84
422.1710468644 	 0
END IONS

BEGIN IONS
PEPMASS=345.0975
CHARGE=1
MSLEVEL=2
RT=0
SOURCE_INSTRUMENT=qTOF
FILENAME=CCMSLIB00000080548.ms
IONMODE=Positive
ORGANISM=Natural
NAME=MLS000876763-01!3,5-dihydroxy-6,7,8-trimethoxy-2-phenylchromen-4-one
PI=GNPS
DATACOLLECTOR=GNPS
SMILES=COc1c(c2c(=O)c(c(c3ccccc3)oc2c(c1OC)OC)O)O
INCHI=InChI=1S/C18H16O7/c1-22-16-12(20)10-11(19)13(21)14(9-7-5-4-6-8-9)25-15(10)17(23-2)18(16)24-3/h4-8,20-21H,1-3H3
FORMULA=C18H16O7
PUBMED=N/A
SUBMITUSER=BIOADREM
LIBRARYQUALITY=0
SPECTRUMID=CCMSLIB00000080548
SCANS=2729
ID=CCMSLIB00000080548
105.0334907505 	 5.58
128.0620512247 	 1.2
129.0698762568 	 2.31
131.0491408147 	 2.5
139.0542261926 	 1.34
142.0413157826 	 1.87
157.0647908789 	 1.25
160.0518804689 	 2.41
167.0491408147 	 1.66
185.059705501 	 3.78
187.0389700589 	 2.47
188.046795091 	 3.38
213.0546201231 	 7.75
216.0417097131 	 1.81
231.0651848094 	 3.64
241.0495347452 	 15.71
244.0366243352 	 39.13
256.0730098415 	 1.21
269.0444493673 	 25.52
272.0315389573 	 54.3
284.0679244636 	 2.72
286.0471890215 	 2.07
287.0550140536 	 100
297.0393639894 	 34.87
312.0628390857 	 4.59
315.0499286757 	 56.16
330.073403772 	 7.41
345.0968788683 	 13.37
END IONS

BEGIN IONS
PEPMASS=259.097
CHARGE=1
MSLEVEL=2
RT=0
SOURCE_INSTRUMENT=qTOF
FILENAME=CCMSLIB00000080549.ms
IONMODE=Positive
ORGANISM=Natural
NAME=MLS000736891-01!1-(2,4-dihydroxyphenyl)-2-(4-methoxyphenyl)ethanone
PI=GNPS
DATACOLLECTOR=GNPS
SMILES=COc1ccc(cc1)CC(=O)c1ccc(cc1O)O
INCHI=InChI=1S/C15H14O4/c1-19-12-5-2-10(3-6-12)8-14(17)13-7-4-11(16)9-15(13)18/h2-7,9,16,18H,8H2,1H3
FORMULA=C15H14O4
PUBMED=N/A
SUBMITUSER=BIOADREM
LIBRARYQUALITY=0
SPECTRUMID=CCMSLIB00000080549
SCANS=2730
ID=CCMSLIB00000080549
95.0491408147 	 8.72
106.0413157826 	 3.61
107.0491408147 	 7.9
115.0542261926 	 3.93
121.0647908789 	 55.59
123.0440554368 	 35.05
135.0440554368 	 11.27
141.0698762568 	 18.26
142.0777012889 	 7.49
149.059705501 	 7.3
152.0620512247 	 15.56
153.0698762568 	 31.77
154.0777012889 	 7.44
155.0491408147 	 8.85
169.0647908789 	 99.68
170.072615911 	 61.11
181.0647908789 	 30.17
195.0804409431 	 10
198.0675305331 	 46.23
213.0910056294 	 100
259.0964849378 	 0
END IONS

BEGIN IONS
PEPMASS=431.208
CHARGE=1
MSLEVEL=2
RT=0
SOURCE_INSTRUMENT=qTOF
FILENAME=CCMSLIB00000080550.ms
IONMODE=Positive
ORGANISM=Natural
NAME=MLS001142717-01!
PI=GNPS
DATACOLLECTOR=GNPS
SMILES=CC(c1ccccc1)N=C([C@H](C)N1C(=O)[C@]2(C)c3c(CCN2C1=O)c1ccccc1[nH]3)O
INCHI=InChI=1S/C25H26N4O3/c1-15(17-9-5-4-6-10-17)26-22(30)16(2)29-23(31)25(3)21-19(13-14-28(25)24(29)32)18-11-7-8-12-20(18)27-21/h4-12,15-16,27H,13-14H2,1-3H3,(H,26,30)/t15?,16-,25-/m0/s1
FORMULA=C25H26N4O3
PUBMED=N/A
SUBMITUSER=BIOADREM
LIBRARYQUALITY=0
SPECTRUMID=CCMSLIB00000080550
SCANS=2731
ID=CCMSLIB00000080550
105.0698762568 	 66.71
117.0698762568 	 0.48
144.0807752941 	 10.78
168.0807752941 	 3.96
170.0964253583 	 1.03
183.0916743314 	 4.55
185.1073243956 	 22.18
211.0865889535 	 26.99
211.1229744598 	 5.21
239.1178890819 	 1.93
254.1287881192 	 100
282.1237027413 	 26.08
431.2077667217 	 0
END IONS

BEGIN IONS
PEPMASS=424.176
CHARGE=1
MSLEVEL=2
RT=0
SOURCE_INSTRUMENT=qTOF
FILENAME=CCMSLIB00000080552.ms
IONMODE=Positive
ORGANISM=Natural
NAME=MLS001157807-01!4-[[2-(6-oxobenzo[c]chromen-3-yl)oxypropanoylamino]methyl]cyclohexane-1-carboxylic acid
PI=GNPS
DATACOLLECTOR=GNPS
SMILES=CC(C(=NC[C@H]1CC[C@@H](CC1)C(=O)O)O)Oc1ccc2c3ccccc3c(=O)oc2c1
INCHI=InChI=1S/C24H25NO6/c1-14(22(26)25-13-15-6-8-16(9-7-15)23(27)28)30-17-10-11-19-18-4-2-3-5-20(18)24(29)31-21(19)12-17/h2-5,10-12,14-16H,6-9,13H2,1H3,(H,25,26)(H,27,28)/t14?,15-,16-
FORMULA=C24H25NO6
PUBMED=N/A
SUBMITUSER=BIOADREM
LIBRARYQUALITY=0
SPECTRUMID=CCMSLIB00000080552
SCANS=2733
ID=CCMSLIB00000080552
95.085526321 	 14.46
105.0698762568 	 1.54
112.1120754225 	 3.24
122.0964253583 	 4.64
138.0913399804 	 5.99
138.1277254867 	 9.77
139.0542261926 	 3.73
140.1069900446 	 48.26
141.0698762568 	 4.18
152.0620512247 	 7.7
152.1069900446 	 1.91
155.085526321 	 3.59
165.0698762568 	 4.36
166.1226401088 	 3.78
167.0491408147 	 13.54
167.085526321 	 7.37
167.1304651409 	 13.2
169.0647908789 	 4.89
177.0698762568 	 5.11
183.0804409431 	 10.58
184.1332047951 	 5.97
193.0647908789 	 2.56
195.0440554368 	 4.55
195.0804409431 	 3.17
211.0753555652 	 15.6
213.0546201231 	 28.05
221.059705501 	 5.8
239.0702701873 	 100
267.0651848094 	 5.53
284.0917339109 	 14.59
378.1699842319 	 6.51
424.1754635403 	 0
END IONS

BEGIN IONS
PEPMASS=450.192
CHARGE=1
MSLEVEL=2
RT=0
SOURCE_INSTRUMENT=qTOF
FILENAME=CCMSLIB00000080553.ms
IONMODE=Positive
ORGANISM=Natural
NAME=MLS001159062-01!1-[2-(4-ethyl-7-methyl-2-oxochromen-5-yl)oxyacetyl]-4-phenylpiperidine-4-carboxylic acid
PI=GNPS
DATACOLLECTOR=GNPS
SMILES=CCc1cc(=O)oc2cc(C)cc(c12)OCC(=O)N1CCC(CC1)(c1ccccc1)C(=O)O
INCHI=InChI=1S/C26H27NO6/c1-3-18-15-23(29)33-21-14-17(2)13-20(24(18)21)32-16-22(28)27-11-9-26(10-12-27,25(30)31)19-7-5-4-6-8-19/h4-8,13-15H,3,9-12,16H2,1-2H3,(H,30,31)
FORMULA=C26H27NO6
PUBMED=N/A
SUBMITUSER=BIOADREM
LIBRARYQUALITY=0
SPECTRUMID=CCMSLIB00000080553
SCANS=2734
ID=CCMSLIB00000080553
121.1097296988 	 5.5
128.1069900446 	 22.21
129.1148150767 	 12.02
130.1226401088 	 5.81
131.1304651409 	 11.35
145.1461152051 	 5.85
160.1332047951 	 5.5
161.1172203799 	 6.26
161.1536058862 	 10.19
165.112135002 	 5.72
172.1695903014 	 15.82
175.1355505188 	 5.05
178.1199600341 	 4.38
190.1590256151 	 4.6
199.1481265778 	 4.38
200.1770809825 	 12.33
202.1927310467 	 16.35
204.150866232 	 18.5
204.1719956046 	 32.17
206.1903257435 	 10.81
219.1954707009 	 7.19
246.1699842319 	 5.5
246.1978164246 	 13.9
450.1911136045 	 0
END IONS

BEGIN IONS
PEPMASS=465.194
CHARGE=1
MSLEVEL=2
RT=0
SOURCE_INSTRUMENT=qTOF
FILENAME=CCMSLIB00000080554.ms
IONMODE=Positive
ORGANISM=Natural
NAME=MLS001142422-01!
PI=GNPS
DATACOLLECTOR=GNPS
SMILES=C[C@@H](C(=NCc1ccc(cc1)F)O)N1C(=O)[C@]2(C)c3c(CCN2C1=O)c1cc(ccc1[nH]3)OC
INCHI=InChI=1S/C25H25FN4O4/c1-14(22(31)27-13-15-4-6-16(26)7-5-15)30-23(32)25(2)21-18(10-11-29(25)24(30)33)19-12-17(34-3)8-9-20(19)28-21/h4-9,12,14,28H,10-11,13H2,1-3H3,(H,27,31)/t14-,25-/m0/s1
FORMULA=C25H25FN4O4
PUBMED=N/A
SUBMITUSER=BIOADREM
LIBRARYQUALITY=0
SPECTRUMID=CCMSLIB00000080554
SCANS=2735
ID=CCMSLIB00000080554
109.0448043605 	 59.69
110.047463793 	 5.56
131.072950262 	 1.38
159.0678648841 	 4.06
173.0835149483 	 4.65
174.0913399804 	 18.32
186.0913399804 	 1.86
198.0913399804 	 5.65
199.0865889535 	 4.23
200.0944139856 	 3.42
213.1022390177 	 13.97
214.1100640498 	 5.26
215.1178890819 	 30.69
216.1183036546 	 3.23
226.0736785435 	 1.47
241.0971536398 	 28.28
243.112803704 	 4.09
265.0859202515 	 0.93
267.112803704 	 1.29
268.1080526771 	 2.31
269.0920682619 	 3.9
270.087317235 	 3.49
280.1093953478 	 1.54
284.1393528055 	 100
286.1424268107 	 1.1
296.1029672992 	 2.57
306.125045412 	 1.86
307.124117314 	 2.39
308.1281194172 	 1.31
311.1264423955 	 1.27
312.1342674276 	 14.28
314.1373414328 	 1.12
323.1554174424 	 3.29
324.1594195456 	 1.23
341.1244310228 	 4.45
349.1346820003 	 4.2
356.1479061191 	 1.13
392.176881166 	 12.53
393.1808832692 	 3.8
420.1717957881 	 3.51
465.1932595117 	 0
END IONS

BEGIN IONS
PEPMASS=507.213
CHARGE=1
MSLEVEL=2
RT=0
SOURCE_INSTRUMENT=qTOF
FILENAME=CCMSLIB00000080555.ms
IONMODE=Positive
ORGANISM=Natural
NAME=MLS001160080-01!2-[2-(4-butyl-7-methyl-2-oxochromen-5-yl)oxypropanoylamino]-3-(5-hydroxy-1H-indol-3-yl)propanoic acid
PI=GNPS
DATACOLLECTOR=GNPS
SMILES=CCCCc1cc(=O)oc2cc(C)cc(c12)OC(C)C(=NC(Cc1c[nH]c2ccc(cc12)O)C(=O)O)O
INCHI=InChI=1S/C28H30N2O7/c1-4-5-6-17-12-25(32)37-24-10-15(2)9-23(26(17)24)36-16(3)27(33)30-22(28(34)35)11-18-14-29-21-8-7-19(31)13-20(18)21/h7-10,12-14,16,22,29,31H,4-6,11H2,1-3H3,(H,30,33)(H,34,35)
FORMULA=C28H30N2O7
PUBMED=N/A
SUBMITUSER=BIOADREM
LIBRARYQUALITY=0
SPECTRUMID=CCMSLIB00000080555
SCANS=2736
ID=CCMSLIB00000080555
105.0698762568 	 3.98
118.0651252299 	 5.74
121.0647908789 	 3.79
131.0451180693 	 6.13
131.085526321 	 4.19
133.0647908789 	 4.92
134.060039852 	 16.39
146.060039852 	 100
148.0756899162 	 8.19
151.0389700589 	 15.39
158.060039852 	 17.51
159.0764181977 	 5.43
160.0756899162 	 11.05
161.059705501 	 6.65
162.0549544741 	 27.01
170.0573597773 	 5.95
171.0651848094 	 10.41
173.0808348736 	 10.53
175.0839088788 	 23.28
177.0546201231 	 16.75
179.0702701873 	 6.04
183.0651848094 	 5.77
184.0756899162 	 28.01
185.0808348736 	 7.86
186.0549544741 	 30.74
186.0886599057 	 19.7
187.0964849378 	 4.73
189.0505973777 	 5.13
189.0910056294 	 6.46
190.0584224098 	 5.46
200.0679244636 	 5.68
201.099558943 	 10.53
203.0662474419 	 13.51
204.0655191604 	 44.04
211.0839088788 	 3.64
212.0679244636 	 7.04
213.0910056294 	 10.08
215.0788235009 	 3.88
217.0818975061 	 5.92
217.1223057578 	 4.13
229.0944735651 	 6.92
230.1022985972 	 9.29
231.1015703157 	 57.78
233.1131976345 	 54.93
259.1288476987 	 22.09
260.1281194172 	 4.83
507.2125773281 	 0
END IONS

BEGIN IONS
PEPMASS=455.1381
CHARGE=1
MSLEVEL=2
RT=0
SOURCE_INSTRUMENT=qTOF
FILENAME=CCMSLIB00000080556.ms
IONMODE=Positive
ORGANISM=Natural
NAME=MLS001032333-01!
PI=GNPS
DATACOLLECTOR=GNPS
SMILES=CCc1cc(=O)oc2cc(c(cc12)Cl)OCC(=O)N1C[C@H]2C[C@@H](C1)c1cccc(=O)n1C2
INCHI=InChI=1S/C24H23ClN2O5/c1-2-15-7-24(30)32-20-9-21(18(25)8-17(15)20)31-13-23(29)26-10-14-6-16(12-26)19-4-3-5-22(28)27(19)11-14/h3-5,7-9,14,16H,2,6,10-13H2,1H3/t14-,16+/m1/s1
FORMULA=C24H23ClN2O5
PUBMED=N/A
SUBMITUSER=BIOADREM
LIBRARYQUALITY=0
SPECTRUMID=CCMSLIB00000080556
SCANS=2737
ID=CCMSLIB00000080556
104.0494751657 	 0.98
105.0698762568 	 0.67
106.0651252299 	 0.49
109.0522148199 	 2.92
117.0573001978 	 0.95
122.0573597773 	 4.52
123.0651848094 	 1.57
132.0443897878 	 3.63
132.0807752941 	 0.74
133.0522148199 	 2.75
134.060039852 	 9.64
135.0678648841 	 1.56
143.0702701873 	 0.52
146.060039852 	 30.6
147.0678648841 	 19.84
148.0730098415 	 6.78
149.0709388893 	 2.67
158.060039852 	 0.84
159.0651848094 	 2.55
160.0756899162 	 14.67
161.0808348736 	 1.65
162.0913399804 	 1.69
163.0964849378 	 0.5
172.0756899162 	 3.52
173.0835149483 	 18.87
174.0886599057 	 3.15
175.0502034472 	 2.14
181.041468621 	 0.78
188.0706045383 	 1.6
189.1022390177 	 100
190.1073839751 	 18.76
191.0815035756 	 2.32
203.1178890819 	 0.74
209.0363832431 	 2
217.0971536398 	 1.66
231.112803704 	 2.55
232.1206287361 	 3.74
237.0312978652 	 5.91
264.1104579803 	 0.57
290.0578469667 	 0.64
455.1368255692 	 40.56
END IONS

BEGIN IONS
PEPMASS=451.236
CHARGE=1
MSLEVEL=2
RT=0
SOURCE_INSTRUMENT=qTOF
FILENAME=CCMSLIB00000080557.ms
IONMODE=Positive
ORGANISM=Natural
NAME=MLS001141087-01!1-[(2S)-2-amino-4-methylsulfanylbutanoyl]-N-[(2S)-1-[(4-methoxyphenyl)methylamino]-1-oxopropan-2-yl]piperidine-4-carboxamide
PI=GNPS
DATACOLLECTOR=GNPS
SMILES=C[C@@H](C(=NCc1ccc(cc1)OC)O)N=C(C1CCN(CC1)C(=O)[C@H](CCSC)N)O
INCHI=InChI=1S/C22H34N4O4S/c1-15(20(27)24-14-16-4-6-18(30-2)7-5-16)25-21(28)17-8-11-26(12-9-17)22(29)19(23)10-13-31-3/h4-7,15,17,19H,8-14,23H2,1-3H3,(H,24,27)(H,25,28)/t15-,19-/m0/s1
FORMULA=C22H34N4O4S
PUBMED=N/A
SUBMITUSER=BIOADREM
LIBRARYQUALITY=0
SPECTRUMID=CCMSLIB00000080557
SCANS=2738
ID=CCMSLIB00000080557
106.0413157826 	 0.43
112.0756899162 	 37.75
114.0787639214 	 0.65
118.0684960483 	 0.35
121.0647908789 	 100
132.0893286077 	 0.44
136.0756899162 	 0.46
138.0913399804 	 0.49
139.0865889535 	 0.64
155.1178890819 	 4.91
166.0862546025 	 0.93
167.0815035756 	 0.9
181.0971536398 	 0.54
183.112803704 	 7.71
195.1076212088 	 0.71
209.1284537682 	 2.07
210.1237027413 	 0.71
211.1263452782 	 0.38
238.1550028697 	 4.87
239.1576454066 	 0.53
243.112803704 	 0.48
266.1499174918 	 0.43
267.1525600287 	 0.39
269.1284537682 	 0.35
286.1550028697 	 0.85
314.1532883102 	 1.24
320.1968676844 	 13.93
403.2339814722 	 2.72
451.2373522906 	 1.58
END IONS

BEGIN IONS
PEPMASS=439.198
CHARGE=1
MSLEVEL=2
RT=0
SOURCE_INSTRUMENT=qTOF
FILENAME=CCMSLIB00000080558.ms
IONMODE=Positive
ORGANISM=Natural
NAME=MLS001159164-01!(2R)-2-[[(2S)-3-methyl-2-[(3-oxo-2,4-dihydroquinoxaline-1-carbonyl)amino]butanoyl]amino]-3-phenylpropanoic acid
PI=GNPS
DATACOLLECTOR=GNPS
SMILES=CC(C)[C@@H](C(=N[C@H](Cc1ccccc1)C(=O)O)O)N=C(N1CC(=Nc2ccccc12)O)O
INCHI=InChI=1S/C23H26N4O5/c1-14(2)20(21(29)25-17(22(30)31)12-15-8-4-3-5-9-15)26-23(32)27-13-19(28)24-16-10-6-7-11-18(16)27/h3-11,14,17,20H,12-13H2,1-2H3,(H,24,28)(H,25,29)(H,26,32)(H,30,31)/t17-,20+/m1/s1
FORMULA=C23H26N4O5
PUBMED=N/A
SUBMITUSER=BIOADREM
LIBRARYQUALITY=0
SPECTRUMID=CCMSLIB00000080558
SCANS=2739
ID=CCMSLIB00000080558
104.0494751657 	 0.36
118.0651252299 	 0.35
119.060374203 	 19.68
120.0807752941 	 10.65
121.0760242672 	 38.45
131.060374203 	 0.81
132.0443897878 	 0.75
132.0681992351 	 0.76
146.060039852 	 2.34
147.0552888251 	 100
149.0709388893 	 4.08
150.0787639214 	 0.85
175.0502034472 	 44.94
203.1178890819 	 2.12
218.1287881192 	 3.4
229.0971536398 	 1.79
246.1237027413 	 49.91
274.1186173634 	 0.34
439.1975959659 	 0
END IONS

BEGIN IONS
PEPMASS=551.29
CHARGE=1
MSLEVEL=2
RT=0
SOURCE_INSTRUMENT=qTOF
FILENAME=CCMSLIB00000080560.ms
IONMODE=Positive
ORGANISM=Natural
NAME=MLS001142736-01!tert-butyl N-[(2S)-1-[4-[[(2S)-1-[(4-methoxyphenyl)methylamino]-1-oxopropan-2-yl]carbamoyl]piperidin-1-yl]-4-methylsulfanyl-1-oxobutan-2-yl]carbamate
PI=GNPS
DATACOLLECTOR=GNPS
SMILES=C[C@@H](C(=NCc1ccc(cc1)OC)O)N=C(C1CCN(CC1)C(=O)[C@H](CCSC)N=C(O)OC(C)(C)C)O
INCHI=InChI=1S/C27H42N4O6S/c1-18(23(32)28-17-19-7-9-21(36-5)10-8-19)29-24(33)20-11-14-31(15-12-20)25(34)22(13-16-38-6)30-26(35)37-27(2,3)4/h7-10,18,20,22H,11-17H2,1-6H3,(H,28,32)(H,29,33)(H,30,35)/t18-,22-/m0/s1
FORMULA=C27H42N4O6S
PUBMED=N/A
SUBMITUSER=BIOADREM
LIBRARYQUALITY=0
SPECTRUMID=CCMSLIB00000080560
SCANS=2741
ID=CCMSLIB00000080560
101.0709388893 	 0.76
104.0528459841 	 6.44
112.0756899162 	 38.96
121.0647908789 	 100
132.0841461125 	 0.7
155.1178890819 	 8.87
167.0815035756 	 0.9
183.112803704 	 12.83
184.1154462409 	 1.88
195.112803704 	 0.87
209.1284537682 	 4.07
210.1237027413 	 1.4
212.1393528055 	 1.33
238.1550028697 	 6.3
286.1583736881 	 0.93
314.1532883102 	 1.47
320.1968676844 	 21.42
403.2339814722 	 5.97
434.2108031891 	 1.03
451.2373522906 	 5.23
551.2897817916 	 0
END IONS

BEGIN IONS
PEPMASS=579.222
CHARGE=1
MSLEVEL=2
RT=0
SOURCE_INSTRUMENT=qTOF
FILENAME=CCMSLIB00000080561.ms
IONMODE=Positive
ORGANISM=Natural
NAME=MLS001140672-01!
PI=GNPS
DATACOLLECTOR=GNPS
SMILES=COc1ccc(cc1)C1c2c(C[C@H]3C(=O)N(c4ccccc4C(=O)N4CCC(CC4)C(=O)O)C(=O)N13)c1ccccc1[nH]2
INCHI=InChI=1S/C33H30N4O6/c1-43-21-12-10-19(11-13-21)29-28-24(22-6-2-4-8-25(22)34-28)18-27-31(39)37(33(42)36(27)29)26-9-5-3-7-23(26)30(38)35-16-14-20(15-17-35)32(40)41/h2-13,20,27,29,34H,14-18H2,1H3,(H,40,41)/t27-,29?/m0/s1
FORMULA=C33H30N4O6
PUBMED=N/A
SUBMITUSER=BIOADREM
LIBRARYQUALITY=0
SPECTRUMID=CCMSLIB00000080561
SCANS=2742
ID=CCMSLIB00000080561
121.0647908789 	 7.9
135.0440554368 	 3.95
146.0236543457 	 8.59
204.0780952194 	 1.64
206.0964253583 	 2.24
217.0886003262 	 6.32
218.0964253583 	 100
219.1015703157 	 19.25
232.0756899162 	 1.97
233.0835149483 	 2.55
234.0913399804 	 14.34
238.0862546025 	 18.54
245.0835149483 	 1.6
246.0913399804 	 1.96
247.0991650125 	 6.3
248.1069900446 	 72.93
249.112135002 	 72.14
260.1069900446 	 20.29
262.0862546025 	 2.03
266.0811692246 	 36.93
271.0865889535 	 2
288.1019046667 	 14.54
290.0811692246 	 1.22
299.0815035756 	 3.24
303.1101236293 	 4.99
314.0924026129 	 1.38
315.0764181977 	 2.24
333.086982884 	 12.88
342.087317235 	 3.05
376.1206287361 	 1.09
379.1441038324 	 3.84
380.1492487898 	 1.81
387.1491892103 	 1.63
389.1284537682 	 2.28
392.1155433582 	 1.7
407.1390184545 	 34.78
408.1441634119 	 8.62
422.1499174918 	 3.93
433.1546685187 	 3.95
450.1448321139 	 36.97
579.2238107164 	 7.27
END IONS

BEGIN IONS
PEPMASS=227.0712
CHARGE=1
MSLEVEL=2
RT=0
SOURCE_INSTRUMENT=qTOF
FILENAME=CCMSLIB00000080562.ms
IONMODE=Positive
ORGANISM=Natural
NAME=MLS001049028-01!3-methoxybenzo[c]chromen-6-one
PI=GNPS
DATACOLLECTOR=GNPS
SMILES=COc1ccc2c3ccccc3c(=O)oc2c1
INCHI=InChI=1S/C14H10O3/c1-16-9-6-7-11-10-4-2-3-5-12(10)14(15)17-13(11)8-9/h2-8H,1H3
FORMULA=C14H10O3
PUBMED=N/A
SUBMITUSER=BIOADREM
LIBRARYQUALITY=0
SPECTRUMID=CCMSLIB00000080562
SCANS=2743
ID=CCMSLIB00000080562
102.0464011605 	 5
113.0385761284 	 2.59
114.0464011605 	 2.85
115.0542261926 	 4.17
116.0620512247 	 6.11
127.0542261926 	 3.14
128.0620512247 	 71.69
131.0491408147 	 1.94
138.0464011605 	 3.08
139.0542261926 	 87.35
140.0620512247 	 92.41
142.0413157826 	 3.58
143.0491408147 	 3.46
144.0569658468 	 1.64
145.0647908789 	 2.13
152.0620512247 	 17.67
153.0698762568 	 7.27
155.0491408147 	 19.21
156.0569658468 	 25.89
165.0698762568 	 3.6
166.0413157826 	 2.93
167.0491408147 	 5.42
168.0569658468 	 100
171.0804409431 	 6.9
172.0518804689 	 3.62
183.0804409431 	 13.18
184.0518804689 	 43.59
194.0362304047 	 10.1
195.0440554368 	 1.68
211.0389700589 	 1.68
212.046795091 	 23.36
227.0702701873 	 17.77
END IONS

BEGIN IONS
PEPMASS=451.2368
CHARGE=1
MSLEVEL=2
RT=0
SOURCE_INSTRUMENT=qTOF
FILENAME=CCMSLIB00000080563.ms
IONMODE=Positive
ORGANISM=Natural
NAME=MLS001141067-01!1-[(2S)-2-amino-4-methylsulfanylbutanoyl]-N-[(2R)-1-[(4-methoxyphenyl)methylamino]-1-oxopropan-2-yl]piperidine-4-carboxamide
PI=GNPS
DATACOLLECTOR=GNPS
SMILES=C[C@H](C(=NCc1ccc(cc1)OC)O)N=C(C1CCN(CC1)C(=O)[C@H](CCSC)N)O
INCHI=InChI=1S/C22H34N4O4S/c1-15(20(27)24-14-16-4-6-18(30-2)7-5-16)25-21(28)17-8-11-26(12-9-17)22(29)19(23)10-13-31-3/h4-7,15,17,19H,8-14,23H2,1-3H3,(H,24,27)(H,25,28)/t15-,19+/m1/s1
FORMULA=C22H34N4O4S
PUBMED=N/A
SUBMITUSER=BIOADREM
LIBRARYQUALITY=0
SPECTRUMID=CCMSLIB00000080563
SCANS=2744
ID=CCMSLIB00000080563
106.0413157826 	 0.41
110.060039852 	 0.37
112.0756899162 	 49.68
121.0647908789 	 100
133.0760242672 	 0.33
138.0913399804 	 0.32
153.1022390177 	 0.69
155.1178890819 	 7.23
165.1022390177 	 0.41
166.0862546025 	 0.54
167.0815035756 	 1.1
167.1178890819 	 1.03
181.0971536398 	 0.64
183.112803704 	 8.68
194.1287881192 	 0.39
195.112803704 	 0.75
209.1284537682 	 1.74
210.1237027413 	 0.88
212.1393528055 	 0.8
238.1550028697 	 5.54
266.1499174918 	 0.54
286.1583736881 	 0.63
297.1267392087 	 0.37
314.1532883102 	 1.39
320.1968676844 	 10.8
385.2234167859 	 0.46
403.2339814722 	 3.82
405.2444490412 	 0.34
451.2373522906 	 0.86
END IONS

BEGIN IONS
PEPMASS=161.071
CHARGE=1
MSLEVEL=2
RT=0
SOURCE_INSTRUMENT=qTOF
FILENAME=CCMSLIB00000080564.ms
IONMODE=Positive
ORGANISM=Natural
NAME=MLS001048867-01!1H-indole-3-carboxamide
PI=GNPS
DATACOLLECTOR=GNPS
SMILES=c1ccc2c(c1)c(c[nH]2)C(=N)O
INCHI=InChI=1S/C9H8N2O/c10-9(12)7-5-11-8-4-2-1-3-6(7)8/h1-5,11H,(H2,10,12)
FORMULA=C9H8N2O
PUBMED=N/A
SUBMITUSER=BIOADREM
LIBRARYQUALITY=0
SPECTRUMID=CCMSLIB00000080564
SCANS=2745
ID=CCMSLIB00000080564
116.0494751657 	 100
117.0573001978 	 40.89
118.0651252299 	 77.05
132.0443897878 	 10.71
143.060374203 	 6.54
144.0443897878 	 86.23
145.0522148199 	 13.35
161.0709388893 	 0
END IONS

BEGIN IONS
PEPMASS=557.24
CHARGE=1
MSLEVEL=2
RT=0
SOURCE_INSTRUMENT=qTOF
FILENAME=CCMSLIB00000080565.ms
IONMODE=Positive
ORGANISM=Natural
NAME=MLS001140685-01!(2S)-2-[[(2S)-2-[[(2S)-2-(2,4-dioxo-1H-quinazolin-3-yl)-3-phenylpropanoyl]amino]-3-methylbutanoyl]amino]-3-phenylpropanoic acid
PI=GNPS
DATACOLLECTOR=GNPS
SMILES=CC(C)[C@@H](C(=N[C@@H](Cc1ccccc1)C(=O)O)O)N=C([C@H](Cc1ccccc1)n1c(=O)c2ccccc2nc1O)O
INCHI=InChI=1S/C31H32N4O6/c1-19(2)26(28(37)32-24(30(39)40)17-20-11-5-3-6-12-20)34-27(36)25(18-21-13-7-4-8-14-21)35-29(38)22-15-9-10-16-23(22)33-31(35)41/h3-16,19,24-26H,17-18H2,1-2H3,(H,32,37)(H,33,41)(H,34,36)(H,39,40)/t24-,25-,26-/m0/s1
FORMULA=C31H32N4O6
PUBMED=N/A
SUBMITUSER=BIOADREM
LIBRARYQUALITY=0
SPECTRUMID=CCMSLIB00000080565
SCANS=2746
ID=CCMSLIB00000080565
103.0542261926 	 4.97
120.0807752941 	 2.18
145.0396387609 	 0.49
146.0236543457 	 15.05
149.059705501 	 0.23
163.0502034472 	 6.36
166.0862546025 	 0.95
204.0767525487 	 0.24
222.087317235 	 1.09
247.0865889535 	 1.38
265.0971536398 	 100
266.1009559265 	 21.11
275.0815035756 	 1.48
293.0920682619 	 15.52
294.0958705486 	 3.65
557.2394607806 	 0
END IONS

BEGIN IONS
PEPMASS=454.1326
CHARGE=1
MSLEVEL=2
RT=0
SOURCE_INSTRUMENT=qTOF
FILENAME=CCMSLIB00000080566.ms
IONMODE=Positive
ORGANISM=Natural
NAME=MLS001141239-01!(2R)-3-benzylsulfanyl-2-[[2-[(4-oxo-2,3-dihydro-1H-cyclopenta[c]chromen-7-yl)oxy]acetyl]amino]propanoic acid
PI=GNPS
DATACOLLECTOR=GNPS
SMILES=c1ccc(cc1)CSC[C@@H](C(=O)O)N=C(COc1ccc2c3CCCc3c(=O)oc2c1)O
INCHI=InChI=1S/C24H23NO6S/c26-22(25-20(23(27)28)14-32-13-15-5-2-1-3-6-15)12-30-16-9-10-18-17-7-4-8-19(17)24(29)31-21(18)11-16/h1-3,5-6,9-11,20H,4,7-8,12-14H2,(H,25,26)(H,27,28)/t20-/m0/s1
FORMULA=C24H23NO6S
PUBMED=N/A
SUBMITUSER=BIOADREM
LIBRARYQUALITY=0
SPECTRUMID=CCMSLIB00000080566
SCANS=2747
ID=CCMSLIB00000080566
115.0542261926 	 43.66
120.0239511589 	 6.05
127.0542261926 	 4.81
128.0620512247 	 5.76
129.0698762568 	 8.89
133.0647908789 	 6.27
134.0236543457 	 9.62
141.0698762568 	 10.35
144.0569658468 	 6.34
149.0419469468 	 88.92
151.0423408773 	 6.05
157.0647908789 	 12.24
159.0804409431 	 12.24
169.0647908789 	 6.2
171.0804409431 	 4.96
173.059705501 	 22.3
174.0675305331 	 6.63
175.0753555652 	 4.74
185.0630763194 	 21.72
186.0675305331 	 10.5
187.0753555652 	 56.92
199.0753555652 	 5.1
201.0546201231 	 82.94
202.0624451552 	 54.3
203.0702701873 	 100
204.0688899788 	 9.62
213.0579909415 	 4.81
214.0624451552 	 12.54
215.0702701873 	 100
227.0702701873 	 18
228.0688899788 	 6.2
241.0529055636 	 5.1
255.0651848094 	 9.11
256.1001901072 	 5.32
284.0951047293 	 9.33
293.1172203799 	 30.69
408.1264048577 	 5.39
454.1318841661 	 4.45
END IONS

BEGIN IONS
PEPMASS=480.213
CHARGE=1
MSLEVEL=2
RT=0
SOURCE_INSTRUMENT=qTOF
FILENAME=CCMSLIB00000080567.ms
IONMODE=Positive
ORGANISM=Natural
NAME=MLS001141325-01!(2S)-2-[6-[(10aS)-1,3-dioxo-10,10a-dihydro-5H-imidazo[1,5-b]isoquinolin-2-yl]hexanoylamino]-3-(4-hydroxyphenyl)propanoic acid
PI=GNPS
DATACOLLECTOR=GNPS
SMILES=C(CCC(=N[C@@H](Cc1ccc(cc1)O)C(=O)O)O)CCN1C(=O)[C@@H]2Cc3ccccc3CN2C1=O
INCHI=InChI=1S/C26H29N3O6/c30-20-11-9-17(10-12-20)14-21(25(33)34)27-23(31)8-2-1-5-13-28-24(32)22-15-18-6-3-4-7-19(18)16-29(22)26(28)35/h3-4,6-7,9-12,21-22,30H,1-2,5,8,13-16H2,(H,27,31)(H,33,34)/t21-,22-/m0/s1
FORMULA=C26H29N3O6
PUBMED=N/A
SUBMITUSER=BIOADREM
LIBRARYQUALITY=0
SPECTRUMID=CCMSLIB00000080567
SCANS=2748
ID=CCMSLIB00000080567
95.0491408147 	 1.28
115.0542261926 	 2.01
118.0651252299 	 1.32
119.0491408147 	 10.21
122.060039852 	 1.55
123.0440554368 	 11.45
130.0651252299 	 35.01
132.0807752941 	 29.23
136.0756899162 	 58.72
142.0651252299 	 1.64
144.0807752941 	 5.68
147.0440554368 	 9.37
158.060039852 	 12.9
160.0756899162 	 1.73
165.0546201231 	 15.3
167.060374203 	 1.03
175.0865889535 	 12.73
182.0811692246 	 5.56
185.0709388893 	 3.13
187.0865889535 	 81.61
203.0815035756 	 100
210.1277254867 	 1.43
215.0815035756 	 9.79
221.0960910073 	 1.29
238.1226401088 	 5
253.1335391461 	 1.5
271.1441038324 	 12.13
281.1284537682 	 4.52
299.1390184545 	 20.67
480.2129116791 	 0
END IONS

BEGIN IONS
PEPMASS=361.0912
CHARGE=1
MSLEVEL=2
RT=0
SOURCE_INSTRUMENT=qTOF
FILENAME=CCMSLIB00000080568.ms
IONMODE=Positive
ORGANISM=Natural
NAME=MLS001049145-01!2-(2,6-dihydroxyphenyl)-5-hydroxy-6,7,8-trimethoxychromen-4-one
PI=GNPS
DATACOLLECTOR=GNPS
SMILES=COc1c(c2c(=O)cc(c3c(cccc3O)O)oc2c(c1OC)OC)O
INCHI=InChI=1S/C18H16O8/c1-23-16-14(22)13-10(21)7-11(12-8(19)5-4-6-9(12)20)26-15(13)17(24-2)18(16)25-3/h4-7,19-20,22H,1-3H3
FORMULA=C18H16O8
PUBMED=N/A
SUBMITUSER=BIOADREM
LIBRARYQUALITY=0
SPECTRUMID=CCMSLIB00000080568
SCANS=2749
ID=CCMSLIB00000080568
113.0233199947 	 7.96
134.0362304047 	 3.76
137.0233199947 	 4.84
138.0311450268 	 1.97
151.0025845526 	 8.11
160.0154949626 	 2.23
165.0182346168 	 2.21
166.0260596489 	 2.3
169.0131492389 	 36.65
178.0260596489 	 2.96
178.9974991747 	 11.06
183.0287993031 	 1.43
194.020974271 	 3.99
197.008063861 	 100
227.0550140536 	 8.31
229.0495347452 	 1.3
257.0444493673 	 1.19
270.0158888931 	 1.38
285.0393639894 	 5.72
302.0421036436 	 1.59
303.0499286757 	 4.35
313.0342786115 	 33.3
328.0577537078 	 7.4
331.0448432978 	 96.59
345.060493362 	 1.17
346.0683183941 	 9.28
361.0917934904 	 24.08
END IONS

BEGIN IONS
PEPMASS=433.121
CHARGE=1
MSLEVEL=2
RT=0
SOURCE_INSTRUMENT=qTOF
FILENAME=CCMSLIB00000080569.ms
IONMODE=Positive
ORGANISM=Natural
NAME=MLS001157769-01!(2S)-N-(2,4-difluorophenyl)-1-(4,5-dimethoxy-3-oxo-1H-2-benzofuran-1-yl)-5-oxopyrrolidine-2-carboxamide
PI=GNPS
DATACOLLECTOR=GNPS
SMILES=COc1ccc2c(c1OC)C(=O)OC2N1[C@@H](CCC1=O)C(=Nc1ccc(cc1F)F)O
INCHI=InChI=1S/C21H18F2N2O6/c1-29-15-7-4-11-17(18(15)30-2)21(28)31-20(11)25-14(6-8-16(25)26)19(27)24-13-5-3-10(22)9-12(13)23/h3-5,7,9,14,20H,6,8H2,1-2H3,(H,24,27)/t14-,20?/m0/s1
FORMULA=C21H18F2N2O6
PUBMED=N/A
SUBMITUSER=BIOADREM
LIBRARYQUALITY=0
SPECTRUMID=CCMSLIB00000080569
SCANS=2750
ID=CCMSLIB00000080569
107.0491408147 	 1.38
108.0205803405 	 0.32
109.0284053726 	 2.12
109.0647908789 	 0.58
117.0334907505 	 0.33
121.0284053726 	 2.48
122.0362304047 	 2.96
123.0076699305 	 0.28
135.0440554368 	 3.74
137.0233199947 	 1.21
149.0233199947 	 3.36
150.0311450268 	 4.71
163.0389700589 	 11.69
165.0182346168 	 0.66
165.0546201231 	 1.01
177.0182346168 	 0.36
178.0260596489 	 3.1
193.0495347452 	 100
433.1205687208 	 0
END IONS

BEGIN IONS
PEPMASS=288.1594
CHARGE=1
MSLEVEL=2
RT=0
SOURCE_INSTRUMENT=qTOF
FILENAME=CCMSLIB00000080570.ms
IONMODE=Positive
ORGANISM=Natural
NAME=MLS000766281-01!
PI=GNPS
DATACOLLECTOR=GNPS
SMILES=CN1CCC23C=CC(CC2Oc2c(ccc(C1)c32)OC)O
INCHI=InChI=1S/C17H21NO3/c1-18-8-7-17-6-5-12(19)9-14(17)21-16-13(20-2)4-3-11(10-18)15(16)17/h3-6,12,14,19H,7-10H2,1-2H3
FORMULA=C17H21NO3
PUBMED=N/A
SUBMITUSER=BIOADREM
LIBRARYQUALITY=0
SPECTRUMID=CCMSLIB00000080570
SCANS=2751
ID=CCMSLIB00000080570
115.0542261926 	 3.38
142.0777012889 	 4.74
152.0620512247 	 3.61
153.0698762568 	 6.77
154.0777012889 	 4.51
155.0491408147 	 9.59
169.0647908789 	 8.4
170.072615911 	 12.41
181.0647908789 	 17.77
182.072615911 	 21.26
183.0440554368 	 20.76
185.0960910073 	 11.68
197.059705501 	 10.1
197.0960910073 	 6.43
198.0675305331 	 88.38
203.1066556936 	 4.06
210.0675305331 	 5.3
213.0910056294 	 100
216.0780952194 	 3.16
225.0910056294 	 11
231.1015703157 	 13.31
270.1488548593 	 4.4
288.1594195456 	 3.05
END IONS

BEGIN IONS
PEPMASS=439.198
CHARGE=1
MSLEVEL=2
RT=0
SOURCE_INSTRUMENT=qTOF
FILENAME=CCMSLIB00000080571.ms
IONMODE=Positive
ORGANISM=Natural
NAME=MLS001158660-01!(2S)-2-[[(2S)-4-methyl-2-[(3-oxo-2,4-dihydroquinoxaline-1-carbonyl)amino]pentanoyl]amino]-2-phenylacetic acid
PI=GNPS
DATACOLLECTOR=GNPS
SMILES=CC(C)C[C@@H](C(=N[C@@H](c1ccccc1)C(=O)O)O)N=C(N1CC(=Nc2ccccc12)O)O
INCHI=InChI=1S/C23H26N4O5/c1-14(2)12-17(21(29)26-20(22(30)31)15-8-4-3-5-9-15)25-23(32)27-13-19(28)24-16-10-6-7-11-18(16)27/h3-11,14,17,20H,12-13H2,1-2H3,(H,24,28)(H,25,32)(H,26,29)(H,30,31)/t17-,20-/m0/s1
FORMULA=C23H26N4O5
PUBMED=N/A
SUBMITUSER=BIOADREM
LIBRARYQUALITY=0
SPECTRUMID=CCMSLIB00000080571
SCANS=2752
ID=CCMSLIB00000080571
106.0651252299 	 3.14
107.0491408147 	 1.49
119.060374203 	 13.14
121.0760242672 	 6.35
132.0443897878 	 6.37
133.0760242672 	 0.52
135.0440554368 	 2.71
147.0552888251 	 100
149.0709388893 	 3.44
161.0709388893 	 0.83
175.0502034472 	 40.14
193.0607681335 	 0.57
204.0767525487 	 4.47
217.1335391461 	 3.14
232.1444381834 	 2.71
245.1284537682 	 2
260.1393528055 	 18.83
288.1342674276 	 0.5
439.1975959659 	 0
END IONS

BEGIN IONS
PEPMASS=363.1326
CHARGE=1
MSLEVEL=2
RT=0
SOURCE_INSTRUMENT=qTOF
FILENAME=CCMSLIB00000080572.ms
IONMODE=Positive
ORGANISM=Natural
NAME=MLS001075309-01!
PI=GNPS
DATACOLLECTOR=GNPS
SMILES=c1cc(cc(c1)C(F)(F)F)C(=O)N1C[C@H]2C[C@@H](C1)c1cccc(=O)n1C2
INCHI=InChI=1S/C19H17F3N2O2/c20-19(21,22)15-4-1-3-13(8-15)18(26)23-9-12-7-14(11-23)16-5-2-6-17(25)24(16)10-12/h1-6,8,12,14H,7,9-11H2/t12-,14+/m1/s1
FORMULA=C19H17F3N2O2
PUBMED=N/A
SUBMITUSER=BIOADREM
LIBRARYQUALITY=0
SPECTRUMID=CCMSLIB00000080572
SCANS=2753
ID=CCMSLIB00000080572
101.0197324642 	 2.19
115.0542261926 	 0.25
117.0573001978 	 1.25
125.0197324642 	 0.31
127.0353825284 	 0.98
129.0146470863 	 0.8
132.0807752941 	 0.74
142.0651252299 	 0.69
145.0259606963 	 21.24
155.0302971505 	 10.52
160.0756899162 	 7.65
170.0775816941 	 0.29
173.0208753184 	 100
198.0724963162 	 0.4
252.0819181483 	 0.43
272.0881463804 	 0.21
280.0768327704 	 6.95
281.0783901973 	 1.71
300.0830610025 	 7.99
320.0892892346 	 0.35
343.1252601682 	 8.45
363.1314884003 	 20.6
END IONS

BEGIN IONS
PEPMASS=400.2135
CHARGE=1
MSLEVEL=2
RT=0
SOURCE_INSTRUMENT=qTOF
FILENAME=CCMSLIB00000080573.ms
IONMODE=Positive
ORGANISM=Natural
NAME=MLS001142946-01!7-[2-[(4aS,8aS)-4a-hydroxy-1,3,4,5,6,7,8,8a-octahydroisoquinolin-2-yl]-2-oxoethoxy]-3,4,8-trimethylchromen-2-one
PI=GNPS
DATACOLLECTOR=GNPS
SMILES=Cc1c(C)c(=O)oc2c(C)c(ccc12)OCC(=O)N1CC[C@]2(CCCC[C@H]2C1)O
INCHI=InChI=1S/C23H29NO5/c1-14-15(2)22(26)29-21-16(3)19(8-7-18(14)21)28-13-20(25)24-11-10-23(27)9-5-4-6-17(23)12-24/h7-8,17,27H,4-6,9-13H2,1-3H3/t17-,23-/m0/s1
FORMULA=C23H29NO5
PUBMED=N/A
SUBMITUSER=BIOADREM
LIBRARYQUALITY=0
SPECTRUMID=CCMSLIB00000080573
SCANS=2754
ID=CCMSLIB00000080573
95.072950262 	 3.77
96.0807752941 	 2.79
97.0886003262 	 1.87
105.0698762568 	 14.35
107.085526321 	 2.04
108.0807752941 	 50.32
109.0886003262 	 20.98
119.0491408147 	 2.06
119.085526321 	 2.59
120.0933513531 	 4.84
121.1011763852 	 11.79
122.0964253583 	 26.09
128.0620512247 	 2.04
129.0698762568 	 6.25
130.0777012889 	 2.24
131.085526321 	 24.83
133.1011763852 	 2.37
135.0804409431 	 3.43
136.1120754225 	 69.88
137.1199004546 	 94.05
138.1277254867 	 45.25
150.0913399804 	 10.28
150.1277254867 	 51.97
151.1355505188 	 30.75
159.0804409431 	 74.74
161.0960910073 	 9.09
164.1069900446 	 6.6
174.0675305331 	 2.89
178.1226401088 	 14.71
179.1304651409 	 100
187.0753555652 	 3.7
189.0910056294 	 23.44
205.0859202515 	 8.01
217.0859202515 	 92.69
219.0889942567 	 2.72
245.0808348736 	 11.23
262.1073839751 	 8.39
263.1152090072 	 1.94
354.2063697382 	 12.14
382.2012843603 	 13.48
400.2118490466 	 0.55
END IONS

BEGIN IONS
PEPMASS=402.192
CHARGE=1
MSLEVEL=2
RT=0
SOURCE_INSTRUMENT=qTOF
FILENAME=CCMSLIB00000080574.ms
IONMODE=Positive
ORGANISM=Natural
NAME=MLS001140968-01!4-[[[2-(3-ethyl-4-methyl-2-oxochromen-7-yl)oxyacetyl]amino]methyl]cyclohexane-1-carboxylic acid
PI=GNPS
DATACOLLECTOR=GNPS
SMILES=CCc1c(C)c2ccc(cc2oc1=O)OCC(=NCC1CCC(CC1)C(=O)O)O
INCHI=InChI=1S/C22H27NO6/c1-3-17-13(2)18-9-8-16(10-19(18)29-22(17)27)28-12-20(24)23-11-14-4-6-15(7-5-14)21(25)26/h8-10,14-15H,3-7,11-12H2,1-2H3,(H,23,24)(H,25,26)
FORMULA=C22H27NO6
PUBMED=N/A
SUBMITUSER=BIOADREM
LIBRARYQUALITY=0
SPECTRUMID=CCMSLIB00000080574
SCANS=2755
ID=CCMSLIB00000080574
95.085526321 	 7.76
105.0698762568 	 1.32
107.0491408147 	 2.37
115.0542261926 	 0.78
119.085526321 	 1.39
124.1120754225 	 1.57
131.085526321 	 9.69
147.0440554368 	 2.02
147.0804409431 	 1.26
149.059705501 	 1.29
149.0960910073 	 1
152.1069900446 	 1.78
159.0804409431 	 11.84
161.059705501 	 5.17
161.0960910073 	 5.13
162.0675305331 	 1.72
163.0389700589 	 1.15
171.0804409431 	 1.39
174.0675305331 	 1.07
175.0753555652 	 1.1
176.0831805973 	 1.76
177.0910056294 	 3.43
180.1019046667 	 3.12
187.0753555652 	 7.57
189.0546201231 	 8.49
189.0910056294 	 16.43
204.0780952194 	 4.64
205.0859202515 	 100
217.0859202515 	 46.46
245.0808348736 	 17.31
262.1073839751 	 61.37
356.1856342961 	 19.67
402.1911136045 	 0
END IONS

BEGIN IONS
PEPMASS=403.198
CHARGE=1
MSLEVEL=2
RT=0
SOURCE_INSTRUMENT=qTOF
FILENAME=CCMSLIB00000080575.ms
IONMODE=Positive
ORGANISM=Natural
NAME=MLS001159172-01!(2R)-1-[(2S)-3-methyl-2-[(3-oxo-2,4-dihydroquinoxaline-1-carbonyl)amino]pentanoyl]pyrrolidine-2-carboxylic acid
PI=GNPS
DATACOLLECTOR=GNPS
SMILES=CCC(C)[C@@H](C(=O)N1CCC[C@@H]1C(=O)O)N=C(N1CC(=Nc2ccccc12)O)O
INCHI=InChI=1S/C20H26N4O5/c1-3-12(2)17(18(26)23-10-6-9-15(23)19(27)28)22-20(29)24-11-16(25)21-13-7-4-5-8-14(13)24/h4-5,7-8,12,15,17H,3,6,9-11H2,1-2H3,(H,21,25)(H,22,29)(H,27,28)/t12?,15-,17+/m1/s1
FORMULA=C20H26N4O5
PUBMED=N/A
SUBMITUSER=BIOADREM
LIBRARYQUALITY=0
SPECTRUMID=CCMSLIB00000080575
SCANS=2756
ID=CCMSLIB00000080575
98.060039852 	 1.37
116.0706045383 	 5.59
119.060374203 	 15.01
121.0760242672 	 28.62
133.0634482082 	 1.43
147.0552888251 	 100
148.0604337825 	 7.7
149.0682588146 	 3.25
161.0808348736 	 1.4
164.0818379266 	 4.85
175.0502034472 	 38.86
192.0767525487 	 17.35
204.0780952194 	 7.85
205.0818975061 	 1.77
217.1420924597 	 1.51
232.1457808541 	 4.62
255.1366131513 	 3.94
260.1406954762 	 56.95
262.139746736 	 2.23
403.1975959659 	 0
END IONS

BEGIN IONS
PEPMASS=315.0875
CHARGE=1
MSLEVEL=2
RT=0
SOURCE_INSTRUMENT=qTOF
FILENAME=CCMSLIB00000080576.ms
IONMODE=Positive
ORGANISM=Natural
NAME=MLS000876998-01!5-hydroxy-2-(4-hydroxyphenyl)-6,7-dimethoxychromen-4-one
PI=GNPS
DATACOLLECTOR=GNPS
SMILES=COc1cc2c(c(=O)cc(c3ccc(cc3)O)o2)c(c1OC)O
INCHI=InChI=1S/C17H14O6/c1-21-14-8-13-15(16(20)17(14)22-2)11(19)7-12(23-13)9-3-5-10(18)6-4-9/h3-8,18,20H,1-2H3
FORMULA=C17H14O6
PUBMED=N/A
SUBMITUSER=BIOADREM
LIBRARYQUALITY=0
SPECTRUMID=CCMSLIB00000080576
SCANS=2757
ID=CCMSLIB00000080576
108.0205803405 	 40.06
118.0413157826 	 4.16
119.0491408147 	 14.33
121.0284053726 	 9.99
124.0154949626 	 1.77
133.9998448984 	 2.27
136.0154949626 	 56.7
139.0025845526 	 1.38
141.0698762568 	 1.59
144.0569658468 	 2.2
152.0104095847 	 5.01
152.0620512247 	 1.11
153.0698762568 	 1.59
154.0260596489 	 5.84
169.0647908789 	 10.34
170.072615911 	 8.47
179.0491408147 	 0.96
180.0569658468 	 2.38
181.0647908789 	 3.74
182.020974271 	 1.54
197.059705501 	 9.59
198.0675305331 	 5.49
199.0753555652 	 0.92
225.0546201231 	 2.15
226.0624451552 	 17.23
253.0495347452 	 3.19
254.0573597773 	 100
257.0444493673 	 7.43
271.0600994315 	 13.75
281.0444493673 	 2.15
282.0522743994 	 40.61
285.0393639894 	 4.32
299.0550140536 	 7.17
300.0628390857 	 14.27
315.086314182 	 12.28
END IONS

BEGIN IONS
PEPMASS=434.175
CHARGE=1
MSLEVEL=2
RT=0
SOURCE_INSTRUMENT=qTOF
FILENAME=CCMSLIB00000080577.ms
IONMODE=Positive
ORGANISM=Natural
NAME=MLS001076806-01!2-[2-[(1S)-6,7-dimethoxy-1-methyl-3,4-dihydro-1H-isoquinolin-2-yl]-2-oxoethyl]sulfanyl-4-hydroxy-5-propan-2-yl-1H-pyrimidin-6-one
PI=GNPS
DATACOLLECTOR=GNPS
SMILES=CC(C)c1c(nc(nc1O)SCC(=O)N1CCc2cc(c(cc2[C@@H]1C)OC)OC)O
INCHI=InChI=1S/C21H27N3O5S/c1-11(2)18-19(26)22-21(23-20(18)27)30-10-17(25)24-7-6-13-8-15(28-4)16(29-5)9-14(13)12(24)3/h8-9,11-12H,6-7,10H2,1-5H3,(H2,22,23,26,27)/t12-/m0/s1
FORMULA=C21H27N3O5S
PUBMED=N/A
SUBMITUSER=BIOADREM
LIBRARYQUALITY=0
SPECTRUMID=CCMSLIB00000080577
SCANS=2758
ID=CCMSLIB00000080577
105.0420440641 	 3.22
106.0651252299 	 5.42
107.060374203 	 17.31
108.0655191604 	 3.58
109.0760242672 	 2.5
111.0440554368 	 61.06
117.0698762568 	 2.92
122.060039852 	 2.28
129.0698762568 	 5.28
131.047798144 	 2.59
135.0440554368 	 2.26
135.0916743314 	 10.02
140.0706045383 	 15.71
144.0556231761 	 2.81
145.0647908789 	 9.58
147.0804409431 	 4.16
149.0556827556 	 2.39
150.0675305331 	 2.39
159.0474262552 	 2.34
159.0790982724 	 5.67
160.0882659752 	 45.21
161.059705501 	 5.59
161.0920682619 	 10.9
165.0910056294 	 27.93
166.0948079161 	 3.14
175.0991650125 	 2.28
176.0831805973 	 30.35
177.086982884 	 4.65
179.1026329482 	 7.46
189.0896629587 	 3.85
191.1066556936 	 100
192.1104579803 	 11.92
193.1097296988 	 2.15
199.0535742656 	 34.31
201.0480949572 	 2.15
208.1332047951 	 47.83
209.1370070818 	 7.54
211.1077183261 	 2.72
227.0484888877 	 59.6
229.0430095793 	 7.15
269.0828630213 	 3.11
295.0985130855 	 6.52
434.1744176828 	 0
END IONS

BEGIN IONS
PEPMASS=447.202
CHARGE=1
MSLEVEL=2
RT=0
SOURCE_INSTRUMENT=qTOF
FILENAME=CCMSLIB00000080578.ms
IONMODE=Positive
ORGANISM=Natural
NAME=MLS000877028-01!3,6-bis(3,4,5-trimethoxyphenyl)-1,3,3a,4,6,6a-hexahydrofuro[3,4-c]furan
PI=GNPS
DATACOLLECTOR=GNPS
SMILES=COc1cc(cc(c1OC)OC)C1C2COC(c3cc(c(c(c3)OC)OC)OC)C2CO1
INCHI=InChI=1S/C24H30O8/c1-25-17-7-13(8-18(26-2)23(17)29-5)21-15-11-32-22(16(15)12-31-21)14-9-19(27-3)24(30-6)20(10-14)28-4/h7-10,15-16,21-22H,11-12H2,1-6H3
FORMULA=C24H30O8
PUBMED=N/A
SUBMITUSER=BIOADREM
LIBRARYQUALITY=0
SPECTRUMID=CCMSLIB00000080578
SCANS=2759
ID=CCMSLIB00000080578
136.0518804689 	 10.62
138.0675305331 	 5.83
145.0647908789 	 19.33
148.0518804689 	 11.34
151.0753555652 	 5.96
156.0569658468 	 5.07
157.0647908789 	 5.11
159.0804409431 	 9.87
161.059705501 	 7.92
166.0624451552 	 31.8
173.059705501 	 13.88
174.0675305331 	 7.51
175.0753555652 	 6
176.0831805973 	 10.9
181.0859202515 	 78.44
187.0753555652 	 23.71
188.0831805973 	 73.99
189.0546201231 	 24.64
190.0624451552 	 5.35
193.0859202515 	 5.89
201.0546201231 	 10.45
202.0988306615 	 30.67
203.0702701873 	 9.77
204.0780952194 	 86.91
216.0780952194 	 4.97
219.1015703157 	 100
231.1015703157 	 48.42
233.1172203799 	 6.13
249.112135002 	 5.76
261.112135002 	 7.98
291.1015703157 	 6.13
295.0964849378 	 7.98
306.125045412 	 5.11
313.1070496241 	 7.54
321.112135002 	 6.51
322.1199600341 	 9.32
334.1199600341 	 5.04
337.1434351304 	 5.24
353.1383497525 	 6.44
365.1383497525 	 13.3
381.1332643746 	 5.48
411.1802145672 	 4.93
447.2013439398 	 0
END IONS

BEGIN IONS
PEPMASS=407.172
CHARGE=1
MSLEVEL=2
RT=0
SOURCE_INSTRUMENT=qTOF
FILENAME=CCMSLIB00000080579.ms
IONMODE=Positive
ORGANISM=Natural
NAME=MLS001142797-01!
PI=GNPS
DATACOLLECTOR=GNPS
SMILES=C[C@@H](C(=NCc1ccco1)O)N1C(=O)[C@]2(C)c3c(CCN2C1=O)c1ccccc1[nH]3
INCHI=InChI=1S/C22H22N4O4/c1-13(19(27)23-12-14-6-5-11-30-14)26-20(28)22(2)18-16(9-10-25(22)21(26)29)15-7-3-4-8-17(15)24-18/h3-8,11,13,24H,9-10,12H2,1-2H3,(H,23,27)/t13-,22-/m0/s1
FORMULA=C22H22N4O4
PUBMED=N/A
SUBMITUSER=BIOADREM
LIBRARYQUALITY=0
SPECTRUMID=CCMSLIB00000080579
SCANS=2760
ID=CCMSLIB00000080579
107.0491408147 	 1.08
142.0651252299 	 1.17
144.0807752941 	 10.75
156.0807752941 	 1.45
168.0807752941 	 8.49
169.0760242672 	 1.67
170.060039852 	 1.3
170.0964253583 	 0.98
180.0807752941 	 1.36
183.0916743314 	 25.66
185.1073243956 	 31.55
194.0964253583 	 1.4
196.1120754225 	 0.83
211.0865889535 	 30.97
212.1195661036 	 1.03
213.1022390177 	 4
222.0913399804 	 0.81
224.1069900446 	 2.7
239.0815035756 	 2.44
240.0767525487 	 1.48
240.1144807257 	 0.92
252.113138055 	 5.62
254.1287881192 	 100
256.1080526771 	 6.04
265.1335391461 	 1.89
280.1080526771 	 5.37
282.1237027413 	 18.99
291.112803704 	 1.15
294.125045412 	 1.49
334.1550028697 	 4.29
362.1499174918 	 0.81
407.1713812154 	 0
END IONS

BEGIN IONS
PEPMASS=432.1918
CHARGE=1
MSLEVEL=2
RT=0
SOURCE_INSTRUMENT=qTOF
FILENAME=CCMSLIB00000080580.ms
IONMODE=Positive
ORGANISM=Natural
NAME=MLS001142426-01!
PI=GNPS
DATACOLLECTOR=GNPS
SMILES=COc1ccc(c(c1)c1c2c(cc(C(=O)NCC3CCCO3)[nH]1)c1ccccc1n2)OC
INCHI=InChI=1S/C25H25N3O4/c1-30-15-9-10-22(31-2)19(12-15)24-23-18(17-7-3-4-8-20(17)27-23)13-21(28-24)25(29)26-14-16-6-5-11-32-16/h3-4,7-10,12-13,16,28H,5-6,11,14H2,1-2H3,(H,26,29)
FORMULA=C25H25N3O4
PUBMED=N/A
SUBMITUSER=BIOADREM
LIBRARYQUALITY=0
SPECTRUMID=CCMSLIB00000080580
SCANS=2761
ID=CCMSLIB00000080580
128.0494751657 	 1.2
155.060374203 	 46.55
216.0807752941 	 1.86
229.0760242672 	 1.24
231.0916743314 	 0.9
232.0994993635 	 3.11
233.0835149483 	 6.69
242.0838492993 	 2.39
243.0916743314 	 6.61
248.1069900446 	 4.98
257.0709388893 	 3.52
259.0865889535 	 4.89
260.0944139856 	 7.25
270.0787639214 	 3.5
271.0865889535 	 15.16
272.0944139856 	 32.19
273.0658535114 	 53.06
275.1178890819 	 6.42
276.1019046667 	 25.76
285.1022390177 	 3.75
288.0893286077 	 53.99
300.0767525487 	 2.36
303.112803704 	 100
315.100227645 	 1.59
321.1233683903 	 51.93
330.1237027413 	 10.69
331.1077183261 	 11.89
349.1182830124 	 8.91
414.1812176202 	 1.44
432.1917823065 	 19.87
END IONS

BEGIN IONS
PEPMASS=451.2391
CHARGE=1
MSLEVEL=2
RT=0
SOURCE_INSTRUMENT=qTOF
FILENAME=CCMSLIB00000080581.ms
IONMODE=Positive
ORGANISM=Natural
NAME=MLS001142411-01!1-[(2S)-2-amino-4-methylsulfanylbutanoyl]-N-[(2S)-1-[(2-methoxyphenyl)methylamino]-1-oxopropan-2-yl]piperidine-4-carboxamide
PI=GNPS
DATACOLLECTOR=GNPS
SMILES=C[C@@H](C(=NCc1ccccc1OC)O)N=C(C1CCN(CC1)C(=O)[C@H](CCSC)N)O
INCHI=InChI=1S/C22H34N4O4S/c1-15(20(27)24-14-17-6-4-5-7-19(17)30-2)25-21(28)16-8-11-26(12-9-16)22(29)18(23)10-13-31-3/h4-7,15-16,18H,8-14,23H2,1-3H3,(H,24,27)(H,25,28)/t15-,18-/m0/s1
FORMULA=C22H34N4O4S
PUBMED=N/A
SUBMITUSER=BIOADREM
LIBRARYQUALITY=0
SPECTRUMID=CCMSLIB00000080581
SCANS=2762
ID=CCMSLIB00000080581
104.0528459841 	 9.87
111.0916743314 	 1.2
112.0756899162 	 81.63
121.0647908789 	 100
130.0684960483 	 2.13
138.0913399804 	 4.08
139.0865889535 	 1.25
140.0706045383 	 0.85
155.1178890819 	 12.2
167.0815035756 	 2.19
168.0841461125 	 0.89
183.112803704 	 19.22
184.1154462409 	 1.59
209.1284537682 	 25.28
238.1550028697 	 9.18
266.1499174918 	 1.15
314.1532883102 	 3.17
320.1968676844 	 20.44
403.2339814722 	 4.93
451.2373522906 	 2.18
END IONS

BEGIN IONS
PEPMASS=431.1601
CHARGE=1
MSLEVEL=2
RT=0
SOURCE_INSTRUMENT=qTOF
FILENAME=CCMSLIB00000080582.ms
IONMODE=Positive
ORGANISM=Natural
NAME=MLS001158063-01!2-[4-(4-methoxyphenyl)-2-oxochromen-7-yl]oxy-N-(pyridin-2-ylmethyl)propanamide
PI=GNPS
DATACOLLECTOR=GNPS
SMILES=CC(C(=NCc1ccccn1)O)Oc1ccc2c(cc(=O)oc2c1)c1ccc(cc1)OC
INCHI=InChI=1S/C25H22N2O5/c1-16(25(29)27-15-18-5-3-4-12-26-18)31-20-10-11-21-22(14-24(28)32-23(21)13-20)17-6-8-19(30-2)9-7-17/h3-14,16H,15H2,1-2H3,(H,27,29)
FORMULA=C25H22N2O5
PUBMED=N/A
SUBMITUSER=BIOADREM
LIBRARYQUALITY=0
SPECTRUMID=CCMSLIB00000080582
SCANS=2763
ID=CCMSLIB00000080582
104.0494751657 	 6.01
105.0573001978 	 11.4
106.0651252299 	 19.41
107.060374203 	 100
109.0760242672 	 18.1
111.0440554368 	 4.66
118.0651252299 	 4.17
133.0522148199 	 6.71
135.0916743314 	 61.05
140.0706045383 	 2.73
145.0760242672 	 9.06
146.0838492993 	 8.34
152.0620512247 	 3.21
159.0440554368 	 7.18
160.0882659752 	 5.52
163.0865889535 	 28.66
164.0944139856 	 29.06
165.0698762568 	 2.57
171.0804409431 	 3.76
176.0831805973 	 3.07
179.085526321 	 4.03
180.0569658468 	 2.58
185.059705501 	 2.59
191.1066556936 	 9.48
195.0804409431 	 24.7
197.0920682619 	 2.82
207.0804409431 	 4.33
208.0518804689 	 2.6
208.0882659752 	 4.32
211.1117410715 	 4.58
213.0910056294 	 2.53
223.0753555652 	 6.27
224.0831805973 	 8.57
225.0910056294 	 6.14
227.0702701873 	 14.66
236.0831805973 	 2.63
239.1066556936 	 12.93
251.0702701873 	 5.96
251.1026329482 	 2.83
252.0780952194 	 7.01
253.0859202515 	 8.06
267.1015703157 	 21.8
269.0808348736 	 33.13
280.0730098415 	 3.42
295.0964849378 	 76.48
413.1495831408 	 3.01
431.1601478271 	 11.03
END IONS

BEGIN IONS
PEPMASS=455.145
CHARGE=1
MSLEVEL=2
RT=0
SOURCE_INSTRUMENT=qTOF
FILENAME=CCMSLIB00000080583.ms
IONMODE=Positive
ORGANISM=Natural
NAME=MLS001158456-01!methyl 2-[[(2S)-1-(4,5-dimethoxy-3-oxo-1H-2-benzofuran-1-yl)-5-oxopyrrolidine-2-carbonyl]amino]benzoate
PI=GNPS
DATACOLLECTOR=GNPS
SMILES=COc1ccc2c(c1OC)C(=O)OC2N1[C@@H](CCC1=O)C(=Nc1ccccc1C(=O)OC)O
INCHI=InChI=1S/C23H22N2O8/c1-30-16-10-8-13-18(19(16)31-2)23(29)33-21(13)25-15(9-11-17(25)26)20(27)24-14-7-5-4-6-12(14)22(28)32-3/h4-8,10,15,21H,9,11H2,1-3H3,(H,24,27)/t15-,21?/m0/s1
FORMULA=C23H22N2O8
PUBMED=N/A
SUBMITUSER=BIOADREM
LIBRARYQUALITY=0
SPECTRUMID=CCMSLIB00000080583
SCANS=2764
ID=CCMSLIB00000080583
107.0491408147 	 0.74
109.0284053726 	 1.82
117.0334907505 	 0.34
120.0205803405 	 0.27
121.0284053726 	 1.49
122.0362304047 	 2.43
135.0440554368 	 4.44
137.0233199947 	 1.28
137.059705501 	 0.3
149.0233199947 	 3.31
150.0311450268 	 4.35
163.0389700589 	 12.24
165.0182346168 	 1.16
165.0546201231 	 0.82
178.0260596489 	 2.65
193.0495347452 	 100
326.1022985972 	 0.81
455.1448916934 	 0
END IONS

BEGIN IONS
PEPMASS=531.177
CHARGE=1
MSLEVEL=2
RT=0
SOURCE_INSTRUMENT=qTOF
FILENAME=CCMSLIB00000080584.ms
IONMODE=Positive
ORGANISM=Natural
NAME=MLS001140855-01!(2S)-3-(5-hydroxy-1H-indol-3-yl)-2-[2-(8-methoxy-4-methyl-6-oxobenzo[c]chromen-3-yl)oxypropanoylamino]propanoic acid
PI=GNPS
DATACOLLECTOR=GNPS
SMILES=Cc1c(ccc2c3ccc(cc3c(=O)oc12)OC)OC(C)C(=N[C@@H](Cc1c[nH]c2ccc(cc12)O)C(=O)O)O
INCHI=InChI=1S/C29H26N2O8/c1-14-25(9-7-20-19-6-5-18(37-3)12-22(19)29(36)39-26(14)20)38-15(2)27(33)31-24(28(34)35)10-16-13-30-23-8-4-17(32)11-21(16)23/h4-9,11-13,15,24,30,32H,10H2,1-3H3,(H,31,33)(H,34,35)/t15?,24-/m0/s1
FORMULA=C29H26N2O8
PUBMED=N/A
SUBMITUSER=BIOADREM
LIBRARYQUALITY=0
SPECTRUMID=CCMSLIB00000080584
SCANS=2765
ID=CCMSLIB00000080584
131.0491408147 	 3.2
133.0522148199 	 3.92
134.060039852 	 11.91
140.0620512247 	 2.46
146.060039852 	 100
148.0756899162 	 9.78
158.060039852 	 14.78
162.0549544741 	 24.71
168.0569658468 	 4.68
170.060039852 	 5.7
172.0756899162 	 2.27
175.0865889535 	 21.22
184.0756899162 	 20.22
185.047129442 	 3.75
186.0549544741 	 22.29
186.0913399804 	 25.92
196.0882659752 	 3.68
200.0706045383 	 2.38
204.0655191604 	 40.24
209.0960910073 	 3.74
211.0753555652 	 45.46
214.0862546025 	 2.59
215.0815035756 	 9.71
224.0831805973 	 4.81
227.1066556936 	 6.05
229.0971536398 	 4.99
230.1049786719 	 10.6
237.0910056294 	 2.37
239.0702701873 	 5.68
240.0780952194 	 10.48
241.0495347452 	 12.37
247.1077183261 	 2.95
255.0651848094 	 12.05
255.1015703157 	 8.36
257.0808348736 	 5.28
265.0859202515 	 4.86
268.0730098415 	 2.54
283.0964849378 	 40.22
531.1761918218 	 0
END IONS

BEGIN IONS
PEPMASS=416.207
CHARGE=1
MSLEVEL=2
RT=0
SOURCE_INSTRUMENT=qTOF
FILENAME=CCMSLIB00000080585.ms
IONMODE=Positive
ORGANISM=Natural
NAME=MLS001140960-01!4-[[2-(4-ethyl-8-methyl-2-oxochromen-7-yl)oxypropanoylamino]methyl]cyclohexane-1-carboxylic acid
PI=GNPS
DATACOLLECTOR=GNPS
SMILES=CCc1cc(=O)oc2c(C)c(ccc12)OC(C)C(=NC[C@H]1CC[C@@H](CC1)C(=O)O)O
INCHI=InChI=1S/C23H29NO6/c1-4-16-11-20(25)30-21-13(2)19(10-9-18(16)21)29-14(3)22(26)24-12-15-5-7-17(8-6-15)23(27)28/h9-11,14-15,17H,4-8,12H2,1-3H3,(H,24,26)(H,27,28)/t14?,15-,17-
FORMULA=C23H29NO6
PUBMED=N/A
SUBMITUSER=BIOADREM
LIBRARYQUALITY=0
SPECTRUMID=CCMSLIB00000080585
SCANS=2766
ID=CCMSLIB00000080585
95.085526321 	 4.89
105.0698762568 	 1.65
110.0964253583 	 1.31
112.1120754225 	 2.03
116.0620512247 	 0.97
119.085526321 	 1
121.0647908789 	 3.59
131.085526321 	 1.25
133.0647908789 	 0.89
137.059705501 	 0.9
138.0913399804 	 2.44
138.1277254867 	 3.66
140.1069900446 	 11.49
143.085526321 	 0.74
145.0647908789 	 1.21
146.072615911 	 3.28
149.0960910073 	 1.55
152.1069900446 	 1.07
159.0804409431 	 5.92
161.059705501 	 0.69
162.0675305331 	 1.38
163.0753555652 	 0.89
166.1226401088 	 2.1
167.1304651409 	 7.9
175.0753555652 	 4.62
175.1117410715 	 1.77
177.0910056294 	 1.19
184.1332047951 	 4.97
187.0753555652 	 1.1
188.0831805973 	 0.66
190.0624451552 	 3.47
203.0702701873 	 4.44
203.1066556936 	 4.09
205.0859202515 	 100
231.1015703157 	 28.26
259.0964849378 	 1.74
276.1230340393 	 4.47
370.2012843603 	 2.55
416.2067636687 	 0
END IONS

BEGIN IONS
PEPMASS=515.229
CHARGE=1
MSLEVEL=2
RT=0
SOURCE_INSTRUMENT=qTOF
FILENAME=CCMSLIB00000080586.ms
IONMODE=Positive
ORGANISM=Natural
NAME=MLS001140241-01!
PI=GNPS
DATACOLLECTOR=GNPS
SMILES=CC(C)[C@@H](C(=O)N1CCC[C@@H]1C(=O)O)N=C([C@@H]1Cc2c3ccccc3[nH]c2C2c3ccccc3C(=O)N12)O
INCHI=InChI=1S/C29H30N4O5/c1-15(2)23(28(36)32-13-7-12-21(32)29(37)38)31-26(34)22-14-19-16-8-5-6-11-20(16)30-24(19)25-17-9-3-4-10-18(17)27(35)33(22)25/h3-6,8-11,15,21-23,25,30H,7,12-14H2,1-2H3,(H,31,34)(H,37,38)/t21-,22+,23+,25?/m1/s1
FORMULA=C29H30N4O5
PUBMED=N/A
SUBMITUSER=BIOADREM
LIBRARYQUALITY=0
SPECTRUMID=CCMSLIB00000080586
SCANS=2767
ID=CCMSLIB00000080586
170.060039852 	 0.48
218.0964253583 	 0.21
230.0964253583 	 0.26
244.0756899162 	 0.23
245.1073243956 	 2.06
246.0913399804 	 0.98
255.0916743314 	 1
256.0994993635 	 1.13
257.1073243956 	 0.83
258.1151494277 	 0.24
271.0865889535 	 9.38
272.0944139856 	 2.89
273.1022390177 	 100
274.1100640498 	 23.26
276.113138055 	 0.35
299.0815035756 	 0.24
301.0971536398 	 1.96
302.1049786719 	 0.53
354.1600882476 	 0.27
372.1706529339 	 2.51
515.2288960943 	 0
END IONS

BEGIN IONS
PEPMASS=257.081
CHARGE=1
MSLEVEL=2
RT=0
SOURCE_INSTRUMENT=qTOF
FILENAME=CCMSLIB00000080587.ms
IONMODE=Positive
ORGANISM=Natural
NAME=MLS000877016-01!5,7-dihydroxy-2-phenyl-2,3-dihydrochromen-4-one
PI=GNPS
DATACOLLECTOR=GNPS
SMILES=c1ccc(cc1)C1CC(=O)c2c(cc(cc2O1)O)O
INCHI=InChI=1S/C15H12O4/c16-10-6-11(17)15-12(18)8-13(19-14(15)7-10)9-4-2-1-3-5-9/h1-7,13,16-17H,8H2
FORMULA=C15H12O4
PUBMED=N/A
SUBMITUSER=BIOADREM
LIBRARYQUALITY=0
SPECTRUMID=CCMSLIB00000080587
SCANS=2768
ID=CCMSLIB00000080587
97.0284053726 	 1.31
103.0542261926 	 26.97
107.0491408147 	 0.91
123.0440554368 	 2.72
131.0491408147 	 17.15
135.0076699305 	 0.54
145.0647908789 	 0.56
151.0389700589 	 1.7
153.0182346168 	 100
173.059705501 	 1.82
257.0808348736 	 0
END IONS

BEGIN IONS
PEPMASS=466.186
CHARGE=1
MSLEVEL=2
RT=0
SOURCE_INSTRUMENT=qTOF
FILENAME=CCMSLIB00000080588.ms
IONMODE=Positive
ORGANISM=Natural
NAME=MLS001162656-01!(2R)-2-phenyl-2-[[2-[(3,4,8,8-tetramethyl-2-oxo-9,10-dihydropyrano[2,3-h]chromen-5-yl)oxy]acetyl]amino]acetic acid
PI=GNPS
DATACOLLECTOR=GNPS
SMILES=Cc1c(C)c(=O)oc2c3CCC(C)(C)Oc3cc(c12)OCC(=N[C@H](c1ccccc1)C(=O)O)O
INCHI=InChI=1S/C26H27NO7/c1-14-15(2)25(31)33-23-17-10-11-26(3,4)34-18(17)12-19(21(14)23)32-13-20(28)27-22(24(29)30)16-8-6-5-7-9-16/h5-9,12,22H,10-11,13H2,1-4H3,(H,27,28)(H,29,30)/t22-/m1/s1
FORMULA=C26H27NO7
PUBMED=N/A
SUBMITUSER=BIOADREM
LIBRARYQUALITY=0
SPECTRUMID=CCMSLIB00000080588
SCANS=2769
ID=CCMSLIB00000080588
103.0542261926 	 0.92
106.0651252299 	 7.65
107.0491408147 	 4.27
109.0284053726 	 1.8
117.0573001978 	 1.79
118.0651252299 	 38.05
119.0491408147 	 5.56
121.0647908789 	 3.11
128.0494751657 	 0.88
131.0491408147 	 1
134.060039852 	 6.19
135.0440554368 	 8.23
145.0647908789 	 2.31
146.060039852 	 41
147.0440554368 	 37.01
149.059705501 	 2.29
163.0753555652 	 4.97
173.059705501 	 4.94
174.0549544741 	 3.8
175.0753555652 	 2.65
177.0546201231 	 2.49
190.0624451552 	 2.9
191.0702701873 	 13.61
201.0546201231 	 0.95
203.0702701873 	 5.41
219.0651848094 	 100
229.1223057578 	 3.51
231.0651848094 	 34.22
247.0600994315 	 2.58
259.0600994315 	 33.16
276.086648533 	 10
287.1277850662 	 5.7
315.1226996883 	 4.43
332.1492487898 	 2.33
364.1179486614 	 3.43
392.1128632835 	 1
410.1234279698 	 31.25
466.1860282266 	 1.24
END IONS

BEGIN IONS
PEPMASS=333.097
CHARGE=1
MSLEVEL=2
RT=0
SOURCE_INSTRUMENT=qTOF
FILENAME=CCMSLIB00000080589.ms
IONMODE=Positive
ORGANISM=Natural
NAME=MLS000863634-01!methyl 2-(2,6-dihydroxy-4-methylbenzoyl)-5-hydroxy-3-methoxybenzoate
PI=GNPS
DATACOLLECTOR=GNPS
SMILES=Cc1cc(c(c(c1)O)C(=O)c1c(cc(cc1OC)O)C(=O)OC)O
INCHI=InChI=1S/C17H16O7/c1-8-4-11(19)15(12(20)5-8)16(21)14-10(17(22)24-3)6-9(18)7-13(14)23-2/h4-7,18-20H,1-3H3
FORMULA=C17H16O7
PUBMED=N/A
SUBMITUSER=BIOADREM
LIBRARYQUALITY=0
SPECTRUMID=CCMSLIB00000080589
SCANS=2770
ID=CCMSLIB00000080589
108.0205803405 	 1.53
109.0284053726 	 1.43
123.0076699305 	 2.31
123.0440554368 	 1.56
135.0076699305 	 1.87
137.0233199947 	 1.4
138.0311450268 	 5.83
150.0311450268 	 4.42
166.0260596489 	 7.79
179.033884681 	 6.76
181.0495347452 	 4.45
209.0444493673 	 100
333.0968788683 	 0
END IONS

BEGIN IONS
PEPMASS=445.3173
CHARGE=1
MSLEVEL=2
RT=0
SOURCE_INSTRUMENT=qTOF
FILENAME=CCMSLIB00000080590.ms
IONMODE=Positive
ORGANISM=Natural
NAME=MLS001141063-01!1-[(2S)-2-amino-4-methylpentanoyl]-N-[(2S)-3-methyl-1-[(4-methylphenyl)methylamino]-1-oxobutan-2-yl]piperidine-4-carboxamide
PI=GNPS
DATACOLLECTOR=GNPS
SMILES=CC(C)C[C@@H](C(=O)N1CCC(CC1)C(=N[C@@H](C(C)C)C(=NCc1ccc(C)cc1)O)O)N
INCHI=InChI=1S/C25H40N4O3/c1-16(2)14-21(26)25(32)29-12-10-20(11-13-29)23(30)28-22(17(3)4)24(31)27-15-19-8-6-18(5)7-9-19/h6-9,16-17,20-22H,10-15,26H2,1-5H3,(H,27,31)(H,28,30)/t21-,22-/m0/s1
FORMULA=C25H40N4O3
PUBMED=N/A
SUBMITUSER=BIOADREM
LIBRARYQUALITY=0
SPECTRUMID=CCMSLIB00000080590
SCANS=2771
ID=CCMSLIB00000080590
105.0698762568 	 31.84
112.0756899162 	 100
122.0964253583 	 3.74
129.1022390177 	 0.56
140.1433755509 	 2.76
164.1069900446 	 0.32
176.1433755509 	 3.15
181.1335391461 	 0.96
183.1491892103 	 40.49
193.1335391461 	 0.29
209.1284537682 	 0.67
211.1441038324 	 48.45
237.1597538966 	 0.27
279.2067040892 	 2.91
296.2332531907 	 7.87
324.2281678128 	 5.95
428.2907680696 	 0.78
445.3173171711 	 4.24
END IONS

BEGIN IONS
PEPMASS=480.202
CHARGE=1
MSLEVEL=2
RT=0
SOURCE_INSTRUMENT=qTOF
FILENAME=CCMSLIB00000080591.ms
IONMODE=Positive
ORGANISM=Natural
NAME=MLS001140938-01!4-[[[2-[4-(4-methoxyphenyl)-8-methyl-2-oxochromen-7-yl]oxyacetyl]amino]methyl]cyclohexane-1-carboxylic acid
PI=GNPS
DATACOLLECTOR=GNPS
SMILES=Cc1c(ccc2c(cc(=O)oc12)c1ccc(cc1)OC)OCC(=NC[C@H]1CC[C@@H](CC1)C(=O)O)O
INCHI=InChI=1S/C27H29NO7/c1-16-23(34-15-24(29)28-14-17-3-5-19(6-4-17)27(31)32)12-11-21-22(13-25(30)35-26(16)21)18-7-9-20(33-2)10-8-18/h7-13,17,19H,3-6,14-15H2,1-2H3,(H,28,29)(H,31,32)/t17-,19-
FORMULA=C27H29NO7
PUBMED=N/A
SUBMITUSER=BIOADREM
LIBRARYQUALITY=0
SPECTRUMID=CCMSLIB00000080591
SCANS=2772
ID=CCMSLIB00000080591
95.085526321 	 6.02
110.060039852 	 1.12
135.0440554368 	 4.2
138.0913399804 	 1.08
151.0389700589 	 5.25
153.1148150767 	 2.71
181.0647908789 	 1.13
194.072615911 	 3.38
196.0882659752 	 1.64
209.0960910073 	 5.07
211.0753555652 	 1.81
211.1117410715 	 1.47
221.059705501 	 1.05
224.0831805973 	 3.02
227.0702701873 	 2.53
227.1066556936 	 5.84
237.0910056294 	 25.19
239.0702701873 	 5.77
239.1066556936 	 6.34
240.0780952194 	 3.22
251.1066556936 	 1.37
252.0780952194 	 1.16
253.0859202515 	 2.39
254.0937452836 	 18.34
265.0859202515 	 4.71
267.1015703157 	 5.67
268.0730098415 	 1.99
281.0808348736 	 4.6
282.0886599057 	 10.04
283.0964849378 	 100
295.0964849378 	 79.72
323.0913995599 	 12.11
340.1179486614 	 33.17
352.1179486614 	 2.94
434.1961989824 	 13.22
480.2016782908 	 0
END IONS

BEGIN IONS
PEPMASS=353.1007
CHARGE=1
MSLEVEL=2
RT=0
SOURCE_INSTRUMENT=qTOF
FILENAME=CCMSLIB00000080592.ms
IONMODE=Positive
ORGANISM=Natural
NAME=MLS001143539-01!
PI=GNPS
DATACOLLECTOR=GNPS
SMILES=c1cc2c(cc1C[C@H]1COC(=O)/C/1=C/c1ccc3c(c1)OCO3)OCO2
INCHI=InChI=1S/C20H16O6/c21-20-15(6-13-2-4-17-19(8-13)26-11-24-17)14(9-22-20)5-12-1-3-16-18(7-12)25-10-23-16/h1-4,6-8,14H,5,9-11H2/b15-6+/t14-/m0/s1
FORMULA=C20H16O6
PUBMED=N/A
SUBMITUSER=BIOADREM
LIBRARYQUALITY=0
SPECTRUMID=CCMSLIB00000080592
SCANS=2773
ID=CCMSLIB00000080592
102.0464011605 	 3.46
103.0542261926 	 10.38
105.0334907505 	 3.31
115.0542261926 	 4.65
117.0334907505 	 5.08
127.0542261926 	 3.38
128.0620512247 	 5.04
129.0698762568 	 3.87
130.0413157826 	 13.83
131.0491408147 	 10.18
135.0440554368 	 100
143.0491408147 	 3.49
145.0284053726 	 4.44
145.0647908789 	 2.73
147.0440554368 	 13.92
155.0491408147 	 10.04
159.0440554368 	 8.97
160.0518804689 	 34.65
161.059705501 	 9.57
165.0698762568 	 3.64
173.059705501 	 6.91
185.059705501 	 17.42
187.0389700589 	 3.91
189.0698762568 	 11.19
190.0777012889 	 21.53
191.085526321 	 54.93
201.0698762568 	 5.3
202.0777012889 	 9.51
205.0647908789 	 5.33
213.0546201231 	 3
218.072615911 	 11.76
219.0804409431 	 79.7
231.0804409431 	 7.18
246.0675305331 	 3.21
247.0753555652 	 38.69
249.0910056294 	 13.13
259.0753555652 	 25.07
262.0624451552 	 3.92
275.0702701873 	 15.82
277.0859202515 	 27.53
287.0702701873 	 6.78
305.0808348736 	 14.38
307.0964849378 	 2.98
353.1019642462 	 0.41
END IONS

BEGIN IONS
PEPMASS=415.1531
CHARGE=1
MSLEVEL=2
RT=0
SOURCE_INSTRUMENT=qTOF
FILENAME=CCMSLIB00000080593.ms
IONMODE=Positive
ORGANISM=Natural
NAME=MLS001142922-01!
PI=GNPS
DATACOLLECTOR=GNPS
SMILES=c1cc(cc(c1)N=C(CCN=C(N1C[C@H]2C[C@@H](C1)c1cccc(=O)n1C2)O)O)Cl
INCHI=InChI=1S/C21H23ClN4O3/c22-16-3-1-4-17(10-16)24-19(27)7-8-23-21(29)25-11-14-9-15(13-25)18-5-2-6-20(28)26(18)12-14/h1-6,10,14-15H,7-9,11-13H2,(H,23,29)(H,24,27)/t14-,15+/m1/s1
FORMULA=C21H23ClN4O3
PUBMED=N/A
SUBMITUSER=BIOADREM
LIBRARYQUALITY=0
SPECTRUMID=CCMSLIB00000080593
SCANS=2774
ID=CCMSLIB00000080593
106.0651252299 	 0.73
108.0443897878 	 0.72
117.0573001978 	 0.84
118.0651252299 	 0.61
126.0464011605 	 0.62
128.0256657184 	 5.36
130.0651252299 	 1.1
131.072950262 	 0.61
132.0443897878 	 1.99
132.0807752941 	 0.83
133.0522148199 	 3.12
134.060039852 	 1.73
144.0807752941 	 0.78
146.060039852 	 9.8
148.0756899162 	 17.02
152.0256657184 	 2.5
154.0651252299 	 0.77
156.0807752941 	 0.7
158.060039852 	 3.86
159.0678648841 	 1.95
160.0756899162 	 22.77
164.0256657184 	 2.53
172.0756899162 	 3.91
174.0913399804 	 13.92
182.0362304047 	 1.45
189.1022390177 	 18.38
191.1178890819 	 29.19
216.113138055 	 1.27
217.0971536398 	 100
219.100227645 	 0.96
234.1237027413 	 58.17
235.1077183261 	 20.11
246.1237027413 	 32.69
288.1342674276 	 18.66
415.1531443354 	 0.52
END IONS

BEGIN IONS
PEPMASS=492.2363
CHARGE=1
MSLEVEL=2
RT=0
SOURCE_INSTRUMENT=qTOF
FILENAME=CCMSLIB00000080594.ms
IONMODE=Positive
ORGANISM=Natural
NAME=MLS001140921-01!4-[[2-(3-benzyl-4,8-dimethyl-2-oxochromen-7-yl)oxypropanoylamino]methyl]cyclohexane-1-carboxylic acid
PI=GNPS
DATACOLLECTOR=GNPS
SMILES=Cc1c2ccc(c(C)c2oc(=O)c1Cc1ccccc1)OC(C)C(=NC[C@H]1CC[C@@H](CC1)C(=O)O)O
INCHI=InChI=1S/C29H33NO6/c1-17-23-13-14-25(18(2)26(23)36-29(34)24(17)15-20-7-5-4-6-8-20)35-19(3)27(31)30-16-21-9-11-22(12-10-21)28(32)33/h4-8,13-14,19,21-22H,9-12,15-16H2,1-3H3,(H,30,31)(H,32,33)/t19?,21-,22-
FORMULA=C29H33NO6
PUBMED=N/A
SUBMITUSER=BIOADREM
LIBRARYQUALITY=0
SPECTRUMID=CCMSLIB00000080594
SCANS=2775
ID=CCMSLIB00000080594
95.085526321 	 3.5
110.0964253583 	 0.91
111.1042503904 	 1.35
112.1120754225 	 2.85
129.0698762568 	 1.67
138.0913399804 	 1.7
138.1277254867 	 4.5
140.1069900446 	 6.17
141.1148150767 	 1.06
147.0804409431 	 1.19
152.1069900446 	 1.88
160.0518804689 	 0.66
166.1226401088 	 2.74
167.1304651409 	 12.72
175.0753555652 	 4.92
184.1332047951 	 11.87
229.0859202515 	 6.05
237.0910056294 	 1.1
251.1066556936 	 1.21
251.1430411999 	 0.94
257.0808348736 	 2.33
264.1144807257 	 0.89
265.0859202515 	 1.02
274.1073839751 	 0.84
279.1015703157 	 2.51
279.137955822 	 3.97
281.1172203799 	 18.6
307.1328704441 	 27.02
335.1277850662 	 1.89
352.1543341677 	 1.9
446.2325844887 	 8.02
492.2380637971 	 0.18
END IONS

BEGIN IONS
PEPMASS=225.1037
CHARGE=1
MSLEVEL=2
RT=0
SOURCE_INSTRUMENT=qTOF
FILENAME=CCMSLIB00000080595.ms
IONMODE=Positive
ORGANISM=Natural
NAME=MLS000575022-01!
PI=GNPS
DATACOLLECTOR=GNPS
SMILES=C=Cc1c2c(c3ccccc3n2)c(c[nH]1)OC
INCHI=InChI=1S/C14H12N2O/c1-3-10-14-13(12(17-2)8-15-10)9-6-4-5-7-11(9)16-14/h3-8,15H,1H2,2H3
FORMULA=C14H12N2O
PUBMED=N/A
SUBMITUSER=BIOADREM
LIBRARYQUALITY=0
SPECTRUMID=CCMSLIB00000080595
SCANS=2776
ID=CCMSLIB00000080595
102.0464011605 	 3.52
105.0573001978 	 0.93
113.0385761284 	 2.14
115.0542261926 	 1.57
126.0464011605 	 0.59
127.0542261926 	 2.42
128.0620512247 	 6.29
129.0573001978 	 18.71
131.072950262 	 1
133.0522148199 	 5.29
140.0494751657 	 7.64
144.0443897878 	 3.97
153.0573001978 	 2.03
154.0651252299 	 84.59
155.072950262 	 32.69
159.0678648841 	 0.94
168.0443897878 	 100
181.0760242672 	 30.83
182.0838492993 	 97.41
183.0678648841 	 50.27
192.0681992351 	 1.22
209.0709388893 	 11.77
210.0787639214 	 88.46
225.1022390177 	 37.03
END IONS

BEGIN IONS
PEPMASS=372.1805
CHARGE=1
MSLEVEL=2
RT=0
SOURCE_INSTRUMENT=qTOF
FILENAME=CCMSLIB00000080596.ms
IONMODE=Positive
ORGANISM=Natural
NAME=MLS001159031-01!N-cyclopropyl-2-[(4-ethyl-8,8-dimethyl-2-oxo-9,10-dihydropyrano[2,3-h]chromen-5-yl)oxy]acetamide
PI=GNPS
DATACOLLECTOR=GNPS
SMILES=CCc1cc(=O)oc2c3CCC(C)(C)Oc3cc(c12)OCC(=NC1CC1)O
INCHI=InChI=1S/C21H25NO5/c1-4-12-9-18(24)26-20-14-7-8-21(2,3)27-15(14)10-16(19(12)20)25-11-17(23)22-13-5-6-13/h9-10,13H,4-8,11H2,1-3H3,(H,22,23)
FORMULA=C21H25NO5
PUBMED=N/A
SUBMITUSER=BIOADREM
LIBRARYQUALITY=0
SPECTRUMID=CCMSLIB00000080596
SCANS=2777
ID=CCMSLIB00000080596
109.0284053726 	 1.57
115.0542261926 	 0.98
117.0698762568 	 1.76
119.0491408147 	 1.16
119.085526321 	 1.24
121.0647908789 	 3.34
129.0698762568 	 1.43
133.0647908789 	 2.73
135.0440554368 	 1.26
135.0804409431 	 1.89
145.0647908789 	 4.31
147.0440554368 	 1.26
147.0804409431 	 1.57
149.059705501 	 3.96
161.059705501 	 2.78
162.0675305331 	 1.03
163.0753555652 	 8.44
173.059705501 	 4.72
175.0753555652 	 5.41
185.059705501 	 1.13
189.0546201231 	 6.23
190.0624451552 	 12
191.0702701873 	 30.11
201.0546201231 	 4.98
203.0702701873 	 7.37
218.0573597773 	 6.84
219.0651848094 	 57.76
231.0651848094 	 25.31
258.112469353 	 2.11
259.0600994315 	 33.09
288.1230340393 	 1.23
316.1179486614 	 100
372.1805489182 	 38.27
END IONS

BEGIN IONS
PEPMASS=287.1754
CHARGE=1
MSLEVEL=2
RT=0
SOURCE_INSTRUMENT=qTOF
FILENAME=CCMSLIB00000080597.ms
IONMODE=Positive
ORGANISM=Natural
NAME=MLS000728595-01!(12bS)-9,10-dimethoxy-1,2,3,4,6,7,12,12b-octahydroindolo[2,3-a]quinolizine
PI=GNPS
DATACOLLECTOR=GNPS
SMILES=COc1cc2c3CCN4CCCC[C@H]4c3[nH]c2cc1OC
INCHI=InChI=1S/C17H22N2O2/c1-20-15-9-12-11-6-8-19-7-4-3-5-14(19)17(11)18-13(12)10-16(15)21-2/h9-10,14,18H,3-8H2,1-2H3/t14-/m0/s1
FORMULA=C17H22N2O2
PUBMED=N/A
SUBMITUSER=BIOADREM
LIBRARYQUALITY=0
SPECTRUMID=CCMSLIB00000080597
SCANS=2778
ID=CCMSLIB00000080597
130.0651252299 	 2.2
132.0807752941 	 2.1
143.072950262 	 4.62
144.0807752941 	 2.07
145.0647908789 	 2.01
146.060039852 	 10.34
147.0678648841 	 2.3
158.060039852 	 16.19
159.0678648841 	 6.92
160.0756899162 	 50.62
161.0835149483 	 8.18
171.0678648841 	 3.42
172.0756899162 	 3.52
173.0835149483 	 37.99
174.0549544741 	 9.21
175.0627795062 	 3.51
176.0706045383 	 3.39
177.0784295704 	 2.84
183.0678648841 	 1.71
184.0756899162 	 4.33
186.0913399804 	 5.47
188.0706045383 	 19.96
189.0784295704 	 27.54
190.0862546025 	 5.48
191.0940796346 	 2.27
192.1019046667 	 2.01
198.0913399804 	 5.52
199.0991650125 	 3
200.0706045383 	 3.78
200.1069900446 	 2.89
202.0862546025 	 5.9
203.0940796346 	 2.74
204.1019046667 	 100
212.1069900446 	 5.47
214.0862546025 	 4.19
214.1226401088 	 3.42
215.0940796346 	 4.17
217.1097296988 	 2.68
218.1175547309 	 2.89
224.1069900446 	 2.56
226.1226401088 	 2.1
228.1019046667 	 5.95
230.1175547309 	 8.16
240.1019046667 	 1.91
242.1175547309 	 5.06
243.125379763 	 3.15
244.1332047951 	 5.86
258.1488548593 	 15.73
270.1488548593 	 4.79
287.1754039608 	 2.25
END IONS

BEGIN IONS
PEPMASS=373.176
CHARGE=1
MSLEVEL=2
RT=0
SOURCE_INSTRUMENT=qTOF
FILENAME=CCMSLIB00000080598.ms
IONMODE=Positive
ORGANISM=Natural
NAME=MLS001140335-01!3-(7-hydroxy-4-methyl-2-oxochromen-3-yl)-N-[3-(2-oxopyrrolidin-1-yl)propyl]propanamide
PI=GNPS
DATACOLLECTOR=GNPS
SMILES=Cc1c2ccc(cc2oc(=O)c1CCC(=NCCCN1CCCC1=O)O)O
INCHI=InChI=1S/C20H24N2O5/c1-13-15-6-5-14(23)12-17(15)27-20(26)16(13)7-8-18(24)21-9-3-11-22-10-2-4-19(22)25/h5-6,12,23H,2-4,7-11H2,1H3,(H,21,24)
FORMULA=C20H24N2O5
PUBMED=N/A
SUBMITUSER=BIOADREM
LIBRARYQUALITY=0
SPECTRUMID=CCMSLIB00000080598
SCANS=2779
ID=CCMSLIB00000080598
103.0542261926 	 0.53
116.0620512247 	 0.41
117.0698762568 	 0.37
119.085526321 	 0.25
127.0542261926 	 0.51
129.0698762568 	 0.33
131.085526321 	 0.21
132.0569658468 	 0.31
133.0647908789 	 2.18
144.0569658468 	 0.66
145.0647908789 	 0.63
147.0804409431 	 0.8
160.0518804689 	 0.76
161.059705501 	 6.45
162.0635077877 	 0.74
175.0753555652 	 2.19
176.0791578519 	 0.51
189.0546201231 	 100
190.0584224098 	 15.26
203.0702701873 	 26.54
204.074072474 	 4.05
231.0651848094 	 14.13
373.1757978913 	 0
END IONS

BEGIN IONS
PEPMASS=474.192
CHARGE=1
MSLEVEL=2
RT=0
SOURCE_INSTRUMENT=qTOF
FILENAME=CCMSLIB00000080599.ms
IONMODE=Positive
ORGANISM=Natural
NAME=MLS001141061-01!1-[3-(3,5-dimethyl-7-oxofuro[3,2-g]chromen-6-yl)propanoyl]-4-phenylpiperidine-4-carboxylic acid
PI=GNPS
DATACOLLECTOR=GNPS
SMILES=Cc1coc2cc3c(cc12)c(C)c(CCC(=O)N1CCC(CC1)(c1ccccc1)C(=O)O)c(=O)o3
INCHI=InChI=1S/C28H27NO6/c1-17-16-34-23-15-24-22(14-21(17)23)18(2)20(26(31)35-24)8-9-25(30)29-12-10-28(11-13-29,27(32)33)19-6-4-3-5-7-19/h3-7,14-16H,8-13H2,1-2H3,(H,32,33)
FORMULA=C28H27NO6
PUBMED=N/A
SUBMITUSER=BIOADREM
LIBRARYQUALITY=0
SPECTRUMID=CCMSLIB00000080599
SCANS=2780
ID=CCMSLIB00000080599
115.0542261926 	 0.72
127.0542261926 	 0.38
128.0620512247 	 1.12
141.0698762568 	 0.28
143.085526321 	 1.28
153.0698762568 	 0.88
154.0777012889 	 0.59
170.072615911 	 0.28
171.0804409431 	 1.92
182.072615911 	 0.71
185.0960910073 	 0.57
198.0675305331 	 0.35
199.0753555652 	 8.4
213.0910056294 	 1.41
227.0702701873 	 100
241.0859202515 	 27.98
269.0808348736 	 16.89
474.1911136045 	 0
END IONS

BEGIN IONS
PEPMASS=453.214
CHARGE=1
MSLEVEL=2
RT=0
SOURCE_INSTRUMENT=qTOF
FILENAME=CCMSLIB00000080600.ms
IONMODE=Positive
ORGANISM=Natural
NAME=MLS001158640-01!(2R)-2-[[(2S)-4-methyl-2-[(3-oxo-2,4-dihydroquinoxaline-1-carbonyl)amino]pentanoyl]amino]-3-phenylpropanoic acid
PI=GNPS
DATACOLLECTOR=GNPS
SMILES=CC(C)C[C@@H](C(=N[C@H](Cc1ccccc1)C(=O)O)O)N=C(N1CC(=Nc2ccccc12)O)O
INCHI=InChI=1S/C24H28N4O5/c1-15(2)12-18(22(30)26-19(23(31)32)13-16-8-4-3-5-9-16)27-24(33)28-14-21(29)25-17-10-6-7-11-20(17)28/h3-11,15,18-19H,12-14H2,1-2H3,(H,25,29)(H,26,30)(H,27,33)(H,31,32)/t18-,19+/m0/s1
FORMULA=C24H28N4O5
PUBMED=N/A
SUBMITUSER=BIOADREM
LIBRARYQUALITY=0
SPECTRUMID=CCMSLIB00000080600
SCANS=2781
ID=CCMSLIB00000080600
103.0542261926 	 0.72
112.0756899162 	 1.17
119.060374203 	 16.59
120.0807752941 	 11.67
121.0760242672 	 10.88
128.0494751657 	 1.42
132.0443897878 	 0.83
132.0681992351 	 0.56
146.060039852 	 2.6
147.0552888251 	 100
149.0709388893 	 4.67
166.0862546025 	 0.3
175.0502034472 	 56.66
189.138624524 	 1.85
192.0767525487 	 0.56
204.0767525487 	 9.03
215.1178890819 	 0.6
217.1335391461 	 1.8
218.0924026129 	 0.82
231.1491892103 	 3.36
232.1444381834 	 5.34
259.1441038324 	 7.59
260.1393528055 	 39.31
288.1342674276 	 0.55
305.1495831408 	 0.24
453.2132460301 	 0
END IONS

BEGIN IONS
PEPMASS=321.243
CHARGE=1
MSLEVEL=2
RT=0
SOURCE_INSTRUMENT=qTOF
FILENAME=CCMSLIB00000080602.ms
IONMODE=Positive
ORGANISM=Natural
NAME=MLS000863608-01!5-(1,2,4a,5-tetramethyl-7-oxo-3,4,8,8a-tetrahydro-2H-naphthalen-1-yl)-3-methylpentanoic acid
PI=GNPS
DATACOLLECTOR=GNPS
SMILES=CC(CCC1(C)C(C)CCC2(C)C(=CC(=O)CC12)C)CC(=O)O
INCHI=InChI=1S/C20H32O3/c1-13(10-18(22)23)6-8-19(4)14(2)7-9-20(5)15(3)11-16(21)12-17(19)20/h11,13-14,17H,6-10,12H2,1-5H3,(H,22,23)
FORMULA=C20H32O3
PUBMED=N/A
SUBMITUSER=BIOADREM
LIBRARYQUALITY=0
SPECTRUMID=CCMSLIB00000080602
SCANS=2782
ID=CCMSLIB00000080602
95.085526321 	 7.26
103.0542261926 	 2.6
105.0698762568 	 19.14
107.085526321 	 20.19
108.0569658468 	 2.48
109.0647908789 	 6.49
109.1011763852 	 8.52
111.0804409431 	 2.14
117.0698762568 	 3.44
119.085526321 	 25.45
121.0647908789 	 4.01
121.1011763852 	 14.9
123.0804409431 	 6.53
123.1168264494 	 4.18
131.085526321 	 5.68
133.1011763852 	 9.41
135.0804409431 	 100
137.0960910073 	 18.67
144.0933513531 	 2.62
145.1011763852 	 10.16
147.0804409431 	 2.13
147.1168264494 	 8.2
148.0882659752 	 2.01
149.0960910073 	 4.9
149.1324765136 	 7.45
151.1117410715 	 3.65
157.1011763852 	 2.62
159.1168264494 	 11.04
161.1324765136 	 8.15
163.1117410715 	 8.66
163.1481265778 	 2.55
165.1273911357 	 4.19
171.1168264494 	 2.14
173.1324765136 	 6.06
175.1117410715 	 3.72
175.1481265778 	 3.61
177.1273911357 	 8.11
177.163776642 	 3.13
187.1481265778 	 6.92
189.1273911357 	 3.17
191.1430411999 	 3.57
191.1794267062 	 2.53
201.163776642 	 5.03
205.1586912641 	 9.52
215.1430411999 	 2.21
219.1743413283 	 2.12
243.1743413283 	 9.92
247.1692559504 	 2.9
257.2263768988 	 2.42
285.2212915209 	 3.48
303.2318562072 	 10.62
321.2424208935 	 0
END IONS

BEGIN IONS
PEPMASS=479.209
CHARGE=1
MSLEVEL=2
RT=0
SOURCE_INSTRUMENT=qTOF
FILENAME=CCMSLIB00000080603.ms
IONMODE=Positive
ORGANISM=Natural
NAME=MLS001142419-01!
PI=GNPS
DATACOLLECTOR=GNPS
SMILES=C[C@@H](C(=NCCc1ccc(cc1)F)O)N1C(=O)[C@]2(C)c3c(CCN2C1=O)c1cc(ccc1[nH]3)OC
INCHI=InChI=1S/C26H27FN4O4/c1-15(23(32)28-12-10-16-4-6-17(27)7-5-16)31-24(33)26(2)22-19(11-13-30(26)25(31)34)20-14-18(35-3)8-9-21(20)29-22/h4-9,14-15,29H,10-13H2,1-3H3,(H,28,32)/t15-,26-/m0/s1
FORMULA=C26H27FN4O4
PUBMED=N/A
SUBMITUSER=BIOADREM
LIBRARYQUALITY=0
SPECTRUMID=CCMSLIB00000080603
SCANS=2783
ID=CCMSLIB00000080603
103.0542261926 	 0.87
122.060039852 	 0.34
123.0604544247 	 2.16
143.072950262 	 0.94
159.0678648841 	 2.42
160.0756899162 	 0.91
167.072950262 	 0.4
168.0807752941 	 0.33
172.0756899162 	 0.38
174.0913399804 	 18.44
183.0678648841 	 1.07
185.0835149483 	 0.54
186.0913399804 	 0.39
198.0913399804 	 8.62
199.0917545531 	 2.62
201.1022390177 	 0.99
213.1022390177 	 4.79
215.1178890819 	 24.27
217.1023192394 	 0.55
225.1022390177 	 0.85
227.1178890819 	 0.4
241.0971536398 	 31.24
243.112803704 	 3.95
253.1209630871 	 0.34
267.112803704 	 0.5
268.1444381834 	 0.71
284.1431757344 	 100
285.1471778376 	 26.85
294.1275256702 	 0.4
297.1107923313 	 0.35
312.1380903565 	 17.98
313.1420924597 	 3.72
479.2089095759 	 0
END IONS

BEGIN IONS
PEPMASS=477.214
CHARGE=1
MSLEVEL=2
RT=0
SOURCE_INSTRUMENT=qTOF
FILENAME=CCMSLIB00000080604.ms
IONMODE=Positive
ORGANISM=Natural
NAME=MLS001141022-01!
PI=GNPS
DATACOLLECTOR=GNPS
SMILES=C[C@H](C(=NCc1cccc(c1)OC)O)N1C(=O)C2(C)c3c(CCN2C1=O)c1cc(ccc1[nH]3)OC
INCHI=InChI=1S/C26H28N4O5/c1-15(23(31)27-14-16-6-5-7-17(12-16)34-3)30-24(32)26(2)22-19(10-11-29(26)25(30)33)20-13-18(35-4)8-9-21(20)28-22/h5-9,12-13,15,28H,10-11,14H2,1-4H3,(H,27,31)/t15-,26?/m1/s1
FORMULA=C26H28N4O5
PUBMED=N/A
SUBMITUSER=BIOADREM
LIBRARYQUALITY=0
SPECTRUMID=CCMSLIB00000080604
SCANS=2784
ID=CCMSLIB00000080604
106.0413157826 	 1.47
117.0573001978 	 1.02
121.0647908789 	 55.99
147.0804409431 	 3.11
159.0678648841 	 1.94
160.0730098415 	 1.51
172.0730098415 	 0.98
173.0808348736 	 1.46
174.0913399804 	 11.54
183.0678648841 	 0.94
186.0886599057 	 1.98
198.0913399804 	 6.33
199.0865889535 	 2.49
200.0679244636 	 0.85
201.1022390177 	 1.09
210.0787639214 	 0.76
213.1022390177 	 9.27
214.1073839751 	 2.97
215.1178890819 	 20.67
241.0971536398 	 32.31
242.1022985972 	 5.35
243.112803704 	 4.65
244.1179486614 	 1.11
262.1186173634 	 1.01
268.1417581087 	 0.94
269.0920682619 	 2.8
269.1284537682 	 0.9
279.1213570176 	 0.94
280.1332047951 	 2.07
282.1237027413 	 2.25
284.1393528055 	 100
285.1444977629 	 20.3
292.1332047951 	 1.96
294.1488548593 	 6.49
295.152657146 	 1.75
310.1186173634 	 2.62
311.1264423955 	 0.81
312.1342674276 	 16.61
319.1441038324 	 1.18
335.1754039608 	 1.13
341.1244310228 	 2.15
361.1632218323 	 0.81
404.1968676844 	 8.18
432.1917823065 	 1.65
477.2132460301 	 0
END IONS

BEGIN IONS
PEPMASS=403.198
CHARGE=1
MSLEVEL=2
RT=0
SOURCE_INSTRUMENT=qTOF
FILENAME=CCMSLIB00000080605.ms
IONMODE=Positive
ORGANISM=Natural
NAME=MLS001158670-01!(2S)-1-[(2S)-4-methyl-2-[(3-oxo-2,4-dihydroquinoxaline-1-carbonyl)amino]pentanoyl]pyrrolidine-2-carboxylic acid
PI=GNPS
DATACOLLECTOR=GNPS
SMILES=CC(C)C[C@@H](C(=O)N1CCC[C@H]1C(=O)O)N=C(N1CC(=Nc2ccccc12)O)O
INCHI=InChI=1S/C20H26N4O5/c1-12(2)10-14(18(26)23-9-5-8-16(23)19(27)28)22-20(29)24-11-17(25)21-13-6-3-4-7-15(13)24/h3-4,6-7,12,14,16H,5,8-11H2,1-2H3,(H,21,25)(H,22,29)(H,27,28)/t14-,16-/m0/s1
FORMULA=C20H26N4O5
PUBMED=N/A
SUBMITUSER=BIOADREM
LIBRARYQUALITY=0
SPECTRUMID=CCMSLIB00000080605
SCANS=2785
ID=CCMSLIB00000080605
97.0396387609 	 0.82
116.0706045383 	 4.21
119.060374203 	 19.84
121.0760242672 	 6.41
132.0443897878 	 1.11
133.0733441925 	 0.51
147.0552888251 	 100
149.0709388893 	 1.82
161.0682588146 	 0.73
175.0502034472 	 33.3
189.138624524 	 0.76
201.0658535114 	 0.58
204.0767525487 	 5.92
232.1444381834 	 3.71
260.1393528055 	 18.85
261.1444977629 	 4.5
403.1975959659 	 0
END IONS

BEGIN IONS
PEPMASS=561.26
CHARGE=1
MSLEVEL=2
RT=0
SOURCE_INSTRUMENT=qTOF
FILENAME=CCMSLIB00000080606.ms
IONMODE=Positive
ORGANISM=Natural
NAME=MLS001140258-01!(2S)-2-[[(2S)-4-methyl-2-[[2-(2,3,5,9-tetramethyl-7-oxofuro[3,2-g]chromen-6-yl)acetyl]amino]pentanoyl]amino]-3-phenylpropanoic acid
PI=GNPS
DATACOLLECTOR=GNPS
SMILES=CC(C)C[C@@H](C(=N[C@@H](Cc1ccccc1)C(=O)O)O)N=C(Cc1c(C)c2cc3c(C)c(C)oc3c(C)c2oc1=O)O
INCHI=InChI=1S/C32H36N2O7/c1-16(2)12-25(30(36)34-26(31(37)38)13-21-10-8-7-9-11-21)33-27(35)15-24-18(4)23-14-22-17(3)20(6)40-28(22)19(5)29(23)41-32(24)39/h7-11,14,16,25-26H,12-13,15H2,1-6H3,(H,33,35)(H,34,36)(H,37,38)/t25-,26-/m0/s1
FORMULA=C32H36N2O7
PUBMED=N/A
SUBMITUSER=BIOADREM
LIBRARYQUALITY=0
SPECTRUMID=CCMSLIB00000080606
SCANS=2786
ID=CCMSLIB00000080606
184.0882659752 	 0.29
196.0882659752 	 0.37
199.1117410715 	 0.32
211.1117410715 	 0.25
212.0791578519 	 0.67
227.1066556936 	 6.49
228.1104579803 	 1.3
255.1015703157 	 100
256.1053726024 	 21.63
257.1073243956 	 2.68
283.0964849378 	 23.54
284.1002872245 	 4.59
285.1022390177 	 0.62
561.2595275207 	 0
END IONS

BEGIN IONS
PEPMASS=430.224
CHARGE=1
MSLEVEL=2
RT=0
SOURCE_INSTRUMENT=qTOF
FILENAME=CCMSLIB00000080607.ms
IONMODE=Positive
ORGANISM=Natural
NAME=MLS001142934-01!(2S)-1-[2-(3-hexyl-4,8-dimethyl-2-oxochromen-7-yl)oxyacetyl]pyrrolidine-2-carboxylic acid
PI=GNPS
DATACOLLECTOR=GNPS
SMILES=CCCCCCc1c(C)c2ccc(c(C)c2oc1=O)OCC(=O)N1CCC[C@H]1C(=O)O
INCHI=InChI=1S/C24H31NO6/c1-4-5-6-7-9-18-15(2)17-11-12-20(16(3)22(17)31-24(18)29)30-14-21(26)25-13-8-10-19(25)23(27)28/h11-12,19H,4-10,13-14H2,1-3H3,(H,27,28)/t19-/m0/s1
FORMULA=C24H31NO6
PUBMED=N/A
SUBMITUSER=BIOADREM
LIBRARYQUALITY=0
SPECTRUMID=CCMSLIB00000080607
SCANS=2787
ID=CCMSLIB00000080607
98.060039852 	 3.93
100.0756899162 	 11.91
105.0698762568 	 3.89
112.0756899162 	 21.87
115.0542261926 	 2.57
116.0706045383 	 4.6
119.0491408147 	 2.84
128.0706045383 	 26.38
133.0647908789 	 3.51
139.0627795062 	 4.27
145.0647908789 	 6.15
145.1011763852 	 4.97
149.059705501 	 13.69
151.0753555652 	 6.66
157.0733441925 	 3.44
159.0804409431 	 8.44
159.1168264494 	 2.86
161.059705501 	 5.25
161.0960910073 	 3.88
163.0753555652 	 10.82
173.0960910073 	 8.8
174.0675305331 	 3.05
175.0753555652 	 14.88
176.0831805973 	 19.17
177.0910056294 	 9.04
188.0831805973 	 3.39
189.0910056294 	 23.18
191.0702701873 	 7.37
201.163776642 	 11.69
203.0702701873 	 27.64
204.0780952194 	 22.21
205.0859202515 	 8.85
217.0859202515 	 14.69
219.1015703157 	 4.26
229.1586912641 	 20.95
231.1015703157 	 3.23
257.1536058862 	 7.01
259.1328704441 	 5.92
259.1692559504 	 12.82
275.1641705725 	 33.67
287.1641705725 	 100
356.2220198024 	 22.79
430.2224137329 	 3.45
END IONS

BEGIN IONS
PEPMASS=453.2498
CHARGE=1
MSLEVEL=2
RT=0
SOURCE_INSTRUMENT=qTOF
FILENAME=CCMSLIB00000080608.ms
IONMODE=Positive
ORGANISM=Natural
NAME=MLS001140919-01!
PI=GNPS
DATACOLLECTOR=GNPS
SMILES=CC(C)C[C@@H](C(=NCC1CCCO1)O)N1C(=O)[C@]2(C)c3c(CCN2C1=O)c1ccccc1[nH]3
INCHI=InChI=1S/C25H32N4O4/c1-15(2)13-20(22(30)26-14-16-7-6-12-33-16)29-23(31)25(3)21-18(10-11-28(25)24(29)32)17-8-4-5-9-19(17)27-21/h4-5,8-9,15-16,20,27H,6-7,10-14H2,1-3H3,(H,26,30)/t16?,20-,25-/m0/s1
FORMULA=C25H32N4O4
PUBMED=N/A
SUBMITUSER=BIOADREM
LIBRARYQUALITY=0
SPECTRUMID=CCMSLIB00000080608
SCANS=2788
ID=CCMSLIB00000080608
117.0698762568 	 0.41
130.0651252299 	 0.71
143.072950262 	 0.87
144.0807752941 	 26.26
156.0807752941 	 0.62
168.0807752941 	 3.42
170.0838492993 	 0.33
171.0916743314 	 1.87
183.0916743314 	 2.8
185.1073243956 	 24.73
187.0865889535 	 0.32
196.0756899162 	 0.35
197.1073243956 	 1.72
199.0865889535 	 1.61
211.0865889535 	 16.05
213.1022390177 	 4.43
225.1022390177 	 0.31
228.113138055 	 4.77
238.0974879908 	 1.83
239.0815035756 	 1.69
240.113138055 	 73.36
241.0845775808 	 20.47
254.1287881192 	 21.1
256.1080526771 	 100
268.1080526771 	 9.47
282.1237027413 	 6.59
286.1186173634 	 0.91
296.1757383118 	 22.26
306.1600882476 	 0.34
324.1706529339 	 56.48
453.2496315364 	 0.91
END IONS

BEGIN IONS
PEPMASS=449.171
CHARGE=1
MSLEVEL=2
RT=0
SOURCE_INSTRUMENT=qTOF
FILENAME=CCMSLIB00000080609.ms
IONMODE=Positive
ORGANISM=Natural
NAME=MLS001075490-01!(2S)-3-(1H-indol-3-yl)-2-[[2-(2-oxo-4-propylchromen-7-yl)oxyacetyl]amino]propanoic acid
PI=GNPS
DATACOLLECTOR=GNPS
SMILES=CCCc1cc(=O)oc2cc(ccc12)OCC(=N[C@@H](Cc1c[nH]c2ccccc12)C(=O)O)O
INCHI=InChI=1S/C25H24N2O6/c1-2-5-15-11-24(29)33-22-12-17(8-9-19(15)22)32-14-23(28)27-21(25(30)31)10-16-13-26-20-7-4-3-6-18(16)20/h3-4,6-9,11-13,21,26H,2,5,10,14H2,1H3,(H,27,28)(H,30,31)/t21-/m0/s1
FORMULA=C25H24N2O6
PUBMED=N/A
SUBMITUSER=BIOADREM
LIBRARYQUALITY=0
SPECTRUMID=CCMSLIB00000080609
SCANS=2789
ID=CCMSLIB00000080609
103.0542261926 	 3.21
115.0542261926 	 11.88
118.0651252299 	 18.85
128.0494751657 	 2.81
129.0698762568 	 2.98
130.0651252299 	 100
132.0807752941 	 7.22
133.1011763852 	 1.56
142.0651252299 	 17.63
143.072950262 	 19.88
144.0807752941 	 64.58
146.060039852 	 33.78
149.0960910073 	 3.24
154.0651252299 	 11.8
156.0807752941 	 9.18
157.0760242672 	 6.36
158.0838492993 	 44.59
161.059705501 	 3.14
163.0753555652 	 1.63
170.060039852 	 59.48
171.0916743314 	 41.03
175.0389700589 	 1.84
181.0760242672 	 3.41
182.0838492993 	 3.99
183.0678648841 	 7.05
184.0756899162 	 5.8
185.0709388893 	 8.79
187.0753555652 	 15.33
188.0706045383 	 36.23
199.0865889535 	 7.17
200.0944139856 	 11.83
205.0859202515 	 40.38
217.0859202515 	 15.09
244.0968192888 	 2.04
346.1437694814 	 5.13
385.1546685187 	 2.57
403.165233205 	 16.44
449.1707125134 	 0
END IONS

BEGIN IONS
PEPMASS=531.224
CHARGE=1
MSLEVEL=2
RT=0
SOURCE_INSTRUMENT=qTOF
FILENAME=CCMSLIB00000080610.ms
IONMODE=Positive
ORGANISM=Natural
NAME=MLS001158424-01!
PI=GNPS
DATACOLLECTOR=GNPS
SMILES=CC(C(=NCCN1CCOCC1)O)Oc1ccc2c(c1)c1ccnc3c4ccc(c(c4c(=O)n2c13)OC)OC
INCHI=InChI=1S/C29H30N4O6/c1-17(28(34)31-10-11-32-12-14-38-15-13-32)39-18-4-6-22-21(16-18)19-8-9-30-25-20-5-7-23(36-2)27(37-3)24(20)29(35)33(22)26(19)25/h4-9,16-17H,10-15H2,1-3H3,(H,31,34)
FORMULA=C29H30N4O6
PUBMED=N/A
SUBMITUSER=BIOADREM
LIBRARYQUALITY=0
SPECTRUMID=CCMSLIB00000080610
SCANS=2790
ID=CCMSLIB00000080610
98.060039852 	 15.84
99.0678648841 	 17.17
100.0756899162 	 42.11
113.0835149483 	 4.14
114.0913399804 	 9.31
185.1284537682 	 2.49
186.1362788003 	 17.53
218.1261080445 	 4.06
272.0944139856 	 3.54
289.0607681335 	 1.9
300.0893286077 	 3.47
301.0971536398 	 1.82
302.0685931656 	 2.49
303.0764181977 	 6.2
304.0802204844 	 3.15
317.0920682619 	 37.99
318.099893294 	 12.69
328.0842432298 	 3.9
329.0920682619 	 5.89
330.0958705486 	 3.27
331.0713328198 	 12.27
332.0791578519 	 13.97
340.0842432298 	 2.43
343.0713328198 	 3.33
345.086982884 	 28.44
346.0948079161 	 24.5
347.1026329482 	 19.65
358.0948079161 	 12.58
359.0986102028 	 2.36
373.1182830124 	 43.8
374.1220852991 	 12.93
380.1029672992 	 1.86
384.0978819213 	 3.97
385.1057069534 	 2.23
386.0897225382 	 3.97
398.1135319855 	 6.87
399.1213570176 	 3.72
400.1291820497 	 4.77
401.1131976345 	 12.85
410.1135319855 	 2.71
411.1213570176 	 2.13
426.1448321139 	 2.8
429.1319217039 	 13.22
444.1553968002 	 100
531.2238107164 	 28.95
END IONS

BEGIN IONS
PEPMASS=436.1746
CHARGE=1
MSLEVEL=2
RT=0
SOURCE_INSTRUMENT=qTOF
FILENAME=CCMSLIB00000080611.ms
IONMODE=Positive
ORGANISM=Natural
NAME=MLS001139320-01!(2S)-2-[2-[(4-methyl-6-oxo-7,8,9,10-tetrahydrobenzo[c]chromen-3-yl)oxy]propanoylamino]-2-phenylacetic acid
PI=GNPS
DATACOLLECTOR=GNPS
SMILES=Cc1c(ccc2c3CCCCc3c(=O)oc12)OC(C)C(=N[C@@H](c1ccccc1)C(=O)O)O
INCHI=InChI=1S/C25H25NO6/c1-14-20(13-12-18-17-10-6-7-11-19(17)25(30)32-22(14)18)31-15(2)23(27)26-21(24(28)29)16-8-4-3-5-9-16/h3-5,8-9,12-13,15,21H,6-7,10-11H2,1-2H3,(H,26,27)(H,28,29)/t15?,21-/m0/s1
FORMULA=C25H25NO6
PUBMED=N/A
SUBMITUSER=BIOADREM
LIBRARYQUALITY=0
SPECTRUMID=CCMSLIB00000080611
SCANS=2791
ID=CCMSLIB00000080611
105.0698762568 	 8.68
107.0491408147 	 5.63
121.0647908789 	 5.13
128.0620512247 	 1.64
129.0698762568 	 4.91
135.0440554368 	 13.05
137.059705501 	 2.03
141.0698762568 	 1.8
142.0777012889 	 5.52
143.085526321 	 1.36
145.0647908789 	 1.6
145.1011763852 	 1.29
146.072615911 	 2.24
147.0804409431 	 1.72
157.0647908789 	 1.51
157.1011763852 	 2.38
158.072615911 	 1.41
159.0804409431 	 2.32
161.059705501 	 2.71
163.0753555652 	 3.05
173.0960910073 	 1.7
174.0675305331 	 2.24
175.0753555652 	 3.59
175.1117410715 	 1.92
183.1168264494 	 1.43
185.0960910073 	 33.32
187.0753555652 	 5.68
188.0831805973 	 1.46
189.0546201231 	 6.03
201.0910056294 	 7.77
201.1273911357 	 5.3
202.0624451552 	 1.63
203.1066556936 	 2.66
211.1117410715 	 2.15
213.0910056294 	 1.86
214.0988306615 	 3
215.0702701873 	 5.83
216.0780952194 	 1.59
229.0859202515 	 10.72
229.1223057578 	 25.55
230.0937452836 	 7.47
231.1015703157 	 100
257.1172203799 	 52.8
302.1386841035 	 5.86
436.1754635403 	 0.21
END IONS

BEGIN IONS
PEPMASS=409.224
CHARGE=1
MSLEVEL=2
RT=0
SOURCE_INSTRUMENT=qTOF
FILENAME=CCMSLIB00000080612.ms
IONMODE=Positive
ORGANISM=Natural
NAME=MLS001140939-01!
PI=GNPS
DATACOLLECTOR=GNPS
SMILES=CC(C)C[C@@H](C(=NC1CC1)O)N1C(=O)[C@]2(C)c3c(CCN2C1=O)c1ccccc1[nH]3
INCHI=InChI=1S/C23H28N4O3/c1-13(2)12-18(20(28)24-14-8-9-14)27-21(29)23(3)19-16(10-11-26(23)22(27)30)15-6-4-5-7-17(15)25-19/h4-7,13-14,18,25H,8-12H2,1-3H3,(H,24,28)/t18-,23-/m0/s1
FORMULA=C23H28N4O3
PUBMED=N/A
SUBMITUSER=BIOADREM
LIBRARYQUALITY=0
SPECTRUMID=CCMSLIB00000080612
SCANS=2792
ID=CCMSLIB00000080612
117.0698762568 	 1.04
130.0651252299 	 1.94
144.0807752941 	 43.85
156.0807752941 	 2.48
168.0807752941 	 6.99
170.060039852 	 0.92
170.0838492993 	 1.7
171.0916743314 	 4.06
183.0916743314 	 11.59
185.1073243956 	 47.51
187.0865889535 	 0.53
195.0916743314 	 0.75
196.0756899162 	 0.77
197.1073243956 	 3.47
199.0865889535 	 4.05
211.0865889535 	 31.12
213.1022390177 	 9.28
224.1182234329 	 1.27
226.0611024845 	 0.7
228.113138055 	 5.68
238.0974879908 	 4.17
239.0815035756 	 2.49
240.113138055 	 78.45
241.0845775808 	 41.61
254.1287881192 	 24.94
256.1080526771 	 100
268.1080526771 	 6.22
282.1237027413 	 4.83
283.1315277734 	 0.73
296.1757383118 	 25.77
306.1600882476 	 1.05
324.1706529339 	 20.94
409.2234167859 	 0
END IONS

BEGIN IONS
PEPMASS=468.1661
CHARGE=1
MSLEVEL=2
RT=0
SOURCE_INSTRUMENT=qTOF
FILENAME=CCMSLIB00000080613.ms
IONMODE=Positive
ORGANISM=Natural
NAME=MLS001157773-01!1-[2-[[(2Z)-2-[(2,4-dimethoxyphenyl)methylidene]-3-oxo-1-benzofuran-6-yl]oxy]acetyl]piperidine-4-carboxylic acid
PI=GNPS
DATACOLLECTOR=GNPS
SMILES=COc1ccc(/C=C\2/C(=O)c3ccc(cc3O2)OCC(=O)N2CCC(CC2)C(=O)O)c(c1)OC
INCHI=InChI=1S/C25H25NO8/c1-31-17-4-3-16(20(12-17)32-2)11-22-24(28)19-6-5-18(13-21(19)34-22)33-14-23(27)26-9-7-15(8-10-26)25(29)30/h3-6,11-13,15H,7-10,14H2,1-2H3,(H,29,30)/b22-11-
FORMULA=C25H25NO8
PUBMED=N/A
SUBMITUSER=BIOADREM
LIBRARYQUALITY=0
SPECTRUMID=CCMSLIB00000080613
SCANS=2793
ID=CCMSLIB00000080613
96.0807752941 	 1.25
99.0440554368 	 8.88
112.0756899162 	 1.99
124.0756899162 	 2.29
126.0913399804 	 1.07
128.0706045383 	 42.02
142.0862546025 	 100
156.0655191604 	 1.41
162.0311450268 	 1.06
170.0811692246 	 4.98
227.0702701873 	 2.61
251.0702701873 	 1.2
255.0651848094 	 3.14
255.1015703157 	 1.19
267.0651848094 	 6.22
268.0730098415 	 2.47
269.0808348736 	 3.11
270.0886599057 	 9.24
279.0651848094 	 3.05
280.0730098415 	 2.09
282.0522743994 	 1.35
283.0964849378 	 1.93
284.0679244636 	 2.19
296.0679244636 	 2.47
298.0835745278 	 12.62
299.0913995599 	 13.95
311.0913995599 	 15.24
422.1598134761 	 1.62
437.1469030661 	 1.05
452.1339926561 	 1.29
453.1418176882 	 3.33
468.1652927845 	 59.41
END IONS

BEGIN IONS
PEPMASS=383.1853
CHARGE=1
MSLEVEL=2
RT=0
SOURCE_INSTRUMENT=qTOF
FILENAME=CCMSLIB00000080614.ms
IONMODE=Positive
ORGANISM=Natural
NAME=MLS000876965-01!(6aR,9R,9aR)-9-acetyl-3-[(1E,3E,5S)-3,5-dimethylhepta-1,3-dienyl]-6a-methyl-9,9a-dihydrofuro[2,3-h]isochromene-6,8-dione
PI=GNPS
DATACOLLECTOR=GNPS
SMILES=CC[C@H](C)/C=C(\C)/C=C/C1=CC2=CC(=O)[C@@]3(C)[C@@H](C2=CO1)[C@H](C(=O)C)C(=O)O3
INCHI=InChI=1S/C23H26O5/c1-6-13(2)9-14(3)7-8-17-10-16-11-19(25)23(5)21(18(16)12-27-17)20(15(4)24)22(26)28-23/h7-13,20-21H,6H2,1-5H3/b8-7+,14-9+/t13-,20-,21-,23-/m0/s1
FORMULA=C23H26O5
PUBMED=N/A
SUBMITUSER=BIOADREM
LIBRARYQUALITY=0
SPECTRUMID=CCMSLIB00000080614
SCANS=2794
ID=CCMSLIB00000080614
105.0698762568 	 8.53
119.085526321 	 16.47
143.085526321 	 10.03
145.0647908789 	 13.72
147.0804409431 	 9.41
157.1011763852 	 8.66
159.0804409431 	 12.35
161.059705501 	 6.03
169.1011763852 	 7.11
179.085526321 	 7.55
181.1011763852 	 7.29
182.1090014173 	 8.41
183.0804409431 	 8.15
183.1168264494 	 8.32
185.0960910073 	 7.57
187.0753555652 	 8.21
195.0804409431 	 8.86
195.1168264494 	 7.99
196.1246514815 	 7.89
197.0960910073 	 12.61
199.1117410715 	 7.31
207.1168264494 	 9.85
209.0960910073 	 11.84
210.1039160394 	 15.02
211.1117410715 	 8.21
211.1481265778 	 14.22
213.0910056294 	 8.66
215.1066556936 	 6.47
221.1324765136 	 8.55
223.1117410715 	 13.43
225.0910056294 	 7.18
225.1273911357 	 16.28
238.0988306615 	 13.6
239.1066556936 	 8.75
239.1430411999 	 11.2
249.1273911357 	 9.23
251.1066556936 	 10.95
252.1144807257 	 6.71
253.1223057578 	 11.33
253.1586912641 	 9.01
255.137955822 	 7.27
267.137955822 	 88.18
279.1015703157 	 11.46
281.1536058862 	 18.73
282.1614309183 	 12.08
296.1770809825 	 13.23
311.2005560788 	 100
339.1226996883 	 26.19
353.1383497525 	 12.37
354.1461747846 	 7.49
383.1852999451 	 60.29
END IONS

BEGIN IONS
PEPMASS=467.245
CHARGE=1
MSLEVEL=2
RT=0
SOURCE_INSTRUMENT=qTOF
FILENAME=CCMSLIB00000080615.ms
IONMODE=Positive
ORGANISM=Natural
NAME=MLS001158996-01!(3S)-N-[(2S)-3-(1H-indol-3-yl)-1-oxo-1-(1-phenylethylamino)propan-2-yl]-1,2,3,4-tetrahydroisoquinoline-3-carboxamide
PI=GNPS
DATACOLLECTOR=GNPS
SMILES=CC(c1ccccc1)N=C([C@H](Cc1c[nH]c2ccccc12)N=C([C@@H]1Cc2ccccc2CN1)O)O
INCHI=InChI=1S/C29H30N4O2/c1-19(20-9-3-2-4-10-20)32-29(35)27(16-23-18-30-25-14-8-7-13-24(23)25)33-28(34)26-15-21-11-5-6-12-22(21)17-31-26/h2-14,18-19,26-27,30-31H,15-17H2,1H3,(H,32,35)(H,33,34)/t19?,26-,27-/m0/s1
FORMULA=C29H30N4O2
PUBMED=N/A
SUBMITUSER=BIOADREM
LIBRARYQUALITY=0
SPECTRUMID=CCMSLIB00000080615
SCANS=2795
ID=CCMSLIB00000080615
103.0542261926 	 3.8
105.0698762568 	 24.49
115.0542261926 	 4.83
117.0573001978 	 4.18
118.0651252299 	 0.75
130.0651252299 	 48.07
132.0807752941 	 100
142.0651252299 	 1.6
144.0807752941 	 7.32
159.0916743314 	 49.66
169.0760242672 	 1.02
170.060039852 	 4.19
187.0865889535 	 46.55
220.1120754225 	 4.86
246.1277254867 	 0.89
273.138624524 	 2.52
291.1491892103 	 4.73
318.1600882476 	 1.78
467.244152228 	 0
END IONS

BEGIN IONS
PEPMASS=414.1911
CHARGE=1
MSLEVEL=2
RT=0
SOURCE_INSTRUMENT=qTOF
FILENAME=CCMSLIB00000080616.ms
IONMODE=Positive
ORGANISM=Natural
NAME=MLS001140918-01!4-[[[2-[(6-methyl-4-oxo-2,3-dihydro-1H-cyclopenta[c]chromen-7-yl)oxy]acetyl]amino]methyl]cyclohexane-1-carboxylic acid
PI=GNPS
DATACOLLECTOR=GNPS
SMILES=Cc1c(ccc2c3CCCc3c(=O)oc12)OCC(=NC[C@H]1CC[C@@H](CC1)C(=O)O)O
INCHI=InChI=1S/C23H27NO6/c1-13-19(10-9-17-16-3-2-4-18(16)23(28)30-21(13)17)29-12-20(25)24-11-14-5-7-15(8-6-14)22(26)27/h9-10,14-15H,2-8,11-12H2,1H3,(H,24,25)(H,26,27)/t14-,15-
FORMULA=C23H27NO6
PUBMED=N/A
SUBMITUSER=BIOADREM
LIBRARYQUALITY=0
SPECTRUMID=CCMSLIB00000080616
SCANS=2796
ID=CCMSLIB00000080616
115.0542261926 	 1.62
117.0698762568 	 1.13
119.085526321 	 0.95
121.0647908789 	 0.75
128.0620512247 	 2.89
143.085526321 	 1.31
145.0647908789 	 6.5
145.1011763852 	 1.72
147.0804409431 	 6.88
155.085526321 	 2.08
158.072615911 	 3.14
161.059705501 	 3.88
161.0960910073 	 1
171.0804409431 	 6.5
173.059705501 	 1.1
173.0960910073 	 2.55
174.0675305331 	 1.43
183.0804409431 	 0.88
187.0753555652 	 4.96
188.0831805973 	 9.9
189.0910056294 	 7.59
201.0910056294 	 46.16
211.0753555652 	 0.96
215.0702701873 	 6.74
216.0780952194 	 21.18
217.0859202515 	 100
229.0859202515 	 51.38
257.0808348736 	 14.02
274.1073839751 	 27.76
368.1856342961 	 13.85
414.1911136045 	 0.65
END IONS

BEGIN IONS
PEPMASS=455.18
CHARGE=1
MSLEVEL=2
RT=0
SOURCE_INSTRUMENT=qTOF
FILENAME=CCMSLIB00000080617.ms
IONMODE=Positive
ORGANISM=Natural
NAME=MLS001140358-01!dimethyl 5-[[2-(2,3,4,7,9,10-hexahydro-[1,4]dioxepino[2,3-g]isoquinolin-8-yl)acetyl]amino]benzene-1,3-dicarboxylate
PI=GNPS
DATACOLLECTOR=GNPS
SMILES=COC(=O)c1cc(cc(c1)N=C(CN1CCc2cc3c(cc2C1)OCCCO3)O)C(=O)OC
INCHI=InChI=1S/C24H26N2O7/c1-30-23(28)16-8-17(24(29)31-2)10-19(9-16)25-22(27)14-26-5-4-15-11-20-21(12-18(15)13-26)33-7-3-6-32-20/h8-12H,3-7,13-14H2,1-2H3,(H,25,27)
FORMULA=C24H26N2O7
PUBMED=N/A
SUBMITUSER=BIOADREM
LIBRARYQUALITY=0
SPECTRUMID=CCMSLIB00000080617
SCANS=2797
ID=CCMSLIB00000080617
103.0542261926 	 0.91
105.0698762568 	 1.55
119.0491408147 	 1.07
121.0647908789 	 1.53
121.0886003262 	 0.65
131.0491408147 	 1.83
132.0807752941 	 6.21
133.0647908789 	 1.88
135.0440554368 	 0.69
136.0518804689 	 0.6
137.059705501 	 0.95
144.0807752941 	 0.62
146.0964253583 	 0.79
147.0678648841 	 2.13
148.0756899162 	 1.81
149.059705501 	 7.69
160.0756899162 	 12.29
161.059705501 	 1.39
162.0913399804 	 0.77
163.0753555652 	 4.49
172.0756899162 	 0.56
173.0835149483 	 1.06
174.0913399804 	 1.5
175.0627795062 	 0.76
175.0991650125 	 0.88
176.0706045383 	 0.99
177.0910056294 	 16.13
188.0706045383 	 0.55
188.1069900446 	 0.75
189.0910056294 	 2.62
190.1226401088 	 1.37
191.1066556936 	 5.76
200.1069900446 	 0.6
202.0862546025 	 6.51
203.0940796346 	 12.44
204.0291336541 	 1.05
205.1097296988 	 2.57
216.1019046667 	 6.16
218.1175547309 	 100
222.0760838467 	 35.48
247.0713328198 	 5.92
279.0975475703 	 1.24
455.1812771997 	 2.27
END IONS

BEGIN IONS
PEPMASS=621.255
CHARGE=1
MSLEVEL=2
RT=0
SOURCE_INSTRUMENT=qTOF
FILENAME=CCMSLIB00000080618.ms
IONMODE=Positive
ORGANISM=Natural
NAME=MLS000863591-01!methyl 3-ethenyl-4-[[6-[4-(4-hydroxyphenyl)-2-oxobutyl]-4-oxooxan-2-yl]methyl]-2-[3,4,5-trihydroxy-6-(hydroxymethyl)oxan-2-yl]oxy-3,4-dihydro-2H-pyran-5-carboxylate
PI=GNPS
DATACOLLECTOR=GNPS
SMILES=C=CC1C(CC2CC(=O)CC(CC(=O)CCc3ccc(cc3)O)O2)C(=COC1OC1C(C(C(C(CO)O1)O)O)O)C(=O)OC
INCHI=InChI=1S/C31H40O13/c1-3-22-23(13-21-12-19(35)11-20(42-21)10-18(34)9-6-16-4-7-17(33)8-5-16)24(29(39)40-2)15-41-30(22)44-31-28(38)27(37)26(36)25(14-32)43-31/h3-5,7-8,15,20-23,25-28,30-33,36-38H,1,6,9-14H2,2H3
FORMULA=C31H40O13
PUBMED=N/A
SUBMITUSER=BIOADREM
LIBRARYQUALITY=0
SPECTRUMID=CCMSLIB00000080618
SCANS=2798
ID=CCMSLIB00000080618
107.0491408147 	 100
109.0647908789 	 5.75
121.0284053726 	 5.33
121.0647908789 	 7.54
123.0440554368 	 5.92
125.059705501 	 4.48
129.0698762568 	 4.39
131.0491408147 	 4.18
133.0647908789 	 10.23
135.0440554368 	 5.24
139.0389700589 	 10.66
147.0440554368 	 9.16
147.0804409431 	 11.3
149.0233199947 	 7.12
149.059705501 	 14.19
151.0389700589 	 34.95
153.0546201231 	 9.04
157.0647908789 	 3.96
159.0440554368 	 5.58
163.0753555652 	 4.56
165.0546201231 	 69.82
167.0702701873 	 26.04
173.059705501 	 9.89
175.0389700589 	 5.58
175.0753555652 	 23.96
191.0702701873 	 15.56
193.0859202515 	 13
217.0859202515 	 20.97
219.0651848094 	 14.92
243.1015703157 	 4.26
245.0808348736 	 14.49
246.0886599057 	 5.24
261.112135002 	 12.66
279.1226996883 	 14.79
357.1332643746 	 3.84
621.2541673713 	 0
END IONS

BEGIN IONS
PEPMASS=402.2639
CHARGE=1
MSLEVEL=2
RT=0
SOURCE_INSTRUMENT=qTOF
FILENAME=CCMSLIB00000080619.ms
IONMODE=Positive
ORGANISM=Natural
NAME=MLS000876956-01!
PI=GNPS
DATACOLLECTOR=GNPS
SMILES=CC(C)CC1C2C(C)C(=CC3C=C(C)CCC(C(C=CC(=O)C23C(=N1)O)O)O)C
INCHI=InChI=1S/C24H35NO4/c1-13(2)10-18-22-16(5)15(4)12-17-11-14(3)6-7-19(26)20(27)8-9-21(28)24(17,22)23(29)25-18/h8-9,11-13,16-20,22,26-27H,6-7,10H2,1-5H3,(H,25,29)
FORMULA=C24H35NO4
PUBMED=N/A
SUBMITUSER=BIOADREM
LIBRARYQUALITY=0
SPECTRUMID=CCMSLIB00000080619
SCANS=2799
ID=CCMSLIB00000080619
96.0443897878 	 24.64
105.0698762568 	 11.21
107.085526321 	 12.95
110.0236543457 	 9.81
117.0698762568 	 8.12
119.085526321 	 28.07
121.1011763852 	 9.66
124.0393044099 	 11.98
128.0620512247 	 7.54
129.0698762568 	 8.16
131.085526321 	 9.9
133.1011763852 	 16.96
138.0913399804 	 48.45
142.0777012889 	 10.29
143.085526321 	 20.34
145.1011763852 	 14.3
147.0804409431 	 8.89
156.0933513531 	 9.13
157.1011763852 	 17.1
159.1168264494 	 6.91
166.0862546025 	 100
169.1011763852 	 11.35
170.1090014173 	 8.99
171.1168264494 	 30.14
173.0960910073 	 8.16
173.1324765136 	 7.63
178.1226401088 	 8.36
179.085526321 	 7.05
180.1019046667 	 8.07
195.1168264494 	 9.32
206.1175547309 	 44.59
209.1324765136 	 11.98
213.1273911357 	 12.08
227.1430411999 	 13
282.1852403656 	 9.57
284.1645049235 	 6.81
338.2478406224 	 8.55
366.2427552445 	 30.48
384.2533199308 	 19.18
402.2638846171 	 4.25
END IONS

BEGIN IONS
PEPMASS=312.123
CHARGE=1
MSLEVEL=2
RT=0
SOURCE_INSTRUMENT=qTOF
FILENAME=CCMSLIB00000081223.ms
IONMODE=Positive
ORGANISM=Natural
NAME=8-Oxoerythraline
PI=GNPS
DATACOLLECTOR=GNPS
SMILES=COC1C=CC2=CC(=O)N3CCc4cc5c(cc4C23C1)OCO5
INCHI=InChI=1S/C18H17NO4/c1-21-13-3-2-12-7-17(20)19-5-4-11-6-15-16(23-10-22-15)8-14(11)18(12,19)9-13/h2-3,6-8,13H,4-5,9-10H2,1H3
FORMULA=C18H17NO4
PUBMED=N/A
SUBMITUSER=BIOADREM
LIBRARYQUALITY=0
SPECTRUMID=CCMSLIB00000081223
SCANS=2800
ID=CCMSLIB00000081223
132.0443897878 	 0.5
146.0151010321 	 0.44
179.0127553084 	 0.64
252.0780952194 	 2.56
312.1230340393 	 0
END IONS

BEGIN IONS
PEPMASS=328.1179
CHARGE=1
MSLEVEL=2
RT=0
SOURCE_INSTRUMENT=qTOF
FILENAME=CCMSLIB00000081224.ms
IONMODE=Positive
ORGANISM=Natural
NAME=8-Oxoerythraline_epoxide
PI=GNPS
DATACOLLECTOR=GNPS
SMILES=COC1CC23c4cc5c(cc4CCN3C(=O)C=C2C2C1O2)OCO5
INCHI=InChI=1S/C18H17NO5/c1-21-14-7-18-10-5-13-12(22-8-23-13)4-9(10)2-3-19(18)15(20)6-11(18)16-17(14)24-16/h4-6,14,16-17H,2-3,7-8H2,1H3
FORMULA=C18H17NO5
PUBMED=N/A
SUBMITUSER=BIOADREM
LIBRARYQUALITY=0
SPECTRUMID=CCMSLIB00000081224
SCANS=2801
ID=CCMSLIB00000081224
108.0443897878 	 0.31
118.9974991747 	 3.63
146.020974271 	 0.42
150.0100156542 	 0.81
174.0311450268 	 5.16
176.0256657184 	 18.2
220.0730098415 	 0.35
250.0709984688 	 7.08
252.0291336541 	 0.4
254.020974271 	 2.28
268.0604337825 	 100
296.0553484046 	 27.5
310.0709984688 	 2.68
328.1179486614 	 0
END IONS

BEGIN IONS
PEPMASS=300.1594
CHARGE=1
MSLEVEL=2
RT=0
SOURCE_INSTRUMENT=qTOF
FILENAME=CCMSLIB00000081228.ms
IONMODE=Positive
ORGANISM=Natural
NAME=erysovine
PI=GNPS
DATACOLLECTOR=GNPS
SMILES=COC1C=CC2=CCN3CCc4cc(c(cc4C23C1)O)OC
INCHI=InChI=1S/C18H21NO3/c1-21-14-4-3-13-6-8-19-7-5-12-9-17(22-2)16(20)10-15(12)18(13,19)11-14/h3-4,6,9-10,14,20H,5,7-8,11H2,1-2H3
FORMULA=C18H21NO3
PUBMED=N/A
SUBMITUSER=BIOADREM
LIBRARYQUALITY=0
SPECTRUMID=CCMSLIB00000081228
SCANS=2803
ID=CCMSLIB00000081228
153.0420440641 	 0.93
219.0229260642 	 40.52
236.0494751657 	 76.74
239.0576941283 	 6.62
300.1594195456 	 0
END IONS

BEGIN IONS
PEPMASS=298.1438
CHARGE=1
MSLEVEL=2
RT=0
SOURCE_INSTRUMENT=qTOF
FILENAME=CCMSLIB00000081230.ms
IONMODE=Positive
ORGANISM=Natural
NAME=Erythraline
PI=GNPS
DATACOLLECTOR=GNPS
SMILES=COC1C=CC2=CCN3CCc4cc5c(cc4C23C1)OCO5
INCHI=InChI=1S/C18H19NO3/c1-20-14-3-2-13-5-7-19-6-4-12-8-16-17(22-11-21-16)9-15(12)18(13,19)10-14/h2-3,5,8-9,14H,4,6-7,10-11H2,1H3
FORMULA=C18H19NO3
PUBMED=N/A
SUBMITUSER=BIOADREM
LIBRARYQUALITY=0
SPECTRUMID=CCMSLIB00000081230
SCANS=2804
ID=CCMSLIB00000081230
176.0130896594 	 0.56
203.0491408147 	 0.55
224.034219032 	 1.49
236.0706045383 	 43.93
249.0546201231 	 100
264.0655191604 	 14.78
298.1437694814 	 0
END IONS

BEGIN IONS
PEPMASS=330.17
CHARGE=1
MSLEVEL=2
RT=0
SOURCE_INSTRUMENT=qTOF
FILENAME=CCMSLIB00000081231.ms
IONMODE=Positive
ORGANISM=Natural
NAME=Erythratidinone
PI=GNPS
DATACOLLECTOR=GNPS
SMILES=COc1cc2CCN3CCC4=CC(=O)C(CC34c2cc1OC)OC
INCHI=InChI=1S/C19H23NO4/c1-22-16-8-12-4-6-20-7-5-13-9-15(21)18(24-3)11-19(13,20)14(12)10-17(16)23-2/h8-10,18H,4-7,11H2,1-3H3
FORMULA=C19H23NO4
PUBMED=N/A
SUBMITUSER=BIOADREM
LIBRARYQUALITY=0
SPECTRUMID=CCMSLIB00000081231
SCANS=2805
ID=CCMSLIB00000081231
134.9950938715 	 0.44
160.0154949626 	 0.43
223.0263939999 	 4.22
229.0733441925 	 73.55
229.0859202515 	 7.2
234.0549544741 	 19.76
242.0811692246 	 6.95
252.1019046667 	 2.2
253.1223057578 	 0.6
254.0573597773 	 1.62
254.0937452836 	 58.89
255.0889942567 	 3.98
264.0205803405 	 3
264.0780952194 	 22.81
269.1046443209 	 1.79
270.125045412 	 100
280.1093953478 	 95.47
281.0808348736 	 0.77
283.0839088788 	 70.16
330.1699842319 	 0
END IONS

BEGIN IONS
PEPMASS=314.1387
CHARGE=1
MSLEVEL=2
RT=0
SOURCE_INSTRUMENT=qTOF
FILENAME=CCMSLIB00000081235.ms
IONMODE=Positive
ORGANISM=Natural
NAME=Erythrinine
PI=GNPS
DATACOLLECTOR=GNPS
SMILES=COC1C=CC2=CCN3CC(c4cc5c(cc4C23C1)OCO5)O
INCHI=InChI=1S/C18H19NO4/c1-21-12-3-2-11-4-5-19-9-15(20)13-6-16-17(23-10-22-16)7-14(13)18(11,19)8-12/h2-4,6-7,12,15,20H,5,8-10H2,1H3
FORMULA=C18H19NO4
PUBMED=N/A
SUBMITUSER=BIOADREM
LIBRARYQUALITY=0
SPECTRUMID=CCMSLIB00000081235
SCANS=2808
ID=CCMSLIB00000081235
135.0440554368 	 2.17
137.047129442 	 0.32
206.0362304047 	 10.47
217.0284053726 	 24.24
252.0780952194 	 4.38
254.0937452836 	 3.57
314.1386841035 	 0
END IONS

BEGIN IONS
PEPMASS=310.1074
CHARGE=1
MSLEVEL=2
RT=0
SOURCE_INSTRUMENT=qTOF
FILENAME=CCMSLIB00000081237.ms
IONMODE=Positive
ORGANISM=Natural
NAME=Crystamidine
PI=GNPS
DATACOLLECTOR=GNPS
SMILES=COC1C=CC2=CC(=O)N3C=Cc4cc5c(cc4C23C1)OCO5
INCHI=InChI=1S/C18H15NO4/c1-21-13-3-2-12-7-17(20)19-5-4-11-6-15-16(23-10-22-15)8-14(11)18(12,19)9-13/h2-8,13H,9-10H2,1H3
FORMULA=C18H15NO4
PUBMED=N/A
SUBMITUSER=BIOADREM
LIBRARYQUALITY=0
SPECTRUMID=CCMSLIB00000081237
SCANS=2809
ID=CCMSLIB00000081237
232.0730098415 	 1.07
310.1073839751 	 0
END IONS

BEGIN IONS
PEPMASS=327.1591
CHARGE=1
MSLEVEL=2
RT=0
SOURCE_INSTRUMENT=qTOF
FILENAME=CCMSLIB00000081238.ms
IONMODE=Positive
ORGANISM=Natural
NAME=Licarin A
PI=GNPS
DATACOLLECTOR=GNPS
SMILES=C/C=C/c1cc2C(C)C(c3ccc(c(c3)OC)O)Oc2c(c1)OC
INCHI=InChI=1S/C20H22O4/c1-5-6-13-9-15-12(2)19(24-20(15)18(10-13)23-4)14-7-8-16(21)17(11-14)22-3/h5-12,19,21H,1-4H3/b6-5+
FORMULA=C20H22O4
PUBMED=N/A
SUBMITUSER=BIOADREM
LIBRARYQUALITY=0
SPECTRUMID=CCMSLIB00000081238
SCANS=2810
ID=CCMSLIB00000081238
91.0753555652 	 2.88461538461538
128.0256657184 	 12.2975708502024
141.0182346168 	 4.40283400809717
143.033884681 	 100
157.1011763852 	 6.12348178137652
267.1015703157 	 12.246963562753
327.1590851946 	 0
END IONS

BEGIN IONS
PEPMASS=261.1121
CHARGE=1
MSLEVEL=2
RT=0
SOURCE_INSTRUMENT=qTOF
FILENAME=CCMSLIB00000081243.ms
IONMODE=Positive
ORGANISM=Natural
NAME=2-(5-formyl-3,4-dihydro-2,2-dimethyl-2H-pyran-6-yl)-Benzoic acid
PI=GNPS
DATACOLLECTOR=GNPS
SMILES=CC1(C)CCC(=C(c2ccccc2C(=O)O)O1)C=O
INCHI=InChI=1S/C15H16O4/c1-15(2)8-7-10(9-16)13(19-15)11-5-3-4-6-12(11)14(17)18/h3-6,9H,7-8H2,1-2H3,(H,17,18)
FORMULA=C15H16O4
PUBMED=N/A
SUBMITUSER=BIOADREM
LIBRARYQUALITY=0
SPECTRUMID=CCMSLIB00000081243
SCANS=2812
ID=CCMSLIB00000081243
131.0491408147 	 0.69
210.0675305331 	 1.86
225.0910056294 	 4.95
261.112135002 	 0
END IONS

BEGIN IONS
PEPMASS=265.0835
CHARGE=1
MSLEVEL=2
RT=0
SOURCE_INSTRUMENT=qTOF
FILENAME=CCMSLIB00000081244.ms
IONMODE=Positive
ORGANISM=Natural
NAME=2-(5-formyl-3,4-dihydro-2,2-dimethyl-2H-pyran-6-yl)-Benzoic acid
PI=GNPS
DATACOLLECTOR=GNPS
SMILES=CC1(C)CCC2=C(c3ccccc3C(=O)C2=O)O1
INCHI=InChI=1S/C15H14O3/c1-15(2)8-7-11-13(17)12(16)9-5-3-4-6-10(9)14(11)18-15/h3-6H,7-8H2,1-2H3
FORMULA=C15H14O3
PUBMED=N/A
SUBMITUSER=BIOADREM
LIBRARYQUALITY=0
SPECTRUMID=CCMSLIB00000081244
SCANS=2813
ID=CCMSLIB00000081244
99.0804409431 	 10
111.0440554368 	 1.52
127.0389700589 	 19.88
137.059705501 	 21.24
151.1117410715 	 4.95
185.059705501 	 2.08
243.1015703157 	 0
END IONS

BEGIN IONS
PEPMASS=281.0784
CHARGE=1
MSLEVEL=2
RT=0
SOURCE_INSTRUMENT=qTOF
FILENAME=CCMSLIB00000081248.ms
IONMODE=Positive
ORGANISM=Natural
NAME=2,2-dimethyl-5-oxo-2,3,4,5-tetrahydroindeno[1,2-b]pyran-6-carboxylic acid
PI=GNPS
DATACOLLECTOR=GNPS
SMILES=CC1(C)CCC2=C(c3cccc(c3C2=O)C(=O)O)O1
INCHI=InChI=1S/C15H14O4/c1-15(2)7-6-10-12(16)11-8(13(10)19-15)4-3-5-9(11)14(17)18/h3-5H,6-7H2,1-2H3,(H,17,18)
FORMULA=C15H14O4
PUBMED=N/A
SUBMITUSER=BIOADREM
LIBRARYQUALITY=0
SPECTRUMID=CCMSLIB00000081248
SCANS=2814
ID=CCMSLIB00000081248
99.0804409431 	 21.95
107.0491408147 	 2
127.0389700589 	 19.66
151.1117410715 	 9.41
159.0440554368 	 1.98
259.0964849378 	 0
END IONS

BEGIN IONS
PEPMASS=407.17
CHARGE=1
MSLEVEL=2
RT=0
SOURCE_INSTRUMENT=qTOF
FILENAME=CCMSLIB00000081250.ms
IONMODE=Positive
ORGANISM=Natural
NAME=(2R,3R,4S,6R)-2-((10-hydroxy-2,2-dimethyl-3,4-dihydro-2H-benzo[g]chromen-5-yl)oxy)-6-(hydroxymethyl)tetrahydro-2H-pyran-3,4,5-triol
PI=GNPS
DATACOLLECTOR=GNPS
SMILES=CC1(C)CCc2c(c3ccccc3c(c2O1)O)O[C@@H]1[C@@H]([C@H](C([C@@H](CO)O1)O)O)O
INCHI=InChI=1S/C21H26O8/c1-21(2)8-7-12-18(11-6-4-3-5-10(11)14(23)19(12)29-21)28-20-17(26)16(25)15(24)13(9-22)27-20/h3-6,13,15-17,20,22-26H,7-9H2,1-2H3/t13-,15?,16+,17-,20-/m1/s1
FORMULA=C21H26O8
PUBMED=N/A
SUBMITUSER=BIOADREM
LIBRARYQUALITY=0
SPECTRUMID=CCMSLIB00000081250
SCANS=2815
ID=CCMSLIB00000081250
143.0491408147 	 4.43
181.1011763852 	 3.66
188.046795091 	 10.33
199.1117410715 	 54.95
209.0960910073 	 4.55
227.1066556936 	 100
244.1093953478 	 28.95
245.1172203799 	 56.78
407.1700438114 	 0
END IONS

BEGIN IONS
PEPMASS=233.1152
CHARGE=1
MSLEVEL=2
RT=0
SOURCE_INSTRUMENT=qTOF
FILENAME=CCMSLIB00000081251.ms
IONMODE=Positive
ORGANISM=Natural
NAME=3',4',5',6'-tetrahydro-6',6'-dimethyl-spiro[isobenzofuran-1(3H),2'-[2H]pyran]-3-one
PI=GNPS
DATACOLLECTOR=GNPS
SMILES=CC1(C)CCCC2(c3ccccc3C(=O)O2)O1
INCHI=InChI=1S/C14H16O3/c1-13(2)8-5-9-14(17-13)11-7-4-3-6-10(11)12(15)16-14/h3-4,6-7H,5,8-9H2,1-2H3
FORMULA=C14H16O3
PUBMED=N/A
SUBMITUSER=BIOADREM
LIBRARYQUALITY=0
SPECTRUMID=CCMSLIB00000081251
SCANS=2816
ID=CCMSLIB00000081251
109.0647908789 	 1.02608639711795
111.0440554368 	 0.501785197336679
125.059705501 	 1.81414648267876
127.0389700589 	 8.85843867605906
137.059705501 	 8.21190774872141
153.0546201231 	 1.20299784489691
157.1011763852 	 1.79484705201197
165.0546201231 	 1.17404869889672
175.1117410715 	 2.50570941490559
197.0960910073 	 15.6261056965486
233.1172203799 	 100
END IONS

BEGIN IONS
PEPMASS=237.0886
CHARGE=1
MSLEVEL=2
RT=0
SOURCE_INSTRUMENT=qTOF
FILENAME=CCMSLIB00000081255.ms
IONMODE=Positive
ORGANISM=Natural
NAME=3,4-dihydro-2,2-dimethyl-indeno[1,2-b]-pyran-5(2H)-one
PI=GNPS
DATACOLLECTOR=GNPS
SMILES=CC1(C)CCC2=C(c3ccccc3C2=O)O1
INCHI=InChI=1S/C14H14O2/c1-14(2)8-7-11-12(15)9-5-3-4-6-10(9)13(11)16-14/h3-6H,7-8H2,1-2H3
FORMULA=C14H14O2
PUBMED=N/A
SUBMITUSER=BIOADREM
LIBRARYQUALITY=0
SPECTRUMID=CCMSLIB00000081255
SCANS=2818
ID=CCMSLIB00000081255
109.0647908789 	 2.66
113.0021906221 	 3.37
125.059705501 	 28.75
131.0127553084 	 2.93
135.0804409431 	 4.16
137.059705501 	 100
157.1011763852 	 12.8
175.1117410715 	 43.77
215.1066556936 	 0
END IONS

BEGIN IONS
PEPMASS=407.17
CHARGE=1
MSLEVEL=2
RT=0
SOURCE_INSTRUMENT=qTOF
FILENAME=CCMSLIB00000081257.ms
IONMODE=Positive
ORGANISM=Natural
NAME=(2R,3R,4S,6R)-2-((5-hydroxy-2,2-dimethyl-3,4-dihydro-2H-benzo[h]chromen-6-yl)oxy)-6-(hydroxymethyl)tetrahydro-2H-pyran-3,4,5-triol
PI=GNPS
DATACOLLECTOR=GNPS
SMILES=CC1(C)CCc2c(c(c3ccccc3c2O1)O[C@@H]1[C@@H]([C@H](C([C@@H](CO)O1)O)O)O)O
INCHI=InChI=1S/C21H26O8/c1-21(2)8-7-12-14(23)19(11-6-4-3-5-10(11)18(12)29-21)28-20-17(26)16(25)15(24)13(9-22)27-20/h3-6,13,15-17,20,22-26H,7-9H2,1-2H3/t13-,15?,16+,17-,20-/m1/s1
FORMULA=C21H26O8
PUBMED=N/A
SUBMITUSER=BIOADREM
LIBRARYQUALITY=0
SPECTRUMID=CCMSLIB00000081257
SCANS=2819
ID=CCMSLIB00000081257
121.0647908789 	 0.446485521112387
143.0491408147 	 4.49036866947315
179.085526321 	 1.30118637581324
181.1011763852 	 2.33448143895905
188.046795091 	 6.58885061870137
197.0960910073 	 1.69026661563975
199.1117410715 	 39.0866181910958
201.0546201231 	 6.26993238933538
209.0960910073 	 2.90215588723051
227.1066556936 	 77.522643194285
243.1015703157 	 8.02398265084832
244.1093953478 	 18.4653654802909
245.1172203799 	 100
407.1700438114 	 1.89437428243398
END IONS

BEGIN IONS
PEPMASS=407.17
CHARGE=1
MSLEVEL=2
RT=0
SOURCE_INSTRUMENT=qTOF
FILENAME=CCMSLIB00000081258.ms
IONMODE=Positive
ORGANISM=Natural
NAME=(2S,3S,4R,6S)-2-((6-hydroxy-2,2-dimethyl-3,4-dihydro-2H-benzo[h]chromen-5-yl)oxy)-6-(hydroxymethyl)tetrahydro-2H-pyran-3,4,5-triol
PI=GNPS
DATACOLLECTOR=GNPS
SMILES=CC1(C)CCc2c(c3ccccc3c(c2O[C@H]2[C@H]([C@@H](C([C@H](CO)O2)O)O)O)O)O1
INCHI=InChI=1S/C21H26O8/c1-21(2)8-7-12-18(29-21)11-6-4-3-5-10(11)14(23)19(12)28-20-17(26)16(25)15(24)13(9-22)27-20/h3-6,13,15-17,20,22-26H,7-9H2,1-2H3/t13-,15?,16+,17-,20-/m0/s1
FORMULA=C21H26O8
PUBMED=N/A
SUBMITUSER=BIOADREM
LIBRARYQUALITY=0
SPECTRUMID=CCMSLIB00000081258
SCANS=2820
ID=CCMSLIB00000081258
155.0491408147 	 3.14
173.059705501 	 2.09
187.0389700589 	 100
199.0753555652 	 2.3
243.1015703157 	 11.4
407.1700438114 	 0
END IONS

BEGIN IONS
PEPMASS=283.0925
CHARGE=1
MSLEVEL=2
RT=0
SOURCE_INSTRUMENT=qTOF
FILENAME=CCMSLIB00000081263.ms
IONMODE=Positive
ORGANISM=Natural
NAME=2-hydroxy-3-(3-hydroxy-3-methylbutyl)naphthalene-1,4-dione
PI=GNPS
DATACOLLECTOR=GNPS
SMILES=CC(C)(CCC1=C(C(=O)c2ccccc2C1=O)O)O
INCHI=InChI=1S/C15H16O4/c1-15(2,19)8-7-11-12(16)9-5-3-4-6-10(9)13(17)14(11)18/h3-6,18-19H,7-8H2,1-2H3
FORMULA=C15H16O4
PUBMED=N/A
SUBMITUSER=BIOADREM
LIBRARYQUALITY=0
SPECTRUMID=CCMSLIB00000081263
SCANS=2823
ID=CCMSLIB00000081263
205.0495347452 	 3
261.112135002 	 24.44
END IONS

BEGIN IONS
PEPMASS=276.1707
CHARGE=1
MSLEVEL=2
RT=0
SOURCE_INSTRUMENT=qTOF
FILENAME=CCMSLIB00000081265.ms
IONMODE=Positive
ORGANISM=Natural
NAME=Physostigmine
PI=GNPS
DATACOLLECTOR=GNPS
SMILES=CC12CCN(C)C2N(C)c2ccc(cc12)OC(=NC)O
INCHI=InChI=1S/C15H21N3O2/c1-15-7-8-17(3)13(15)18(4)12-6-5-10(9-11(12)15)20-14(19)16-2/h5-6,9,13H,7-8H2,1-4H3,(H,16,19)
FORMULA=C15H21N3O2
PUBMED=N/A
SUBMITUSER=BIOADREM
LIBRARYQUALITY=0
SPECTRUMID=CCMSLIB00000081265
SCANS=2824
ID=CCMSLIB00000081265
220.1080526771 	 5.75
276.1706529339 	 0
END IONS

BEGIN IONS
PEPMASS=579.2928
CHARGE=1
MSLEVEL=2
RT=0
SOURCE_INSTRUMENT=qTOF
FILENAME=CCMSLIB00000081267.ms
IONMODE=Positive
ORGANISM=Natural
NAME=Cucurbitacin E
PI=GNPS
DATACOLLECTOR=GNPS
SMILES=CC(=O)OC(C)(C)/C=C/C(=O)[C@@](C)([C@H]1[C@@H](C[C@@]2(C)[C@@H]3CC=C4C(C=C(C(=O)C4(C)C)O)[C@]3(C)C(=O)C[C@]12C)O)O
INCHI=InChI=1S/C32H44O8/c1-17(33)40-27(2,3)13-12-23(36)32(9,39)25-21(35)15-29(6)22-11-10-18-19(14-20(34)26(38)28(18,4)5)31(22,8)24(37)16-30(25,29)7/h10,12-14,19,21-22,25,34-35,39H,11,15-16H2,1-9H3/b13-12+/t19?,21-,22+,25+,29+,30-,31+,32+/m1/s1
FORMULA=C32H44O8
PUBMED=N/A
SUBMITUSER=BIOADREM
LIBRARYQUALITY=0
SPECTRUMID=CCMSLIB00000081267
SCANS=2825
ID=CCMSLIB00000081267
363.2166000735 	 2.81
457.2948503945 	 7.39
475.3054150808 	 11.63
497.2897650166 	 100
557.3108943892 	 215.19
END IONS

BEGIN IONS
PEPMASS=347.1489
CHARGE=1
MSLEVEL=2
RT=0
SOURCE_INSTRUMENT=qTOF
FILENAME=CCMSLIB00000081270.ms
IONMODE=Positive
ORGANISM=Natural
NAME=Gibberellic acid
PI=GNPS
DATACOLLECTOR=GNPS
SMILES=C=C1C[C@]23C[C@]1(CC[C@H]2[C@]12C=C[C@@H]([C@](C)([C@H]1[C@@H]3C(=O)O)C(=O)O2)O)O
INCHI=InChI=1S/C19H22O6/c1-9-7-17-8-18(9,24)5-3-10(17)19-6-4-11(20)16(2,15(23)25-19)13(19)12(17)14(21)22/h4,6,10-13,20,24H,1,3,5,7-8H2,2H3,(H,21,22)/t10-,11+,12-,13-,16-,17+,18+,19-/m1/s1
FORMULA=C19H22O6
PUBMED=N/A
SUBMITUSER=BIOADREM
LIBRARYQUALITY=0
SPECTRUMID=CCMSLIB00000081270
SCANS=2826
ID=CCMSLIB00000081270
145.1011763852 	 0.56
165.0757494957 	 0.69
180.099224592 	 1.19
181.1011763852 	 0.66
195.1226996883 	 0.83
221.1383497525 	 9.26
222.1403015457 	 0.98
239.1489144388 	 60.22
240.150866232 	 8.32
347.1489144388 	 0
END IONS

BEGIN IONS
PEPMASS=226.1089
CHARGE=1
MSLEVEL=2
RT=0
SOURCE_INSTRUMENT=qTOF
FILENAME=CCMSLIB00000081271.ms
IONMODE=Positive
ORGANISM=Natural
NAME=6-Benzyladenine
PI=GNPS
DATACOLLECTOR=GNPS
SMILES=c1ccc(cc1)CNc1c2c(ncn2)[nH]cn1
INCHI=InChI=1S/C12H11N5/c1-2-4-9(5-3-1)6-13-11-10-12(15-7-14-10)17-8-16-11/h1-5,7-8H,6H2,(H2,13,14,15,16,17)
FORMULA=C12H11N5
PUBMED=N/A
SUBMITUSER=BIOADREM
LIBRARYQUALITY=0
SPECTRUMID=CCMSLIB00000081271
SCANS=2827
ID=CCMSLIB00000081271
119.035222085 	 45.12
121.0508721492 	 18.68
130.0651252299 	 14.15
140.0494751657 	 1.66
148.0617711865 	 100
155.060374203 	 2.94
157.0760242672 	 10.85
184.0869233045 	 6.14
226.1087213791 	 18.25
END IONS

BEGIN IONS
PEPMASS=216.0874
CHARGE=1
MSLEVEL=2
RT=0
SOURCE_INSTRUMENT=qTOF
FILENAME=CCMSLIB00000081272.ms
IONMODE=Positive
ORGANISM=Natural
NAME=Kinetin
PI=GNPS
DATACOLLECTOR=GNPS
SMILES=c1cc(CNc2c3c(ncn3)[nH]cn2)oc1
INCHI=InChI=1S/C10H9N5O/c1-2-7(16-3-1)4-11-9-8-10(13-5-12-8)15-6-14-9/h1-3,5-6H,4H2,(H2,11,12,13,14,15)
FORMULA=C10H9N5O
PUBMED=N/A
SUBMITUSER=BIOADREM
LIBRARYQUALITY=0
SPECTRUMID=CCMSLIB00000081272
SCANS=2828
ID=CCMSLIB00000081272
109.0508721492 	 3.77
118.0399731119 	 0.22
119.035222085 	 58.7
121.0508721492 	 6.18
121.0522148199 	 6.25
135.0665222134 	 3.24
136.0617711865 	 40.87
144.0556231761 	 0.97
145.0508721492 	 0.85
148.0617711865 	 100
148.0631138572 	 100
161.0821722776 	 12.03
162.0774212507 	 0.99
171.0665222134 	 4.94
172.0617711865 	 13.6
173.0695962186 	 36.94
188.0930713149 	 31.04
198.0774212507 	 7.1
216.087985937 	 8.98
END IONS

BEGIN IONS
PEPMASS=361.1283
CHARGE=1
MSLEVEL=2
RT=0
SOURCE_INSTRUMENT=qTOF
FILENAME=CCMSLIB00000081273.ms
IONMODE=Positive
ORGANISM=Natural
NAME=Goyazensolide
PI=GNPS
DATACOLLECTOR=GNPS
SMILES=C=C(C)C(=O)O[C@H]1C[C@]2(C)C(=O)C=C(C(=C[C@@H]3[C@@H]1C(=C)C(=O)O3)CO)O2
INCHI=InChI=1S/C19H20O7/c1-9(2)17(22)25-14-7-19(4)15(21)6-12(26-19)11(8-20)5-13-16(14)10(3)18(23)24-13/h5-6,13-14,16,20H,1,3,7-8H2,2,4H3/b11-5-/t13-,14+,16+,19-/m1/s1
FORMULA=C19H20O7
PUBMED=N/A
SUBMITUSER=BIOADREM
LIBRARYQUALITY=0
SPECTRUMID=CCMSLIB00000081273
SCANS=2829
ID=CCMSLIB00000081273
129.0698762568 	 1.1
133.0647908789 	 4.17
135.0440554368 	 1.39
145.0647908789 	 1.75
147.0440554368 	 0.91
155.085526321 	 2.81
157.1011763852 	 1.54
159.0804409431 	 1.46
160.0518804689 	 3.21
161.059705501 	 3.69
163.0389700589 	 3.35
167.085526321 	 1.3
169.0647908789 	 0.9
171.0804409431 	 2.54
173.0960910073 	 2.36
175.0753555652 	 1.6
183.0804409431 	 11.81
185.0960910073 	 5.75
187.0753555652 	 2.6
199.0753555652 	 4.81
201.0910056294 	 9.21
203.0702701873 	 1.53
211.0753555652 	 17.73
213.0910056294 	 12.51
217.0859202515 	 1.63
227.0702701873 	 5.7
229.0859202515 	 100
239.0702701873 	 25.05
245.0808348736 	 12.59
247.0964849378 	 20.13
257.0808348736 	 94.82
275.0913995599 	 82.08
293.1019642462 	 1.36
343.1176143104 	 6.66
361.1281789967 	 46.38
END IONS

BEGIN IONS
PEPMASS=347.1502
CHARGE=1
MSLEVEL=2
RT=0
SOURCE_INSTRUMENT=qTOF
FILENAME=CCMSLIB00000081275.ms
IONMODE=Positive
ORGANISM=Natural
NAME=Eremantholide C
PI=GNPS
DATACOLLECTOR=GNPS
SMILES=C=C(C)[C@@]1([C@]2(C)[C@H]3[C@@H](C=C(C)C4=CC(=O)[C@@](C)(C[C@@H]3O1)O4)OC2=O)O
INCHI=InChI=1S/C19H22O6/c1-9(2)19(22)18(5)15-12(23-16(18)21)6-10(3)11-7-14(20)17(4,24-11)8-13(15)25-19/h6-7,12-13,15,22H,1,8H2,2-5H3/b10-6-/t12-,13+,15+,17-,18-,19-/m1/s1
FORMULA=C19H22O6
PUBMED=N/A
SUBMITUSER=BIOADREM
LIBRARYQUALITY=0
SPECTRUMID=CCMSLIB00000081275
SCANS=2830
ID=CCMSLIB00000081275
125.059705501 	 3.5
135.0804409431 	 0.72
161.0960910073 	 2.41
165.0910056294 	 3.04
173.0960910073 	 1.01
177.0910056294 	 0.55
187.1117410715 	 0.57
189.0910056294 	 20.04
191.1066556936 	 1.93
199.1117410715 	 1.26
203.1066556936 	 0.57
207.1015703157 	 1.2
213.1273911357 	 4.59
217.1223057578 	 0.91
227.1066556936 	 1.5
233.1172203799 	 0.82
235.0964849378 	 1.56
241.1223057578 	 10.98
245.1172203799 	 1.23
261.112135002 	 0.94
271.1328704441 	 1.33
283.1328704441 	 0.92
289.1434351304 	 1.73
301.1434351304 	 5.83
311.1277850662 	 1.61
319.1539998167 	 2.96
329.1383497525 	 100
347.1489144388 	 101.17
END IONS

BEGIN IONS
PEPMASS=303.2329
CHARGE=1
MSLEVEL=2
RT=0
SOURCE_INSTRUMENT=qTOF
FILENAME=CCMSLIB00000081276.ms
IONMODE=Positive
ORGANISM=Natural
NAME=Kaurenic acid
PI=GNPS
DATACOLLECTOR=GNPS
SMILES=C=C1C[C@]23CC[C@H]4[C@@](C)(CCC[C@@]4(C)C(=O)O)[C@@H]3CC[C@@H]1C2
INCHI=InChI=1S/C20H30O2/c1-13-11-20-10-7-15-18(2,16(20)6-5-14(13)12-20)8-4-9-19(15,3)17(21)22/h14-16H,1,4-12H2,2-3H3,(H,21,22)/t14-,15+,16+,18-,19-,20-/m1/s1
FORMULA=C20H30O2
PUBMED=N/A
SUBMITUSER=BIOADREM
LIBRARYQUALITY=0
SPECTRUMID=CCMSLIB00000081276
SCANS=2831
ID=CCMSLIB00000081276
119.085526321 	 5.77
121.1011763852 	 6.74
123.1168264494 	 4.14
131.085526321 	 14.56
133.1011763852 	 13.45
135.1168264494 	 21.1
145.1011763852 	 8.17
147.1168264494 	 23.5
149.1324765136 	 20.19
157.1011763852 	 5.6
159.1168264494 	 9.87
161.1324765136 	 22.28
163.1481265778 	 10.36
173.1324765136 	 12.41
175.1481265778 	 11.85
185.1324765136 	 5.77
187.1481265778 	 10.11
201.163776642 	 9.77
213.163776642 	 22.14
227.1794267062 	 3.68
239.1794267062 	 10.78
241.1950767704 	 21.34
257.2263768988 	 100
267.2107268346 	 28.5
285.2212915209 	 35.28
287.2005560788 	 8.86
303.2318562072 	 178.97
END IONS

BEGIN IONS
PEPMASS=285.0753
CHARGE=1
MSLEVEL=2
RT=0
SOURCE_INSTRUMENT=qTOF
FILENAME=CCMSLIB00000081279.ms
IONMODE=Positive
ORGANISM=Natural
NAME=4'-Methylgenistein (Biochanin A)
PI=GNPS
DATACOLLECTOR=GNPS
SMILES=COc1ccc(cc1)c1coc2cc(cc(c2c1=O)O)O
INCHI=InChI=1S/C16H12O5/c1-20-11-4-2-9(3-5-11)12-8-21-14-7-10(17)6-13(18)15(14)16(12)19/h2-8,17-18H,1H3
FORMULA=C16H12O5
PUBMED=N/A
SUBMITUSER=BIOADREM
LIBRARYQUALITY=0
SPECTRUMID=CCMSLIB00000081279
SCANS=2832
ID=CCMSLIB00000081279
103.0542261926 	 1.59699181596992
115.0542261926 	 1.59699181596992
118.0413157826 	 11.1833665118337
121.0284053726 	 1.43331121433311
123.0440554368 	 6.60473346604733
124.0154949626 	 17.6155717761557
130.0413157826 	 2.26056182260562
131.0491408147 	 2.00840522008405
132.0569658468 	 1.39349701393497
133.0647908789 	 7.55142667551427
141.0698762568 	 2.20305242203052
144.0569658468 	 2.49502322495023
145.0647908789 	 2.18535722185357
149.0233199947 	 14.7533731475337
152.0104095847 	 35.4390621543906
153.0182346168 	 10.9754479097545
157.0647908789 	 2.87104622871046
158.0362304047 	 21.4288874142889
168.0569658468 	 7.51161247511613
169.0647908789 	 1.69431541694315
170.020974271 	 15.837204158372
171.0440554368 	 1.50851581508516
173.059705501 	 0.836098208360982
179.033884681 	 5.02543685025437
184.0518804689 	 1.37137801371378
185.059705501 	 5.02543685025437
186.0675305331 	 7.58681707586817
196.0518804689 	 3.49480203494802
197.059705501 	 16.1512939615129
201.0546201231 	 1.5483300154833
211.0753555652 	 1.25635921256359
213.0546201231 	 76.6600309666003
216.0417097131 	 2.40654722406547
224.046795091 	 2.41539482415395
225.0546201231 	 7.6133598761336
229.0859202515 	 32.528201725282
241.0495347452 	 23.5080734350807
242.0573597773 	 72.0858217208582
252.0417097131 	 2.61004202610042
253.0495347452 	 36.7927449679274
269.0444493673 	 39.4337535943375
270.0522743994 	 27.5248838752488
285.0757494957 	 100
END IONS

BEGIN IONS
PEPMASS=269.0808
CHARGE=1
MSLEVEL=2
RT=0
SOURCE_INSTRUMENT=qTOF
FILENAME=CCMSLIB00000081282.ms
IONMODE=Positive
ORGANISM=Natural
NAME=Formononetin (Biochanin B)
PI=GNPS
DATACOLLECTOR=GNPS
SMILES=COc1ccc(cc1)c1coc2cc(ccc2c1=O)O
INCHI=InChI=1S/C16H12O4/c1-19-12-5-2-10(3-6-12)14-9-20-15-8-11(17)4-7-13(15)16(14)18/h2-9,17H,1H3
FORMULA=C16H12O4
PUBMED=N/A
SUBMITUSER=BIOADREM
LIBRARYQUALITY=0
SPECTRUMID=CCMSLIB00000081282
SCANS=2833
ID=CCMSLIB00000081282
89.0385761284 	 1.17087449688986
107.0491408147 	 1.46359312111233
108.0205803405 	 2.09607443416445
118.0413157826 	 16.5961005697559
128.0620512247 	 4.88735560085725
129.0698762568 	 1.58381684177513
133.0647908789 	 5.14348439705191
136.0154949626 	 6.77434530343422
137.0233199947 	 14.7038837488892
141.0698762568 	 4.53191155715854
151.0542261926 	 0.789294861742721
152.0620512247 	 8.40520620981653
153.0698762568 	 5.34211489206001
154.0260596489 	 3.47603366264179
155.0491408147 	 1.16042026031049
156.0569658468 	 11.5780670116565
157.0647908789 	 1.56290836861638
163.0389700589 	 2.37833882180754
168.0569658468 	 1.37473211018765
169.0647908789 	 17.6937954105901
170.072615911 	 16.6326903977837
180.0569658468 	 3.1101353823637
181.0647908789 	 24.9490355966756
182.072615911 	 10.5796874183263
184.0518804689 	 3.9098844806858
185.0960910073 	 0.92519993727458
195.0804409431 	 2.14834561706131
196.0518804689 	 3.42376247974492
197.059705501 	 100
198.0675305331 	 18.5614970466782
200.046795091 	 3.63807432962208
208.0518804689 	 0.972244001881763
209.059705501 	 3.34012858710993
210.0675305331 	 2.60833202655376
211.0389700589 	 2.25288798285505
212.0831805973 	 0.82588468977053
213.0910056294 	 45.7059223250222
225.0546201231 	 43.3589462129528
226.0624451552 	 76.3891066854843
228.0417097131 	 0.831111808060216
237.0546201231 	 51.5602948094715
241.0859202515 	 0.84156604463959
253.0495347452 	 62.6051957555799
254.0573597773 	 20.7150697820292
269.0808348736 	 32.6224452459359
END IONS

BEGIN IONS
PEPMASS=693.4184
CHARGE=1
MSLEVEL=2
RT=0
SOURCE_INSTRUMENT=qTOF
FILENAME=CCMSLIB00000081287.ms
IONMODE=Positive
ORGANISM=Natural
NAME=Monensin
PI=GNPS
DATACOLLECTOR=GNPS
SMILES=CC[C@]1(CC[C@H]([C@]2(C)CC[C@]3(C[C@@H]([C@@H](C)[C@@H]([C@@H](C)[C@H](C(C)C(=O)O)OC)O3)O)O2)O1)[C@H]1[C@@H](C)C[C@H]([C@@H]2[C@@H](C)C[C@@H](C)[C@@](CO)(O)O2)O1
INCHI=InChI=1S/C36H62O11/c1-10-34(31-20(3)16-26(43-31)28-19(2)15-21(4)36(41,18-37)46-28)12-11-27(44-34)33(8)13-14-35(47-33)17-25(38)22(5)30(45-35)23(6)29(42-9)24(7)32(39)40/h19-31,37-38,41H,10-18H2,1-9H3,(H,39,40)/t19-,20-,21+,22+,23-,24?,25-,26+,27+,28-,29+,30-,31+,33-,34-,35+,36-/m0/s1
FORMULA=C36H62O11
PUBMED=N/A
SUBMITUSER=BIOADREM
LIBRARYQUALITY=0
SPECTRUMID=CCMSLIB00000081287
SCANS=2835
ID=CCMSLIB00000081287
341.2263768988 	 1.59
367.242026963 	 0.54
383.2733270914 	 3.95
421.2889771556 	 16.38
439.2995418419 	 100
457.3101065282 	 90.8
461.320277284 	 10.02
479.3308419703 	 33.82
509.3414066566 	 1.09
671.4364888333 	 0
END IONS

BEGIN IONS
PEPMASS=421.1857
CHARGE=1
MSLEVEL=2
RT=0
SOURCE_INSTRUMENT=qTOF
FILENAME=CCMSLIB00000081289.ms
IONMODE=Positive
ORGANISM=Natural
NAME=15-Acetoxyeremantholide B
PI=GNPS
DATACOLLECTOR=GNPS
SMILES=CCC(C)[C@@]1([C@]2(C)[C@H]3[C@@H](C=C(COC(=O)C)C4=CC(=O)[C@@](C)(C[C@@H]3O1)O4)OC2=O)O
INCHI=InChI=1S/C22H28O8/c1-6-11(2)22(26)21(5)18-15(28-19(21)25)7-13(10-27-12(3)23)14-8-17(24)20(4,29-14)9-16(18)30-22/h7-8,11,15-16,18,26H,6,9-10H2,1-5H3/b13-7-/t11?,15-,16+,18+,20-,21-,22-/m1/s1
FORMULA=C22H28O8
PUBMED=N/A
SUBMITUSER=BIOADREM
LIBRARYQUALITY=0
SPECTRUMID=CCMSLIB00000081289
SCANS=2836
ID=CCMSLIB00000081289
135.1168264494 	 2.79
147.0804409431 	 1.26
153.1273911357 	 8.55
175.0753555652 	 3.51
181.1223057578 	 6.34
197.0808348736 	 25.37
203.0702701873 	 49.62
205.1223057578 	 1.46
207.1015703157 	 4.49
213.0910056294 	 1.46
215.1066556936 	 7.41
225.112135002 	 8.09
231.1015703157 	 7.11
233.1172203799 	 4.4
249.112135002 	 1.98
257.1536058862 	 1.77
259.0964849378 	 10.78
271.1692559504 	 2.99
277.1070496241 	 25.42
281.1536058862 	 4.3
289.1798206367 	 1.45
299.1641705725 	 20.25
315.1590851946 	 5.15
317.1747352588 	 100
343.1539998167 	 6.6
361.164564503 	 75.6
403.1751291893 	 8.59
421.1856938756 	 0
END IONS

BEGIN IONS
PEPMASS=373.201
CHARGE=1
MSLEVEL=2
RT=0
SOURCE_INSTRUMENT=qTOF
FILENAME=CCMSLIB00000081293.ms
IONMODE=Positive
ORGANISM=Natural
NAME=Veraguensin
PI=GNPS
DATACOLLECTOR=GNPS
SMILES=C[C@H]1[C@H](C)[C@H](c2ccc(c(c2)OC)OC)O[C@@H]1c1ccc(c(c1)OC)OC
INCHI=InChI=1S/C22H28O5/c1-13-14(2)22(16-8-10-18(24-4)20(12-16)26-6)27-21(13)15-7-9-17(23-3)19(11-15)25-5/h7-14,21-22H,1-6H3/t13-,14-,21-,22+/m0/s1
FORMULA=C22H28O5
PUBMED=N/A
SUBMITUSER=BIOADREM
LIBRARYQUALITY=0
SPECTRUMID=CCMSLIB00000081293
SCANS=2838
ID=CCMSLIB00000081293
124.0518804689 	 1.61
133.0647908789 	 0.52
135.0804409431 	 0.96
136.0518804689 	 2.75
137.059705501 	 0.95
139.0753555652 	 25.54
147.0804409431 	 0.84
148.0882659752 	 0.54
151.0753555652 	 100
159.0804409431 	 1.13
163.0753555652 	 2.75
164.0831805973 	 2.54
165.0910056294 	 46.81
167.0702701873 	 79.01
176.0831805973 	 4.68
177.0910056294 	 2.27
179.1066556936 	 67.13
191.1066556936 	 8.1
195.1015703157 	 10.57
202.0988306615 	 11.54
217.1223057578 	 88.62
235.1328704441 	 79.77
355.190385323 	 9.21
373.2009500093 	 1.96
END IONS

BEGIN IONS
PEPMASS=417.1908
CHARGE=1
MSLEVEL=2
RT=0
SOURCE_INSTRUMENT=qTOF
FILENAME=CCMSLIB00000081297.ms
IONMODE=Positive
ORGANISM=Natural
NAME=rel -Methylenedioxy-tetramethoxy-epoxylignan
PI=GNPS
DATACOLLECTOR=GNPS
SMILES=C[C@H]1[C@H](C)[C@@H](c2cc(c3c(c2)OCO3)OC)O[C@H]1c1cc(c(c(c1)OC)OC)OC
INCHI=InChI=1S/C23H28O7/c1-12-13(2)21(15-9-18(26-5)23-19(10-15)28-11-29-23)30-20(12)14-7-16(24-3)22(27-6)17(8-14)25-4/h7-10,12-13,20-21H,11H2,1-6H3/t12-,13-,20+,21-/m0/s1
FORMULA=C23H28O7
PUBMED=N/A
SUBMITUSER=BIOADREM
LIBRARYQUALITY=0
SPECTRUMID=CCMSLIB00000081297
SCANS=2839
ID=CCMSLIB00000081297
180.0569658468 	 2.55
196.0882659752 	 2.49
417.1907792535 	 0
END IONS

BEGIN IONS
PEPMASS=269.1148
CHARGE=1
MSLEVEL=2
RT=0
SOURCE_INSTRUMENT=qTOF
FILENAME=CCMSLIB00000081306.ms
IONMODE=Positive
ORGANISM=Natural
NAME=9,10-alpha-Epoxy-eremanthin
PI=GNPS
DATACOLLECTOR=GNPS
SMILES=C=C1CC[C@@H]2[C@H]1[C@@H]1[C@@H](C[C@@H]3[C@@]2(C)O3)C(=C)C(=O)O1
INCHI=InChI=1S/C15H18O3/c1-7-4-5-10-12(7)13-9(8(2)14(16)17-13)6-11-15(10,3)18-11/h9-13H,1-2,4-6H2,3H3/t9-,10+,11+,12-,13-,15-/m0/s1
FORMULA=C15H18O3
PUBMED=N/A
SUBMITUSER=BIOADREM
LIBRARYQUALITY=0
SPECTRUMID=CCMSLIB00000081306
SCANS=2841
ID=CCMSLIB00000081306
130.0777012889 	 8.61
247.1328704441 	 0
END IONS

BEGIN IONS
PEPMASS=231.138
CHARGE=1
MSLEVEL=2
RT=0
SOURCE_INSTRUMENT=qTOF
FILENAME=CCMSLIB00000081469.ms
IONMODE=Positive
ORGANISM=Natural
NAME=Eremanthin
PI=GNPS
DATACOLLECTOR=GNPS
SMILES=CC1=CC[C@H]2C(=C)C(=O)O[C@@H]2[C@H]2C(=C)CC[C@@H]12
INCHI=InChI=1S/C15H18O2/c1-8-4-7-12-10(3)15(16)17-14(12)13-9(2)5-6-11(8)13/h4,11-14H,2-3,5-7H2,1H3/t11-,12-,13-,14-/m0/s1
FORMULA=C15H18O2
PUBMED=N/A
SUBMITUSER=BIOADREM
LIBRARYQUALITY=0
SPECTRUMID=CCMSLIB00000081469
SCANS=2842
ID=CCMSLIB00000081469
139.1481265778 	 100
155.085526321 	 3.25384997516145
158.1090014173 	 5.71286636860407
231.137955822 	 0
END IONS

BEGIN IONS
PEPMASS=487.1575
CHARGE=1
MSLEVEL=2
RT=0
SOURCE_INSTRUMENT=qTOF
FILENAME=CCMSLIB00000081474.ms
IONMODE=Positive
ORGANISM=Natural
NAME=Glaucolide A
PI=GNPS
DATACOLLECTOR=GNPS
SMILES=C=C(C)C(=O)O[C@H]1C[C@](C)(C(=O)CC[C@]2(C)[C@@H]([C@@H]3C1=C(COC(=O)C)C(=O)O3)O2)OC(=O)C
INCHI=InChI=1S/C23H28O10/c1-11(2)20(27)30-15-9-23(6,32-13(4)25)16(26)7-8-22(5)19(33-22)18-17(15)14(21(28)31-18)10-29-12(3)24/h15,18-19H,1,7-10H2,2-6H3/t15-,18-,19+,22+,23+/m0/s1
FORMULA=C23H28O10
PUBMED=N/A
SUBMITUSER=BIOADREM
LIBRARYQUALITY=0
SPECTRUMID=CCMSLIB00000081474
SCANS=2844
ID=CCMSLIB00000081474
255.1168264494 	 86.28
277.1011763852 	 12.37
291.1168264494 	 13.53
297.1273911357 	 28.99
465.1755231198 	 0
END IONS

BEGIN IONS
PEPMASS=375.1438
CHARGE=1
MSLEVEL=2
RT=0
SOURCE_INSTRUMENT=qTOF
FILENAME=CCMSLIB00000081484.ms
IONMODE=Positive
ORGANISM=Natural
NAME=Budlein A
PI=GNPS
DATACOLLECTOR=GNPS
SMILES=C/C=C(/C)\C(=O)O[C@@H]1C[C@]2(C)C(=O)C=C(C(=C[C@@H]3[C@@H]1C(=C)C(=O)O3)CO)O2
INCHI=InChI=1S/C20H22O7/c1-5-10(2)18(23)26-15-8-20(4)16(22)7-13(27-20)12(9-21)6-14-17(15)11(3)19(24)25-14/h5-7,14-15,17,21H,3,8-9H2,1-2,4H3/b10-5-,12-6-/t14-,15-,17+,20-/m1/s1
FORMULA=C20H22O7
PUBMED=N/A
SUBMITUSER=BIOADREM
LIBRARYQUALITY=0
SPECTRUMID=CCMSLIB00000081484
SCANS=2845
ID=CCMSLIB00000081484
159.0804409431 	 2.07
167.085526321 	 1.79
171.0804409431 	 2.9
185.0960910073 	 9.36
187.0753555652 	 5.2
191.0702701873 	 2.37
199.0753555652 	 5.29
201.0910056294 	 11.47
211.0753555652 	 20
213.0910056294 	 14.71
215.0702701873 	 9.38
219.1015703157 	 1.79
227.0702701873 	 5.19
229.0859202515 	 100
233.0808348736 	 3.66
239.0702701873 	 21.7
245.0808348736 	 7.58
247.0964849378 	 20.87
257.0808348736 	 88.87
275.0913995599 	 58.99
293.1019642462 	 16.07
375.1438290609 	 0
END IONS

BEGIN IONS
PEPMASS=375.1438
CHARGE=1
MSLEVEL=2
RT=0
SOURCE_INSTRUMENT=qTOF
FILENAME=CCMSLIB00000081485.ms
IONMODE=Positive
ORGANISM=Natural
NAME=Centratherin
PI=GNPS
DATACOLLECTOR=GNPS
SMILES=C/C=C(/C)\C(=O)O[C@H]1C[C@]2(C)C(=O)C=C(C(=C[C@@H]3[C@@H]1C(=C)C(=O)O3)CO)O2
INCHI=InChI=1S/C20H22O7/c1-5-10(2)18(23)26-15-8-20(4)16(22)7-13(27-20)12(9-21)6-14-17(15)11(3)19(24)25-14/h5-7,14-15,17,21H,3,8-9H2,1-2,4H3/b10-5-,12-6-/t14-,15+,17+,20-/m1/s1
FORMULA=C20H22O7
PUBMED=N/A
SUBMITUSER=BIOADREM
LIBRARYQUALITY=0
SPECTRUMID=CCMSLIB00000081485
SCANS=2846
ID=CCMSLIB00000081485
231.086314182 	 1.68
375.1438290609 	 0
END IONS

BEGIN IONS
PEPMASS=239.0905
CHARGE=1
MSLEVEL=2
RT=0
SOURCE_INSTRUMENT=qTOF
FILENAME=CCMSLIB00000081545.ms
IONMODE=Positive
ORGANISM=Natural
NAME=3,4,5-Trimethoxy_ cinnamic acid
PI=GNPS
DATACOLLECTOR=GNPS
SMILES=COc1cc(/C=C/C(=O)O)cc(c1OC)OC
INCHI=InChI=1S/C12H14O5/c1-15-9-6-8(4-5-11(13)14)7-10(16-2)12(9)17-3/h4-7H,1-3H3,(H,13,14)/b5-4+
FORMULA=C12H14O5
PUBMED=N/A
SUBMITUSER=BIOADREM
LIBRARYQUALITY=0
SPECTRUMID=CCMSLIB00000081545
SCANS=2847
ID=CCMSLIB00000081545
89.0385761284 	 12.4347669605902
102.0464011605 	 10.6982184631996
104.0256657184 	 8.02591326255174
106.0413157826 	 10.4282886449523
107.0491408147 	 14.4412452762282
118.0413157826 	 9.89742666906604
119.0491408147 	 18.9400755803491
121.0647908789 	 13.76642073061
130.0413157826 	 18.5801691560194
132.0205803405 	 12.5697318697139
135.0440554368 	 46.1220082778478
146.0362304047 	 17.3834802951233
147.0440554368 	 33.3003419111031
160.0518804689 	 13.6404534820947
161.0233199947 	 14.0363505488573
162.0675305331 	 41.4702177433867
163.0389700589 	 89.9766060824186
164.046795091 	 10.5632535540759
175.0389700589 	 14.0363505488573
177.0546201231 	 23.6638473996761
178.0624451552 	 20.4516825625337
187.0389700589 	 7.3510887169336
188.046795091 	 1.41263271549397
190.0624451552 	 37.9701277667806
191.033884681 	 55.3086197588627
193.0859202515 	 62.3447903545078
205.0495347452 	 11.5439985603743
206.0573597773 	 35.4417851358647
221.0808348736 	 100
224.0679244636 	 1.376642073061
239.0913995599 	 2.00647831563793
END IONS

BEGIN IONS
PEPMASS=320.1492
CHARGE=1
MSLEVEL=2
RT=0
SOURCE_INSTRUMENT=qTOF
FILENAME=CCMSLIB00000081546.ms
IONMODE=Positive
ORGANISM=Natural
NAME=Dihydropiplartine
PI=GNPS
DATACOLLECTOR=GNPS
SMILES=COc1cc(/C=C/C(=O)N2CCCCC2=O)cc(c1OC)OC
INCHI=InChI=1S/C17H21NO5/c1-21-13-10-12(11-14(22-2)17(13)23-3)7-8-16(20)18-9-5-4-6-15(18)19/h7-8,10-11H,4-6,9H2,1-3H3/b8-7+
FORMULA=C17H21NO5
PUBMED=N/A
SUBMITUSER=BIOADREM
LIBRARYQUALITY=0
SPECTRUMID=CCMSLIB00000081546
SCANS=2848
ID=CCMSLIB00000081546
125.059705501 	 8.15
138.0675305331 	 2.44
139.0753555652 	 4.51
140.0831805973 	 14.7
153.0546201231 	 6.65
156.0780952194 	 15.06
164.0706045383 	 0.21
167.0702701873 	 4.79
168.0780952194 	 58.34
169.0495347452 	 12.78
171.1015703157 	 36.9
184.0730098415 	 21.81
190.0624451552 	 28.33
199.0964849378 	 100
221.0808348736 	 100
223.0839088788 	 1.81
320.1492487898 	 0
END IONS

BEGIN IONS
PEPMASS=320.15
CHARGE=1
MSLEVEL=2
RT=0
SOURCE_INSTRUMENT=qTOF
FILENAME=CCMSLIB00000081549.ms
IONMODE=Positive
ORGANISM=Natural
NAME=8,9-Dihydropiplartine
PI=GNPS
DATACOLLECTOR=GNPS
SMILES=COc1cc(CCC(=O)N2CCC=CC2=O)cc(c1OC)OC
INCHI=InChI=1S/C17H21NO5/c1-21-13-10-12(11-14(22-2)17(13)23-3)7-8-16(20)18-9-5-4-6-15(18)19/h4,6,10-11H,5,7-9H2,1-3H3
FORMULA=C17H21NO5
PUBMED=N/A
SUBMITUSER=BIOADREM
LIBRARYQUALITY=0
SPECTRUMID=CCMSLIB00000081549
SCANS=2850
ID=CCMSLIB00000081549
159.1015703157 	 100
168.0780952194 	 4.58
183.0889942567 	 1.14
186.0886599057 	 4.44
201.099558943 	 0.24
201.112135002 	 45.87
208.0730098415 	 8.38
223.0964849378 	 37.67
320.1492487898 	 0
END IONS

BEGIN IONS
PEPMASS=356.1105
CHARGE=1
MSLEVEL=2
RT=0
SOURCE_INSTRUMENT=qTOF
FILENAME=CCMSLIB00000081551.ms
IONMODE=Positive
ORGANISM=Natural
NAME=5,6-dihydro-5-hydroxy-1-[(2E)-1-oxo-3-(3,4,5-trimethoxyphenyl)-2-propen-1-yl]-2(1H)-Pyridinone
PI=GNPS
DATACOLLECTOR=GNPS
SMILES=COc1cc(/C=C/C(=O)N2CC(C=CC2=O)O)cc(c1OC)OC
INCHI=InChI=1S/C17H19NO6/c1-22-13-8-11(9-14(23-2)17(13)24-3)4-6-15(20)18-10-12(19)5-7-16(18)21/h4-9,12,19H,10H2,1-3H3/b6-4+
FORMULA=C17H19NO6
PUBMED=N/A
SUBMITUSER=BIOADREM
LIBRARYQUALITY=0
SPECTRUMID=CCMSLIB00000081551
SCANS=2852
ID=CCMSLIB00000081551
169.0522148199 	 9.09
180.1144807257 	 8.16
195.1042503904 	 10.2
196.1093953478 	 5.59
200.0917339109 	 13.8
223.0964849378 	 3.27
334.1285133477 	 0
END IONS

BEGIN IONS
PEPMASS=334.1285
CHARGE=1
MSLEVEL=2
RT=0
SOURCE_INSTRUMENT=qTOF
FILENAME=CCMSLIB00000081552.ms
IONMODE=Positive
ORGANISM=Natural
NAME=5,6-dihydro-6-hydroxy-1-[(2E)-1-oxo-3-(3,4,5-trimethoxyphenyl)-2-propen-1-yl]-2(1H)-Pyridinone
PI=GNPS
DATACOLLECTOR=GNPS
SMILES=COc1cc(/C=C/C(=O)N2C(=O)C=CCC2O)cc(c1OC)OC
INCHI=InChI=1S/C17H19NO6/c1-22-12-9-11(10-13(23-2)17(12)24-3)7-8-16(21)18-14(19)5-4-6-15(18)20/h4-5,7-10,15,20H,6H2,1-3H3/b8-7+
FORMULA=C17H19NO6
PUBMED=N/A
SUBMITUSER=BIOADREM
LIBRARYQUALITY=0
SPECTRUMID=CCMSLIB00000081552
SCANS=2853
ID=CCMSLIB00000081552
119.0365647557 	 0.53
132.0443897878 	 0.51
133.0522148199 	 0.64
135.0314793778 	 1.22
147.0314793778 	 4.08
149.047129442 	 0.71
150.0549544741 	 0.73
160.0393044099 	 1.07
161.047129442 	 1.88
162.0549544741 	 8.09
169.0733441925 	 4.45
174.0185689678 	 0.77
175.0263939999 	 3.35
177.0420440641 	 2.01
178.0498690962 	 8.07
183.0804409431 	 4.63
189.0420440641 	 2.65
190.0498690962 	 36.03
193.0733441925 	 26.44
199.0839088788 	 100
206.0447837183 	 15.11
221.0682588146 	 100
334.1285133477 	 0
END IONS

BEGIN IONS
PEPMASS=197.11
CHARGE=1
MSLEVEL=2
RT=0
SOURCE_INSTRUMENT=qTOF
FILENAME=CCMSLIB00000081555.ms
IONMODE=Positive
ORGANISM=Natural
NAME=3-Fluoro-4-morpholinoaniline
PI=GNPS
DATACOLLECTOR=GNPS
SMILES=c1cc(c(cc1N)F)N1CCOCC1
INCHI=InChI=1S/C10H13FN2O/c11-9-7-8(12)1-2-10(9)13-3-5-14-6-4-13/h1-2,7H,3-6,12H2
FORMULA=C10H13FN2O
PUBMED=N/A
SUBMITUSER=BIOADREM
LIBRARYQUALITY=0
SPECTRUMID=CCMSLIB00000081555
SCANS=2855
ID=CCMSLIB00000081555
135.0478783657 	 3.8
197.1084672498 	 0
END IONS

BEGIN IONS
PEPMASS=400.1667
CHARGE=1
MSLEVEL=2
RT=0
SOURCE_INSTRUMENT=qTOF
FILENAME=CCMSLIB00000081556.ms
IONMODE=Positive
ORGANISM=Natural
NAME=N-(3-Phthalimido-2-(R)-hydroxypropyl)-3-fluoro-4-(morpholinyl)aniline
PI=GNPS
DATACOLLECTOR=GNPS
SMILES=c1ccc2c(c1)C(=O)N(C[C@@H](CNc1ccc(c(c1)F)N1CCOCC1)O)C2=O
INCHI=InChI=1S/C21H22FN3O4/c22-18-11-14(5-6-19(18)24-7-9-29-10-8-24)23-12-15(26)13-25-20(27)16-3-1-2-4-17(16)21(25)28/h1-6,11,15,23,26H,7-10,12-13H2/t15-/m1/s1
FORMULA=C21H22FN3O4
PUBMED=N/A
SUBMITUSER=BIOADREM
LIBRARYQUALITY=0
SPECTRUMID=CCMSLIB00000081556
SCANS=2856
ID=CCMSLIB00000081556
136.0518804689 	 2.23
137.0482722962 	 1.91
139.0627795062 	 3.75
148.0478577235 	 6.17
149.0556827556 	 3.64
151.0627795062 	 7.11
152.0717473925 	 4.67
160.0352816645 	 24.4
163.0627795062 	 12.67
164.0706045383 	 2.1
165.0784295704 	 7.9
171.0889942567 	 2.88
172.0518804689 	 2.55
174.0549544741 	 7.71
175.0753555652 	 2.19
177.0784295704 	 5.83
187.0639223604 	 3.73
189.0784295704 	 30.87
190.0822318571 	 5.35
191.1066556936 	 7.93
192.1030475209 	 1.82
195.0889942567 	 27.4
196.097962143 	 51.99
207.0889942567 	 1.97
209.1057871751 	 100
215.1152090072 	 5.38
217.110872553 	 1.86
233.1046443209 	 8.58
235.1214372393 	 12.42
327.1139465582 	 14.46
400.1667104102 	 0
END IONS

BEGIN IONS
PEPMASS=426.146
CHARGE=1
MSLEVEL=2
RT=0
SOURCE_INSTRUMENT=qTOF
FILENAME=CCMSLIB00000081557.ms
IONMODE=Positive
ORGANISM=Natural
NAME=(S)-N-[[3-[3-Fluoro-4-(4-morpholinyl)phenyl]-2-oxo-5-oxazolidinyl]methyl]phthalimide
PI=GNPS
DATACOLLECTOR=GNPS
SMILES=c1ccc2c(c1)C(=O)N(C[C@H]1CN(c3ccc(c(c3)F)N3CCOCC3)C(=O)O1)C2=O
INCHI=InChI=1S/C22H20FN3O5/c23-18-11-14(5-6-19(18)24-7-9-30-10-8-24)25-12-15(31-22(25)29)13-26-20(27)16-3-1-2-4-17(16)21(26)28/h1-6,11,15H,7-10,12-13H2/t15-/m1/s1
FORMULA=C22H20FN3O5
PUBMED=N/A
SUBMITUSER=BIOADREM
LIBRARYQUALITY=0
SPECTRUMID=CCMSLIB00000081557
SCANS=2857
ID=CCMSLIB00000081557
130.0260596489 	 6.25
135.0440554368 	 9.63
136.0518804689 	 9.5
148.0518804689 	 50.23
149.059705501 	 32.37
150.0675305331 	 9.77
151.0627795062 	 23.26
160.0366243352 	 57.06
161.047129442 	 6.74
162.0675305331 	 20.01
163.0627795062 	 54.75
164.0706045383 	 10.49
165.0784295704 	 14.75
169.0733441925 	 35.43
172.0518804689 	 6.94
174.0549544741 	 38.48
175.0627795062 	 10.18
176.0706045383 	 9
177.0784295704 	 18.39
178.0862546025 	 4.76
186.0522743994 	 100
189.0784295704 	 94.55
190.0862546025 	 24.11
191.0940796346 	 91.94
195.0889942567 	 51.31
196.0968192888 	 8.95
207.0889942567 	 4.05
209.1046443209 	 10.82
217.1097296988 	 19.74
218.1101442715 	 4.27
235.1202943851 	 50.92
310.0959507703 	 6.22
338.1272508987 	 3.96
426.1459749681 	 151.25
END IONS

BEGIN IONS
PEPMASS=312.1958
CHARGE=1
MSLEVEL=2
RT=0
SOURCE_INSTRUMENT=qTOF
FILENAME=CCMSLIB00000081558.ms
IONMODE=Positive
ORGANISM=Natural
NAME=17-hydroxy-3-oxo-, (17??)-19-Norpregna-5(10),9(11)-diene-21-nitrile
PI=GNPS
DATACOLLECTOR=GNPS
SMILES=C[C@]12CC=C3C4=C(CC[C@H]3[C@@H]1CC[C@]2(CC#N)O)CC(=O)CC4
INCHI=InChI=1S/C20H25NO2/c1-19-8-6-16-15-5-3-14(22)12-13(15)2-4-17(16)18(19)7-9-20(19,23)10-11-21/h6,17-18,23H,2-5,7-10,12H2,1H3/t17-,18+,19+,20-/m1/s1
FORMULA=C20H25NO2
PUBMED=N/A
SUBMITUSER=BIOADREM
LIBRARYQUALITY=0
SPECTRUMID=CCMSLIB00000081558
SCANS=2858
ID=CCMSLIB00000081558
115.0542261926 	 6.31
119.085526321 	 10.95
148.0882659752 	 7.49
184.1120754225 	 8.06
225.1273911357 	 8.11
252.150866232 	 6.45
255.1617652693 	 7.46
312.1958050519 	 0
END IONS

BEGIN IONS
PEPMASS=271.1693
CHARGE=1
MSLEVEL=2
RT=0
SOURCE_INSTRUMENT=qTOF
FILENAME=CCMSLIB00000081559.ms
IONMODE=Positive
ORGANISM=Natural
NAME=19-Norandrosta-4,9-dien-3,17-dione
PI=GNPS
DATACOLLECTOR=GNPS
SMILES=C[C@]12CCC3=C4CCC(=O)C=C4CC[C@H]3[C@@H]1CCC2=O
INCHI=InChI=1S/C18H22O2/c1-18-9-8-14-13-5-3-12(19)10-11(13)2-4-15(14)16(18)6-7-17(18)20/h10,15-16H,2-9H2,1H3/t15-,16+,18+/m1/s1
FORMULA=C18H22O2
PUBMED=N/A
SUBMITUSER=BIOADREM
LIBRARYQUALITY=0
SPECTRUMID=CCMSLIB00000081559
SCANS=2859
ID=CCMSLIB00000081559
167.085526321 	 4.73
271.1692559504 	 0
END IONS

BEGIN IONS
PEPMASS=282.0572
CHARGE=1
MSLEVEL=2
RT=0
SOURCE_INSTRUMENT=qTOF
FILENAME=CCMSLIB00000081561.ms
IONMODE=Positive
ORGANISM=Natural
NAME=1-cyclopropyl-6,7-difluoro-1,4-dihydro-8-hydroxy-4-oxo-3-Quinoline-3-carboxylic acid
PI=GNPS
DATACOLLECTOR=GNPS
SMILES=C1CC1n1cc(c(=O)c2cc(c(c(c12)O)F)F)C(=O)O
INCHI=InChI=1S/C13H9F2NO4/c14-8-3-6-10(12(18)9(8)15)16(5-1-2-5)4-7(11(6)17)13(19)20/h3-5,18H,1-2H2,(H,19,20)
FORMULA=C13H9F2NO4
PUBMED=N/A
SUBMITUSER=BIOADREM
LIBRARYQUALITY=0
SPECTRUMID=CCMSLIB00000081561
SCANS=2860
ID=CCMSLIB00000081561
139.0178406863 	 7.29
140.0306315015 	 2.04
150.0185689678 	 3.55
151.0228064694 	 2.09
156.0244032694 	 2.84
167.021308622 	 5.8
176.046795091 	 2.56
188.0432075605 	 5.95
195.0088127847 	 10.26
196.0530233231 	 19.69
208.0530233231 	 8.27
216.0381221826 	 2.62
222.032287881 	 3.84
223.0075503357 	 8.11
236.0479379452 	 24.4
282.0572401825 	 0
END IONS

BEGIN IONS
PEPMASS=206.9869
CHARGE=1
MSLEVEL=2
RT=0
SOURCE_INSTRUMENT=qTOF
FILENAME=CCMSLIB00000081563.ms
IONMODE=Positive
ORGANISM=Natural
NAME=Carbamimidothioic acid
PI=GNPS
DATACOLLECTOR=GNPS
SMILES=C(CS(=O)(=O)O)SC(=N)N
INCHI=InChI=1S/C3H8N2O3S2/c4-3(5)9-1-2-10(6,7)8/h1-2H2,(H3,4,5)(H,6,7,8)
FORMULA=C3H8N2O3S2
PUBMED=N/A
SUBMITUSER=BIOADREM
LIBRARYQUALITY=0
SPECTRUMID=CCMSLIB00000081563
SCANS=2861
ID=CCMSLIB00000081563
108.9888655188 	 22.6
144.9736093851 	 4.43
185.0049095135 	 0
END IONS

BEGIN IONS
PEPMASS=252.022
CHARGE=1
MSLEVEL=2
RT=0
SOURCE_INSTRUMENT=qTOF
FILENAME=CCMSLIB00000081565.ms
IONMODE=Positive
ORGANISM=Natural
NAME=2-[(4,6-diamino-1,3,5-triazin-2-yl)thio]-Ethanesulfonic acid
PI=GNPS
DATACOLLECTOR=GNPS
SMILES=C(CS(=O)(=O)O)Sc1nc(=N)[nH]c(=N)[nH]1
INCHI=InChI=1S/C5H9N5O3S2/c6-3-8-4(7)10-5(9-3)14-1-2-15(11,12)13/h1-2H2,(H,11,12,13)(H4,6,7,8,9,10)
FORMULA=C5H9N5O3S2
PUBMED=N/A
SUBMITUSER=BIOADREM
LIBRARYQUALITY=0
SPECTRUMID=CCMSLIB00000081565
SCANS=2862
ID=CCMSLIB00000081565
106.0433439303 	 3.63339298218315
122.0461211223 	 20.991208278223
123.0460835845 	 1.13592157472963
127.0046127003 	 3.92904380300319
128.021642973 	 31.533494125885
130.019534483 	 1.2292849918307
144.0277909834 	 100
146.0256824934 	 4.94048082159807
148.0651420049 	 52.9526180658212
150.0569826218 	 2.83980393682409
162.9994302051 	 1.08145958142068
170.046811866 	 77.8028475842216
178.0029356786 	 1.50159495837548
180.0372126949 	 0.949194740527503
181.0099948914 	 2.32630514276823
193.9800917465 	 4.57480743795223
194.9879167786 	 1.54827666692601
211.9906564328 	 2.60639539407142
221.0035668428 	 2.1784797323582
252.0219565612 	 0
END IONS

BEGIN IONS
PEPMASS=227.0267
CHARGE=1
MSLEVEL=2
RT=0
SOURCE_INSTRUMENT=qTOF
FILENAME=CCMSLIB00000081570.ms
IONMODE=Positive
ORGANISM=Natural
NAME=2-[[(Guanidino) (imino)methyl]sulfanyl]ethanesulfonic Acid
PI=GNPS
DATACOLLECTOR=GNPS
SMILES=C(CS(=O)(=O)O)SC(=N)NC(=N)N
INCHI=InChI=1S/C4H10N4O3S2/c5-3(6)8-4(7)12-1-2-13(9,10)11/h1-2H2,(H,9,10,11)(H5,5,6,7,8)
FORMULA=C4H10N4O3S2
PUBMED=N/A
SUBMITUSER=BIOADREM
LIBRARYQUALITY=0
SPECTRUMID=CCMSLIB00000081570
SCANS=2864
ID=CCMSLIB00000081570
119.0325420103 	 20.4225352112676
142.9783979498 	 100
144.9736093851 	 12.7263581488934
159.9633790498 	 3.57142857142857
163.0171887593 	 50
168.9736093851 	 12.1478873239437
169.9688583582 	 20.9255533199195
186.0001584866 	 12.3490945674044
186.9920366413 	 10.2364185110664
186.9954074597 	 14.864185110664
227.0267075881 	 0
END IONS

BEGIN IONS
PEPMASS=470.3054
CHARGE=1
MSLEVEL=2
RT=0
SOURCE_INSTRUMENT=qTOF
FILENAME=CCMSLIB00000081580.ms
IONMODE=Positive
ORGANISM=Natural
NAME=Ebastin
PI=GNPS
DATACOLLECTOR=GNPS
SMILES=CC(C)(C)c1ccc(cc1)C(=O)CCCN1CCC(CC1)OC(c1ccccc1)c1ccccc1
INCHI=InChI=1S/C32H39NO2/c1-32(2,3)28-18-16-25(17-19-28)30(34)15-10-22-33-23-20-29(21-24-33)35-31(26-11-6-4-7-12-26)27-13-8-5-9-14-27/h4-9,11-14,16-19,29,31H,10,15,20-24H2,1-3H3
FORMULA=C32H39NO2
PUBMED=N/A
SUBMITUSER=BIOADREM
LIBRARYQUALITY=0
SPECTRUMID=CCMSLIB00000081580
SCANS=2867
ID=CCMSLIB00000081580
154.0651252299 	 0.27
169.0886003262 	 6.09
302.2029018025 	 3.01
304.2185518667 	 0.4
470.3053555013 	 0
END IONS

BEGIN IONS
PEPMASS=324.1042
CHARGE=1
MSLEVEL=2
RT=0
SOURCE_INSTRUMENT=qTOF
FILENAME=CCMSLIB00000081585.ms
IONMODE=Positive
ORGANISM=Natural
NAME=Ethyl 1-cyclopropyl-6,7-difluoro-8-methoxy-4-oxo-1,4-dihydro-3-quinolinecarboxylate
PI=GNPS
DATACOLLECTOR=GNPS
SMILES=CCOC(=O)c1cn(C2CC2)c2c(cc(c(c2OC)F)F)c1=O
INCHI=InChI=1S/C16H15F2NO4/c1-3-23-16(21)10-7-19(8-4-5-8)13-9(14(10)20)6-11(17)12(18)15(13)22-2/h6-8H,3-5H2,1-2H3
FORMULA=C16H15F2NO4
PUBMED=N/A
SUBMITUSER=BIOADREM
LIBRARYQUALITY=0
SPECTRUMID=CCMSLIB00000081585
SCANS=2869
ID=CCMSLIB00000081585
152.0268085726 	 0.24
153.0334907505 	 1.06
154.0413157826 	 0.37
162.0675305331 	 0.32
163.0553690468 	 0.29
168.0255461236 	 0.54
170.0362304047 	 0.37
178.0424586368 	 0.42
179.0491408147 	 0.61
181.0284053726 	 2.72
190.0588576247 	 0.6
191.0502836689 	 0.36
195.045198291 	 5.45
202.0624451552 	 0.43
206.0373732589 	 0.3
207.0440554368 	 1.11
210.0686733873 	 29.68
219.045198291 	 0.32
221.0233199947 	 1.07
226.0260596489 	 0.82
230.0573597773 	 0.33
232.0530233231 	 0.42
235.0389700589 	 21.02
236.0279514268 	 8.12
237.0232003999 	 3.87
238.0260596489 	 2.98
250.0635880094 	 15.25
253.0459472147 	 19.34
254.0259400541 	 7.81
254.0573597773 	 17.97
263.033884681 	 1.89
268.0404472641 	 32.42
278.0623255604 	 67.57
296.0728902467 	 100
324.1041903751 	 0
END IONS

BEGIN IONS
PEPMASS=317.0656
CHARGE=1
MSLEVEL=2
RT=0
SOURCE_INSTRUMENT=qTOF
FILENAME=CCMSLIB00000081594.ms
IONMODE=Positive
ORGANISM=Natural
NAME=3'-O-Methylquercetin
PI=GNPS
DATACOLLECTOR=GNPS
SMILES=COc1cc(ccc1O)c1c(c(=O)c2c(cc(cc2o1)O)O)O
INCHI=InChI=1S/C16H12O7/c1-22-11-4-7(2-3-9(11)18)16-15(21)14(20)13-10(19)5-8(17)6-12(13)23-16/h2-6,17-19,21H,1H3
FORMULA=C16H12O7
PUBMED=N/A
SUBMITUSER=BIOADREM
LIBRARYQUALITY=0
SPECTRUMID=CCMSLIB00000081594
SCANS=2872
ID=CCMSLIB00000081594
179.033884681 	 1.17
183.0287993031 	 2.04
203.033884681 	 5.56
207.0499286757 	 2.74
232.0366243352 	 1.52
273.0393639894 	 21.78
317.0655787399 	 0
END IONS

BEGIN IONS
PEPMASS=450.1384
CHARGE=1
MSLEVEL=2
RT=0
SOURCE_INSTRUMENT=qTOF
FILENAME=CCMSLIB00000081600.ms
IONMODE=Positive
ORGANISM=Natural
NAME=Pemetrexed
PI=GNPS
DATACOLLECTOR=GNPS
SMILES=c1cc(ccc1CCc1c[nH]c2c1c(nc(=N)[nH]2)O)C(=O)N[C@H](CCC(=O)O)C(=O)O
INCHI=InChI=1S/C20H21N5O6/c21-20-24-16-15(18(29)25-20)12(9-22-16)6-3-10-1-4-11(5-2-10)17(28)23-13(19(30)31)7-8-14(26)27/h1-2,4-5,9,13H,3,6-8H2,(H,23,28)(H,26,27)(H,30,31)(H4,21,22,24,25,29)/t13-/m1/s1
FORMULA=C20H21N5O6
PUBMED=N/A
SUBMITUSER=BIOADREM
LIBRARYQUALITY=0
SPECTRUMID=CCMSLIB00000081600
SCANS=2876
ID=CCMSLIB00000081600
277.126836326 	 9.07
280.1192860654 	 2.04
299.1053130229 	 100
321.086982884 	 12.09
382.1509801243 	 7.29
385.1506457733 	 1.14
386.1458947464 	 1.02
428.1564594327 	 0
END IONS

BEGIN IONS
PEPMASS=307.1765
CHARGE=1
MSLEVEL=2
RT=0
SOURCE_INSTRUMENT=qTOF
FILENAME=CCMSLIB00000081603.ms
IONMODE=Positive
ORGANISM=Natural
NAME=Propentofylline
PI=GNPS
DATACOLLECTOR=GNPS
SMILES=CCCn1cnc2c1c(=O)n(CCCCC(=O)C)c(=O)n2C
INCHI=InChI=1S/C15H22N4O3/c1-4-8-18-10-16-13-12(18)14(21)19(15(22)17(13)3)9-6-5-7-11(2)20/h10H,4-9H2,1-3H3
FORMULA=C15H22N4O3
PUBMED=N/A
SUBMITUSER=BIOADREM
LIBRARYQUALITY=0
SPECTRUMID=CCMSLIB00000081603
SCANS=2877
ID=CCMSLIB00000081603
138.099893294 	 12.56
168.0529431014 	 4.2
209.0960910073 	 100
210.099893294 	 7.41
307.1764665933 	 0
END IONS

BEGIN IONS
PEPMASS=339.253
CHARGE=1
MSLEVEL=2
RT=0
SOURCE_INSTRUMENT=qTOF
FILENAME=CCMSLIB00000081679.ms
IONMODE=Positive
ORGANISM=Natural
NAME=Aphidicolin
PI=GNPS
DATACOLLECTOR=GNPS
SMILES=C[C@]1(CO)[C@@H]2CC[C@H]3C[C@@H]4C[C@]3(CC[C@@]4(CO)O)[C@@]2(C)CC[C@H]1O
INCHI=InChI=1S/C20H34O4/c1-17(11-21)15-4-3-13-9-14-10-19(13,7-8-20(14,24)12-22)18(15,2)6-5-16(17)23/h13-16,21-24H,3-12H2,1-2H3/t13-,14+,15-,16+,17-,18-,19-,20-/m0/s1
FORMULA=C20H34O4
PUBMED=N/A
SUBMITUSER=BIOADREM
LIBRARYQUALITY=0
SPECTRUMID=CCMSLIB00000081679
SCANS=2878
ID=CCMSLIB00000081679
133.0859202515 	 25.4437869822485
135.1015703157 	 85.0098619329388
143.0702701873 	 17.603550295858
145.0859202515 	 34.9112426035503
147.1015703157 	 59.9605522682446
149.1172203799 	 100
157.0859202515 	 30.4733727810651
159.1015703157 	 42.4556213017751
161.1172203799 	 56.4102564102564
163.1328704441 	 75.5424063116371
171.1015703157 	 31.4595660749507
173.1172203799 	 31.7061143984221
175.1328704441 	 59.3688362919132
189.112135002 	 27.3175542406312
189.1485205083 	 62.4753451676529
191.1277850662 	 15.7790927021696
339.2529855798 	 0
END IONS

BEGIN IONS
PEPMASS=487.1365
CHARGE=1
MSLEVEL=2
RT=0
SOURCE_INSTRUMENT=qTOF
FILENAME=CCMSLIB00000081681.ms
IONMODE=Positive
ORGANISM=Natural
NAME=Uvedalin
PI=GNPS
DATACOLLECTOR=GNPS
SMILES=CC1=C[C@@H]2[C@H](C(=C)C(=O)O2)[C@@H]([C@H](C(=CCC1)C(=O)OC)OC(=O)C)OC(=O)[C@]1(C)[C@H](C)O1
INCHI=InChI=1S/C23H28O9/c1-11-8-7-9-15(21(26)28-6)18(29-14(4)24)19(31-22(27)23(5)13(3)32-23)17-12(2)20(25)30-16(17)10-11/h9-10,13,16-19H,2,7-8H2,1,3-6H3/b11-10+,15-9?/t13-,16+,17-,18-,19-,23-/m0/s1
FORMULA=C23H28O9
PUBMED=N/A
SUBMITUSER=BIOADREM
LIBRARYQUALITY=0
SPECTRUMID=CCMSLIB00000081681
SCANS=2880
ID=CCMSLIB00000081681
191.1066556936 	 22.7
219.1015703157 	 14.4
449.1806084977 	 0
END IONS

BEGIN IONS
PEPMASS=465.1755
CHARGE=1
MSLEVEL=2
RT=0
SOURCE_INSTRUMENT=qTOF
FILENAME=CCMSLIB00000081682.ms
IONMODE=Positive
ORGANISM=Natural
NAME=Enhydrin
PI=GNPS
DATACOLLECTOR=GNPS
SMILES=C=C1[C@@H]2[C@@H]([C@H](C(=CCC[C@]3(C)[C@H]([C@H]2OC1=O)O3)C(=O)OC)OC(=O)C)OC(=O)[C@]1(C)[C@H](C)O1
INCHI=InChI=1S/C23H28O10/c1-10-14-16(31-21(27)23(5)11(2)32-23)15(29-12(3)24)13(20(26)28-6)8-7-9-22(4)18(33-22)17(14)30-19(10)25/h8,11,14-18H,1,7,9H2,2-6H3/t11-,14+,15-,16-,17-,18-,22+,23-/m0/s1
FORMULA=C23H28O10
PUBMED=N/A
SUBMITUSER=BIOADREM
LIBRARYQUALITY=0
SPECTRUMID=CCMSLIB00000081682
SCANS=2881
ID=CCMSLIB00000081682
141.0546201231 	 3.07
143.033884681 	 1.12
149.0444493673 	 7.39
151.0600994315 	 1.1
155.0702701873 	 1.5
161.0444493673 	 2.4
167.0702701873 	 1.27
179.0550140536 	 15.78
179.0913995599 	 12.56
187.0542261926 	 5.61
191.0491408147 	 1.32
191.1066556936 	 39.39
193.0647908789 	 8.27
201.0698762568 	 8.65
207.086314182 	 21.12
211.0542261926 	 9.06
215.0491408147 	 12.94
219.0440554368 	 10.94
219.1015703157 	 42.18
233.059705501 	 1.64
235.0753555652 	 13.3
237.0546201231 	 1.26
239.0491408147 	 7.27
251.1277850662 	 87.99
267.1015703157 	 10.05
269.1383497525 	 32.12
270.1403015457 	 44.97
311.1430411999 	 100
345.0968788683 	 1.51
367.1023581767 	 68.56
377.1230936188 	 1.17
387.1074435546 	 1.08
405.1180082409 	 20.88
465.1755231198 	 0
END IONS

BEGIN IONS
PEPMASS=356.1492
CHARGE=1
MSLEVEL=2
RT=0
SOURCE_INSTRUMENT=qTOF
FILENAME=CCMSLIB00000081685.ms
IONMODE=Positive
ORGANISM=Natural
NAME=Duguetine
PI=GNPS
DATACOLLECTOR=GNPS
SMILES=CN1CCc2cc3c(c4c5cc(c(cc5[C@@H]([C@@H]1c24)O)OC)OC)OCO3
INCHI=InChI=1S/C20H21NO5/c1-21-5-4-10-6-15-20(26-9-25-15)17-11-7-13(23-2)14(24-3)8-12(11)19(22)18(21)16(10)17/h6-8,18-19,22H,4-5,9H2,1-3H3/t18-,19-/m0/s1
FORMULA=C20H21NO5
PUBMED=N/A
SUBMITUSER=BIOADREM
LIBRARYQUALITY=0
SPECTRUMID=CCMSLIB00000081685
SCANS=2884
ID=CCMSLIB00000081685
223.0542261926 	 1.43
224.0620512247 	 2.2
235.0542261926 	 1.84
236.0620512247 	 3.78
239.085526321 	 4.29
250.0624451552 	 1.02
251.0491408147 	 2.43
252.0569658468 	 3.4
254.072615911 	 1.26
280.0730098415 	 10.43
292.0730098415 	 10.21
307.0964849378 	 100
322.0835745278 	 17.01
323.0913995599 	 15.86
356.1492487898 	 0
END IONS

BEGIN IONS
PEPMASS=372.1442
CHARGE=1
MSLEVEL=2
RT=0
SOURCE_INSTRUMENT=qTOF
FILENAME=CCMSLIB00000081686.ms
IONMODE=Positive
ORGANISM=Natural
NAME=Duguetine ??-N-oxide
PI=GNPS
DATACOLLECTOR=GNPS
SMILES=CN1(=O)CCc2cc3c(c4c5cc(c(cc5[C@@H]([C@@H]1c24)O)OC)OC)OCO3
INCHI=InChI=1S/C20H21NO6/c1-21(23)5-4-10-6-15-20(27-9-26-15)17-11-7-13(24-2)14(25-3)8-12(11)19(22)18(21)16(10)17/h6-8,18-19,22H,4-5,9H2,1-3H3/t18-,19-,21+/m0/s1
FORMULA=C20H21NO6
PUBMED=N/A
SUBMITUSER=BIOADREM
LIBRARYQUALITY=0
SPECTRUMID=CCMSLIB00000081686
SCANS=2885
ID=CCMSLIB00000081686
236.0620512247 	 0.6
251.0491408147 	 0.77
252.0569658468 	 0.66
264.0502630267 	 0.56
277.0580880588 	 0.57
372.1441634119 	 0
END IONS

BEGIN IONS
PEPMASS=336.0866
CHARGE=1
MSLEVEL=2
RT=0
SOURCE_INSTRUMENT=qTOF
FILENAME=CCMSLIB00000081688.ms
IONMODE=Positive
ORGANISM=Natural
NAME=Dicentrinone
PI=GNPS
DATACOLLECTOR=GNPS
SMILES=COc1cc2c(cc1OC)C(=O)c1c3c(ccn1)cc1c(c23)OCO1
INCHI=InChI=1S/C19H13NO5/c1-22-12-6-10-11(7-13(12)23-2)18(21)17-15-9(3-4-20-17)5-14-19(16(10)15)25-8-24-14/h3-7H,8H2,1-2H3
FORMULA=C19H13NO5
PUBMED=N/A
SUBMITUSER=BIOADREM
LIBRARYQUALITY=0
SPECTRUMID=CCMSLIB00000081688
SCANS=2886
ID=CCMSLIB00000081688
190.0413157826 	 2.33
191.0491408147 	 4.1
205.0284053726 	 4.33
207.0440554368 	 3.3
208.0518804689 	 2.67
217.0284053726 	 5.21
218.0362304047 	 4.14
219.0440554368 	 4.1
220.0518804689 	 1.09
234.0311450268 	 13.28
235.0389700589 	 7.1
236.046795091 	 8.5
245.0233199947 	 3.88
246.0311450268 	 11.08
247.0389700589 	 12.41
248.046795091 	 2.07
262.0260596489 	 7.37
263.033884681 	 29.12
264.0417097131 	 18.43
266.020974271 	 1.48
274.0260596489 	 9
275.033884681 	 20.5
277.0495347452 	 2.41
290.020974271 	 18.18
292.0366243352 	 73.84
305.0444493673 	 1.45
336.086648533 	 0
END IONS

BEGIN IONS
PEPMASS=579.1497
CHARGE=1
MSLEVEL=2
RT=0
SOURCE_INSTRUMENT=qTOF
FILENAME=CCMSLIB00000081689.ms
IONMODE=Positive
ORGANISM=Natural
NAME=Procyanidin B2
PI=GNPS
DATACOLLECTOR=GNPS
SMILES=c1cc(c(cc1[C@@H]1[C@@H](Cc2c(cc(c([C@H]3c4c(cc(cc4O[C@H](c4ccc(c(c4)O)O)[C@@H]3O)O)O)c2O1)O)O)O)O)O
INCHI=InChI=1S/C30H26O12/c31-13-7-20(37)24-23(8-13)41-29(12-2-4-16(33)19(36)6-12)27(40)26(24)25-21(38)10-17(34)14-9-22(39)28(42-30(14)25)11-1-3-15(32)18(35)5-11/h1-8,10,22,26-29,31-40H,9H2/t22-,26-,27-,28-,29-/m1/s1
FORMULA=C30H26O12
PUBMED=N/A
SUBMITUSER=BIOADREM
LIBRARYQUALITY=0
SPECTRUMID=CCMSLIB00000081689
SCANS=2887
ID=CCMSLIB00000081689
231.0440554368 	 1.31
243.0440554368 	 0.565
247.0389700589 	 13.99
259.0389700589 	 2.985
271.0389700589 	 10.855
275.033884681 	 16.77
289.0495347452 	 100
291.0651848094 	 43.105
301.0495347452 	 4.765
409.0554079841 	 27.015
453.0816227346 	 1.425
579.1497022998 	 0
END IONS

BEGIN IONS
PEPMASS=272.0917
CHARGE=1
MSLEVEL=2
RT=0
SOURCE_INSTRUMENT=qTOF
FILENAME=CCMSLIB00000081692.ms
IONMODE=Positive
ORGANISM=Natural
NAME=5,8-dimethoxy-7-hydroxy-1-methyl-4-azafluoren-9-one
PI=GNPS
DATACOLLECTOR=GNPS
SMILES=Cc1ccnc2c1C(=O)c1c2c(cc(c1OC)O)OC
INCHI=InChI=1S/C15H13NO4/c1-7-4-5-16-13-10(7)14(18)12-11(13)9(19-2)6-8(17)15(12)20-3/h4-6,17H,1-3H3
FORMULA=C15H13NO4
PUBMED=N/A
SUBMITUSER=BIOADREM
LIBRARYQUALITY=0
SPECTRUMID=CCMSLIB00000081692
SCANS=2889
ID=CCMSLIB00000081692
127.0416501336 	 1.9
128.046795091 	 3.76
130.0498690962 	 3.41
142.0498690962 	 2.58
143.0576941283 	 4.03
154.0498690962 	 65.64
155.0576941283 	 87.53
158.0447837183 	 5.84
172.0604337825 	 1.16
212.046795091 	 9.06
227.033884681 	 5.15
228.0417097131 	 14.54
229.0495347452 	 1.16
238.0260596489 	 10.07
239.033884681 	 8.33
240.0417097131 	 1.29
272.0917339109 	 0
END IONS

BEGIN IONS
PEPMASS=266.1176
CHARGE=1
MSLEVEL=2
RT=0
SOURCE_INSTRUMENT=qTOF
FILENAME=CCMSLIB00000081693.ms
IONMODE=Positive
ORGANISM=Natural
NAME=Anonain
PI=GNPS
DATACOLLECTOR=GNPS
SMILES=c1ccc2c(c1)C[C@@H]1c3c(CCN1)cc1c(c23)OCO1
INCHI=InChI=1S/C17H15NO2/c1-2-4-12-10(3-1)7-13-15-11(5-6-18-13)8-14-17(16(12)15)20-9-19-14/h1-4,8,13,18H,5-7,9H2/t13-/m1/s1
FORMULA=C17H15NO2
PUBMED=N/A
SUBMITUSER=BIOADREM
LIBRARYQUALITY=0
SPECTRUMID=CCMSLIB00000081693
SCANS=2890
ID=CCMSLIB00000081693
229.0522148199 	 13.98
266.1175547309 	 0
END IONS

BEGIN IONS
PEPMASS=371.2091
CHARGE=1
MSLEVEL=2
RT=0
SOURCE_INSTRUMENT=qTOF
FILENAME=CCMSLIB00000081696.ms
IONMODE=Positive
ORGANISM=Natural
NAME=N-Methyltetrahydropalmatine
PI=GNPS
DATACOLLECTOR=GNPS
SMILES=C[N+]12CCc3cc(c(cc3C2Cc2ccc(c(c2C1)OC)OC)OC)OC
INCHI=InChI=1S/C22H28NO4/c1-23-9-8-15-11-20(25-3)21(26-4)12-16(15)18(23)10-14-6-7-19(24-2)22(27-5)17(14)13-23/h6-7,11-12,18H,8-10,13H2,1-5H3/q+1
FORMULA=C22H28NO4+
PUBMED=N/A
SUBMITUSER=BIOADREM
LIBRARYQUALITY=0
SPECTRUMID=CCMSLIB00000081696
SCANS=2891
ID=CCMSLIB00000081696
132.0655191604 	 1.04
145.0733441925 	 10.17
160.0604337825 	 1.07
161.0682588146 	 3.88
162.0760838467 	 19.72
173.0682588146 	 6.03
174.0760838467 	 3.12
190.0651252299 	 62.48
191.072950262 	 60.77
192.0780952194 	 4.5
207.1015703157 	 41.76
236.0620512247 	 1.77
295.0753555652 	 12.46
371.2091093924 	 0
END IONS

BEGIN IONS
PEPMASS=649.1164
CHARGE=1
MSLEVEL=2
RT=0
SOURCE_INSTRUMENT=qTOF
FILENAME=CCMSLIB00000081698.ms
IONMODE=Positive
ORGANISM=Natural
NAME=3-O-??-(6???-trans-caffeoyl)-galactopyranosyl quercetin
PI=GNPS
DATACOLLECTOR=GNPS
SMILES=c1cc(c(cc1/C=C/C(=O)OC[C@H]1[C@H]([C@H]([C@@H]([C@H](O1)Oc1c(=O)c2c(cc(cc2oc1c1ccc(c(c1)O)O)O)O)O)O)O)O)O
INCHI=InChI=1S/C30H26O15/c31-14-9-19(36)23-20(10-14)43-28(13-3-5-16(33)18(35)8-13)29(25(23)39)45-30-27(41)26(40)24(38)21(44-30)11-42-22(37)6-2-12-1-4-15(32)17(34)7-12/h1-10,21,24,26-27,30-36,38,40-41H,11H2/b6-2+/t21-,24+,26+,27-,30+/m0/s1
FORMULA=C30H26O15
PUBMED=N/A
SUBMITUSER=BIOADREM
LIBRARYQUALITY=0
SPECTRUMID=CCMSLIB00000081698
SCANS=2892
ID=CCMSLIB00000081698
141.0393639894 	 9.04
303.0194164083 	 18.13
325.061281223 	 100
627.1344461661 	 0
END IONS

BEGIN IONS
PEPMASS=597.1603
CHARGE=1
MSLEVEL=2
RT=0
SOURCE_INSTRUMENT=qTOF
FILENAME=CCMSLIB00000081705.ms
IONMODE=Positive
ORGANISM=Natural
NAME=4???-O-??-(6???-trans-p-coumaroyl)-glucopyranosyl okanin
PI=GNPS
DATACOLLECTOR=GNPS
SMILES=c1cc(ccc1/C=C/C(=O)OC[C@@H]1[C@H]([C@@H]([C@H]([C@H](Oc2ccc(C(=O)/C=C/c3ccc(c(c3)O)O)c(c2O)O)O1)O)O)O)O
INCHI=InChI=1S/C30H28O13/c31-17-6-1-15(2-7-17)5-12-24(35)41-14-23-27(38)28(39)29(40)30(43-23)42-22-11-8-18(25(36)26(22)37)19(32)9-3-16-4-10-20(33)21(34)13-16/h1-13,23,27-31,33-34,36-40H,14H2/b9-3+,12-5+/t23-,27-,28+,29-,30-/m1/s1
FORMULA=C30H28O13
PUBMED=N/A
SUBMITUSER=BIOADREM
LIBRARYQUALITY=0
SPECTRUMID=CCMSLIB00000081705
SCANS=2895
ID=CCMSLIB00000081705
147.0287993031 	 100
163.0237139252 	 1.58
165.0393639894 	 5.02
289.0401518504 	 29.21
597.1602669861 	 0
END IONS

BEGIN IONS
PEPMASS=271.0601
CHARGE=1
MSLEVEL=2
RT=0
SOURCE_INSTRUMENT=qTOF
FILENAME=CCMSLIB00000081708.ms
IONMODE=Positive
ORGANISM=Natural
NAME=7,3',4'-Trihydroxyflavone
PI=GNPS
DATACOLLECTOR=GNPS
SMILES=c1cc(c(cc1c1cc(=O)c2ccc(cc2o1)O)O)O
INCHI=InChI=1S/C15H10O5/c16-9-2-3-10-12(18)7-14(20-15(10)6-9)8-1-4-11(17)13(19)5-8/h1-7,16-17,19H
FORMULA=C15H10O5
PUBMED=N/A
SUBMITUSER=BIOADREM
LIBRARYQUALITY=0
SPECTRUMID=CCMSLIB00000081708
SCANS=2896
ID=CCMSLIB00000081708
141.0546201231 	 7.92
145.0284053726 	 12.27
147.0287993031 	 2.01
159.0651848094 	 3.39
169.0495347452 	 15.47
173.0444493673 	 4.19
181.0495347452 	 9.13
187.0600994315 	 12.05
211.0389700589 	 6.27
239.033884681 	 3.56
271.0600994315 	 0
END IONS

BEGIN IONS
PEPMASS=584.2867
CHARGE=1
MSLEVEL=2
RT=0
SOURCE_INSTRUMENT=qTOF
FILENAME=CCMSLIB00000081715.ms
IONMODE=Positive
ORGANISM=Natural
NAME=Dihydroergotamine
PI=GNPS
DATACOLLECTOR=GNPS
SMILES=C[C@@]1(C(=O)N2[C@@H](Cc3ccccc3)C(=O)N3CCC[C@H]3[C@]2(O)O1)N=C([C@@H]1C[C@@H]2c3cccc4c3c(C[C@H]2N(C)C1)c[nH]4)O
INCHI=InChI=1S/C33H37N5O5/c1-32(35-29(39)21-15-23-22-10-6-11-24-28(22)20(17-34-24)16-25(23)36(2)18-21)31(41)38-26(14-19-8-4-3-5-9-19)30(40)37-13-7-12-27(37)33(38,42)43-32/h3-6,8-11,17,21,23,25-27,34,42H,7,12-16,18H2,1-2H3,(H,35,39)/t21-,23-,25-,26+,27+,32-,33+/m1/s1
FORMULA=C33H37N5O5
PUBMED=N/A
SUBMITUSER=BIOADREM
LIBRARYQUALITY=0
SPECTRUMID=CCMSLIB00000081715
SCANS=2900
ID=CCMSLIB00000081715
154.0611024845 	 1.52
155.0662474419 	 0.73
168.0767525487 	 4.94
180.0767525487 	 0.61
182.0924026129 	 1.11
194.0924026129 	 3.02
195.100227645 	 1.27
196.1053726024 	 1.13
197.1033016502 	 1.56
208.0716671708 	 0.93
210.087317235 	 10.66
223.1162716397 	 0.73
225.1346017786 	 26.36
226.1352161678 	 3.17
227.1138663365 	 1.16
238.1060413044 	 1.04
241.1295164007 	 0.63
251.1138663365 	 0.67
253.1295164007 	 82.62
270.1574081729 	 100
271.1566798914 	 35.03
294.1574081729 	 12.95
297.1193456449 	 8.44
312.1679728592 	 0.87
538.2700326275 	 10.04
584.2867453242 	 0
END IONS

BEGIN IONS
PEPMASS=193.0699
CHARGE=1
MSLEVEL=2
RT=0
SOURCE_INSTRUMENT=qTOF
FILENAME=CCMSLIB00000081718.ms
IONMODE=Positive
ORGANISM=Natural
NAME=Quinic acid
PI=GNPS
DATACOLLECTOR=GNPS
SMILES=C1[C@@H]([C@@H]([C@H](C[C@]1(C(=O)O)O)O)O)O
INCHI=InChI=1S/C7H12O6/c8-3-1-7(13,6(11)12)2-4(9)5(3)10/h3-5,8-10,13H,1-2H2,(H,11,12)/t3-,4-,5-,7+/m0/s1
FORMULA=C7H12O6
PUBMED=N/A
SUBMITUSER=BIOADREM
LIBRARYQUALITY=0
SPECTRUMID=CCMSLIB00000081718
SCANS=2901
ID=CCMSLIB00000081718
147.0651848094 	 79.22
157.0495347452 	 100
175.0600994315 	 8.6
193.0706641178 	 46.01
END IONS

BEGIN IONS
PEPMASS=256.082
CHARGE=1
MSLEVEL=2
RT=0
SOURCE_INSTRUMENT=qTOF
FILENAME=CCMSLIB00000081720.ms
IONMODE=Positive
ORGANISM=Natural
NAME=Caramboxin
PI=GNPS
DATACOLLECTOR=GNPS
SMILES=COc1cc(C[C@@H](C(=O)O)N)c(c(c1)O)C(=O)O
INCHI=InChI=1S/C11H13NO6/c1-18-6-2-5(3-7(12)10(14)15)9(11(16)17)8(13)4-6/h2,4,7,13H,3,12H2,1H3,(H,14,15)(H,16,17)/t7-/m0/s1
FORMULA=C11H13NO6
PUBMED=N/A
SUBMITUSER=BIOADREM
LIBRARYQUALITY=0
SPECTRUMID=CCMSLIB00000081720
SCANS=2902
ID=CCMSLIB00000081720
146.0573597773 	 0.59
174.0522743994 	 1.7
178.0471890215 	 0.72
256.0815631551 	 0
END IONS

BEGIN IONS
PEPMASS=363.1424
CHARGE=1
MSLEVEL=2
RT=0
SOURCE_INSTRUMENT=qTOF
FILENAME=CCMSLIB00000081731.ms
IONMODE=Positive
ORGANISM=Natural
NAME=Isogoyazensolide
PI=GNPS
DATACOLLECTOR=GNPS
SMILES=C=C(C)C(=O)O[C@H]1C[C@]2(C)C(=O)CC(C(=C)[C@H]([C@@H]3[C@@H]1C(=C)C(=O)O3)O)O2
INCHI=InChI=1S/C19H22O7/c1-8(2)17(22)24-12-7-19(5)13(20)6-11(26-19)9(3)15(21)16-14(12)10(4)18(23)25-16/h11-12,14-16,21H,1,3-4,6-7H2,2,5H3/t11?,12-,14+,15+,16-,19+/m0/s1
FORMULA=C19H22O7
PUBMED=N/A
SUBMITUSER=BIOADREM
LIBRARYQUALITY=0
SPECTRUMID=CCMSLIB00000081731
SCANS=2909
ID=CCMSLIB00000081731
231.086314182 	 68.67
241.0706641178 	 8.44
259.0812288041 	 20.5
319.1539998167 	 10.12
363.1438290609 	 41.49
END IONS

BEGIN IONS
PEPMASS=445.1469
CHARGE=1
MSLEVEL=2
RT=0
SOURCE_INSTRUMENT=qTOF
FILENAME=CCMSLIB00000081736.ms
IONMODE=Positive
ORGANISM=Natural
NAME=Piptocarphin A
PI=GNPS
DATACOLLECTOR=GNPS
SMILES=C=C(C)C(=O)O[C@H]1C[C@](C)([C@@]2(CC[C@](C)(C=C3C1=C(COC(=O)C)C(=O)O3)O2)O)O
INCHI=InChI=1S/C21H26O9/c1-11(2)17(23)28-15-9-20(5,25)21(26)7-6-19(4,30-21)8-14-16(15)13(18(24)29-14)10-27-12(3)22/h8,15,25-26H,1,6-7,9-10H2,2-5H3/b14-8+/t15-,19+,20+,21-/m0/s1
FORMULA=C21H26O9
PUBMED=N/A
SUBMITUSER=BIOADREM
LIBRARYQUALITY=0
SPECTRUMID=CCMSLIB00000081736
SCANS=2910
ID=CCMSLIB00000081736
237.112135002 	 3.36
423.1649584335 	 0
END IONS

BEGIN IONS
PEPMASS=331.0812
CHARGE=1
MSLEVEL=2
RT=0
SOURCE_INSTRUMENT=qTOF
FILENAME=CCMSLIB00000081737.ms
IONMODE=Positive
ORGANISM=Natural
NAME=Quercetin 3,7-dimethyl ether
PI=GNPS
DATACOLLECTOR=GNPS
SMILES=COc1cc(c2c(c1)oc(c1ccc(c(c1)O)O)c(c2=O)OC)O
INCHI=InChI=1S/C17H14O7/c1-22-9-6-12(20)14-13(7-9)24-16(17(23-2)15(14)21)8-3-4-10(18)11(19)5-8/h3-7,18-20H,1-2H3
FORMULA=C17H14O7
PUBMED=N/A
SUBMITUSER=BIOADREM
LIBRARYQUALITY=0
SPECTRUMID=CCMSLIB00000081737
SCANS=2911
ID=CCMSLIB00000081737
191.0550140536 	 1.1
229.0495347452 	 1.91
331.0812288041 	 0
END IONS

BEGIN IONS
PEPMASS=327.1227
CHARGE=1
MSLEVEL=2
RT=0
SOURCE_INSTRUMENT=qTOF
FILENAME=CCMSLIB00000081748.ms
IONMODE=Positive
ORGANISM=Natural
NAME=Eucalyptin
PI=GNPS
DATACOLLECTOR=GNPS
SMILES=Cc1c(c2c(=O)cc(c3ccc(cc3)OC)oc2c(C)c1OC)O
INCHI=InChI=1S/C19H18O5/c1-10-17(21)16-14(20)9-15(12-5-7-13(22-3)8-6-12)24-19(16)11(2)18(10)23-4/h5-9,21H,1-4H3
FORMULA=C19H18O5
PUBMED=N/A
SUBMITUSER=BIOADREM
LIBRARYQUALITY=0
SPECTRUMID=CCMSLIB00000081748
SCANS=2912
ID=CCMSLIB00000081748
195.0651848094 	 1.74
240.0780952194 	 0.54
327.1226996883 	 0
END IONS

BEGIN IONS
PEPMASS=169.0504
CHARGE=1
MSLEVEL=2
RT=0
SOURCE_INSTRUMENT=qTOF
FILENAME=CCMSLIB00000081749.ms
IONMODE=Positive
ORGANISM=Natural
NAME=Nigrosporapyrone D
PI=GNPS
DATACOLLECTOR=GNPS
SMILES=CC(=O)c1cc(cc(=O)o1)OC
INCHI=InChI=1S/C8H8O4/c1-5(9)7-3-6(11-2)4-8(10)12-7/h3-4H,1-2H3
FORMULA=C8H8O4
PUBMED=N/A
SUBMITUSER=BIOADREM
LIBRARYQUALITY=0
SPECTRUMID=CCMSLIB00000081749
SCANS=2913
ID=CCMSLIB00000081749
109.0284053726 	 5.97
127.0389700589 	 100
169.0495347452 	 114.87
END IONS

BEGIN IONS
PEPMASS=335.0912
CHARGE=1
MSLEVEL=2
RT=0
SOURCE_INSTRUMENT=qTOF
FILENAME=CCMSLIB00000081751.ms
IONMODE=Positive
ORGANISM=Natural
NAME=Altertoxin I
PI=GNPS
DATACOLLECTOR=GNPS
SMILES=c1cc(c2C(=O)C[C@@H]([C@@H]3c2c1c1ccc(c2C(=O)CC[C@@]3(c12)O)O)O)O
INCHI=InChI=1S/C20H16O6/c21-10-3-1-8-9-2-4-11(22)17-12(23)5-6-20(26,18(9)17)19-14(25)7-13(24)16(10)15(8)19/h1-4,14,19,21-22,25-26H,5-7H2/t14-,19+,20-/m0/s1
FORMULA=C20H16O6
PUBMED=N/A
SUBMITUSER=BIOADREM
LIBRARYQUALITY=0
SPECTRUMID=CCMSLIB00000081751
SCANS=2914
ID=CCMSLIB00000081751
265.0859202515 	 20.04
293.0808348736 	 32.42
309.0757494957 	 100
325.1070496241 	 42.24
353.1019642462 	 91.75
END IONS

BEGIN IONS
PEPMASS=465.1391
CHARGE=1
MSLEVEL=2
RT=0
SOURCE_INSTRUMENT=qTOF
FILENAME=CCMSLIB00000081760.ms
IONMODE=Positive
ORGANISM=Natural
NAME=4'-Methoxy-7-O-??-D-glucopyranosyl-8,3'-dihydroxyflavanone
PI=GNPS
DATACOLLECTOR=GNPS
SMILES=COc1ccc(cc1O)C1CC(=O)c2ccc(c(c2O1)O)O[C@H]1[C@@H]([C@H]([C@@H]([C@@H](CO)O1)O)O)O
INCHI=InChI=1S/C22H24O11/c1-30-13-4-2-9(6-12(13)25)15-7-11(24)10-3-5-14(18(27)21(10)31-15)32-22-20(29)19(28)17(26)16(8-23)33-22/h2-6,15-17,19-20,22-23,25-29H,7-8H2,1H3/t15?,16-,17-,19+,20-,22-/m1/s1
FORMULA=C22H24O11
PUBMED=N/A
SUBMITUSER=BIOADREM
LIBRARYQUALITY=0
SPECTRUMID=CCMSLIB00000081760
SCANS=2915
ID=CCMSLIB00000081760
153.0182346168 	 11.11
285.0757494957 	 11.11
288.0628390857 	 2.78
303.0921874209 	 100
465.1391376135 	 0
END IONS

BEGIN IONS
PEPMASS=507.1497
CHARGE=1
MSLEVEL=2
RT=0
SOURCE_INSTRUMENT=qTOF
FILENAME=CCMSLIB00000081764.ms
IONMODE=Positive
ORGANISM=Natural
NAME=4'-Methoxy-7-O-(6''-acetyl)-??-D-glucopyranosyl-8,3'-dihydroxyflavanone
PI=GNPS
DATACOLLECTOR=GNPS
SMILES=CC(=O)OC[C@@H]1[C@H]([C@@H]([C@H]([C@H](Oc2ccc3C(=O)CC(c4ccc(c(c4)O)OC)Oc3c2O)O1)O)O)O
INCHI=InChI=1S/C24H26O12/c1-10(25)33-9-18-19(28)21(30)22(31)24(36-18)35-16-6-4-12-13(26)8-17(34-23(12)20(16)29)11-3-5-15(32-2)14(27)7-11/h3-7,17-19,21-22,24,27-31H,8-9H2,1-2H3/t17?,18-,19-,21+,22-,24-/m1/s1
FORMULA=C24H26O12
PUBMED=N/A
SUBMITUSER=BIOADREM
LIBRARYQUALITY=0
SPECTRUMID=CCMSLIB00000081764
SCANS=2916
ID=CCMSLIB00000081764
301.0765373567 	 34.15
303.0921874209 	 100
304.0941392141 	 19.51
507.1497022998 	 0
END IONS

BEGIN IONS
PEPMASS=449.1078
CHARGE=1
MSLEVEL=2
RT=0
SOURCE_INSTRUMENT=qTOF
FILENAME=CCMSLIB00000081770.ms
IONMODE=Positive
ORGANISM=Natural
NAME=Orientin
PI=GNPS
DATACOLLECTOR=GNPS
SMILES=c1cc(c(cc1c1cc(=O)c2c(cc(c(c2o1)C1[C@@H]([C@@H](C(C(CO)O1)O)O)O)O)O)O)O
INCHI=InChI=1S/C21H20O11/c22-6-14-17(28)18(29)19(30)21(32-14)16-11(26)4-10(25)15-12(27)5-13(31-20(15)16)7-1-2-8(23)9(24)3-7/h1-5,14,17-19,21-26,28-30H,6H2/t14?,17?,18-,19-,21?/m1/s1
FORMULA=C21H20O11
PUBMED=N/A
SUBMITUSER=BIOADREM
LIBRARYQUALITY=0
SPECTRUMID=CCMSLIB00000081770
SCANS=2917
ID=CCMSLIB00000081770
287.0550140536 	 6.65
299.0550140536 	 100
311.0550140536 	 8.54
365.0655787399 	 10.13
377.0655787399 	 13.53
383.0761434262 	 81.41
395.0761434262 	 47.15
413.0867081125 	 66.69
449.1078374851 	 210.92
END IONS

BEGIN IONS
PEPMASS=433.1129
CHARGE=1
MSLEVEL=2
RT=0
SOURCE_INSTRUMENT=qTOF
FILENAME=CCMSLIB00000081772.ms
IONMODE=Positive
ORGANISM=Natural
NAME=Vitexin
PI=GNPS
DATACOLLECTOR=GNPS
SMILES=c1cc(ccc1c1cc(=O)c2c(cc(c(c2o1)C1[C@@H]([C@@H](C(C(CO)O1)O)O)O)O)O)O
INCHI=InChI=1S/C21H20O10/c22-7-14-17(27)18(28)19(29)21(31-14)16-11(25)5-10(24)15-12(26)6-13(30-20(15)16)8-1-3-9(23)4-2-8/h1-6,14,17-19,21-25,27-29H,7H2/t14?,17?,18-,19-,21?/m1/s1
FORMULA=C21H20O10
PUBMED=N/A
SUBMITUSER=BIOADREM
LIBRARYQUALITY=0
SPECTRUMID=CCMSLIB00000081772
SCANS=2918
ID=CCMSLIB00000081772
295.0659726704 	 9.61
314.0784891499 	 22.24
323.0972727988 	 6.23
416.1101832088 	 18.15
433.112922863 	 98.58
END IONS

BEGIN IONS
PEPMASS=305.1983
CHARGE=1
MSLEVEL=2
RT=0
SOURCE_INSTRUMENT=qTOF
FILENAME=CCMSLIB00000084740.ms
IONMODE=Positive
ORGANISM=Natural
NAME=MLS001076525-01!8-CYCLOPENTYL-1,3-DIPROPYLXANTHINE
PI=GNPS
DATACOLLECTOR=GNPS
SMILES=CCCn1c2c(c(=O)n(CCC)c1=O)nc(C1CCCC1)[nH]2
INCHI=InChI=1S/C16H24N4O2/c1-3-9-19-14-12(15(21)20(10-4-2)16(19)22)17-13(18-14)11-7-5-6-8-11/h11H,3-10H2,1-2H3,(H,17,18)
FORMULA=C16H24N4O2
PUBMED=N/A
SUBMITUSER=BIOADREM
LIBRARYQUALITY=0
SPECTRUMID=CCMSLIB00000084740
SCANS=2923
ID=CCMSLIB00000084740
96.0807752941 	 1.6
107.060374203 	 0.47
110.0362304047 	 4.63
123.0916743314 	 0.35
124.0869233045 	 0.46
133.0760242672 	 0.27
136.0518804689 	 0.51
150.1025733687 	 0.62
151.0753555652 	 0.3
152.0818379266 	 0.53
161.0709388893 	 0.82
175.1229744598 	 0.33
178.0974879908 	 100
192.1495235613 	 3.3
202.1338734971 	 5.96
203.1178890819 	 3.68
204.0767525487 	 33.53
220.1444381834 	 22.46
221.1033016502 	 61.4
263.1502518428 	 55.7
305.1972020354 	 28.48
END IONS

BEGIN IONS
PEPMASS=373.202
CHARGE=1
MSLEVEL=2
RT=0
SOURCE_INSTRUMENT=qTOF
FILENAME=CCMSLIB00000084741.ms
IONMODE=Positive
ORGANISM=Natural
NAME=MLS001077317-01!17BETA-ESTRADIOL 17-HEMISUCCINATE
PI=GNPS
DATACOLLECTOR=GNPS
SMILES=C[C@]12CC[C@@H]3c4ccc(cc4CC[C@H]3[C@@H]1CC[C@@H]2OC(=O)CCC(=O)O)O
INCHI=InChI=1S/C22H28O5/c1-22-11-10-16-15-5-3-14(23)12-13(15)2-4-17(16)18(22)6-7-19(22)27-21(26)9-8-20(24)25/h3,5,12,16-19,23H,2,4,6-11H2,1H3,(H,24,25)/t16-,17-,18+,19+,22+/m1/s1
FORMULA=C22H28O5
PUBMED=N/A
SUBMITUSER=BIOADREM
LIBRARYQUALITY=0
SPECTRUMID=CCMSLIB00000084741
SCANS=2924
ID=CCMSLIB00000084741
93.0698762568 	 1.56
95.085526321 	 1.89
105.0698762568 	 2.37
115.0542261926 	 2.5
119.085526321 	 1.63
121.0647908789 	 1.71
131.0491408147 	 3.74
131.085526321 	 6.8
133.0647908789 	 28.08
141.0698762568 	 5.28
144.0569658468 	 13.1
147.0804409431 	 2.52
147.1168264494 	 1.3
159.0804409431 	 100
255.1743413283 	 8.84
373.2009500093 	 0
END IONS

BEGIN IONS
PEPMASS=241.0972
CHARGE=1
MSLEVEL=2
RT=0
SOURCE_INSTRUMENT=qTOF
FILENAME=CCMSLIB00000084742.ms
IONMODE=Positive
ORGANISM=Natural
NAME=MLS001077351-01!
PI=GNPS
DATACOLLECTOR=GNPS
SMILES=CCOC(=O)c1cc2c3ccccc3nc2c[nH]1
INCHI=InChI=1S/C14H12N2O2/c1-2-18-14(17)12-7-10-9-5-3-4-6-11(9)16-13(10)8-15-12/h3-8,15H,2H2,1H3
FORMULA=C14H12N2O2
PUBMED=N/A
SUBMITUSER=BIOADREM
LIBRARYQUALITY=0
SPECTRUMID=CCMSLIB00000084742
SCANS=2925
ID=CCMSLIB00000084742
113.0385761284 	 1.27
140.0494751657 	 67.34
167.060374203 	 100
185.0709388893 	 71.96
195.0552888251 	 2.41
213.0658535114 	 1.08
241.0971536398 	 0
END IONS

BEGIN IONS
PEPMASS=301.18
CHARGE=1
MSLEVEL=2
RT=0
SOURCE_INSTRUMENT=qTOF
FILENAME=CCMSLIB00000084744.ms
IONMODE=Positive
ORGANISM=Natural
NAME=MLS001146874-01!ADRENOSTERONE
PI=GNPS
DATACOLLECTOR=GNPS
SMILES=C[C@]12CCC(=O)C=C1CC[C@H]1[C@@H]3CCC(=O)[C@@]3(C)CC(=O)[C@H]21
INCHI=InChI=1S/C19H24O3/c1-18-8-7-12(20)9-11(18)3-4-13-14-5-6-16(22)19(14,2)10-15(21)17(13)18/h9,13-14,17H,3-8,10H2,1-2H3/t13-,14-,17+,18-,19-/m0/s1
FORMULA=C19H24O3
PUBMED=N/A
SUBMITUSER=BIOADREM
LIBRARYQUALITY=0
SPECTRUMID=CCMSLIB00000084744
SCANS=2927
ID=CCMSLIB00000084744
105.0698762568 	 11.66
107.0491408147 	 7.6
107.085526321 	 12.01
109.0647908789 	 16.25
115.0542261926 	 8.83
117.0698762568 	 15.55
121.0647908789 	 66.9
128.0620512247 	 7.95
129.0698762568 	 15.84
131.085526321 	 14.31
133.0647908789 	 12.19
133.1011763852 	 16.49
135.0804409431 	 20.49
141.0698762568 	 7.95
142.0777012889 	 12.66
143.085526321 	 14.96
145.0647908789 	 7.6
145.1011763852 	 23.09
147.0804409431 	 31.68
147.1168264494 	 8.01
155.085526321 	 9.89
157.1011763852 	 16.96
159.0804409431 	 20.67
159.1168264494 	 7.66
161.0960910073 	 19.02
163.1117410715 	 18.43
167.085526321 	 9.25
171.1168264494 	 9.95
173.0960910073 	 12.9
173.1324765136 	 9.84
174.1039160394 	 15.96
175.1117410715 	 17.79
181.1011763852 	 13.84
183.1168264494 	 9.25
185.0960910073 	 19.2
189.1273911357 	 15.31
199.1117410715 	 15.55
201.1273911357 	 10.07
203.1430411999 	 10.31
207.1168264494 	 7.42
211.1481265778 	 7.36
214.1352161678 	 7.3
215.1430411999 	 13.6
225.1273911357 	 25.85
239.1430411999 	 13.49
242.1301307899 	 54.83
243.137955822 	 8.66
257.1536058862 	 100
283.1692559504 	 26.03
301.1798206367 	 19.55
END IONS

BEGIN IONS
PEPMASS=278.1853
CHARGE=1
MSLEVEL=2
RT=0
SOURCE_INSTRUMENT=qTOF
FILENAME=CCMSLIB00000084745.ms
IONMODE=Positive
ORGANISM=Natural
NAME=MLS001148141-01!N-ACETYLPROCAINAMIDE HYDROCHLORIDE
PI=GNPS
DATACOLLECTOR=GNPS
SMILES=CCN(CC)CCNC(=O)c1ccc(cc1)N=C(C)O
INCHI=InChI=1S/C15H23N3O2/c1-4-18(5-2)11-10-16-15(20)13-6-8-14(9-7-13)17-12(3)19/h6-9H,4-5,10-11H2,1-3H3,(H,16,20)(H,17,19)
FORMULA=C15H23N3O2
PUBMED=N/A
SUBMITUSER=BIOADREM
LIBRARYQUALITY=0
SPECTRUMID=CCMSLIB00000084745
SCANS=2928
ID=CCMSLIB00000084745
92.0494751657 	 1.16
120.0443897878 	 100
121.0284053726 	 17.16
162.0549544741 	 34.24
163.0865889535 	 41.64
164.0706045383 	 26.33
205.0971536398 	 99.66
278.1863029981 	 0.42
END IONS

BEGIN IONS
PEPMASS=299.1765
CHARGE=1
MSLEVEL=2
RT=0
SOURCE_INSTRUMENT=qTOF
FILENAME=CCMSLIB00000084752.ms
IONMODE=Positive
ORGANISM=Natural
NAME=MLS002153353-01!3-Tropanylindole-3-carboxylate methiodide
PI=GNPS
DATACOLLECTOR=GNPS
SMILES=C[N+]1(C)C2CCC1CC(C2)OC(=O)c1c[n-]c2ccccc12
INCHI=InChI=1S/C18H22N2O2/c1-20(2)12-7-8-13(20)10-14(9-12)22-18(21)16-11-19-17-6-4-3-5-15(16)17/h3-6,11-14H,7-10H2,1-2H3
FORMULA=C18H22N2O2
PUBMED=N/A
SUBMITUSER=BIOADREM
LIBRARYQUALITY=0
SPECTRUMID=CCMSLIB00000084752
SCANS=2934
ID=CCMSLIB00000084752
91.0542261926 	 4.16
93.0698762568 	 6.42
95.085526321 	 3.84
108.0807752941 	 1.05
110.0964253583 	 0.55
112.1120754225 	 0.36
123.1042503904 	 1.03
138.1277254867 	 100
156.138290173 	 2.11
299.1754039608 	 22.87
END IONS

BEGIN IONS
PEPMASS=221.112
CHARGE=1
MSLEVEL=2
RT=0
SOURCE_INSTRUMENT=qTOF
FILENAME=CCMSLIB00000084758.ms
IONMODE=Positive
ORGANISM=Natural
NAME=MLS001148663-01!MORANTEL TARTRATE SALT
PI=GNPS
DATACOLLECTOR=GNPS
SMILES=Cc1ccsc1/C=C/C1=NCCCN1C
INCHI=InChI=1S/C12H16N2S/c1-10-6-9-15-11(10)4-5-12-13-7-3-8-14(12)2/h4-6,9H,3,7-8H2,1-2H3/b5-4+
FORMULA=C12H16N2S
PUBMED=N/A
SUBMITUSER=BIOADREM
LIBRARYQUALITY=0
SPECTRUMID=CCMSLIB00000084758
SCANS=2938
ID=CCMSLIB00000084758
97.0106468184 	 2.18409975379239
103.0542261926 	 0.810102454133905
104.0494751657 	 0.480501945834326
106.0651252299 	 4.78317846080534
109.0106468184 	 1.69962671749662
109.0760242672 	 0.369311412913986
111.0262968826 	 22.522039552061
116.0494751657 	 0.770391549519498
117.0573001978 	 9.64974982130093
118.0651252299 	 0.575808116908903
121.0106468184 	 1.24692240489238
121.0760242672 	 1.12381860058772
122.0184718505 	 4.43372250019855
123.0262968826 	 59.2903661345405
130.0651252299 	 2.49980144547693
132.0807752941 	 0.438805495989199
133.0106468184 	 1.58446509411484
135.0137208236 	 0.88952426336272
135.0916743314 	 0.760463823365896
136.0215458557 	 0.307759510761655
136.0994993635 	 2.04709713287269
137.0419469468 	 2.29727583194345
138.0371959199 	 3.88769756175046
145.0760242672 	 0.526169486140894
147.0916743314 	 0.881582082439838
148.0215458557 	 1.23699467873878
149.0293708878 	 23.3162576443491
150.0371959199 	 47.0752918751489
157.0760242672 	 0.307759510761655
159.0916743314 	 1.03844015566675
161.1073243956 	 1.80684615995552
162.0371959199 	 0.962989436899373
164.0528459841 	 53.6057501389882
172.0994993635 	 0.361369231991105
173.1073243956 	 6.496703994917
176.0528459841 	 1.01262806766738
177.0480949572 	 2.71026923993329
178.0559199893 	 0.432848860297038
187.1229744598 	 8.15264871733778
188.1307994919 	 3.49853069652927
191.0637450214 	 2.29926137717417
193.0793950856 	 1.08609324120403
205.0793950856 	 6.56619807799222
206.0872201177 	 1.4633468350409
221.110695214 	 100
END IONS

BEGIN IONS
PEPMASS=272.2025
CHARGE=1
MSLEVEL=2
RT=0
SOURCE_INSTRUMENT=qTOF
FILENAME=CCMSLIB00000084759.ms
IONMODE=Positive
ORGANISM=Natural
NAME=MLS001401442-01!d-3-Methoxy-N-methylmorphinan hydrobromide
PI=GNPS
DATACOLLECTOR=GNPS
SMILES=CN1CC[C@@]23CCCC[C@@H]2[C@@H]1Cc1ccc(cc31)OC
INCHI=InChI=1S/C18H25NO/c1-19-10-9-18-8-4-3-5-15(18)17(19)11-13-6-7-14(20-2)12-16(13)18/h6-7,12,15,17H,3-5,8-11H2,1-2H3/t15-,17+,18+/m1/s1
FORMULA=C18H25NO
PUBMED=N/A
SUBMITUSER=BIOADREM
LIBRARYQUALITY=0
SPECTRUMID=CCMSLIB00000084759
SCANS=2939
ID=CCMSLIB00000084759
91.0542261926 	 1.5
105.0698762568 	 0.89
107.0491408147 	 1.34
115.0542261926 	 2.39
116.0620512247 	 0.9
117.0698762568 	 1.13
119.085526321 	 1.09
121.0647908789 	 12.45
128.0620512247 	 5.86
129.0698762568 	 1.53
131.0491408147 	 1.2
132.0569658468 	 4.68
135.0804409431 	 6.66
141.0698762568 	 3.31
142.0777012889 	 1.17
143.085526321 	 1.54
144.0569658468 	 6.42
145.0647908789 	 4.24
146.072615911 	 1.06
147.0804409431 	 61.87
153.0698762568 	 0.8
155.085526321 	 0.96
156.0569658468 	 3.57
157.0647908789 	 1.9
158.072615911 	 7.45
159.0804409431 	 25.07
161.0960910073 	 2.49
165.0698762568 	 1.67
166.0777012889 	 1.33
167.085526321 	 0.75
170.072615911 	 2.45
171.0804409431 	 100
173.0960910073 	 26.69
181.1011763852 	 2.3
182.1090014173 	 1.55
183.0804409431 	 1.24
184.0882659752 	 2.35
185.0960910073 	 3.42
187.1117410715 	 1.44
198.1039160394 	 23.52
199.1117410715 	 6.01
200.1195661036 	 1.61
213.1273911357 	 74.61
215.1430411999 	 58.14
241.1586912641 	 2.16
272.2008904298 	 78.29
END IONS

BEGIN IONS
PEPMASS=295.1814
CHARGE=1
MSLEVEL=2
RT=0
SOURCE_INSTRUMENT=qTOF
FILENAME=CCMSLIB00000084760.ms
IONMODE=Positive
ORGANISM=Natural
NAME=MLS002153906-01!Eburnamonine (-)4880-88-0
PI=GNPS
DATACOLLECTOR=GNPS
SMILES=CC[C@]12CCCN3CCc4c5ccccc5n(C(=O)C1)c4[C@H]23
INCHI=InChI=1S/C19H22N2O/c1-2-19-9-5-10-20-11-8-14-13-6-3-4-7-15(13)21(16(22)12-19)17(14)18(19)20/h3-4,6-7,18H,2,5,8-12H2,1H3/t18-,19+/m1/s1
FORMULA=C19H22N2O
PUBMED=N/A
SUBMITUSER=BIOADREM
LIBRARYQUALITY=0
SPECTRUMID=CCMSLIB00000084760
SCANS=2940
ID=CCMSLIB00000084760
130.0651252299 	 7.74
132.0807752941 	 5.53
144.0807752941 	 27.3
150.0913399804 	 5.43
167.072950262 	 6.82
168.0807752941 	 14.21
169.0886003262 	 6.08
170.060039852 	 3.84
170.0964253583 	 4.19
180.0807752941 	 15.43
181.0886003262 	 14.61
182.0964253583 	 10.75
184.0756899162 	 6.72
194.0964253583 	 10.19
195.1042503904 	 13.43
196.0756899162 	 15.23
196.1120754225 	 8.05
197.0835149483 	 30.25
198.1277254867 	 9.82
206.0964253583 	 5.33
207.1042503904 	 5.03
208.0756899162 	 4
208.1120754225 	 12.12
209.1199004546 	 7.36
210.0913399804 	 16.29
210.1277254867 	 11.3
211.0991650125 	 6.46
212.1069900446 	 12.6
222.0913399804 	 18.93
223.0991650125 	 31.15
224.1069900446 	 25
225.1148150767 	 25.87
226.1226401088 	 25.71
234.0913399804 	 4.32
235.0991650125 	 5.76
236.1069900446 	 14.51
236.1433755509 	 7.79
237.1148150767 	 24.18
238.1226401088 	 100
249.1148150767 	 8.71
250.1226401088 	 4.67
251.1304651409 	 4.47
252.138290173 	 26.73
264.138290173 	 15.85
266.1539402372 	 41.73
278.1539402372 	 4.56
295.1804893387 	 94.45
END IONS

BEGIN IONS
PEPMASS=304.1808
CHARGE=1
MSLEVEL=2
RT=0
SOURCE_INSTRUMENT=qTOF
FILENAME=CCMSLIB00000084762.ms
IONMODE=Positive
ORGANISM=Natural
NAME=MLS000862213-01!CNS-1102
PI=GNPS
DATACOLLECTOR=GNPS
SMILES=CCc1cccc(c1)N(C)C(=N)Nc1cccc2ccccc12
INCHI=InChI=1S/C20H21N3/c1-3-15-8-6-11-17(14-15)23(2)20(21)22-19-13-7-10-16-9-4-5-12-18(16)19/h4-14H,3H2,1-2H3,(H2,21,22)
FORMULA=C20H21N3
PUBMED=N/A
SUBMITUSER=BIOADREM
LIBRARYQUALITY=0
SPECTRUMID=CCMSLIB00000084762
SCANS=2942
ID=CCMSLIB00000084762
93.0573001978 	 5.76
106.0651252299 	 11.97
108.0807752941 	 11.09
115.0542261926 	 20.51
121.0886003262 	 59.09
127.0542261926 	 6.54
128.0620512247 	 5.99
131.060374203 	 10.42
136.1120754225 	 46.9
142.0651252299 	 19.96
144.0807752941 	 29.05
145.0886003262 	 5.88
161.1073243956 	 12.97
169.0760242672 	 100
257.1073243956 	 9.31
272.1307994919 	 9.31
287.1542745882 	 31.26
304.1808236897 	 44.35
END IONS

BEGIN IONS
PEPMASS=511.0572
CHARGE=1
MSLEVEL=2
RT=0
SOURCE_INSTRUMENT=qTOF
FILENAME=CCMSLIB00000084766.ms
IONMODE=Positive
ORGANISM=Natural
NAME=MLS002153391-01!IB-MECA152918-18-8
PI=GNPS
DATACOLLECTOR=GNPS
SMILES=CN=C([C@@H]1[C@H]([C@H]([C@H](n2cnc3c(NCc4cccc(c4)I)ncnc23)O1)O)O)O
INCHI=InChI=1S/C18H19IN6O4/c1-20-17(28)14-12(26)13(27)18(29-14)25-8-24-11-15(22-7-23-16(11)25)21-6-9-3-2-4-10(19)5-9/h2-5,7-8,12-14,18,26-27H,6H2,1H3,(H,20,28)(H,21,22,23)/t12-,13+,14-,18+/m0/s1
FORMULA=C18H19IN6O4
PUBMED=N/A
SUBMITUSER=BIOADREM
LIBRARYQUALITY=0
SPECTRUMID=CCMSLIB00000084766
SCANS=2945
ID=CCMSLIB00000084766
89.0385761284 	 0.21
90.0464011605 	 0.56
105.0573001978 	 1.71
148.0631138572 	 0.26
149.059705501 	 0.23
208.0756899162 	 0.4
208.0756899162 	 0.98
224.0944139856 	 0.53
225.1022390177 	 0.24
225.1022390177 	 0.64
226.1100640498 	 100
227.1066556936 	 17.06
237.1022390177 	 1.06
251.1178890819 	 0.64
261.1022390177 	 0.51
265.0971536398 	 0.21
266.1049786719 	 0.93
267.112803704 	 0.9
267.112803704 	 2.33
279.112803704 	 0.3
295.1077183261 	 0.45
297.1233683903 	 1.27
298.1298507517 	 0.29
307.1077183261 	 0.75
325.1182830124 	 3.9
326.1247653738 	 0.89
354.1196799959 	 0.79
384.1540541295 	 2.12
END IONS

BEGIN IONS
PEPMASS=293.1794
CHARGE=1
MSLEVEL=2
RT=0
SOURCE_INSTRUMENT=qTOF
FILENAME=CCMSLIB00000084769.ms
IONMODE=Positive
ORGANISM=Natural
NAME=MLS000860051-01!Thioperamide maleate salt
PI=GNPS
DATACOLLECTOR=GNPS
SMILES=C1CCC(CC1)N=C(N1CCC(CC1)c1cnc[nH]1)S
INCHI=InChI=1S/C15H24N4S/c20-15(18-13-4-2-1-3-5-13)19-8-6-12(7-9-19)14-10-16-11-17-14/h10-13H,1-9H2,(H,16,17)(H,18,20)
FORMULA=C15H24N4S
PUBMED=N/A
SUBMITUSER=BIOADREM
LIBRARYQUALITY=0
SPECTRUMID=CCMSLIB00000084769
SCANS=2947
ID=CCMSLIB00000084769
71.060374203 	 0.69
93.0573001978 	 1.13
95.060374203 	 18.35
96.0807752941 	 1.42
107.060374203 	 12.53
108.0807752941 	 6.81
109.0760242672 	 2.39
118.0651252299 	 4.38
119.060374203 	 2.19
120.0681992351 	 5.33
121.0760242672 	 1.41
123.0916743314 	 6.05
133.0760242672 	 1.02
135.0916743314 	 97.32
148.0869233045 	 0.72
150.1025733687 	 51.35
152.1182234329 	 100
166.0433439303 	 1.6
177.113472406 	 4.19
179.0511689624 	 0.97
194.0746440587 	 53.66
293.1794434812 	 0
END IONS

BEGIN IONS
PEPMASS=368.1969
CHARGE=1
MSLEVEL=2
RT=0
SOURCE_INSTRUMENT=qTOF
FILENAME=CCMSLIB00000084771.ms
IONMODE=Positive
ORGANISM=Natural
NAME=MLS001212822-01![5-(2-Dimethylamino-acetyl)-10,11-dihydro-5H-dibenzo[b,f]azepin-3-yl]-carbamic acid ethyl ester
PI=GNPS
DATACOLLECTOR=GNPS
SMILES=CCOC(=Nc1ccc2CCc3ccccc3N(c2c1)C(=O)CN(C)C)O
INCHI=InChI=1S/C21H25N3O3/c1-4-27-21(26)22-17-12-11-16-10-9-15-7-5-6-8-18(15)24(19(16)13-17)20(25)14-23(2)3/h5-8,11-13H,4,9-10,14H2,1-3H3,(H,22,26)
FORMULA=C21H25N3O3
PUBMED=N/A
SUBMITUSER=BIOADREM
LIBRARYQUALITY=0
SPECTRUMID=CCMSLIB00000084771
SCANS=2949
ID=CCMSLIB00000084771
123.1168264494 	 14.49
132.0443897878 	 17.52
132.0893286077 	 14.25
146.060039852 	 10.75
167.072950262 	 10.05
179.0815035756 	 9.58
181.0845775808 	 9.81
182.0964253583 	 13.08
193.0971536398 	 10.98
206.0964253583 	 12.38
207.100227645 	 15.65
222.0787639214 	 10.28
223.1229744598 	 25.47
224.1307994919 	 11.92
231.0764181977 	 21.03
233.1284537682 	 10.05
235.0865889535 	 16.59
237.1022390177 	 10.05
247.0865889535 	 20.09
249.1022390177 	 100
251.1178890819 	 34.58
252.1019046667 	 11.21
265.0971536398 	 31.78
280.1332047951 	 12.15
281.1284537682 	 10.28
292.1444381834 	 10.28
368.1968676844 	 21.03
END IONS

BEGIN IONS
PEPMASS=495.2189
CHARGE=1
MSLEVEL=2
RT=0
SOURCE_INSTRUMENT=qTOF
FILENAME=CCMSLIB00000084772.ms
IONMODE=Positive
ORGANISM=Natural
NAME=MLS001333220-01!FLUOCINONIDE356-12-7
PI=GNPS
DATACOLLECTOR=GNPS
SMILES=CC(=O)OCC(=O)[C@@]12[C@@H](CC3C4C[C@@H](C5=CC(=O)C=CC5(C)[C@]4(C(CC13C)O)F)F)OC(C)(C)O2
INCHI=InChI=1S/C26H32F2O7/c1-13(29)33-12-20(32)26-21(34-22(2,3)35-26)10-15-16-9-18(27)17-8-14(30)6-7-23(17,4)25(16,28)19(31)11-24(15,26)5/h6-8,15-16,18-19,21,31H,9-12H2,1-5H3/t15?,16?,18-,19?,21+,23?,24?,25-,26+/m0/s1
FORMULA=C26H32F2O7
PUBMED=N/A
SUBMITUSER=BIOADREM
LIBRARYQUALITY=0
SPECTRUMID=CCMSLIB00000084772
SCANS=2950
ID=CCMSLIB00000084772
121.0647908789 	 100
139.0553690468 	 15.69
145.0647908789 	 29.15
147.0804409431 	 20.32
158.072615911 	 11.74
159.0804409431 	 33.88
161.059705501 	 16.9
165.071019111 	 13.17
171.0804409431 	 22.92
177.0698762568 	 13.31
185.0960910073 	 13.13
189.0698762568 	 14.56
191.0866691752 	 12.06
193.1023192394 	 11.6
195.0804409431 	 15.48
196.0882659752 	 14.7
197.0960910073 	 16.55
205.0659337331 	 15.34
208.0894088294 	 17.79
209.0960910073 	 19.18
211.1117410715 	 33.17
221.0972338615 	 18.61
223.0753555652 	 15.94
223.1117410715 	 40.32
233.0960910073 	 14.7
234.1050588936 	 19.4
235.1117410715 	 40.32
237.1285339899 	 13.45
239.1066556936 	 24.66
245.0972338615 	 14.23
246.1050588936 	 14.2
247.1128839257 	 13.99
248.1207089578 	 19.04
249.1285339899 	 32.78
251.1066556936 	 15.66
253.1223057578 	 16.01
258.1050588936 	 26.8
259.1128839257 	 33.99
261.1285339899 	 26.55
262.0999735157 	 12.67
263.1441840541 	 21.6
273.1285339899 	 31.17
275.1077985478 	 12.17
277.123448612 	 32.35
279.1390986762 	 24.84
291.1390986762 	 41.6
301.123448612 	 12.1
319.1340132983 	 26.98
337.1445779846 	 20.93
495.2188857819 	 0
END IONS

BEGIN IONS
PEPMASS=369.1495
CHARGE=1
MSLEVEL=2
RT=0
SOURCE_INSTRUMENT=qTOF
FILENAME=CCMSLIB00000084775.ms
IONMODE=Positive
ORGANISM=Natural
NAME=MLS000862195-01!()-trans-(1S,2S)-U-50488 hydrochloride
PI=GNPS
DATACOLLECTOR=GNPS
SMILES=CN([C@H]1CCCC[C@@H]1N1CCCC1)C(=O)Cc1ccc(c(c1)Cl)Cl
INCHI=InChI=1S/C19H26Cl2N2O/c1-22(19(24)13-14-8-9-15(20)16(21)12-14)17-6-2-3-7-18(17)23-10-4-5-11-23/h8-9,12,17-18H,2-7,10-11,13H2,1H3/t17-,18-/m0/s1
FORMULA=C19H26Cl2N2O
PUBMED=N/A
SUBMITUSER=BIOADREM
LIBRARYQUALITY=0
SPECTRUMID=CCMSLIB00000084775
SCANS=2952
ID=CCMSLIB00000084775
110.0964253583 	 0.67
112.1120754225 	 80.97
122.9996038063 	 1.12
124.0074288384 	 0.42
125.0152538705 	 1.19
126.0230789026 	 0.64
132.9606314842 	 0.27
152.1433755509 	 2.78
158.9762815484 	 62.99
162.9711961705 	 0.55
165.0339779399 	 0.72
167.0258185568 	 0.44
183.1855747166 	 0.4
200.0028306499 	 1.18
218.0133953362 	 72.01
298.075995593 	 100
369.1494948871 	 0.3
END IONS

BEGIN IONS
PEPMASS=420.098
CHARGE=1
MSLEVEL=2
RT=0
SOURCE_INSTRUMENT=qTOF
FILENAME=CCMSLIB00000084777.ms
IONMODE=Positive
ORGANISM=Natural
NAME=MLS002153144-01!S-(4-Nitrobenzyl)-6-thioinosine38048-32-7
PI=GNPS
DATACOLLECTOR=GNPS
SMILES=c1cc(ccc1CSc1c2c(ncn1)n(cn2)[C@H]1[C@@H]([C@@H]([C@@H](CO)O1)O)O)N(=O)=O
INCHI=InChI=1S/C17H17N5O6S/c23-5-11-13(24)14(25)17(28-11)21-8-20-12-15(21)18-7-19-16(12)29-6-9-1-3-10(4-2-9)22(26)27/h1-4,7-8,11,13-14,17,23-25H,5-6H2/t11-,13-,14-,17-/m1/s1
FORMULA=C17H17N5O6S
PUBMED=N/A
SUBMITUSER=BIOADREM
LIBRARYQUALITY=0
SPECTRUMID=CCMSLIB00000084777
SCANS=2954
ID=CCMSLIB00000084777
106.0413157826 	 26.41
120.0443897878 	 6.51
136.0393044099 	 31.69
152.0164604778 	 56.57
154.0134835899 	 2.97
168.0113750999 	 3.54
208.0743472455 	 10.42
209.0821722776 	 22.7
241.0542429676 	 16.32
242.0620679997 	 64.98
243.0638421387 	 17.51
244.0539086166 	 5.73
254.0672504949 	 5.03
257.046477515 	 3.17
271.0522315949 	 4.66
274.0518972439 	 10.09
275.0570422013 	 2.1
288.0549712491 	 100
289.0567453881 	 20.07
420.0972299943 	 0
END IONS

BEGIN IONS
PEPMASS=307.1062
CHARGE=1
MSLEVEL=2
RT=0
SOURCE_INSTRUMENT=qTOF
FILENAME=CCMSLIB00000084778.ms
IONMODE=Positive
ORGANISM=Natural
NAME=MLS002153157-01!Tyrphostin AG 528
PI=GNPS
DATACOLLECTOR=GNPS
SMILES=c1ccc2c(c1)CCN2C(=O)/C(=C/c1ccc(c(c1)O)O)/C#N
INCHI=InChI=1S/C18H14N2O3/c19-11-14(9-12-5-6-16(21)17(22)10-12)18(23)20-8-7-13-3-1-2-4-15(13)20/h1-6,9-10,21-22H,7-8H2/b14-9+
FORMULA=C18H14N2O3
PUBMED=N/A
SUBMITUSER=BIOADREM
LIBRARYQUALITY=0
SPECTRUMID=CCMSLIB00000084778
SCANS=2955
ID=CCMSLIB00000084778
101.0385761284 	 3.49
104.0494751657 	 23.85
105.0334907505 	 12.13
114.0338251015 	 100
115.0542261926 	 3.98
118.0651252299 	 16.77
128.0494751657 	 26.23
132.0443897878 	 52.12
133.0284053726 	 35.32
134.060039852 	 2.96
142.0287397236 	 84.91
144.0443897878 	 2.36
146.060039852 	 6.21
154.0651252299 	 2.86
160.0393044099 	 56.47
161.0233199947 	 10.67
162.0549544741 	 3.72
169.0760242672 	 3.38
170.0236543457 	 47.59
188.034219032 	 50.66
197.0709388893 	 8.57
216.0807752941 	 2.96
225.1022390177 	 2.99
234.0913399804 	 2.94
235.0865889535 	 3.25
240.1019046667 	 10.72
242.0811692246 	 2.67
243.0916743314 	 5.27
261.1022390177 	 8.23
262.0862546025 	 5.06
279.112803704 	 4.93
289.0971536398 	 7.31
307.1077183261 	 2.31
END IONS

BEGIN IONS
PEPMASS=346.1594
CHARGE=1
MSLEVEL=2
RT=0
SOURCE_INSTRUMENT=qTOF
FILENAME=CCMSLIB00000084779.ms
IONMODE=Positive
ORGANISM=Natural
NAME=MLS002153477-01!A-315456
PI=GNPS
DATACOLLECTOR=GNPS
SMILES=CCS(=O)(=O)Nc1cccc(c1)C(=C1CCCCC1)c1cnc[nH]1
INCHI=InChI=1S/C18H23N3O2S/c1-2-24(22,23)21-16-10-6-9-15(11-16)18(17-12-19-13-20-17)14-7-4-3-5-8-14/h6,9-13,21H,2-5,7-8H2,1H3,(H,19,20)
FORMULA=C18H23N3O2S
PUBMED=N/A
SUBMITUSER=BIOADREM
LIBRARYQUALITY=0
SPECTRUMID=CCMSLIB00000084779
SCANS=2956
ID=CCMSLIB00000084779
107.060374203 	 1.72
130.0651252299 	 3.13
143.072950262 	 1.9
144.0807752941 	 5.82
145.0760242672 	 5.54
156.0807752941 	 4.99
159.0916743314 	 2.91
166.0651252299 	 3.67
167.072950262 	 2.78
168.0807752941 	 2.12
170.0964253583 	 2.65
171.0790982724 	 4.99
172.0869233045 	 15.27
180.0807752941 	 8.23
181.0886003262 	 7.86
183.0916743314 	 13.23
184.1120754225 	 25.71
186.1025733687 	 2.12
193.0886003262 	 4.19
194.0964253583 	 5.19
195.0916743314 	 3.51
198.1151494277 	 17.93
207.0916743314 	 7.22
209.1199004546 	 34.06
210.1025733687 	 89.86
212.1182234329 	 4.24
221.1073243956 	 2.03
224.1182234329 	 35.09
226.1464495561 	 15.22
235.1229744598 	 14.08
236.1307994919 	 13.43
238.1338734971 	 6.12
252.1495235613 	 100
253.1573485934 	 77.99
346.1583736881 	 50.4
END IONS

BEGIN IONS
PEPMASS=276.1585
CHARGE=1
MSLEVEL=2
RT=0
SOURCE_INSTRUMENT=qTOF
FILENAME=CCMSLIB00000084780.ms
IONMODE=Positive
ORGANISM=Natural
NAME=MLS002172468-01!Dihydro-beta-erythroidine hydrobromide29734-68-7
PI=GNPS
DATACOLLECTOR=GNPS
SMILES=CO[C@H]1CC=C2CCN3CCC4=C(CC(=O)OC4)[C@]23C1
INCHI=InChI=1S/C16H21NO3/c1-19-13-3-2-12-5-7-17-6-4-11-10-20-15(18)8-14(11)16(12,17)9-13/h2,13H,3-10H2,1H3/t13-,16-/m0/s1
FORMULA=C16H21NO3
PUBMED=N/A
SUBMITUSER=BIOADREM
LIBRARYQUALITY=0
SPECTRUMID=CCMSLIB00000084780
SCANS=2957
ID=CCMSLIB00000084780
117.0573001978 	 18.42
128.0620512247 	 31.88
130.0651252299 	 16.83
132.0807752941 	 26.73
133.0886003262 	 18.81
141.0698762568 	 20.79
142.0777012889 	 18.22
143.085526321 	 17.62
144.0807752941 	 19.6
146.0964253583 	 33.07
147.1042503904 	 16.63
153.0698762568 	 14.46
158.0964253583 	 29.9
159.1042503904 	 37.62
169.1011763852 	 15.84
171.1168264494 	 18.42
172.1120754225 	 33.47
175.1328704441 	 11.29
184.1120754225 	 27.33
185.1172203799 	 23.56
187.1355505188 	 20
188.1433755509 	 93.86
200.1433755509 	 100
201.1485205083 	 26.53
216.138290173 	 33.66
218.1175547309 	 11.29
244.1332047951 	 79.6
276.1594195456 	 73.27
END IONS

BEGIN IONS
PEPMASS=365.249
CHARGE=1
MSLEVEL=2
RT=0
SOURCE_INSTRUMENT=qTOF
FILENAME=CCMSLIB00000084781.ms
IONMODE=Positive
ORGANISM=Natural
NAME=MLS000069756-01!17ALPHA-ETHYLNYL-1,3,5[10]ESTRATRIENE-3,17BETA-DIOL 3-CYCLOPENTYL ETHER
PI=GNPS
DATACOLLECTOR=GNPS
SMILES=C#C[C@@]1(CC[C@H]2[C@@H]3CCc4cc(ccc4[C@H]3CC[C@]12C)OC1CCCC1)O
INCHI=InChI=1S/C25H32O2/c1-3-25(26)15-13-23-22-10-8-17-16-19(27-18-6-4-5-7-18)9-11-20(17)21(22)12-14-24(23,25)2/h1,9,11,16,18,21-23,26H,4-8,10,12-15H2,2H3/t21-,22-,23+,24+,25+/m1/s1
FORMULA=C25H32O2
PUBMED=N/A
SUBMITUSER=BIOADREM
LIBRARYQUALITY=0
SPECTRUMID=CCMSLIB00000084781
SCANS=2958
ID=CCMSLIB00000084781
91.0542261926 	 9.75
105.0698762568 	 23.88
107.0491408147 	 100
117.0698762568 	 18.41
121.0647908789 	 21.24
129.0698762568 	 11.76
131.0491408147 	 18.6
131.085526321 	 34.09
133.0647908789 	 30.63
145.0647908789 	 14.13
145.1011763852 	 13.31
147.0804409431 	 9.39
155.085526321 	 11.3
157.0647908789 	 19.14
159.0804409431 	 15.95
159.1168264494 	 21.79
161.0960910073 	 9.66
169.1011763852 	 7.84
171.1168264494 	 19.87
183.0804409431 	 16.04
187.1117410715 	 9.39
197.0960910073 	 14.4
213.1273911357 	 14.22
365.2475062714 	 0
END IONS

BEGIN IONS
PEPMASS=347.2217
CHARGE=1
MSLEVEL=2
RT=0
SOURCE_INSTRUMENT=qTOF
FILENAME=CCMSLIB00000084784.ms
IONMODE=Positive
ORGANISM=Natural
NAME=MLS001148457-01!21-DESOXYCORTISOL
PI=GNPS
DATACOLLECTOR=GNPS
SMILES=CC(=O)[C@]1(CC[C@H]2[C@@H]3CCC4=CC(=O)CC[C@]4(C)[C@H]3[C@H](C[C@]12C)O)O
INCHI=InChI=1S/C21H30O4/c1-12(22)21(25)9-7-16-15-5-4-13-10-14(23)6-8-19(13,2)18(15)17(24)11-20(16,21)3/h10,15-18,24-25H,4-9,11H2,1-3H3/t15-,16-,17-,18+,19-,20-,21-/m0/s1
FORMULA=C21H30O4
PUBMED=N/A
SUBMITUSER=BIOADREM
LIBRARYQUALITY=0
SPECTRUMID=CCMSLIB00000084784
SCANS=2960
ID=CCMSLIB00000084784
91.0542261926 	 18.27
97.0647908789 	 22.72
105.0698762568 	 56.73
109.0647908789 	 47.84
117.0698762568 	 33.12
119.085526321 	 40.86
121.0647908789 	 74.87
121.1011763852 	 15.74
123.0804409431 	 41.5
129.0698762568 	 32.87
131.085526321 	 43.15
133.0647908789 	 20.3
133.1011763852 	 32.74
137.0960910073 	 28.43
143.085526321 	 30.58
145.1011763852 	 100
147.0804409431 	 36.04
147.1168264494 	 62.18
149.0960910073 	 22.46
155.085526321 	 18.78
157.1011763852 	 45.69
159.0804409431 	 14.97
159.1168264494 	 63.45
161.0960910073 	 30.84
163.1117410715 	 57.49
169.1011763852 	 41.24
171.0804409431 	 18.15
171.1168264494 	 35.41
175.1117410715 	 37.94
181.1011763852 	 25.25
182.1090014173 	 16.75
185.0960910073 	 19.29
185.1324765136 	 36.17
187.1117410715 	 18.02
189.1273911357 	 21.95
213.1273911357 	 16.12
215.1430411999 	 15.48
229.1586912641 	 28.05
241.1586912641 	 17.13
253.1586912641 	 43.91
269.1899913925 	 56.09
287.2005560788 	 15.1
347.2216854514 	 0
END IONS

BEGIN IONS
PEPMASS=466.3163
CHARGE=1
MSLEVEL=2
RT=0
SOURCE_INSTRUMENT=qTOF
FILENAME=CCMSLIB00000084787.ms
IONMODE=Positive
ORGANISM=Natural
NAME=MLS001332546-01!Glycocholic acid hydrate475-31-0
PI=GNPS
DATACOLLECTOR=GNPS
SMILES=C[C@H](CCC(=NCC(=O)O)O)[C@H]1CC[C@H]2C3[C@H](C[C@@H]([C@]12C)O)[C@@]1(C)CC[C@H](C[C@H]1C[C@H]3O)O
INCHI=InChI=1S/C26H43NO6/c1-14(4-7-22(31)27-13-23(32)33)17-5-6-18-24-19(12-21(30)26(17,18)3)25(2)9-8-16(28)10-15(25)11-20(24)29/h14-21,24,28-30H,4-13H2,1-3H3,(H,27,31)(H,32,33)/t14-,15+,16-,17-,18+,19+,20-,21+,24?,25+,26-/m1/s1
FORMULA=C26H43NO6
PUBMED=N/A
SUBMITUSER=BIOADREM
LIBRARYQUALITY=0
SPECTRUMID=CCMSLIB00000084787
SCANS=2962
ID=CCMSLIB00000084787
105.0698762568 	 36.57
107.085526321 	 32.37
119.085526321 	 33.91
121.1011763852 	 13.26
131.085526321 	 25.21
133.1011763852 	 34.93
143.085526321 	 32.75
145.1011763852 	 52.25
147.1168264494 	 40.54
149.0960910073 	 19.01
155.085526321 	 13.5
157.1011763852 	 56.41
159.1168264494 	 39.28
161.1324765136 	 31.79
169.1011763852 	 24.04
171.1168264494 	 73.73
173.1324765136 	 26.85
175.1481265778 	 14.95
177.1273911357 	 18.09
183.1168264494 	 41.12
185.1324765136 	 44.61
186.1403015457 	 14.27
187.1481265778 	 22.59
189.1273911357 	 14.85
195.1168264494 	 15.82
197.1324765136 	 25.54
199.1481265778 	 61.25
201.163776642 	 15.87
209.1324765136 	 89.45
211.1481265778 	 40.64
213.163776642 	 86.07
215.1794267062 	 14.47
223.1481265778 	 19.93
225.163776642 	 44.41
227.1430411999 	 94.97
227.1794267062 	 51.48
229.1586912641 	 26.46
237.163776642 	 17.13
239.1794267062 	 19.06
243.1743413283 	 16.74
253.1950767704 	 13.88
293.2263768988 	 14.61
319.242026963 	 81.62
337.2525916493 	 100
412.2846200592 	 61.1
466.3163141181 	 0
END IONS

BEGIN IONS
PEPMASS=291.081
CHARGE=1
MSLEVEL=2
RT=0
SOURCE_INSTRUMENT=qTOF
FILENAME=CCMSLIB00000084790.ms
IONMODE=Positive
ORGANISM=Natural
NAME=MLS000090052-01!N-{4-[(4-aminophenyl)sulfonyl]phenyl}acetamide
PI=GNPS
DATACOLLECTOR=GNPS
SMILES=CC(=Nc1ccc(cc1)S(=O)(=O)c1ccc(cc1)N)O
INCHI=InChI=1S/C14H14N2O3S/c1-10(17)16-12-4-8-14(9-5-12)20(18,19)13-6-2-11(15)3-7-13/h2-9H,15H2,1H3,(H,16,17)
FORMULA=C14H14N2O3S
PUBMED=N/A
SUBMITUSER=BIOADREM
LIBRARYQUALITY=0
SPECTRUMID=CCMSLIB00000084790
SCANS=2964
ID=CCMSLIB00000084790
88.0307510963 	 2.81
92.0494751657 	 5.55
93.0573001978 	 16.45
95.9875656526 	 2.88
96.0443897878 	 3.95
98.9899113763 	 3.14
108.0443897878 	 100
109.0284053726 	 2.81
124.018865781 	 2.88
130.0651252299 	 3.55
134.060039852 	 21.81
139.0753555652 	 3.48
140.0164604778 	 3.14
156.0113750999 	 24.62
198.0219397862 	 7.42
215.0610649467 	 3.48
291.0797890161 	 0
END IONS

BEGIN IONS
PEPMASS=291.2319
CHARGE=1
MSLEVEL=2
RT=0
SOURCE_INSTRUMENT=qTOF
FILENAME=CCMSLIB00000084793.ms
IONMODE=Positive
ORGANISM=Natural
NAME=MLS001304190-01!
PI=GNPS
DATACOLLECTOR=GNPS
SMILES=C[C@]12CC[C@@H](C[C@@H]1CC[C@H]1[C@@H]3CCC(=O)[C@@]3(C)CC[C@H]21)O
INCHI=InChI=1S/C19H30O2/c1-18-9-7-13(20)11-12(18)3-4-14-15-5-6-17(21)19(15,2)10-8-16(14)18/h12-16,20H,3-11H2,1-2H3/t12-,13-,14-,15-,16-,18-,19-/m0/s1
FORMULA=C19H30O2
PUBMED=N/A
SUBMITUSER=BIOADREM
LIBRARYQUALITY=0
SPECTRUMID=CCMSLIB00000084793
SCANS=2967
ID=CCMSLIB00000084793
91.0542261926 	 35.54
105.0698762568 	 56.13
107.085526321 	 33.09
109.1011763852 	 25.49
117.0698762568 	 27.7
119.085526321 	 63.73
120.0933513531 	 11.76
121.1011763852 	 35.29
129.0698762568 	 48.53
131.085526321 	 30.39
135.1168264494 	 43.63
141.0698762568 	 22.79
143.085526321 	 29.17
145.1011763852 	 87.99
147.1168264494 	 95.59
149.1324765136 	 22.55
157.1011763852 	 39.46
159.1168264494 	 100
161.1324765136 	 85.29
171.1168264494 	 30.39
173.1324765136 	 67.4
175.1481265778 	 21.32
183.1168264494 	 21.08
199.1481265778 	 56.13
255.2107268346 	 80.88
273.2212915209 	 19.12
291.2318562072 	 0
END IONS

BEGIN IONS
PEPMASS=326.2474
CHARGE=1
MSLEVEL=2
RT=0
SOURCE_INSTRUMENT=qTOF
FILENAME=CCMSLIB00000084795.ms
IONMODE=Positive
ORGANISM=Natural
NAME=MLS001195620-01!tolterodine
PI=GNPS
DATACOLLECTOR=GNPS
SMILES=CC(C)N(CC[C@H](c1ccccc1)c1cc(C)ccc1O)C(C)C
INCHI=InChI=1S/C22H31NO/c1-16(2)23(17(3)4)14-13-20(19-9-7-6-8-10-19)21-15-18(5)11-12-22(21)24/h6-12,15-17,20,24H,13-14H2,1-5H3/t20-/m1/s1
FORMULA=C22H31NO
PUBMED=N/A
SUBMITUSER=BIOADREM
LIBRARYQUALITY=0
SPECTRUMID=CCMSLIB00000084795
SCANS=2969
ID=CCMSLIB00000084795
91.0542261926 	 7.355
93.0698762568 	 1.63
103.0542261926 	 0.89
104.0620512247 	 0.865
105.0698762568 	 1.72
107.0491408147 	 1.645
115.0542261926 	 11.795
117.0698762568 	 22.605
119.085526321 	 31.675
121.0647908789 	 54.79
128.0620512247 	 1.455
129.0698762568 	 4.325
131.0491408147 	 1.375
131.085526321 	 1.35
132.0569658468 	 5.925
133.0647908789 	 0.575
133.1011763852 	 0.44
141.0698762568 	 5.98
145.0647908789 	 0.425
147.0804409431 	 68.245
152.0620512247 	 1.14
153.0698762568 	 3.34
154.0777012889 	 9.525
163.1117410715 	 0.66
165.0698762568 	 0.675
167.085526321 	 2.26
169.1011763852 	 10.775
178.0777012889 	 3.365
179.085526321 	 19.965
181.0647908789 	 7.715
182.072615911 	 40.635
195.0804409431 	 4.745
196.0882659752 	 0.55
197.0960910073 	 100
209.0960910073 	 0.455
223.1117410715 	 0.625
224.1195661036 	 0.485
225.1273911357 	 0.755
239.1430411999 	 1.355
268.1695903014 	 0.375
284.2008904298 	 56.93
326.2478406224 	 42.315
END IONS

BEGIN IONS
PEPMASS=837.5318
CHARGE=1
MSLEVEL=2
RT=0
SOURCE_INSTRUMENT=qTOF
FILENAME=CCMSLIB00000084796.ms
IONMODE=Positive
ORGANISM=Natural
NAME=MLS001304008-01!
PI=GNPS
DATACOLLECTOR=GNPS
SMILES=CC[C@@H]1[C@](C)([C@@H]([C@@H](C)C(=NOCOCCOC)[C@H](C)C[C@](C)([C@@H]([C@@H](C)[C@@H]([C@@H](C)C(=O)O1)O[C@H]1C[C@](C)([C@H]([C@H](C)O1)O)OC)O[C@H]1[C@@H]([C@H](C[C@@H](C)O1)N(C)C)O)O)O)O
INCHI=InChI=1S/C41H76N2O15/c1-15-29-41(10,49)34(45)24(4)31(42-53-21-52-17-16-50-13)22(2)19-39(8,48)36(58-38-32(44)28(43(11)12)18-23(3)54-38)25(5)33(26(6)37(47)56-29)57-30-20-40(9,51-14)35(46)27(7)55-30/h22-30,32-36,38,44-46,48-49H,15-21H2,1-14H3/t22-,23-,24+,25+,26-,27+,28+,29-,30+,32-,33+,34-,35+,36-,38+,39-,40-,41-/m1/s1
FORMULA=C41H76N2O15
PUBMED=N/A
SUBMITUSER=BIOADREM
LIBRARYQUALITY=0
SPECTRUMID=CCMSLIB00000084796
SCANS=2970
ID=CCMSLIB00000084796
98.0964253583 	 5.56
100.0756899162 	 0.78
113.059705501 	 3.55
114.0913399804 	 1.33
116.0706045383 	 13.74
116.1069900446 	 22.78
127.0753555652 	 2.45
142.1226401088 	 0.46
158.1175547309 	 100
380.243149175 	 1.34
398.2537138613 	 1.7
410.2537138613 	 0.46
416.2642785476 	 0.62
428.2642785476 	 0.35
446.2748432339 	 0.84
540.3530935549 	 0.49
558.3636582412 	 0.87
585.3745572785 	 0.35
603.3851219648 	 1.16
661.4269867795 	 0.94
679.4375514658 	 10.42
837.5318457815 	 0.36
END IONS

BEGIN IONS
PEPMASS=316.1757
CHARGE=1
MSLEVEL=2
RT=0
SOURCE_INSTRUMENT=qTOF
FILENAME=CCMSLIB00000084799.ms
IONMODE=Positive
ORGANISM=Natural
NAME=MLS002153819-01!Alizapride HCl59338-87-3
PI=GNPS
DATACOLLECTOR=GNPS
SMILES=C=CCN1CCCC1CN=C(c1cc2c(cc1OC)nn[nH]2)O
INCHI=InChI=1S/C16H21N5O2/c1-3-6-21-7-4-5-11(21)10-17-16(22)12-8-13-14(19-20-18-13)9-15(12)23-2/h3,8-9,11H,1,4-7,10H2,2H3,(H,17,22)(H,18,19,20)
FORMULA=C16H21N5O2
PUBMED=N/A
SUBMITUSER=BIOADREM
LIBRARYQUALITY=0
SPECTRUMID=CCMSLIB00000084799
SCANS=2971
ID=CCMSLIB00000084799
94.0651252299 	 0.53
96.0807752941 	 1.8
105.0209146915 	 1.55
106.0049302763 	 7.68
109.0886003262 	 0.63
110.0964253583 	 3.54
120.0443897878 	 3.13
122.0964253583 	 1.33
124.1120754225 	 60.84
133.0158293136 	 82.84
148.0393044099 	 100
165.0658535114 	 0.45
167.1178890819 	 1.09
176.0454524203 	 52.54
178.0485264255 	 0.83
193.0720015218 	 0.55
247.1189517144 	 1.01
274.1298507517 	 2.05
316.1768009443 	 11.36
END IONS

BEGIN IONS
PEPMASS=420.0969
CHARGE=1
MSLEVEL=2
RT=0
SOURCE_INSTRUMENT=qTOF
FILENAME=CCMSLIB00000084800.ms
IONMODE=Positive
ORGANISM=Natural
NAME=MLS002153852-01!Bromperidol10457-90-6
PI=GNPS
DATACOLLECTOR=GNPS
SMILES=C(CC(=O)c1ccc(cc1)F)CN1CCC(CC1)(c1ccc(cc1)Br)O
INCHI=InChI=1S/C21H23BrFNO2/c22-18-7-5-17(6-8-18)21(26)11-14-24(15-12-21)13-1-2-20(25)16-3-9-19(23)10-4-16/h3-10,26H,1-2,11-15H2
FORMULA=C21H23BrFNO2
PUBMED=N/A
SUBMITUSER=BIOADREM
LIBRARYQUALITY=0
SPECTRUMID=CCMSLIB00000084800
SCANS=2972
ID=CCMSLIB00000084800
95.0291542963 	 3.42
123.0240689184 	 100
135.0604544247 	 1.24
163.0553690468 	 1.27
165.071019111 	 89.54
194.0975682125 	 1.25
402.0863311014 	 2.68
420.0968957877 	 0
END IONS

BEGIN IONS
PEPMASS=512.4449
CHARGE=1
MSLEVEL=2
RT=0
SOURCE_INSTRUMENT=qTOF
FILENAME=CCMSLIB00000084801.ms
IONMODE=Positive
ORGANISM=Natural
NAME=MLS002154065-01!Thonzonium bromide553-08-2
PI=GNPS
DATACOLLECTOR=GNPS
SMILES=CCCCCCCCCCCCCCCC[N+](C)(C)CCN(Cc1ccc(cc1)OC)c1ncccn1
INCHI=InChI=1S/C32H55N4O/c1-5-6-7-8-9-10-11-12-13-14-15-16-17-18-27-36(2,3)28-26-35(32-33-24-19-25-34-32)29-30-20-22-31(37-4)23-21-30/h19-25H,5-18,26-29H2,1-4H3/q+1
FORMULA=C32H55N4O
PUBMED=N/A
SUBMITUSER=BIOADREM
LIBRARYQUALITY=0
SPECTRUMID=CCMSLIB00000084801
SCANS=2973
ID=CCMSLIB00000084801
91.0542261926 	 1.93
103.0542261926 	 0.53
105.0334907505 	 0.21
106.0413157826 	 1.39
107.047798144 	 0.44
120.0569658468 	 1.79
122.0712732403 	 47.63
136.0882659752 	 3.96
245.1396871565 	 0.33
512.4448634084 	 0.05
END IONS

BEGIN IONS
PEPMASS=327.2065
CHARGE=1
MSLEVEL=2
RT=0
SOURCE_INSTRUMENT=qTOF
FILENAME=CCMSLIB00000084802.ms
IONMODE=Positive
ORGANISM=Natural
NAME=MLS002207156-01!Hydroquinine522-66-7
PI=GNPS
DATACOLLECTOR=GNPS
SMILES=CC[C@H]1CN2CCC1C[C@@H]2[C@@H](c1ccnc2ccc(cc12)OC)O
INCHI=InChI=1S/C20H26N2O2/c1-3-13-12-22-9-7-14(13)10-19(22)20(23)16-6-8-21-18-5-4-15(24-2)11-17(16)18/h4-6,8,11,13-14,19-20,23H,3,7,9-10,12H2,1-2H3/t13-,14?,19+,20+/m0/s1
FORMULA=C20H26N2O2
PUBMED=N/A
SUBMITUSER=BIOADREM
LIBRARYQUALITY=0
SPECTRUMID=CCMSLIB00000084802
SCANS=2974
ID=CCMSLIB00000084802
110.0964253583 	 18.05
117.0573001978 	 7.75
126.1277254867 	 4.39
136.1120754225 	 7
138.1277254867 	 6.39
143.072950262 	 5.46
145.0522148199 	 8.44
154.0651252299 	 7.32
155.072950262 	 9.64
158.060039852 	 14.27
159.0678648841 	 5.06
160.0756899162 	 91.35
167.072950262 	 11.92
168.138290173 	 17.35
170.060039852 	 6.57
172.0756899162 	 45.49
173.0835149483 	 16.98
174.0913399804 	 19.46
183.0678648841 	 6.95
184.0756899162 	 24.94
186.0913399804 	 56.08
196.0756899162 	 8.41
198.0913399804 	 20.15
199.0865889535 	 8.89
210.0913399804 	 14.53
213.1022390177 	 6.44
225.1022390177 	 4.13
226.1226401088 	 9.21
227.1178890819 	 19
239.1178890819 	 4.68
251.1178890819 	 14.21
253.1335391461 	 15.25
280.1695903014 	 10.19
281.1648392745 	 18.5
299.2117894671 	 8.04
309.1961394029 	 100
327.2067040892 	 190.58
END IONS

BEGIN IONS
PEPMASS=233.0912
CHARGE=1
MSLEVEL=2
RT=0
SOURCE_INSTRUMENT=qTOF
FILENAME=CCMSLIB00000084804.ms
IONMODE=Positive
ORGANISM=Natural
NAME=MLS000028316-01!Dazoxiben
PI=GNPS
DATACOLLECTOR=GNPS
SMILES=c1cc(ccc1C(=O)O)OCCn1ccnc1
INCHI=InChI=1S/C12H12N2O3/c15-12(16)10-1-3-11(4-2-10)17-8-7-14-6-5-13-9-14/h1-6,9H,7-8H2,(H,15,16)
FORMULA=C12H12N2O3
PUBMED=N/A
SUBMITUSER=BIOADREM
LIBRARYQUALITY=0
SPECTRUMID=CCMSLIB00000084804
SCANS=2975
ID=CCMSLIB00000084804
91.0542261926 	 38.56
93.0334907505 	 7.84
95.060374203 	 89.81
96.0681992351 	 51.88
102.0464011605 	 11.29
103.0178406863 	 14.58
103.0542261926 	 45.61
109.0647908789 	 16.93
119.0491408147 	 38.4
121.0647908789 	 25.08
137.059705501 	 83.07
147.0440554368 	 18.03
165.0546201231 	 18.03
215.0815035756 	 83.23
233.0920682619 	 94.83
END IONS

BEGIN IONS
PEPMASS=268.1338
CHARGE=1
MSLEVEL=2
RT=0
SOURCE_INSTRUMENT=qTOF
FILENAME=CCMSLIB00000084806.ms
IONMODE=Positive
ORGANISM=Natural
NAME=MLS000069811-01!APOMORPHINE HYDROCHLORIDE HEMIHYDRATE
PI=GNPS
DATACOLLECTOR=GNPS
SMILES=CN1CCc2cccc3c2[C@H]1Cc1ccc(c(c31)O)O
INCHI=InChI=1S/C17H17NO2/c1-18-8-7-10-3-2-4-12-15(10)13(18)9-11-5-6-14(19)17(20)16(11)12/h2-6,13,19-20H,7-9H2,1H3/t13-/m1/s1
FORMULA=C17H17NO2
PUBMED=N/A
SUBMITUSER=BIOADREM
LIBRARYQUALITY=0
SPECTRUMID=CCMSLIB00000084806
SCANS=2976
ID=CCMSLIB00000084806
152.0620512247 	 0.455
153.0698762568 	 0.365
165.0698762568 	 3.245
176.0620512247 	 0.73
177.0698762568 	 0.45
178.0777012889 	 0.36
179.085526321 	 1.145
181.1011763852 	 0.15
189.0698762568 	 20.27
190.0777012889 	 36.225
191.085526321 	 100
201.0698762568 	 4.16
205.0647908789 	 0.855
207.0804409431 	 0.725
219.0804409431 	 32.85
237.0910056294 	 13.66
268.1332047951 	 0.095
END IONS

BEGIN IONS
PEPMASS=355.2025
CHARGE=1
MSLEVEL=2
RT=0
SOURCE_INSTRUMENT=qTOF
FILENAME=CCMSLIB00000084808.ms
IONMODE=Positive
ORGANISM=Natural
NAME=MLS001332623-01!Corynanthine hydrochloride123333-62-0
PI=GNPS
DATACOLLECTOR=GNPS
SMILES=COC(=O)[C@H]1[C@H]2C[C@H]3c4c(CCN3C[C@@H]2CC[C@@H]1O)c1ccccc1[nH]4
INCHI=InChI=1S/C21H26N2O3/c1-26-21(25)19-15-10-17-20-14(13-4-2-3-5-16(13)22-20)8-9-23(17)11-12(15)6-7-18(19)24/h2-5,12,15,17-19,22,24H,6-11H2,1H3/t12-,15-,17-,18-,19-/m0/s1
FORMULA=C21H26N2O3
PUBMED=N/A
SUBMITUSER=BIOADREM
LIBRARYQUALITY=0
SPECTRUMID=CCMSLIB00000084808
SCANS=2977
ID=CCMSLIB00000084808
94.0651252299 	 0.36
103.0542261926 	 0.955
105.0698762568 	 0.89
115.0542261926 	 3.195
117.0698762568 	 6.91
127.0542261926 	 1.24
129.0698762568 	 0.475
130.0651252299 	 3.39
132.0807752941 	 1.03
134.0964253583 	 2.935
138.0913399804 	 0.325
142.0651252299 	 0.45
143.072950262 	 7.565
144.0807752941 	 100
152.1069900446 	 1.175
156.0807752941 	 0.905
158.0964253583 	 1.43
162.0913399804 	 4.79
163.0753555652 	 0.32
168.0807752941 	 0.935
169.0859202515 	 0.385
170.0964253583 	 0.405
177.0910056294 	 0.385
180.1019046667 	 5.225
181.0886003262 	 0.295
182.0964253583 	 0.975
192.1019046667 	 0.935
194.1175547309 	 1.58
196.1120754225 	 0.605
205.0886003262 	 0.295
206.0964253583 	 0.35
208.1120754225 	 0.975
212.1281194172 	 25.6
218.0964253583 	 0.34
219.1042503904 	 0.745
220.1120754225 	 1.21
221.1172203799 	 0.335
231.1042503904 	 0.67
234.1277254867 	 1.105
246.1277254867 	 0.835
248.1433755509 	 1.32
260.1433755509 	 1.205
276.138290173 	 0.62
280.1332047951 	 0.43
294.1488548593 	 0.49
306.1488548593 	 0.425
308.1645049235 	 0.81
312.1594195456 	 0.3
320.1645049235 	 0.345
326.1750696098 	 1.155
337.191054025 	 0.29
338.1750696098 	 1.78
355.2016187113 	 23.34
END IONS

BEGIN IONS
PEPMASS=304.0554
CHARGE=1
MSLEVEL=2
RT=0
SOURCE_INSTRUMENT=qTOF
FILENAME=CCMSLIB00000084809.ms
IONMODE=Positive
ORGANISM=Natural
NAME=MLS002153161-01!Iofetamine hydrochloride116316-03-1
PI=GNPS
DATACOLLECTOR=GNPS
SMILES=CC(C)NC(C)Cc1ccc(cc1)I
INCHI=InChI=1S/C12H18IN/c1-9(2)14-10(3)8-11-4-6-12(13)7-5-11/h4-7,9-10,14H,8H2,1-3H3
FORMULA=C12H18IN
PUBMED=N/A
SUBMITUSER=BIOADREM
LIBRARYQUALITY=0
SPECTRUMID=CCMSLIB00000084809
SCANS=2978
ID=CCMSLIB00000084809
89.0385761284 	 0.85
90.0464011605 	 1.15
90.0464011605 	 0.9
91.0542261926 	 38.64
117.0698762568 	 17.27
118.0777012889 	 100
118.0777012889 	 9.33
177.151200583 	 1.3
END IONS

BEGIN IONS
PEPMASS=480.2965
CHARGE=1
MSLEVEL=2
RT=0
SOURCE_INSTRUMENT=qTOF
FILENAME=CCMSLIB00000084810.ms
IONMODE=Positive
ORGANISM=Natural
NAME=MLS002153941-01!Delcorine52358-55-1
PI=GNPS
DATACOLLECTOR=GNPS
SMILES=CCN1C[C@@]2(CC[C@@H]([C@@]34[C@@H]5C[C@@H]6[C@H](C[C@@]7([C@H]5[C@H]6OC)[C@@]([C@H]([C@H]23)O)(C14)OCO7)OC)OC)COC
INCHI=InChI=1S/C26H41NO7/c1-6-27-11-23(12-29-2)8-7-17(31-4)25-15-9-14-16(30-3)10-24(18(15)19(14)32-5)26(22(25)27,34-13-33-24)21(28)20(23)25/h14-22,28H,6-13H2,1-5H3/t14-,15-,16+,17+,18-,19+,20-,21+,22?,23+,24-,25+,26-/m1/s1
FORMULA=C26H41NO7
PUBMED=N/A
SUBMITUSER=BIOADREM
LIBRARYQUALITY=0
SPECTRUMID=CCMSLIB00000084810
SCANS=2979
ID=CCMSLIB00000084810
108.0807752941 	 8.86
122.0964253583 	 5.3
143.085526321 	 3.48
154.1226401088 	 4.53
155.085526321 	 5.77
167.085526321 	 5.31
179.085526321 	 4.08
181.1011763852 	 5.3
185.0960910073 	 3.94
192.0933513531 	 4.1
193.1011763852 	 5.53
195.1168264494 	 3.78
202.1226401088 	 3.41
204.138290173 	 7.98
205.1011763852 	 5.62
207.1168264494 	 3.79
209.1324765136 	 3.57
216.138290173 	 5.84
219.1168264494 	 4.72
221.1324765136 	 6.42
223.1117410715 	 4.06
235.1117410715 	 3.97
237.1273911357 	 7.38
249.1273911357 	 4.91
260.1645049235 	 4.74
294.1852403656 	 4.99
297.1485205083 	 3.76
310.1801549877 	 3.49
312.1958050519 	 3.85
326.2114551161 	 12.08
336.1958050519 	 3.66
340.2271051803 	 4.16
354.2063697382 	 17.88
356.2220198024 	 5.43
358.2376698666 	 14.57
368.2220198024 	 9.53
372.2533199308 	 6.36
386.2325844887 	 48.07
390.2638846171 	 9.11
400.2482345529 	 21.75
401.256059585 	 9
418.2587992392 	 65.4
419.2666242713 	 24.89
420.2744493034 	 4.3
430.2587992392 	 5.4
448.2693639255 	 100
449.2771889576 	 31.31
480.295578676 	 373.39
END IONS

BEGIN IONS
PEPMASS=343.0529
CHARGE=1
MSLEVEL=2
RT=0
SOURCE_INSTRUMENT=qTOF
FILENAME=CCMSLIB00000084811.ms
IONMODE=Positive
ORGANISM=Natural
NAME=MLS002207244-01!Thiophanate M23564-05-8
PI=GNPS
DATACOLLECTOR=GNPS
SMILES=COC(=NC(=Nc1ccccc1N=C(N=C(O)OC)S)S)O
INCHI=InChI=1S/C12H14N4O4S2/c1-19-11(17)15-9(21)13-7-5-3-4-6-8(7)14-10(22)16-12(18)20-2/h3-6H,1-2H3,(H2,13,15,17,21)(H2,14,16,18,22)
FORMULA=C12H14N4O4S2
PUBMED=N/A
SUBMITUSER=BIOADREM
LIBRARYQUALITY=0
SPECTRUMID=CCMSLIB00000084811
SCANS=2980
ID=CCMSLIB00000084811
52.0181750373 	 1.29
92.0494751657 	 1.72
93.0573001978 	 3.34
101.0260000694 	 1.43
106.0525491709 	 1.19
109.0760242672 	 4.85
117.9957250357 	 1.89
118.0498690962 	 3.27
122.9899113763 	 1.19
124.0215458557 	 1.34
149.0167948288 	 8.26
150.0219397862 	 2.17
151.032444893 	 100
160.0505377982 	 13.78
163.0740128945 	 1.19
175.0171887593 	 1.77
177.0117094509 	 2.44
192.0767525487 	 3.03
219.0335075255 	 2.84
235.9919991035 	 1.53
343.0529223386 	 0
END IONS

BEGIN IONS
PEPMASS=381.1252
CHARGE=1
MSLEVEL=2
RT=0
SOURCE_INSTRUMENT=qTOF
FILENAME=CCMSLIB00000084812.ms
IONMODE=Positive
ORGANISM=Natural
NAME=MLS000028625-01!569-57-3
PI=GNPS
DATACOLLECTOR=GNPS
SMILES=COc1ccc(cc1)C(=C(c1ccc(cc1)OC)Cl)c1ccc(cc1)OC
INCHI=InChI=1S/C23H21ClO3/c1-25-19-10-4-16(5-11-19)22(17-6-12-20(26-2)13-7-17)23(24)18-8-14-21(27-3)15-9-18/h4-15H,1-3H3
FORMULA=C23H21ClO3
PUBMED=N/A
SUBMITUSER=BIOADREM
LIBRARYQUALITY=0
SPECTRUMID=CCMSLIB00000084812
SCANS=2981
ID=CCMSLIB00000084812
216.0933513531 	 13.67
224.0831805973 	 12.24
239.1066556936 	 23.05
256.0882659752 	 19.87
269.0960910073 	 15.74
270.1039160394 	 16.38
271.1117410715 	 44.99
272.0831805973 	 13.04
272.1195661036 	 25.44
281.0960910073 	 12.56
282.1039160394 	 19.08
283.1117410715 	 19.24
284.0831805973 	 13.99
288.1144807257 	 16.06
298.0988306615 	 29.41
299.1066556936 	 54.05
300.1144807257 	 12.24
314.0937452836 	 12.08
314.1301307899 	 49.92
329.1172203799 	 12.08
330.125045412 	 84.26
331.1328704441 	 59.78
345.1485205083 	 82.03
346.1563455404 	 48.49
381.1251982504 	 4.61
END IONS

BEGIN IONS
PEPMASS=271.1693
CHARGE=1
MSLEVEL=2
RT=0
SOURCE_INSTRUMENT=qTOF
FILENAME=CCMSLIB00000084817.ms
IONMODE=Positive
ORGANISM=Natural
NAME=MLS001077340-01!53-16-7
PI=GNPS
DATACOLLECTOR=GNPS
SMILES=C[C@]12CC[C@@H]3c4ccc(cc4CC[C@H]3[C@@H]1CCC2=O)O
INCHI=InChI=1S/C18H22O2/c1-18-9-8-14-13-5-3-12(19)10-11(13)2-4-15(14)16(18)6-7-17(18)20/h3,5,10,14-16,19H,2,4,6-9H2,1H3/t14-,15-,16+,18+/m1/s1
FORMULA=C18H22O2
PUBMED=N/A
SUBMITUSER=BIOADREM
LIBRARYQUALITY=0
SPECTRUMID=CCMSLIB00000084817
SCANS=2986
ID=CCMSLIB00000084817
105.0698762568 	 22.57
107.0491408147 	 9.81
115.0542261926 	 8.86
116.0620512247 	 8.19
117.0698762568 	 8.29
129.0698762568 	 11.43
131.085526321 	 24.38
133.0647908789 	 75.33
141.0698762568 	 26.38
142.0777012889 	 7.52
144.0569658468 	 50.29
145.0647908789 	 32.95
157.0647908789 	 81.62
159.0804409431 	 100
165.0698762568 	 10.76
171.0804409431 	 8.76
172.0882659752 	 10.29
179.085526321 	 15.52
181.0647908789 	 16.57
183.0804409431 	 17.05
185.0960910073 	 9.81
196.0882659752 	 9.14
197.0960910073 	 29.14
198.1039160394 	 11.71
211.1117410715 	 15.81
213.1273911357 	 13.62
271.1692559504 	 0
END IONS

BEGIN IONS
PEPMASS=415.1465
CHARGE=1
MSLEVEL=2
RT=0
SOURCE_INSTRUMENT=qTOF
FILENAME=CCMSLIB00000084819.ms
IONMODE=Positive
ORGANISM=Natural
NAME=MLS001148177-01!
PI=GNPS
DATACOLLECTOR=GNPS
SMILES=C1CCNC(C1)CN=C(c1cc(ccc1OCC(F)(F)F)OCC(F)(F)F)O
INCHI=InChI=1S/C17H20F6N2O3/c18-16(19,20)9-27-12-4-5-14(28-10-17(21,22)23)13(7-12)15(26)25-8-11-3-1-2-6-24-11/h4-5,7,11,24H,1-3,6,8-10H2,(H,25,26)
FORMULA=C17H20F6N2O3
PUBMED=N/A
SUBMITUSER=BIOADREM
LIBRARYQUALITY=0
SPECTRUMID=CCMSLIB00000084819
SCANS=2987
ID=CCMSLIB00000084819
107.0127553084 	 0.28
135.0076699305 	 2.13
181.0271035505 	 0.39
189.0546201231 	 1.29
190.0236149726 	 1.15
204.1019046667 	 0.34
209.0220181726 	 11.32
218.0185295947 	 11.92
225.0333317826 	 2.71
232.0968192888 	 17.15
237.0169327947 	 9.47
253.0282464047 	 5.72
281.0231610268 	 5.28
298.1024946225 	 2.14
301.0293892589 	 100
303.0324632641 	 1.01
315.107678953 	 4.26
316.1130593088 	 0.79
318.0559383604 	 1.39
398.1185386172 	 70.3
400.1216126224 	 1.57
415.1450877187 	 12.83
END IONS

BEGIN IONS
PEPMASS=361.2248
CHARGE=1
MSLEVEL=2
RT=0
SOURCE_INSTRUMENT=qTOF
FILENAME=CCMSLIB00000084820.ms
IONMODE=Positive
ORGANISM=Natural
NAME=MLS002153372-01!(-)-SCOPOLAMINE N-BUTYL BROMIDE
PI=GNPS
DATACOLLECTOR=GNPS
SMILES=CCCC[N+]1(C)[C@@H]2C[C@H](C[C@H]1[C@H]1[C@@H]2O1)OC(=O)[C@H](CO)c1ccccc1
INCHI=InChI=1S/C21H30NO4/c1-3-4-10-22(2)17-11-15(12-18(22)20-19(17)26-20)25-21(24)16(13-23)14-8-6-5-7-9-14/h5-9,15-20,23H,3-4,10-13H2,1-2H3/q+1/t15-,16-,17-,18+,19-,20+,22?/m1/s1
FORMULA=C21H30NO4
PUBMED=N/A
SUBMITUSER=BIOADREM
LIBRARYQUALITY=0
SPECTRUMID=CCMSLIB00000084820
SCANS=2988
ID=CCMSLIB00000084820
91.0542261926 	 2.78
93.0573001978 	 1.26
93.0698762568 	 0.92
94.0651252299 	 5.49
96.0443897878 	 1.55
96.0807752941 	 3.9
97.0522148199 	 2.47
98.060039852 	 18.96
103.0542261926 	 76.38
106.0651252299 	 0.9
107.0491408147 	 2.24
107.072950262 	 1.77
108.0807752941 	 3.18
109.0886003262 	 0.95
110.0964253583 	 28.14
120.0807752941 	 8.59
121.0647908789 	 61.84
122.0964253583 	 11.35
123.0678648841 	 1.44
124.1120754225 	 1.54
126.1277254867 	 1.43
136.0756899162 	 0.81
136.1120754225 	 1.45
138.0913399804 	 100
140.1069900446 	 5.15
154.1226401088 	 5.58
156.1019046667 	 59.54
194.1539402372 	 75.42
212.1645049235 	 14
214.1716016741 	 0.77
288.1594195456 	 4.07
304.1543341677 	 7.53
360.2169344245 	 82.72
361.2247594566 	 10.88
END IONS

BEGIN IONS
PEPMASS=236.074
CHARGE=1
MSLEVEL=2
RT=0
SOURCE_INSTRUMENT=qTOF
FILENAME=CCMSLIB00000084821.ms
IONMODE=Positive
ORGANISM=Natural
NAME=MLS000059188-01!2-methyl-N-phenyl-5,6-dihydro-1,4-oxathiine-3-carboxamide5234-68-4
PI=GNPS
DATACOLLECTOR=GNPS
SMILES=CC1=C(C(=Nc2ccccc2)O)SCCO1
INCHI=InChI=1S/C12H13NO2S/c1-9-11(16-8-7-15-9)12(14)13-10-5-3-2-4-6-10/h2-6H,7-8H2,1H3,(H,13,14)
FORMULA=C12H13NO2S
PUBMED=N/A
SUBMITUSER=BIOADREM
LIBRARYQUALITY=0
SPECTRUMID=CCMSLIB00000084821
SCANS=2989
ID=CCMSLIB00000084821
82.0083010947 	 3.55
93.0573001978 	 20.93
94.0651252299 	 6.23
97.0106468184 	 3.11
104.0494751657 	 3.19
116.0164604778 	 4.06
121.0522148199 	 2.9
124.0215458557 	 11.59
125.0260000694 	 5
128.0494751657 	 2.9
132.0443897878 	 16.29
140.0494751657 	 2.97
143.0161261268 	 100
145.0106468184 	 3.19
166.032110542 	 2.82
236.0739753567 	 0
END IONS

BEGIN IONS
PEPMASS=299.2006
CHARGE=1
MSLEVEL=2
RT=0
SOURCE_INSTRUMENT=qTOF
FILENAME=CCMSLIB00000084822.ms
IONMODE=Positive
ORGANISM=Natural
NAME=MLS000069824-01!NORETHYNODREL
PI=GNPS
DATACOLLECTOR=GNPS
SMILES=C#C[C@@]1(CC[C@H]2[C@@H]3CCC4=C(CCC(=O)C4)[C@H]3CC[C@]12C)O
INCHI=InChI=1S/C20H26O2/c1-3-20(22)11-9-18-17-6-4-13-12-14(21)5-7-15(13)16(17)8-10-19(18,20)2/h1,16-18,22H,4-12H2,2H3/t16-,17-,18+,19+,20+/m1/s1
FORMULA=C20H26O2
PUBMED=N/A
SUBMITUSER=BIOADREM
LIBRARYQUALITY=0
SPECTRUMID=CCMSLIB00000084822
SCANS=2990
ID=CCMSLIB00000084822
103.0542261926 	 25.61
105.0698762568 	 100
116.0620512247 	 30.1
117.0698762568 	 71.97
119.085526321 	 50.87
121.1011763852 	 20.07
127.0542261926 	 30.1
128.0620512247 	 78.89
129.0698762568 	 76.47
130.0777012889 	 45.33
131.085526321 	 33.22
133.1011763852 	 26.3
142.0777012889 	 25.95
143.085526321 	 64.71
147.1168264494 	 31.49
153.0698762568 	 26.99
154.0777012889 	 24.91
155.085526321 	 56.4
157.1011763852 	 79.24
167.085526321 	 21.8
169.1011763852 	 47.4
171.1168264494 	 45.67
179.085526321 	 47.4
181.1011763852 	 25.26
183.1168264494 	 52.94
193.1011763852 	 24.57
205.1011763852 	 22.49
213.163776642 	 64.71
221.1324765136 	 29.76
299.2005560788 	 0
END IONS

BEGIN IONS
PEPMASS=222.1287
CHARGE=1
MSLEVEL=2
RT=0
SOURCE_INSTRUMENT=qTOF
FILENAME=CCMSLIB00000084823.ms
IONMODE=Positive
ORGANISM=Natural
NAME=MLS000860084-01!(+)-MK-801 hydrogen maleate
PI=GNPS
DATACOLLECTOR=GNPS
SMILES=C[C@]12c3ccccc3C[C@H](c3ccccc13)N2
INCHI=InChI=1S/C16H15N/c1-16-13-8-4-2-6-11(13)10-15(17-16)12-7-3-5-9-14(12)16/h2-9,15,17H,10H2,1H3/t15-,16+/m1/s1
FORMULA=C16H15N
PUBMED=N/A
SUBMITUSER=BIOADREM
LIBRARYQUALITY=0
SPECTRUMID=CCMSLIB00000084823
SCANS=2991
ID=CCMSLIB00000084823
101.0385761284 	 0.165
102.0464011605 	 0.125
103.0542261926 	 3.53
115.0542261926 	 0.525
126.0464011605 	 1.515
127.0542261926 	 8.98
128.0620512247 	 5.44
130.0651252299 	 2.12
136.0307510963 	 0.16
151.0542261926 	 0.765
152.0620512247 	 0.555
153.0698762568 	 0.28
163.0542261926 	 0.16
165.0698762568 	 15.23
175.0542261926 	 0.125
176.0620512247 	 2.385
177.0698762568 	 2.8
178.0777012889 	 34.41
189.0698762568 	 22.875
190.0777012889 	 32.135
193.1011763852 	 0.8
202.0777012889 	 11.15
203.085526321 	 54.155
204.0933513531 	 48.315
205.1011763852 	 100
207.1042503904 	 2.535
222.1277254867 	 2.56
END IONS

BEGIN IONS
PEPMASS=332.0796
CHARGE=1
MSLEVEL=2
RT=0
SOURCE_INSTRUMENT=qTOF
FILENAME=CCMSLIB00000084824.ms
IONMODE=Positive
ORGANISM=Natural
NAME=MLS000862188-01!SC 19220
PI=GNPS
DATACOLLECTOR=GNPS
SMILES=CC(=NN=C(N1Cc2ccccc2Oc2ccc(cc12)Cl)O)O
INCHI=InChI=1S/C16H14ClN3O3/c1-10(21)18-19-16(22)20-9-11-4-2-3-5-14(11)23-15-7-6-12(17)8-13(15)20/h2-8H,9H2,1H3,(H,18,21)(H,19,22)
FORMULA=C16H14ClN3O3
PUBMED=N/A
SUBMITUSER=BIOADREM
LIBRARYQUALITY=0
SPECTRUMID=CCMSLIB00000084824
SCANS=2992
ID=CCMSLIB00000084824
138.0100156542 	 4.19
151.0542261926 	 4.01
166.0049302763 	 15.01
166.0611024845 	 10.27
167.072950262 	 12.57
168.0807752941 	 5.99
169.0886003262 	 7.21
177.0573001978 	 8.02
178.0651252299 	 6.62
179.072950262 	 29.25
180.0767525487 	 6.35
181.0647908789 	 12.75
187.0309039347 	 5.54
195.0678648841 	 10.68
196.0756899162 	 96.21
197.0835149483 	 100
198.087317235 	 15.91
212.0261529078 	 5.9
214.041802972 	 73.91
215.0456052587 	 13.79
222.0549544741 	 69.58
223.0627795062 	 37.67
230.0367175941 	 19.24
232.0523676583 	 89.18
233.056169945 	 9.06
258.0316322162 	 15.73
332.0796450413 	 0
END IONS

BEGIN IONS
PEPMASS=345.2424
CHARGE=1
MSLEVEL=2
RT=0
SOURCE_INSTRUMENT=qTOF
FILENAME=CCMSLIB00000084826.ms
IONMODE=Positive
ORGANISM=Natural
NAME=MLS001076098-01!
PI=GNPS
DATACOLLECTOR=GNPS
SMILES=C[C@H]1C[C@@H]2[C@H](CC[C@@]3(C)[C@H]2CC[C@@]3(C(=O)C)O)[C@@]2(C)CCC(=O)C=C12
INCHI=InChI=1S/C22H32O3/c1-13-11-16-17(20(3)8-5-15(24)12-19(13)20)6-9-21(4)18(16)7-10-22(21,25)14(2)23/h12-13,16-18,25H,5-11H2,1-4H3/t13-,16+,17-,18-,20+,21-,22-/m0/s1
FORMULA=C22H32O3
PUBMED=N/A
SUBMITUSER=BIOADREM
LIBRARYQUALITY=0
SPECTRUMID=CCMSLIB00000084826
SCANS=2994
ID=CCMSLIB00000084826
93.0698762568 	 3.46
95.085526321 	 4.15
97.0647908789 	 26.89
105.0698762568 	 10.72
107.085526321 	 5.63
108.0569658468 	 2.95
109.0647908789 	 3.69
109.1011763852 	 2.56
119.085526321 	 8.18
123.0804409431 	 100
131.085526321 	 3.84
133.1011763852 	 7.91
135.0804409431 	 4.27
135.1168264494 	 4
137.0960910073 	 14.21
141.0698762568 	 2.56
142.0777012889 	 2.66
143.085526321 	 4.13
145.1011763852 	 7.47
147.1168264494 	 6.58
157.1011763852 	 3.86
159.1168264494 	 8.58
161.0960910073 	 3.98
161.1324765136 	 4.57
163.1117410715 	 3.1
171.1168264494 	 6.26
173.1324765136 	 9.44
175.1117410715 	 3.86
185.1324765136 	 4.65
187.1481265778 	 3.22
189.1273911357 	 3.59
191.1430411999 	 4.43
197.1324765136 	 4.18
211.1481265778 	 5.4
213.1273911357 	 2.82
213.163776642 	 4.72
215.1430411999 	 8.13
257.1536058862 	 5.21
267.2107268346 	 7.47
269.1899913925 	 4.03
275.1641705725 	 2.8
285.2212915209 	 3.74
309.2212915209 	 3.03
327.2318562072 	 4.05
345.2424208935 	 3.81
END IONS

BEGIN IONS
PEPMASS=255.1016
CHARGE=1
MSLEVEL=2
RT=0
SOURCE_INSTRUMENT=qTOF
FILENAME=CCMSLIB00000084829.ms
IONMODE=Positive
ORGANISM=Natural
NAME=MLS001074090-01!FENBUFEN
PI=GNPS
DATACOLLECTOR=GNPS
SMILES=c1ccc(cc1)c1ccc(cc1)C(=O)CCC(=O)O
INCHI=InChI=1S/C16H14O3/c17-15(10-11-16(18)19)14-8-6-13(7-9-14)12-4-2-1-3-5-12/h1-9H,10-11H2,(H,18,19)
FORMULA=C16H14O3
PUBMED=N/A
SUBMITUSER=BIOADREM
LIBRARYQUALITY=0
SPECTRUMID=CCMSLIB00000084829
SCANS=2996
ID=CCMSLIB00000084829
151.0542261926 	 1.78
152.0620512247 	 48.98
153.0698762568 	 62.36
165.0698762568 	 12.63
166.0777012889 	 10.65
167.085526321 	 3.49
176.0620512247 	 1.46
181.0647908789 	 100
191.085526321 	 20.18
192.0933513531 	 2.25
209.0960910073 	 8.79
237.0910056294 	 3.81
255.1015703157 	 0
END IONS

BEGIN IONS
PEPMASS=292.1903
CHARGE=1
MSLEVEL=2
RT=0
SOURCE_INSTRUMENT=qTOF
FILENAME=CCMSLIB00000084831.ms
IONMODE=Positive
ORGANISM=Natural
NAME=MLS002222297-01!
PI=GNPS
DATACOLLECTOR=GNPS
SMILES=CC1CC(CC(C)(C)N1C)OC(=O)C(c1ccccc1)O
INCHI=InChI=1S/C17H25NO3/c1-12-10-14(11-17(2,3)18(12)4)21-16(20)15(19)13-8-6-5-7-9-13/h5-9,12,14-15,19H,10-11H2,1-4H3
FORMULA=C17H25NO3
PUBMED=N/A
SUBMITUSER=BIOADREM
LIBRARYQUALITY=0
SPECTRUMID=CCMSLIB00000084831
SCANS=2998
ID=CCMSLIB00000084831
96.0807752941 	 5.73
99.0440554368 	 5.73
107.0491408147 	 28.52
109.1011763852 	 100
123.1168264494 	 19.21
125.1199004546 	 5.73
127.0389700589 	 5.85
127.1117410715 	 5.73
148.1120754225 	 11.46
246.1852403656 	 15.51
292.190719674 	 74.82
END IONS

BEGIN IONS
PEPMASS=393.2999
CHARGE=1
MSLEVEL=2
RT=0
SOURCE_INSTRUMENT=qTOF
FILENAME=CCMSLIB00000084832.ms
IONMODE=Positive
ORGANISM=Natural
NAME=MLS000028461-01!URSODEOXYCHOLIC ACID
PI=GNPS
DATACOLLECTOR=GNPS
SMILES=C[C@H](CCC(=O)O)[C@H]1CC[C@H]2[C@H]3[C@H](CC[C@]12C)[C@@]1(C)CC[C@H](C[C@H]1C[C@@H]3O)O
INCHI=InChI=1S/C24H40O4/c1-14(4-7-21(27)28)17-5-6-18-22-19(9-11-24(17,18)3)23(2)10-8-16(25)12-15(23)13-20(22)26/h14-20,22,25-26H,4-13H2,1-3H3,(H,27,28)/t14-,15+,16-,17-,18+,19+,20+,22+,23+,24-/m1/s1
FORMULA=C24H40O4
PUBMED=N/A
SUBMITUSER=BIOADREM
LIBRARYQUALITY=0
SPECTRUMID=CCMSLIB00000084832
SCANS=2999
ID=CCMSLIB00000084832
93.0334907505 	 1.67
121.0284053726 	 8.75
149.0233199947 	 100
167.033884681 	 1.25
393.2999357724 	 2.33
END IONS

BEGIN IONS
PEPMASS=437.2963
CHARGE=1
MSLEVEL=2
RT=0
SOURCE_INSTRUMENT=qTOF
FILENAME=CCMSLIB00000084834.ms
IONMODE=Positive
ORGANISM=Natural
NAME=MLS002153299-01!N,N-Dihexyl-2-(4-fluorophenyl)indole-3-acetamide142720-24-9
PI=GNPS
DATACOLLECTOR=GNPS
SMILES=CCCCCCN(CCCCCC)C(=O)Cc1c2ccccc2[nH]c1c1ccc(cc1)F
INCHI=InChI=1S/C28H37FN2O/c1-3-5-7-11-19-31(20-12-8-6-4-2)27(32)21-25-24-13-9-10-14-26(24)30-28(25)22-15-17-23(29)18-16-22/h9-10,13-18,30H,3-8,11-12,19-21H2,1-2H3
FORMULA=C28H37FN2O
PUBMED=N/A
SUBMITUSER=BIOADREM
LIBRARYQUALITY=0
SPECTRUMID=CCMSLIB00000084834
SCANS=3001
ID=CCMSLIB00000084834
102.1277254867 	 0.63
176.0620512247 	 0.28
177.0698762568 	 2.48
184.2059758077 	 0.98
186.2216258719 	 36.24
196.0682794568 	 7.63
197.0761044889 	 23.27
199.0791784941 	 0.21
204.0807752941 	 5.35
209.0635284299 	 0.48
211.0791784941 	 0.64
222.071353462 	 2.73
223.0791784941 	 5.75
224.0870035262 	 100
437.2962680202 	 1.13
END IONS

BEGIN IONS
PEPMASS=400.1886
CHARGE=1
MSLEVEL=2
RT=0
SOURCE_INSTRUMENT=qTOF
FILENAME=CCMSLIB00000084836.ms
IONMODE=Positive
ORGANISM=Natural
NAME=MLS002154140-01!Thiethylperazine malate52239-63-1
PI=GNPS
DATACOLLECTOR=GNPS
SMILES=CCSc1ccc2c(c1)N(CCCN1CCN(C)CC1)c1ccccc1S2
INCHI=InChI=1S/C22H29N3S2/c1-3-26-18-9-10-22-20(17-18)25(19-7-4-5-8-21(19)27-22)12-6-11-24-15-13-23(2)14-16-24/h4-5,7-10,17H,3,6,11-16H2,1-2H3
FORMULA=C22H29N3S2
PUBMED=N/A
SUBMITUSER=BIOADREM
LIBRARYQUALITY=0
SPECTRUMID=CCMSLIB00000084836
SCANS=3002
ID=CCMSLIB00000084836
98.0838492993 	 5
111.0916743314 	 0.6
113.1073243956 	 82.72
126.1151494277 	 0.76
141.138624524 	 100
186.0371959199 	 0.9
198.0371959199 	 1.39
199.045020952 	 1.98
210.0371959199 	 2.32
211.045020952 	 13
212.0528459841 	 4.07
224.0528459841 	 2.07
226.0684960483 	 0.53
230.0092666099 	 3.49
238.0684960483 	 5.42
239.0763210804 	 31.13
240.0841461125 	 20.26
242.0092666099 	 0.73
243.017091642 	 8.52
244.0249166741 	 4.07
259.0483917704 	 10.24
266.0997961767 	 1.1
271.0483917704 	 1.47
272.0562168025 	 29.21
300.0875169309 	 4.53
400.1875653265 	 11.99
END IONS

BEGIN IONS
PEPMASS=302.1751
CHARGE=1
MSLEVEL=2
RT=0
SOURCE_INSTRUMENT=qTOF
FILENAME=CCMSLIB00000084837.ms
IONMODE=Positive
ORGANISM=Natural
NAME=MLS000860012-01!
PI=GNPS
DATACOLLECTOR=GNPS
SMILES=CC(CCc1ccc(cc1)O)NCCc1ccc(c(c1)O)O
INCHI=InChI=1S/C18H23NO3/c1-13(2-3-14-4-7-16(20)8-5-14)19-11-10-15-6-9-17(21)18(22)12-15/h4-9,12-13,19-22H,2-3,10-11H2,1H3
FORMULA=C18H23NO3
PUBMED=N/A
SUBMITUSER=BIOADREM
LIBRARYQUALITY=0
SPECTRUMID=CCMSLIB00000084837
SCANS=3003
ID=CCMSLIB00000084837
91.0542261926 	 6.22
107.0491408147 	 100
109.0647908789 	 2.68
119.0491408147 	 25.13
137.059705501 	 71.04
302.1750696098 	 3.34
END IONS

BEGIN IONS
PEPMASS=323.139
CHARGE=1
MSLEVEL=2
RT=0
SOURCE_INSTRUMENT=qTOF
FILENAME=CCMSLIB00000084839.ms
IONMODE=Positive
ORGANISM=Natural
NAME=MLS001076316-01!TYRPHOSTIN AG 555
PI=GNPS
DATACOLLECTOR=GNPS
SMILES=c1ccc(cc1)CCCN=C(/C(=C/c1ccc(c(c1)O)O)/C#N)O
INCHI=InChI=1S/C19H18N2O3/c20-13-16(11-15-8-9-17(22)18(23)12-15)19(24)21-10-4-7-14-5-2-1-3-6-14/h1-3,5-6,8-9,11-12,22-23H,4,7,10H2,(H,21,24)/b16-11+
FORMULA=C19H18N2O3
PUBMED=N/A
SUBMITUSER=BIOADREM
LIBRARYQUALITY=0
SPECTRUMID=CCMSLIB00000084839
SCANS=3005
ID=CCMSLIB00000084839
91.0542261926 	 26.97
104.0494751657 	 24.34
105.0334907505 	 4.15
105.0573001978 	 3.28
111.0440554368 	 3.88
114.0338251015 	 66.48
132.0443897878 	 42.63
133.0284053726 	 51.58
138.0549544741 	 4.15
142.0287397236 	 55.73
160.0393044099 	 48.85
161.0233199947 	 22.71
163.0627795062 	 4.37
170.0236543457 	 61.84
188.034219032 	 100
323.1390184545 	 0
END IONS

BEGIN IONS
PEPMASS=287.164
CHARGE=1
MSLEVEL=2
RT=0
SOURCE_INSTRUMENT=qTOF
FILENAME=CCMSLIB00000084840.ms
IONMODE=Positive
ORGANISM=Natural
NAME=MLS001076506-01!6-KETOESTRADIOL
PI=GNPS
DATACOLLECTOR=GNPS
SMILES=C[C@]12CC[C@@H]3c4ccc(cc4C(=O)C[C@H]3[C@@H]1CC[C@@H]2O)O
INCHI=InChI=1S/C18H22O3/c1-18-7-6-12-11-3-2-10(19)8-14(11)16(20)9-13(12)15(18)4-5-17(18)21/h2-3,8,12-13,15,17,19,21H,4-7,9H2,1H3/t12-,13-,15+,17+,18+/m1/s1
FORMULA=C18H22O3
PUBMED=N/A
SUBMITUSER=BIOADREM
LIBRARYQUALITY=0
SPECTRUMID=CCMSLIB00000084840
SCANS=3006
ID=CCMSLIB00000084840
105.0698762568 	 11.59
107.0491408147 	 42
109.0647908789 	 7.18
115.0542261926 	 6.82
119.0491408147 	 4.41
121.0284053726 	 16.18
121.0647908789 	 11.35
127.0542261926 	 11.18
133.0647908789 	 10.29
143.085526321 	 3.94
144.0569658468 	 8.18
145.0647908789 	 20.41
147.0440554368 	 5
149.0960910073 	 6.29
157.0647908789 	 100
159.0804409431 	 7.18
165.0698762568 	 4.12
167.085526321 	 5.06
171.0804409431 	 9.24
173.059705501 	 6.59
179.085526321 	 7.24
183.0804409431 	 11.18
185.0960910073 	 6.53
197.0960910073 	 14.29
227.1430411999 	 5.53
287.1641705725 	 22.41
END IONS

BEGIN IONS
PEPMASS=256.1696
CHARGE=1
MSLEVEL=2
RT=0
SOURCE_INSTRUMENT=qTOF
FILENAME=CCMSLIB00000084841.ms
IONMODE=Positive
ORGANISM=Natural
NAME=MLS001148667-01!PHENYLTOLOXAMINE CITRATE
PI=GNPS
DATACOLLECTOR=GNPS
SMILES=CN(C)CCOc1ccccc1Cc1ccccc1
INCHI=InChI=1S/C17H21NO/c1-18(2)12-13-19-17-11-7-6-10-16(17)14-15-8-4-3-5-9-15/h3-11H,12-14H2,1-2H3
FORMULA=C17H21NO
PUBMED=N/A
SUBMITUSER=BIOADREM
LIBRARYQUALITY=0
SPECTRUMID=CCMSLIB00000084841
SCANS=3007
ID=CCMSLIB00000084841
91.0542261926 	 26.11
103.0542261926 	 9.98
105.0698762568 	 100
106.0777012889 	 10.19
115.0542261926 	 18.47
117.0698762568 	 17.62
122.060039852 	 8.49
133.0647908789 	 43.31
134.072615911 	 8.7
135.0804409431 	 15.92
137.0835149483 	 9.77
140.0620512247 	 8.07
152.0620512247 	 40.98
164.1069900446 	 18.05
165.0698762568 	 85.77
166.0777012889 	 29.51
167.085526321 	 8.28
183.0804409431 	 17.62
256.1695903014 	 0
END IONS

BEGIN IONS
PEPMASS=349.1785
CHARGE=1
MSLEVEL=2
RT=0
SOURCE_INSTRUMENT=qTOF
FILENAME=CCMSLIB00000084843.ms
IONMODE=Positive
ORGANISM=Natural
NAME=MLS001336005-01!Imidocarb dipropionate27885-92-3
PI=GNPS
DATACOLLECTOR=GNPS
SMILES=c1cc(cc(c1)N=C(Nc1cccc(c1)C1=NCCN1)O)C1=NCCN1
INCHI=InChI=1S/C19H20N6O/c26-19(24-15-5-1-3-13(11-15)17-20-7-8-21-17)25-16-6-2-4-14(12-16)18-22-9-10-23-18/h1-6,11-12H,7-10H2,(H,20,21)(H,22,23)(H2,24,25,26)
FORMULA=C19H20N6O
PUBMED=N/A
SUBMITUSER=BIOADREM
LIBRARYQUALITY=0
SPECTRUMID=CCMSLIB00000084843
SCANS=3009
ID=CCMSLIB00000084843
46.0287397236 	 1
52.0307510963 	 0.88
130.0399731119 	 1.14
133.0760242672 	 0.96
145.0396387609 	 3.18
145.0760242672 	 0.92
162.1039160394 	 27.23
188.0818379266 	 100
306.1349361296 	 3.61
349.1771352953 	 5.22
END IONS

BEGIN IONS
PEPMASS=231.1488
CHARGE=1
MSLEVEL=2
RT=0
SOURCE_INSTRUMENT=qTOF
FILENAME=CCMSLIB00000084844.ms
IONMODE=Positive
ORGANISM=Natural
NAME=MLS000862198-01!Ibudilast
PI=GNPS
DATACOLLECTOR=GNPS
SMILES=CC(C)c1c(c2ccccn2n1)C(=O)C(C)C
INCHI=InChI=1S/C14H18N2O/c1-9(2)13-12(14(17)10(3)4)11-7-5-6-8-16(11)15-13/h5-10H,1-4H3
FORMULA=C14H18N2O
PUBMED=N/A
SUBMITUSER=BIOADREM
LIBRARYQUALITY=0
SPECTRUMID=CCMSLIB00000084844
SCANS=3010
ID=CCMSLIB00000084844
92.0494751657 	 11.54
104.0494751657 	 12.93
105.0447241388 	 8.16
106.0651252299 	 5.39
117.0573001978 	 28.35
118.0651252299 	 36.1
119.060374203 	 45.73
120.0443897878 	 7.09
120.0807752941 	 12.9
130.0651252299 	 15.66
132.0681992351 	 29.09
134.0964253583 	 10.73
142.0651252299 	 10.01
143.072950262 	 28.15
144.0807752941 	 71.61
145.0760242672 	 100
146.0838492993 	 42.81
147.0916743314 	 15.68
154.0651252299 	 7.11
155.060374203 	 4.6
159.0916743314 	 58.73
160.0994993635 	 13.41
161.1073243956 	 67.68
170.0964253583 	 12.38
173.0709388893 	 55.54
173.1073243956 	 24.35
174.0787639214 	 9.74
181.0886003262 	 19.8
186.1277254867 	 5.36
187.0865889535 	 30.21
188.0944139856 	 6.2
189.1022390177 	 38.19
197.1073243956 	 15.51
198.0913399804 	 3.66
198.1151494277 	 5.72
201.1022390177 	 37.42
215.1178890819 	 17.79
216.125714114 	 9.27
231.1491892103 	 81.95
END IONS

BEGIN IONS
PEPMASS=285.159
CHARGE=1
MSLEVEL=2
RT=0
SOURCE_INSTRUMENT=qTOF
FILENAME=CCMSLIB00000084846.ms
IONMODE=Positive
ORGANISM=Natural
NAME=MLS001148140-01!3-Tropanylindole-3-carboxylate hydrochloride
PI=GNPS
DATACOLLECTOR=GNPS
SMILES=CN1C2CCC1CC(C2)OC(=O)c1c[nH]c2ccccc12
INCHI=InChI=1S/C17H20N2O2/c1-19-11-6-7-12(19)9-13(8-11)21-17(20)15-10-18-16-5-3-2-4-14(15)16/h2-5,10-13,18H,6-9H2,1H3
FORMULA=C17H20N2O2
PUBMED=N/A
SUBMITUSER=BIOADREM
LIBRARYQUALITY=0
SPECTRUMID=CCMSLIB00000084846
SCANS=3012
ID=CCMSLIB00000084846
91.0542261926 	 12.09
93.0698762568 	 13.96
108.0807752941 	 1.25
116.0494751657 	 5.3
124.1120754225 	 100
142.1226401088 	 7.76
144.0443897878 	 35.47
285.1597538966 	 18.69
END IONS

BEGIN IONS
PEPMASS=260.1634
CHARGE=1
MSLEVEL=2
RT=0
SOURCE_INSTRUMENT=qTOF
FILENAME=CCMSLIB00000084847.ms
IONMODE=Positive
ORGANISM=Natural
NAME=MLS001333595-01!(R)-(+)-Propranolol hydrochloride13071-11-9
PI=GNPS
DATACOLLECTOR=GNPS
SMILES=CC(C)NC[C@H](COc1cccc2ccccc12)O
INCHI=InChI=1S/C16H21NO2/c1-12(2)17-10-14(18)11-19-16-9-5-7-13-6-3-4-8-15(13)16/h3-9,12,14,17-18H,10-11H2,1-2H3/t14-/m1/s1
FORMULA=C16H21NO2
PUBMED=N/A
SUBMITUSER=BIOADREM
LIBRARYQUALITY=0
SPECTRUMID=CCMSLIB00000084847
SCANS=3013
ID=CCMSLIB00000084847
98.0964253583 	 3.59
103.0542261926 	 12.39
115.0542261926 	 25.71
116.1069900446 	 22.7
117.0698762568 	 7.08
126.0464011605 	 3.09
127.0542261926 	 16.82
128.0620512247 	 37.9
129.0698762568 	 50.65
141.0698762568 	 15.3
145.0647908789 	 19.97
152.0620512247 	 5.43
153.0698762568 	 36.6
154.0777012889 	 14.1
155.085526321 	 100
157.0647908789 	 48.53
165.0698762568 	 38.12
168.0569658468 	 13.88
171.0804409431 	 3.45
183.0804409431 	 41.89
218.1175547309 	 4.07
260.1645049235 	 7.88
END IONS

BEGIN IONS
PEPMASS=342.1464
CHARGE=1
MSLEVEL=2
RT=0
SOURCE_INSTRUMENT=qTOF
FILENAME=CCMSLIB00000084848.ms
IONMODE=Positive
ORGANISM=Natural
NAME=MLS002153150-01!L-655,708130477-52-0
PI=GNPS
DATACOLLECTOR=GNPS
SMILES=CCOC(=O)c1c2[C@@H]3CCNC3C(=O)c3cc(ccc3n2cn1)OC
INCHI=InChI=1S/C18H19N3O4/c1-3-25-18(23)15-16-11-6-7-19-14(11)17(22)12-8-10(24-2)4-5-13(12)21(16)9-20-15/h4-5,8-9,11,14,19H,3,6-7H2,1-2H3/t11-,14?/m1/s1
FORMULA=C18H19N3O4
PUBMED=N/A
SUBMITUSER=BIOADREM
LIBRARYQUALITY=0
SPECTRUMID=CCMSLIB00000084848
SCANS=3014
ID=CCMSLIB00000084848
144.0443897878 	 2.87
146.060039852 	 3.8
160.0393044099 	 15.4
172.0393044099 	 3.89
174.0549544741 	 3.97
186.0423784151 	 5.42
196.0869233045 	 2.3
198.0787639214 	 10.79
200.034219032 	 6.09
201.0658535114 	 11.15
207.0790982724 	 6.34
208.0631138572 	 11.75
223.0865889535 	 7.77
224.0818379266 	 3.23
225.0896629587 	 9.23
226.0736785435 	 5.2
227.0451180693 	 30.19
229.0607681335 	 20.46
235.0740128945 	 5.1
236.0580284793 	 10.8
241.0971536398 	 19.67
245.0556827556 	 23.65
247.0713328198 	 3.04
250.0974879908 	 12.67
251.0815035756 	 26.72
253.0845775808 	 8.33
263.0689275166 	 2.45
268.1080526771 	 69.5
278.0924026129 	 100
296.1029672992 	 97.14
314.1135319855 	 29.64
342.1448321139 	 0.34
END IONS

BEGIN IONS
PEPMASS=320.1493
CHARGE=1
MSLEVEL=2
RT=0
SOURCE_INSTRUMENT=qTOF
FILENAME=CCMSLIB00000084849.ms
IONMODE=Positive
ORGANISM=Natural
NAME=MLS002154241-01!Scopolamin-N-oxide hydrobromide6106-81-6
PI=GNPS
DATACOLLECTOR=GNPS
SMILES=CN1(=O)[C@@H]2C[C@H](C[C@H]1[C@H]1[C@@H]2O1)OC(=O)[C@H](CO)c1ccccc1
INCHI=InChI=1S/C17H21NO5/c1-18(21)13-7-11(8-14(18)16-15(13)23-16)22-17(20)12(9-19)10-5-3-2-4-6-10/h2-6,11-16,19H,7-9H2,1H3/t11-,12-,13-,14+,15-,16+,18?/m1/s1
FORMULA=C17H21NO5
PUBMED=N/A
SUBMITUSER=BIOADREM
LIBRARYQUALITY=0
SPECTRUMID=CCMSLIB00000084849
SCANS=3015
ID=CCMSLIB00000084849
93.0573001978 	 7.18
94.0651252299 	 47.5
95.0491408147 	 3.29
96.0807752941 	 5.12
98.060039852 	 2.29
103.0542261926 	 32.68
106.0651252299 	 5.38
107.072950262 	 4.15
108.0807752941 	 22.44
110.060039852 	 8.18
110.0964253583 	 7.5
120.0807752941 	 24.76
121.0647908789 	 17.71
122.060039852 	 2.21
124.0756899162 	 2.62
125.0835149483 	 2.94
126.0913399804 	 7.06
136.0756899162 	 25.91
138.0913399804 	 29.82
154.0862546025 	 100
172.0968192888 	 53.53
320.1492487898 	 42.32
END IONS

BEGIN IONS
PEPMASS=404.2088
CHARGE=1
MSLEVEL=2
RT=0
SOURCE_INSTRUMENT=qTOF
FILENAME=CCMSLIB00000084850.ms
IONMODE=Positive
ORGANISM=Natural
NAME=MLS002177847-01!Nalpha-Benzoyl-DL-arginine beta-naphthylamide hydrochloride913-04-2
PI=GNPS
DATACOLLECTOR=GNPS
SMILES=c1ccc(cc1)C(=NC(CCCNC(=N)N)C(=Nc1ccc2ccccc2c1)O)O
INCHI=InChI=1S/C23H25N5O2/c24-23(25)26-14-6-11-20(28-21(29)17-8-2-1-3-9-17)22(30)27-19-13-12-16-7-4-5-10-18(16)15-19/h1-5,7-10,12-13,15,20H,6,11,14H2,(H,27,30)(H,28,29)(H4,24,25,26)
FORMULA=C23H25N5O2
PUBMED=N/A
SUBMITUSER=BIOADREM
LIBRARYQUALITY=0
SPECTRUMID=CCMSLIB00000084850
SCANS=3016
ID=CCMSLIB00000084850
95.060374203 	 9.76
97.0760242672 	 4.12
104.0494751657 	 6.79
105.0334907505 	 100
112.0869233045 	 16.27
113.0709388893 	 11.18
114.1025733687 	 8.31
122.060039852 	 65.65
124.0631138572 	 0.65
130.0974879908 	 9.19
144.0807752941 	 9.96
158.0924026129 	 3.82
173.1073243956 	 10.06
174.0913399804 	 7.44
192.1019046667 	 1.24
198.1025733687 	 1.63
201.1022390177 	 16.21
216.113138055 	 29.57
219.112803704 	 8.73
233.1396871565 	 1.77
244.1080526771 	 13.78
261.1346017786 	 6.68
327.1478465396 	 1.83
345.1584112259 	 5.47
369.1709872849 	 1.26
387.1815519712 	 1.03
404.2081010727 	 8.86
END IONS

BEGIN IONS
PEPMASS=305.9184
CHARGE=1
MSLEVEL=2
RT=0
SOURCE_INSTRUMENT=qTOF
FILENAME=CCMSLIB00000084851.ms
IONMODE=Positive
ORGANISM=Natural
NAME=MLS000069389-01!130-26-7
PI=GNPS
DATACOLLECTOR=GNPS
SMILES=c1cc2c(cc(c(c2nc1)O)I)Cl
INCHI=InChI=1S/C9H5ClINO/c10-6-4-7(11)9(13)8-5(6)2-1-3-12-8/h1-4,13H
FORMULA=C9H5ClINO
PUBMED=N/A
SUBMITUSER=BIOADREM
LIBRARYQUALITY=0
SPECTRUMID=CCMSLIB00000084851
SCANS=3017
ID=CCMSLIB00000084851
114.0338251015 	 0.36
115.0416501336 	 1.54
116.0494751657 	 14.84
124.0074288384 	 0.68
150.0105028436 	 1.1
151.0183278757 	 100
178.0054174657 	 2.55
179.0132424978 	 57.24
179.0132424978 	 42.7
END IONS

BEGIN IONS
PEPMASS=328.1555
CHARGE=1
MSLEVEL=2
RT=0
SOURCE_INSTRUMENT=qTOF
FILENAME=CCMSLIB00000084852.ms
IONMODE=Positive
ORGANISM=Natural
NAME=MLS000736771-01!Naloxone
PI=GNPS
DATACOLLECTOR=GNPS
SMILES=C=CCN1CC[C@]23c4c5ccc(c4OC2C(=O)CC[C@]3(C1C5)O)O
INCHI=InChI=1S/C19H21NO4/c1-2-8-20-9-7-18-15-11-3-4-12(21)16(15)24-17(18)13(22)5-6-19(18,23)14(20)10-11/h2-4,14,17,21,23H,1,5-10H2/t14?,17?,18-,19+/m0/s1
FORMULA=C19H21NO4
PUBMED=N/A
SUBMITUSER=BIOADREM
LIBRARYQUALITY=0
SPECTRUMID=CCMSLIB00000084852
SCANS=3018
ID=CCMSLIB00000084852
129.0698762568 	 4.21
153.0698762568 	 5.95
157.0647908789 	 5.24
158.0964253583 	 4.16
165.0698762568 	 4.14
173.059705501 	 11.55
181.0647908789 	 7.73
184.0518804689 	 5.48
184.0756899162 	 5.68
185.059705501 	 13.8
186.0913399804 	 6.17
187.0991650125 	 3.21
199.0753555652 	 9.89
210.0913399804 	 3.13
212.0706045383 	 71.86
213.0784295704 	 14.63
214.0862546025 	 6.9
224.1069900446 	 3.72
226.0862546025 	 11.74
227.0940796346 	 6.56
240.1019046667 	 7.61
241.0859202515 	 3.13
241.1097296988 	 4.43
251.0940796346 	 4.5
252.1019046667 	 8.59
253.1097296988 	 48.69
254.1175547309 	 8.54
268.0968192888 	 8.27
268.1332047951 	 25.69
269.1046443209 	 15.17
282.112469353 	 5.51
310.1437694814 	 100
328.1543341677 	 5.02
END IONS

BEGIN IONS
PEPMASS=215.1182
CHARGE=1
MSLEVEL=2
RT=0
SOURCE_INSTRUMENT=qTOF
FILENAME=CCMSLIB00000084854.ms
IONMODE=Positive
ORGANISM=Natural
NAME=MLS001148231-01!HARMALINE
PI=GNPS
DATACOLLECTOR=GNPS
SMILES=CC1=NCCc2c3ccc(cc3[nH]c12)OC
INCHI=InChI=1S/C13H14N2O/c1-8-13-11(5-6-14-8)10-4-3-9(16-2)7-12(10)15-13/h3-4,7,15H,5-6H2,1-2H3
FORMULA=C13H14N2O
PUBMED=N/A
SUBMITUSER=BIOADREM
LIBRARYQUALITY=0
SPECTRUMID=CCMSLIB00000084854
SCANS=3020
ID=CCMSLIB00000084854
103.0542261926 	 1.4
117.0573001978 	 0.83
118.0651252299 	 0.81
129.0573001978 	 2.78
130.0651252299 	 12.14
131.072950262 	 28.53
140.0494751657 	 1.62
141.0573001978 	 0.79
143.072950262 	 10.81
144.0807752941 	 7.6
145.0886003262 	 3.29
146.0964253583 	 1.26
154.0651252299 	 4.49
155.072950262 	 8.65
156.0681992351 	 4.36
157.0760242672 	 16.64
158.060039852 	 5.33
159.0678648841 	 20.6
167.072950262 	 3.54
171.0916743314 	 55.47
172.0994993635 	 100
174.0913399804 	 63.51
182.060039852 	 0.69
183.0678648841 	 5.53
185.0709388893 	 10.26
198.0913399804 	 7.34
199.0865889535 	 15.68
200.0944139856 	 83.36
215.1178890819 	 48.42
END IONS

BEGIN IONS
PEPMASS=191.047
CHARGE=1
MSLEVEL=2
RT=0
SOURCE_INSTRUMENT=qTOF
FILENAME=CCMSLIB00000084858.ms
IONMODE=Positive
ORGANISM=Natural
NAME=MLS000069750-01!8-HYDROXY-5-NITROQUINOLINE
PI=GNPS
DATACOLLECTOR=GNPS
SMILES=c1cc2c(ccc(c2nc1)O)N(=O)=O
INCHI=InChI=1S/C9H6N2O3/c12-8-4-3-7(11(13)14)6-2-1-5-10-9(6)8/h1-5,12H
FORMULA=C9H6N2O3
PUBMED=N/A
SUBMITUSER=BIOADREM
LIBRARYQUALITY=0
SPECTRUMID=CCMSLIB00000084858
SCANS=3022
ID=CCMSLIB00000084858
89.0385761284 	 11.32
100.0307510963 	 14.26
117.0573001978 	 50.36
127.0416501336 	 96.43
144.0443897878 	 15.6
145.0522148199 	 100
148.0393044099 	 31.19
161.047129442 	 12.48
191.0451180693 	 0
END IONS

BEGIN IONS
PEPMASS=320.101
CHARGE=1
MSLEVEL=2
RT=0
SOURCE_INSTRUMENT=qTOF
FILENAME=CCMSLIB00000084859.ms
IONMODE=Positive
ORGANISM=Natural
NAME=MLS000860024-01!Benzamil hydrochloride
PI=GNPS
DATACOLLECTOR=GNPS
SMILES=c1ccc(cc1)CNC(=N)N=C(c1c(N)nc(c(Cl)n1)N)O
INCHI=InChI=1S/C13H14ClN7O/c14-9-11(16)20-10(15)8(19-9)12(22)21-13(17)18-6-7-4-2-1-3-5-7/h1-5H,6H2,(H4,15,16,20)(H3,17,18,21,22)
FORMULA=C13H14ClN7O
PUBMED=N/A
SUBMITUSER=BIOADREM
LIBRARYQUALITY=0
SPECTRUMID=CCMSLIB00000084859
SCANS=3023
ID=CCMSLIB00000084859
91.0542261926 	 20.76
100.9901017525 	 0.7
108.0430471171 	 1.74
108.0807752941 	 2.43
116.0010007898 	 14.31
143.0118998271 	 8.19
150.1025733687 	 100
163.0183278757 	 2.93
171.0068144492 	 42.69
173.0026778115 	 10.9
191.0132424978 	 2.35
320.1021118179 	 1.11
END IONS

BEGIN IONS
PEPMASS=272.1018
CHARGE=1
MSLEVEL=2
RT=0
SOURCE_INSTRUMENT=qTOF
FILENAME=CCMSLIB00000084861.ms
IONMODE=Positive
ORGANISM=Natural
NAME=MLS001074327-01!N'-(4-hydroxy-3-methoxybenzylidene)isonicotinohydrazide hydrate
PI=GNPS
DATACOLLECTOR=GNPS
SMILES=COc1cc(ccc1O)C=NNC(=O)c1ccncc1
INCHI=InChI=1S/C14H13N3O3/c1-20-13-8-10(2-3-12(13)18)9-16-17-14(19)11-4-6-15-7-5-11/h2-9,18H,1H3,(H,17,19)
FORMULA=C14H13N3O3
PUBMED=N/A
SUBMITUSER=BIOADREM
LIBRARYQUALITY=0
SPECTRUMID=CCMSLIB00000084861
SCANS=3024
ID=CCMSLIB00000084861
93.0447241388 	 6.45
94.0399731119 	 0.545
95.060374203 	 5.82
96.0443897878 	 1.24
103.0290740746 	 1.59
105.0447241388 	 39.59
106.0287397236 	 3.365
107.0365647557 	 2.285
110.0362304047 	 4.035
120.0556231761 	 3.075
121.0396387609 	 100
123.0552888251 	 27.39
125.059705501 	 2.155
135.0314793778 	 6.775
136.0393044099 	 2.135
137.047129442 	 2.015
148.0505377982 	 0.625
152.0706045383 	 9.43
193.0607681335 	 1.665
212.0818379266 	 0.65
215.0940796346 	 3.3
272.1029672992 	 9.725
END IONS

BEGIN IONS
PEPMASS=260.2019
CHARGE=1
MSLEVEL=2
RT=0
SOURCE_INSTRUMENT=qTOF
FILENAME=CCMSLIB00000084863.ms
IONMODE=Positive
ORGANISM=Natural
NAME=MLS001163935-01!(+/-)-Vesamicol hydrochloride
PI=GNPS
DATACOLLECTOR=GNPS
SMILES=c1ccc(cc1)C1CCN(CC1)[C@@H]1CCCC[C@H]1O
INCHI=InChI=1S/C17H25NO/c19-17-9-5-4-8-16(17)18-12-10-15(11-13-18)14-6-2-1-3-7-14/h1-3,6-7,15-17,19H,4-5,8-13H2/t16-,17-/m1/s1
FORMULA=C17H25NO
PUBMED=N/A
SUBMITUSER=BIOADREM
LIBRARYQUALITY=0
SPECTRUMID=CCMSLIB00000084863
SCANS=3025
ID=CCMSLIB00000084863
91.0542261926 	 1.39
96.0807752941 	 0.67
103.0542261926 	 3.39
105.0698762568 	 2.16
108.0807752941 	 0.55
112.1120754225 	 0.55
115.0542261926 	 2.04
116.0620512247 	 0.93
117.0698762568 	 6.23
128.0620512247 	 0.36
129.0698762568 	 2.13
130.0777012889 	 1.36
131.085526321 	 6.28
138.1277254867 	 1.32
143.085526321 	 0.85
145.1011763852 	 1.35
160.1120754225 	 2.55
162.1277254867 	 68.55
214.1590256151 	 0.31
242.1903257435 	 100
260.2008904298 	 39.66
END IONS

BEGIN IONS
PEPMASS=380.2221
CHARGE=1
MSLEVEL=2
RT=0
SOURCE_INSTRUMENT=qTOF
FILENAME=CCMSLIB00000084865.ms
IONMODE=Positive
ORGANISM=Natural
NAME=MLS001401387-01!Donepezil
PI=GNPS
DATACOLLECTOR=GNPS
SMILES=COc1cc2CC(CC3CCN(CC3)Cc3ccccc3)C(=O)c2cc1OC
INCHI=InChI=1S/C24H29NO3/c1-27-22-14-19-13-20(24(26)21(19)15-23(22)28-2)12-17-8-10-25(11-9-17)16-18-6-4-3-5-7-18/h3-7,14-15,17,20H,8-13,16H2,1-2H3
FORMULA=C24H29NO3
PUBMED=N/A
SUBMITUSER=BIOADREM
LIBRARYQUALITY=0
SPECTRUMID=CCMSLIB00000084865
SCANS=3026
ID=CCMSLIB00000084865
91.0542261926 	 100
105.0698762568 	 6.33
146.072615911 	 3.13
151.0753555652 	 44.52
161.059705501 	 3.43
165.0910056294 	 3.76
174.0675305331 	 3.71
174.1039160394 	 3.8
175.0753555652 	 5.32
176.0831805973 	 5.62
177.0910056294 	 4.39
188.0831805973 	 4.63
189.0910056294 	 25.27
196.0882659752 	 4.04
197.0960910073 	 3.44
201.0910056294 	 7
202.0988306615 	 7.79
203.1066556936 	 6.61
205.0859202515 	 12.95
205.1223057578 	 4.39
209.0960910073 	 3.36
210.1039160394 	 3.1
211.0753555652 	 3.79
211.1117410715 	 4.01
212.1195661036 	 10.66
215.1066556936 	 6.08
217.1223057578 	 4.2
226.0988306615 	 3.31
227.1066556936 	 4.19
228.1144807257 	 6.37
233.1172203799 	 8.07
241.1223057578 	 11.77
243.137955822 	 83.56
245.1172203799 	 4.23
254.1175547309 	 3.95
259.1328704441 	 7.45
261.1485205083 	 3.07
270.1488548593 	 14.19
288.1594195456 	 56.8
362.2114551161 	 32.33
380.2220198024 	 207.59
END IONS

BEGIN IONS
PEPMASS=377.0906
CHARGE=1
MSLEVEL=2
RT=0
SOURCE_INSTRUMENT=qTOF
FILENAME=CCMSLIB00000084867.ms
IONMODE=Positive
ORGANISM=Natural
NAME=MLS000860020-01!1-Allyl-3,7-dimethyl-8-sulfophenylxanthine
PI=GNPS
DATACOLLECTOR=GNPS
SMILES=C=CCn1c(=O)c2c(nc(c3ccc(cc3)S(=O)(=O)O)n2C)n(C)c1=O
INCHI=InChI=1S/C16H16N4O5S/c1-4-9-20-15(21)12-14(19(3)16(20)22)17-13(18(12)2)10-5-7-11(8-6-10)26(23,24)25/h4-8H,1,9H2,2-3H3,(H,23,24,25)
FORMULA=C16H16N4O5S
PUBMED=N/A
SUBMITUSER=BIOADREM
LIBRARYQUALITY=0
SPECTRUMID=CCMSLIB00000084867
SCANS=3027
ID=CCMSLIB00000084867
90.9960593867 	 1.42
116.0528459841 	 1.95
145.0522148199 	 1.48
145.0760242672 	 1.48
171.0076699305 	 1.56
172.0631138572 	 1.51
172.9777292478 	 1.59
181.9998448984 	 1.62
183.0162232441 	 1.95
184.006289722 	 7.75
185.9947595205 	 1.9
186.1025733687 	 2.06
187.1077183261 	 1.56
190.0709984688 	 1.42
198.0185689678 	 3.4
200.0375898504 	 1.48
201.0294680051 	 1.39
225.0328388235 	 6.61
237.0380213187 	 1.45
245.071629633 	 2.43
266.059387925 	 7
267.0400326914 	 3.76
278.0230024187 	 1.78
279.0308274508 	 23.7
280.0352816645 	 4.88
281.0305306376 	 2.56
281.1006215755 	 2.56
294.0543025471 	 100
296.0540057339 	 7.72
337.0601162065 	 3.48
377.0914163349 	 39.73
END IONS

BEGIN IONS
PEPMASS=377.1501
CHARGE=1
MSLEVEL=2
RT=0
SOURCE_INSTRUMENT=qTOF
FILENAME=CCMSLIB00000084870.ms
IONMODE=Positive
ORGANISM=Natural
NAME=MLS001242385-01![6-ethyl-2-methyl-3-(1-methylbenzimidazol-2-yl)-4-oxochromen-7-yl] acetate210639-90-0
PI=GNPS
DATACOLLECTOR=GNPS
SMILES=CCc1cc2c(cc1OC(=O)C)oc(C)c(c2=O)c1nc2ccccc2n1C
INCHI=InChI=1S/C22H20N2O4/c1-5-14-10-15-19(11-18(14)28-13(3)25)27-12(2)20(21(15)26)22-23-16-8-6-7-9-17(16)24(22)4/h6-11H,5H2,1-4H3
FORMULA=C22H20N2O4
PUBMED=N/A
SUBMITUSER=BIOADREM
LIBRARYQUALITY=0
SPECTRUMID=CCMSLIB00000084870
SCANS=3028
ID=CCMSLIB00000084870
119.060374203 	 0.31
145.0760242672 	 0.49
156.0681992351 	 1.44
171.0916743314 	 12.13
235.1229744598 	 0.49
249.1022390177 	 0.81
263.1178890819 	 0.55
264.125714114 	 0.43
277.0971536398 	 1.3
278.1049786719 	 1.16
291.0764181977 	 0.83
291.112803704 	 1.34
292.1206287361 	 3.33
305.0920682619 	 1.83
306.099893294 	 2.35
307.1441038324 	 0.8
317.1284537682 	 0.32
319.1077183261 	 2.22
320.1155433582 	 14.43
335.1390184545 	 100
377.1495831408 	 6.52
END IONS

BEGIN IONS
PEPMASS=195.0927
CHARGE=1
MSLEVEL=2
RT=0
SOURCE_INSTRUMENT=qTOF
FILENAME=CCMSLIB00000084875.ms
IONMODE=Positive
ORGANISM=Natural
NAME=MLS000521341-01!Acridinamine
PI=GNPS
DATACOLLECTOR=GNPS
SMILES=c1ccc2c(c1)cc1c(cccc1n2)N
INCHI=InChI=1S/C13H10N2/c14-11-5-3-7-13-10(11)8-9-4-1-2-6-12(9)15-13/h1-8H,14H2
FORMULA=C13H10N2
PUBMED=N/A
SUBMITUSER=BIOADREM
LIBRARYQUALITY=0
SPECTRUMID=CCMSLIB00000084875
SCANS=3031
ID=CCMSLIB00000084875
90.0338251015 	 4.13
91.0416501336 	 1.47
115.0542261926 	 1.49
116.0494751657 	 1.19
117.0447241388 	 31.01
118.0525491709 	 17.94
125.0385761284 	 1.36
127.0542261926 	 5.47
128.0494751657 	 3.41
141.0698762568 	 3.49
150.0464011605 	 13.49
151.0542261926 	 57.7
153.0573001978 	 2.22
154.0651252299 	 5.65
167.072950262 	 23.74
177.0573001978 	 48.01
178.0651252299 	 93.72
180.0681992351 	 3.01
194.0838492993 	 100
195.0916743314 	 759.73
END IONS

BEGIN IONS
PEPMASS=247.1898
CHARGE=1
MSLEVEL=2
RT=0
SOURCE_INSTRUMENT=qTOF
FILENAME=CCMSLIB00000084876.ms
IONMODE=Positive
ORGANISM=Natural
NAME=MLS000862191-01!Quinelorane dihydrochloride
PI=GNPS
DATACOLLECTOR=GNPS
SMILES=CCCN1CCC[C@@H]2Cc3c(C[C@@H]12)c[nH]c(=N)n3
INCHI=InChI=1S/C14H22N4/c1-2-5-18-6-3-4-10-7-12-11(8-13(10)18)9-16-14(15)17-12/h9-10,13H,2-8H2,1H3,(H2,15,16,17)/t10-,13-/m1/s1
FORMULA=C14H22N4
PUBMED=N/A
SUBMITUSER=BIOADREM
LIBRARYQUALITY=0
SPECTRUMID=CCMSLIB00000084876
SCANS=3032
ID=CCMSLIB00000084876
108.0556231761 	 4.66
119.060374203 	 26.83
129.0447241388 	 10.76
134.0712732403 	 21.69
144.0807752941 	 11.16
146.0712732403 	 56.95
147.0790982724 	 41.04
171.0916743314 	 5.86
172.0869233045 	 11.57
173.0947483366 	 6.1
188.1182234329 	 100
247.191722727 	 8.35
END IONS

BEGIN IONS
PEPMASS=294.1309
CHARGE=1
MSLEVEL=2
RT=0
SOURCE_INSTRUMENT=qTOF
FILENAME=CCMSLIB00000084880.ms
IONMODE=Positive
ORGANISM=Natural
NAME=MLS002154255-01!Pimethixene maleate13187-06-9
PI=GNPS
DATACOLLECTOR=GNPS
SMILES=CN1CCC(=C2c3ccccc3Sc3ccccc23)CC1
INCHI=InChI=1S/C19H19NS/c1-20-12-10-14(11-13-20)19-15-6-2-4-8-17(15)21-18-9-5-3-7-16(18)19/h2-9H,10-13H2,1H3
FORMULA=C19H19NS
PUBMED=N/A
SUBMITUSER=BIOADREM
LIBRARYQUALITY=0
SPECTRUMID=CCMSLIB00000084880
SCANS=3033
ID=CCMSLIB00000084880
115.0542261926 	 0.68
128.0620512247 	 0.52
141.0698762568 	 1.61
142.0777012889 	 1.98
147.0229260642 	 0.75
152.0620512247 	 0.79
165.0698762568 	 5.87
173.0385761284 	 0.33
178.0777012889 	 4.07
184.0341219147 	 0.28
189.0698762568 	 0.36
191.085526321 	 0.32
196.0341219147 	 0.29
197.0419469468 	 100
202.0777012889 	 1.11
203.085526321 	 2.21
204.0933513531 	 1.44
208.0341219147 	 0.65
209.0419469468 	 1.85
210.0497719789 	 8.6
211.057597011 	 2.28
215.085526321 	 0.45
217.1011763852 	 1.97
218.1090014173 	 2.38
221.0419469468 	 8.69
222.0497719789 	 6.53
223.057597011 	 10.55
234.0497719789 	 5.15
235.057597011 	 2.86
236.0654220431 	 1.35
237.0732470752 	 1.44
249.0732470752 	 1.6
251.0888971394 	 3.86
279.1076212088 	 1.26
294.1310963051 	 7.19
END IONS

BEGIN IONS
PEPMASS=282.1125
CHARGE=1
MSLEVEL=2
RT=0
SOURCE_INSTRUMENT=qTOF
FILENAME=CCMSLIB00000084881.ms
IONMODE=Positive
ORGANISM=Natural
NAME=MLS000069761-01!ALPHA-METHYL-P-[1-OXO-2-ISOINDOLINYL]-BENZENEACETIC ACID
PI=GNPS
DATACOLLECTOR=GNPS
SMILES=CC(c1ccc(cc1)N1Cc2ccccc2C1=O)C(=O)O
INCHI=InChI=1S/C17H15NO3/c1-11(17(20)21)12-6-8-14(9-7-12)18-10-13-4-2-3-5-15(13)16(18)19/h2-9,11H,10H2,1H3,(H,20,21)
FORMULA=C17H15NO3
PUBMED=N/A
SUBMITUSER=BIOADREM
LIBRARYQUALITY=0
SPECTRUMID=CCMSLIB00000084881
SCANS=3034
ID=CCMSLIB00000084881
91.0542261926 	 1.69
103.0542261926 	 2.52
105.0334907505 	 2.72
115.0542261926 	 4.92
119.0491408147 	 2.31
130.0651252299 	 2.72
132.0443897878 	 4.63
143.0491408147 	 1.26
158.060039852 	 10.52
180.0807752941 	 20.42
181.0886003262 	 12.8
191.085526321 	 3.05
203.072950262 	 1.54
206.0964253583 	 3.03
207.1042503904 	 1.78
208.0756899162 	 12.72
209.0835149483 	 9.58
210.0913399804 	 5.29
217.0886003262 	 9.86
218.0964253583 	 34.52
221.0835149483 	 2.79
234.0913399804 	 1.96
235.0991650125 	 2.12
236.1069900446 	 100
282.112469353 	 3.24
END IONS

BEGIN IONS
PEPMASS=329.1526
CHARGE=1
MSLEVEL=2
RT=0
SOURCE_INSTRUMENT=qTOF
FILENAME=CCMSLIB00000084885.ms
IONMODE=Positive
ORGANISM=Natural
NAME=MLS001076118-01!TIAPRIDE HYDROCHLORIDE
PI=GNPS
DATACOLLECTOR=GNPS
SMILES=CCN(CC)CCN=C(c1cc(ccc1OC)S(=O)(=O)C)O
INCHI=InChI=1S/C15H24N2O4S/c1-5-17(6-2)10-9-16-15(18)13-11-12(22(4,19)20)7-8-14(13)21-3/h7-8,11H,5-6,9-10H2,1-4H3,(H,16,18)
FORMULA=C15H24N2O4S
PUBMED=N/A
SUBMITUSER=BIOADREM
LIBRARYQUALITY=0
SPECTRUMID=CCMSLIB00000084885
SCANS=3035
ID=CCMSLIB00000084885
105.0334907505 	 0.52
105.0573001978 	 1.21
106.0413157826 	 0.94
108.0205803405 	 0.59
122.0362304047 	 0.63
133.0522148199 	 11.62
134.0362304047 	 8
134.060039852 	 2.71
148.0756899162 	 0.9
154.0083010947 	 0.47
154.9797406205 	 0.56
162.0549544741 	 3.56
163.0627795062 	 0.84
165.0420440641 	 1.77
166.0260596489 	 3.87
170.0032157168 	 0.57
177.0784295704 	 9.77
178.0498690962 	 2.87
179.0525116331 	 0.56
180.0655191604 	 1.2
185.0266908131 	 3.2
209.0682588146 	 15.28
210.0709013515 	 3.04
212.0375898504 	 33.65
213.0216054352 	 72.24
226.0168544083 	 3.36
230.0481545367 	 1.87
241.0403295046 	 4.49
256.0638046009 	 100
329.1529539592 	 0.98
END IONS

BEGIN IONS
PEPMASS=282.1861
CHARGE=1
MSLEVEL=2
RT=0
SOURCE_INSTRUMENT=qTOF
FILENAME=CCMSLIB00000084886.ms
IONMODE=Positive
ORGANISM=Natural
NAME=MLS001148620-01!
PI=GNPS
DATACOLLECTOR=GNPS
SMILES=CN1CCC(CC1)OC(c1ccccc1)c1ccccc1
INCHI=InChI=1S/C19H23NO/c1-20-14-12-18(13-15-20)21-19(16-8-4-2-5-9-16)17-10-6-3-7-11-17/h2-11,18-19H,12-15H2,1H3
FORMULA=C19H23NO
PUBMED=N/A
SUBMITUSER=BIOADREM
LIBRARYQUALITY=0
SPECTRUMID=CCMSLIB00000084886
SCANS=3036
ID=CCMSLIB00000084886
115.0542261926 	 0.4
128.0620512247 	 1.47
141.0698762568 	 1.38
150.0464011605 	 0.26
151.0542261926 	 2.15
152.0620512247 	 51.38
165.0698762568 	 47.33
166.0777012889 	 23.21
167.085526321 	 100
282.1852403656 	 33.91
END IONS

BEGIN IONS
PEPMASS=328.0138
CHARGE=1
MSLEVEL=2
RT=0
SOURCE_INSTRUMENT=qTOF
FILENAME=CCMSLIB00000084887.ms
IONMODE=Positive
ORGANISM=Natural
NAME=MLS001148648-01!2,2-DICHLORO-N-[4-HYDROXYPHENYL]-N-METHYLACETAMIDE 2-FUROIC ACID ESTER
PI=GNPS
DATACOLLECTOR=GNPS
SMILES=CN(c1ccc(cc1)OC(=O)c1ccco1)C(=O)C(Cl)Cl
INCHI=InChI=1S/C14H11Cl2NO4/c1-17(13(18)12(15)16)9-4-6-10(7-5-9)21-14(19)11-3-2-8-20-11/h2-8,12H,1H3
FORMULA=C14H11Cl2NO4
PUBMED=N/A
SUBMITUSER=BIOADREM
LIBRARYQUALITY=0
SPECTRUMID=CCMSLIB00000084887
SCANS=3037
ID=CCMSLIB00000084887
95.0127553084 	 100
134.060039852 	 2.06
236.0472822804 	 2.29
264.0421969025 	 2.93
328.0137892667 	 0
END IONS

BEGIN IONS
PEPMASS=354.2168
CHARGE=1
MSLEVEL=2
RT=0
SOURCE_INSTRUMENT=qTOF
FILENAME=CCMSLIB00000084888.ms
IONMODE=Positive
ORGANISM=Natural
NAME=MLS000863292-01!Methysergide maleate salt
PI=GNPS
DATACOLLECTOR=GNPS
SMILES=CC[C@@H](CO)N=C([C@@H]1C=C2c3cccc4c3c(C[C@H]2N(C)C1)cn4C)[O-]
INCHI=InChI=1S/C21H27N3O2/c1-4-15(12-25)22-21(26)14-8-17-16-6-5-7-18-20(16)13(10-23(18)2)9-19(17)24(3)11-14/h5-8,10,14-15,19,25H,4,9,11-12H2,1-3H3,(H,22,26)/p-1/t14-,15+,19-/m1/s1
FORMULA=C21H27N3O2
PUBMED=N/A
SUBMITUSER=BIOADREM
LIBRARYQUALITY=0
SPECTRUMID=CCMSLIB00000084888
SCANS=3038
ID=CCMSLIB00000084888
152.0620512247 	 1.19
153.0698762568 	 2.79
168.0807752941 	 4.38
178.0651252299 	 1.51
179.072950262 	 2.4
180.0569658468 	 0.85
181.0647908789 	 6.14
182.0964253583 	 4.89
190.0651252299 	 0.9
191.072950262 	 1.12
192.0807752941 	 3.39
193.0886003262 	 5.34
194.0964253583 	 68.11
204.0807752941 	 2.65
205.0886003262 	 13.87
206.0964253583 	 17.58
207.0678648841 	 19.9
208.1120754225 	 8.27
210.1151494277 	 0.88
211.1229744598 	 11.81
221.0835149483 	 20.55
221.1073243956 	 21.26
222.0913399804 	 100
234.0913399804 	 1.86
235.1229744598 	 3.73
237.138624524 	 42.76
238.1100640498 	 2.46
239.1178890819 	 4.69
265.1335391461 	 1.7
283.1441038324 	 1.63
293.1648392745 	 1.14
311.1754039608 	 10.05
339.1941280302 	 2.56
354.2176031265 	 4.35
END IONS

BEGIN IONS
PEPMASS=383.1732
CHARGE=1
MSLEVEL=2
RT=0
SOURCE_INSTRUMENT=qTOF
FILENAME=CCMSLIB00000084892.ms
IONMODE=Positive
ORGANISM=Natural
NAME=MLS002153183-01!SB-204070 hydrochloride
PI=GNPS
DATACOLLECTOR=GNPS
SMILES=CCCCN1CCC(CC1)COC(=O)c1cc(c(c2c1OCCO2)N)Cl
INCHI=InChI=1S/C19H27ClN2O4/c1-2-3-6-22-7-4-13(5-8-22)12-26-19(23)14-11-15(20)16(21)18-17(14)24-9-10-25-18/h11,13H,2-10,12,21H2,1H3
FORMULA=C19H27ClN2O4
PUBMED=N/A
SUBMITUSER=BIOADREM
LIBRARYQUALITY=0
SPECTRUMID=CCMSLIB00000084892
SCANS=3041
ID=CCMSLIB00000084892
98.0964253583 	 11.81
99.9948527794 	 0.34
100.1120754225 	 0.58
126.1277254867 	 0.27
154.1590256151 	 100
155.9846820236 	 16.19
172.1695903014 	 9.8
183.9795966457 	 17.34
212.0108967741 	 95.05
355.1419109471 	 1.22
383.1732110755 	 10.85
END IONS

BEGIN IONS
PEPMASS=261.0757
CHARGE=1
MSLEVEL=2
RT=0
SOURCE_INSTRUMENT=qTOF
FILENAME=CCMSLIB00000084893.ms
IONMODE=Positive
ORGANISM=Natural
NAME=MLS001076533-01!KHELLIN
PI=GNPS
DATACOLLECTOR=GNPS
SMILES=Cc1cc(=O)c2c(c3ccoc3c(c2o1)OC)OC
INCHI=InChI=1S/C14H12O5/c1-7-6-9(15)10-11(16-2)8-4-5-18-12(8)14(17-3)13(10)19-7/h4-6H,1-3H3
FORMULA=C14H12O5
PUBMED=N/A
SUBMITUSER=BIOADREM
LIBRARYQUALITY=0
SPECTRUMID=CCMSLIB00000084893
SCANS=3042
ID=CCMSLIB00000084893
107.0127553084 	 0.22
135.0076699305 	 0.5
163.0025845526 	 19.95
190.9974991747 	 8.34
203.033884681 	 1.7
231.0287993031 	 100
246.0522743994 	 4.77
261.0757494957 	 0.51
END IONS

BEGIN IONS
PEPMASS=246.0195
CHARGE=1
MSLEVEL=2
RT=0
SOURCE_INSTRUMENT=qTOF
FILENAME=CCMSLIB00000084894.ms
IONMODE=Positive
ORGANISM=Natural
NAME=MLS001077329-01!
PI=GNPS
DATACOLLECTOR=GNPS
SMILES=c1cc(c(CC(=NC(=N)N)O)c(c1)Cl)Cl
INCHI=InChI=1S/C9H9Cl2N3O/c10-6-2-1-3-7(11)5(6)4-8(15)14-9(12)13/h1-3H,4H2,(H4,12,13,14,15)
FORMULA=C9H9Cl2N3O
PUBMED=N/A
SUBMITUSER=BIOADREM
LIBRARYQUALITY=0
SPECTRUMID=CCMSLIB00000084894
SCANS=3043
ID=CCMSLIB00000084894
89.0385761284 	 0.74
122.9996038063 	 12.59
124.0074288384 	 5.36
132.9606314842 	 2.25
158.9762815484 	 100
246.0195433466 	 0
END IONS

BEGIN IONS
PEPMASS=448.2534
CHARGE=1
MSLEVEL=2
RT=0
SOURCE_INSTRUMENT=qTOF
FILENAME=CCMSLIB00000084895.ms
IONMODE=Positive
ORGANISM=Natural
NAME=MLS001077334-01!(TYR0)-MELANOCYTE-STIMULATING HORMONE-RELEASE INHIBITING FACTOR
PI=GNPS
DATACOLLECTOR=GNPS
SMILES=CC(C)C[C@@H](C(=NCC(=N)O)O)N=C([C@@H]1CCCN1C(=O)[C@H](Cc1ccc(cc1)O)N)O
INCHI=InChI=1S/C22H33N5O5/c1-13(2)10-17(20(30)25-12-19(24)29)26-21(31)18-4-3-9-27(18)22(32)16(23)11-14-5-7-15(28)8-6-14/h5-8,13,16-18,28H,3-4,9-12,23H2,1-2H3,(H2,24,29)(H,25,30)(H,26,31)/t16-,17-,18-/m0/s1
FORMULA=C22H33N5O5
PUBMED=N/A
SUBMITUSER=BIOADREM
LIBRARYQUALITY=0
SPECTRUMID=CCMSLIB00000084895
SCANS=3044
ID=CCMSLIB00000084895
98.060039852 	 4.77
114.0913399804 	 3.18
119.0491408147 	 17.23
136.0756899162 	 100
138.0787639214 	 2.88
143.1178890819 	 5.5
147.0427127661 	 6.79
155.0815035756 	 2.92
171.112803704 	 9.88
183.1491892103 	 66.82
188.1393528055 	 20.84
199.1315277734 	 2.49
211.1441038324 	 33.56
217.1420924597 	 3.52
233.1271110975 	 18.99
261.1220257196 	 12.33
268.165567556 	 3.91
285.1921166575 	 23.68
448.2554451958 	 3.09
END IONS

BEGIN IONS
PEPMASS=292.11
CHARGE=1
MSLEVEL=2
RT=0
SOURCE_INSTRUMENT=qTOF
FILENAME=CCMSLIB00000084897.ms
IONMODE=Positive
ORGANISM=Natural
NAME=MLS001332489-01!H-7
PI=GNPS
DATACOLLECTOR=GNPS
SMILES=CC1CNCCN1S(=O)(=O)c1cccc2cnccc12
INCHI=InChI=1S/C14H17N3O2S/c1-11-9-16-7-8-17(11)20(18,19)14-4-2-3-12-10-15-6-5-13(12)14/h2-6,10-11,16H,7-9H2,1H3
FORMULA=C14H17N3O2S
PUBMED=N/A
SUBMITUSER=BIOADREM
LIBRARYQUALITY=0
SPECTRUMID=CCMSLIB00000084897
SCANS=3046
ID=CCMSLIB00000084897
46.0161636646 	 7.35226868553427
61.0106468184 	 5.63487627661196
90.0212490425 	 5.08104262994766
99.0440554368 	 14.4860525379808
99.0916743314 	 54.4433717798892
101.034553383 	 8.12458716528632
103.0542261926 	 9.31863218332402
104.0528459841 	 18.4187795335603
105.0573001978 	 30.3998780549769
109.1011763852 	 5.61963314872212
117.0573001978 	 9.64381891164067
118.0611024845 	 5.84828006706976
120.0477606062 	 6.27000660535542
123.1168264494 	 8.54123266094203
128.0494751657 	 50.1295665870637
129.0573001978 	 100
130.0651252299 	 58.3049641786495
132.0443897878 	 19.8262283420558
144.0443897878 	 10.5939738834409
144.0807752941 	 5.09120471520756
145.0522148199 	 41.6188201819013
146.060039852 	 83.5272597937097
156.0556231761 	 47.6246125704995
157.0555856383 	 7.35226868553427
161.0419469468 	 8.54123266094203
161.047129442 	 7.58599664651186
162.0787639214 	 5.63487627661196
167.072298335 	 25.0241349524923
168.0767525487 	 7.69269854174077
171.0460835845 	 5.61963314872212
194.0270251641 	 32.7981301763122
209.0379242014 	 7.78415730907982
213.126048465 	 5.94481987703877
235.0535742656 	 21.2946496621107
237.0566482708 	 4.98450281997866
292.1114234955 	 42.0964381891164
END IONS

BEGIN IONS
PEPMASS=295.2169
CHARGE=1
MSLEVEL=2
RT=0
SOURCE_INSTRUMENT=qTOF
FILENAME=CCMSLIB00000084899.ms
IONMODE=Positive
ORGANISM=Natural
NAME=MLS001056765-01!Trimipramine maleate salt
PI=GNPS
DATACOLLECTOR=GNPS
SMILES=CC(CN(C)C)CN1c2ccccc2CCc2ccccc12
INCHI=InChI=1S/C20H26N2/c1-16(14-21(2)3)15-22-19-10-6-4-8-17(19)12-13-18-9-5-7-11-20(18)22/h4-11,16H,12-15H2,1-3H3
FORMULA=C20H26N2
PUBMED=N/A
SUBMITUSER=BIOADREM
LIBRARYQUALITY=0
SPECTRUMID=CCMSLIB00000084899
SCANS=3047
ID=CCMSLIB00000084899
100.1120754225 	 41.75
130.0651252299 	 0.89
131.072950262 	 0.38
143.072950262 	 0.38
144.0807752941 	 0.68
165.0698762568 	 1.63
190.0651252299 	 0.32
192.0807752941 	 5.2
193.0886003262 	 100
206.0964253583 	 1.95
207.1042503904 	 2.49
208.1120754225 	 75.39
219.1042503904 	 0.39
234.1277254867 	 3.69
235.1355505188 	 0.92
250.1590256151 	 3.95
295.216874845 	 0
END IONS

BEGIN IONS
PEPMASS=288.114
CHARGE=1
MSLEVEL=2
RT=0
SOURCE_INSTRUMENT=qTOF
FILENAME=CCMSLIB00000084901.ms
IONMODE=Positive
ORGANISM=Natural
NAME=MLS002153304-01!Rutaecarpine84-26-4
PI=GNPS
DATACOLLECTOR=GNPS
SMILES=c1ccc2c(c1)c1CCn3c(c1[nH]2)nc1ccccc1c3=O
INCHI=InChI=1S/C18H13N3O/c22-18-13-6-2-4-8-15(13)20-17-16-12(9-10-21(17)18)11-5-1-3-7-14(11)19-16/h1-8,19H,9-10H2
FORMULA=C18H13N3O
PUBMED=N/A
SUBMITUSER=BIOADREM
LIBRARYQUALITY=0
SPECTRUMID=CCMSLIB00000084901
SCANS=3048
ID=CCMSLIB00000084901
92.0494751657 	 2.5
115.0542261926 	 25.89
116.0494751657 	 7.86
117.0447241388 	 8
118.0651252299 	 3.91
119.0365647557 	 3.4
120.0443897878 	 21.83
128.0494751657 	 2.71
130.0287397236 	 3.41
130.0651252299 	 11.23
140.0494751657 	 8.82
142.0651252299 	 23.73
144.0443897878 	 6.06
144.0807752941 	 26.99
145.0396387609 	 34.01
146.060039852 	 3.61
155.060374203 	 5.65
157.0760242672 	 3
167.060374203 	 17.55
169.0760242672 	 57.12
170.060039852 	 10.03
171.0552888251 	 8.43
185.0709388893 	 6.07
190.0651252299 	 3.43
216.0807752941 	 14.45
218.0838492993 	 9.35
219.0916743314 	 8.23
231.0916743314 	 6.78
232.0994993635 	 8.17
235.0865889535 	 2.57
243.0916743314 	 26.39
244.0869233045 	 46.98
245.0947483366 	 20.68
253.0760242672 	 2.77
260.1182234329 	 5.12
261.1022390177 	 9.98
262.0974879908 	 13.04
270.1025733687 	 10.53
271.0865889535 	 70.22
273.0896629587 	 100
288.113138055 	 609.96
END IONS

BEGIN IONS
PEPMASS=435.2177
CHARGE=1
MSLEVEL=2
RT=0
SOURCE_INSTRUMENT=qTOF
FILENAME=CCMSLIB00000084903.ms
IONMODE=Positive
ORGANISM=Natural
NAME=MLS002153928-01!FluniSOLIDe3385-03-3
PI=GNPS
DATACOLLECTOR=GNPS
SMILES=CC1(C)O[C@@H]2C[C@H]3[C@@H]4C[C@@H](C5=CC(=O)C=C[C@]5(C)[C@H]4[C@H](C[C@]3(C)[C@]2(C(=O)CO)O1)O)F
INCHI=InChI=1S/C24H31FO6/c1-21(2)30-19-9-14-13-8-16(25)15-7-12(27)5-6-22(15,3)20(13)17(28)10-23(14,4)24(19,31-21)18(29)11-26/h5-7,13-14,16-17,19-20,26,28H,8-11H2,1-4H3/t13-,14-,16-,17-,19+,20+,22-,23-,24+/m0/s1
FORMULA=C24H31FO6
PUBMED=N/A
SUBMITUSER=BIOADREM
LIBRARYQUALITY=0
SPECTRUMID=CCMSLIB00000084903
SCANS=3049
ID=CCMSLIB00000084903
105.0698762568 	 14.97
121.0647908789 	 76.69
133.0647908789 	 19.14
139.0553690468 	 12.37
145.0647908789 	 34.69
147.0804409431 	 35.38
157.1011763852 	 13.03
159.0804409431 	 32.89
165.071019111 	 23.97
167.0866691752 	 12.37
169.0647908789 	 13.03
171.0804409431 	 100
173.0960910073 	 17.67
179.085526321 	 24.95
183.0815837973 	 21.7
185.0960910073 	 22.76
190.0777012889 	 18.7
191.0866691752 	 16.1
193.1023192394 	 17.23
195.0815837973 	 17.2
195.1168264494 	 18.37
196.0882659752 	 20.53
197.0972338615 	 39.66
205.1023192394 	 28.65
207.1168264494 	 15.33
208.0882659752 	 41.16
209.0972338615 	 51.96
210.1039160394 	 23.38
211.1117410715 	 27.11
213.1273911357 	 19.47
221.0972338615 	 33.19
222.1039160394 	 29.24
223.1128839257 	 51.63
225.1273911357 	 55.21
231.0815837973 	 15.4
232.0882659752 	 15.04
233.0960910073 	 19.28
234.1039160394 	 42.44
235.1128839257 	 44.68
236.1195661036 	 21.92
237.1273911357 	 27.52
245.0960910073 	 25.61
246.1050588936 	 26.38
247.1117410715 	 30.88
248.1195661036 	 42.04
249.1285339899 	 23.12
251.1430411999 	 15.18
259.1128839257 	 22.36
260.1195661036 	 25.69
261.1285339899 	 23.75
263.1430411999 	 39.41
275.1430411999 	 31.83
277.123448612 	 13.98
321.1485205083 	 13.87
435.2177429277 	 0
END IONS

BEGIN IONS
PEPMASS=495.2308
CHARGE=1
MSLEVEL=2
RT=0
SOURCE_INSTRUMENT=qTOF
FILENAME=CCMSLIB00000084904.ms
IONMODE=Positive
ORGANISM=Natural
NAME=MLS002154165-01!Clocortolone pivalate34097-16-0
PI=GNPS
DATACOLLECTOR=GNPS
SMILES=C[C@@H]1C[C@H]2[C@@H]3C[C@@H](C4=CC(=O)C=C[C@]4(C)[C@]3([C@H](C[C@]2(C)[C@H]1C(=O)COC(=O)C(C)(C)C)O)Cl)F
INCHI=InChI=1S/C27H36ClFO5/c1-14-9-16-17-11-19(29)18-10-15(30)7-8-26(18,6)27(17,28)21(32)12-25(16,5)22(14)20(31)13-34-23(33)24(2,3)4/h7-8,10,14,16-17,19,21-22,32H,9,11-13H2,1-6H3/t14-,16+,17+,19+,21+,22-,25+,26+,27+/m1/s1
FORMULA=C27H36ClFO5
PUBMED=N/A
SUBMITUSER=BIOADREM
LIBRARYQUALITY=0
SPECTRUMID=CCMSLIB00000084904
SCANS=3050
ID=CCMSLIB00000084904
105.0698762568 	 8.11
107.085526321 	 9.38
119.085526321 	 19.74
121.0647908789 	 45.39
131.085526321 	 8.61
132.0569658468 	 10.53
135.0804409431 	 15.95
143.085526321 	 16.06
145.0647908789 	 9.48
147.0804409431 	 70.78
157.1011763852 	 13.6
159.0804409431 	 18.2
161.0960910073 	 11.79
169.0647908789 	 17.93
171.0804409431 	 100
173.0960910073 	 14.75
185.0960910073 	 17
189.071019111 	 7.95
191.0866691752 	 15.13
197.093898122 	 8.99
208.0860730899 	 10.96
221.0972338615 	 9.16
222.1017231541 	 10.31
234.1017231541 	 8.83
235.1128839257 	 25.33
236.1173732183 	 9.05
237.1285339899 	 21.49
241.1201128725 	 8.06
245.093898122 	 8.39
248.1173732183 	 10.64
249.1251982504 	 8.17
259.1095481862 	 8.17
260.1173732183 	 10.53
261.1251982504 	 12.61
262.1330232825 	 17.93
263.1408483146 	 17.27
276.1486733467 	 12.28
277.1564983788 	 20.61
279.1754841825 	 12.61
286.1330232825 	 17.76
289.1564983788 	 10.25
291.172148443 	 11.46
301.1564983788 	 13.71
319.1670630651 	 20.67
337.1809634909 	 18.75
495.2308061761 	 0
END IONS

BEGIN IONS
PEPMASS=220.0469
CHARGE=1
MSLEVEL=2
RT=0
SOURCE_INSTRUMENT=qTOF
FILENAME=CCMSLIB00000084906.ms
IONMODE=Positive
ORGANISM=Natural
NAME=MLS000028628-01!
PI=GNPS
DATACOLLECTOR=GNPS
SMILES=Cc1ncc(n1CC(CCl)O)N(=O)=O
INCHI=InChI=1S/C7H10ClN3O3/c1-5-9-3-7(11(13)14)10(5)4-6(12)2-8/h3,6,12H,2,4H2,1H3
FORMULA=C7H10ClN3O3
PUBMED=N/A
SUBMITUSER=BIOADREM
LIBRARYQUALITY=0
SPECTRUMID=CCMSLIB00000084906
SCANS=3052
ID=CCMSLIB00000084906
98.047463793 	 6.75
99.0440554368 	 1.32
111.0427127661 	 19.08
128.0454524203 	 100
220.0483449129 	 1.09
END IONS

BEGIN IONS
PEPMASS=386.2442
CHARGE=1
MSLEVEL=2
RT=0
SOURCE_INSTRUMENT=qTOF
FILENAME=CCMSLIB00000084908.ms
IONMODE=Positive
ORGANISM=Natural
NAME=MLS000860031-01!BMY 7378 dihydrochloride
PI=GNPS
DATACOLLECTOR=GNPS
SMILES=COc1ccccc1N1CCN(CC1)CCN1C(=O)CC2(CCCC2)CC1=O
INCHI=InChI=1S/C22H31N3O3/c1-28-19-7-3-2-6-18(19)24-13-10-23(11-14-24)12-15-25-20(26)16-22(17-21(25)27)8-4-5-9-22/h2-3,6-7H,4-5,8-17H2,1H3
FORMULA=C22H31N3O3
PUBMED=N/A
SUBMITUSER=BIOADREM
LIBRARYQUALITY=0
SPECTRUMID=CCMSLIB00000084908
SCANS=3053
ID=CCMSLIB00000084908
109.0647908789 	 35.53
118.0651252299 	 0.2
120.0443897878 	 0.44
123.0804409431 	 0.33
150.0913399804 	 0.8
166.1226401088 	 0.75
194.1175547309 	 100
386.243817877 	 18.03
END IONS

BEGIN IONS
PEPMASS=214.108
CHARGE=1
MSLEVEL=2
RT=0
SOURCE_INSTRUMENT=qTOF
FILENAME=CCMSLIB00000084909.ms
IONMODE=Positive
ORGANISM=Natural
NAME=MLS001074123-01!2,6-DIAMINO-3-(PHENYLAZO)-PYRIDINE HYDROCHLORIDE136-40-3
PI=GNPS
DATACOLLECTOR=GNPS
SMILES=c1ccc(cc1)N=Nc1ccc(=N)[nH]c1N
INCHI=InChI=1S/C11H11N5/c12-10-7-6-9(11(13)14-10)16-15-8-4-2-1-3-5-8/h1-7H,(H4,12,13,14)
FORMULA=C11H11N5
PUBMED=N/A
SUBMITUSER=BIOADREM
LIBRARYQUALITY=0
SPECTRUMID=CCMSLIB00000084909
SCANS=3054
ID=CCMSLIB00000084909
93.0573001978 	 31.07
95.047798144 	 5.99
102.0338251015 	 2.48
108.0556231761 	 32.12
109.0634482082 	 42.27
115.0542261926 	 3.53
116.0494751657 	 1.66
121.0508721492 	 52.95
122.0586971813 	 100
128.0494751657 	 2.74
140.0494751657 	 2.28
143.060374203 	 4.98
147.0665222134 	 2.6
168.0681992351 	 1.56
170.0712732403 	 11.16
180.0556231761 	 8.68
182.0712732403 	 1.47
184.0869233045 	 7.09
197.0821722776 	 22.12
198.0899973097 	 16.16
214.1087213791 	 15.94
END IONS

BEGIN IONS
PEPMASS=312.1952
CHARGE=1
MSLEVEL=2
RT=0
SOURCE_INSTRUMENT=qTOF
FILENAME=CCMSLIB00000084910.ms
IONMODE=Positive
ORGANISM=Natural
NAME=MLS001076478-01!
PI=GNPS
DATACOLLECTOR=GNPS
SMILES=CCN(CC)CCOC(=O)C(c1ccccc1)c1ccccc1
INCHI=InChI=1S/C20H25NO2/c1-3-21(4-2)15-16-23-20(22)19(17-11-7-5-8-12-17)18-13-9-6-10-14-18/h5-14,19H,3-4,15-16H2,1-2H3
FORMULA=C20H25NO2
PUBMED=N/A
SUBMITUSER=BIOADREM
LIBRARYQUALITY=0
SPECTRUMID=CCMSLIB00000084910
SCANS=3055
ID=CCMSLIB00000084910
139.0542261926 	 0.22
141.0698762568 	 0.83
151.0542261926 	 1.46
152.0620512247 	 26.87
165.0698762568 	 24.95
166.0777012889 	 12.23
167.085526321 	 100
239.1066556936 	 8.16
312.1958050519 	 0.3
END IONS

BEGIN IONS
PEPMASS=505.2105
CHARGE=1
MSLEVEL=2
RT=0
SOURCE_INSTRUMENT=qTOF
FILENAME=CCMSLIB00000084913.ms
IONMODE=Positive
ORGANISM=Natural
NAME=MLS001332387-01!Chlorhexidine55-56-1
PI=GNPS
DATACOLLECTOR=GNPS
SMILES=C(CCCNC(=N)NC(=N)Nc1ccc(cc1)Cl)CCNC(=N)NC(=N)Nc1ccc(cc1)Cl
INCHI=InChI=1S/C22H30Cl2N10/c23-15-5-9-17(10-6-15)31-21(27)33-19(25)29-13-3-1-2-4-14-30-20(26)34-22(28)32-18-11-7-16(24)8-12-18/h5-12H,1-4,13-14H2,(H5,25,27,29,31,33)(H5,26,28,30,32,34)
FORMULA=C22H30Cl2N10
PUBMED=N/A
SUBMITUSER=BIOADREM
LIBRARYQUALITY=0
SPECTRUMID=CCMSLIB00000084913
SCANS=3057
ID=CCMSLIB00000084913
98.0964253583 	 3.58
100.1120754225 	 10.01
108.0807752941 	 2.35
118.0525491709 	 1.96
125.1073243956 	 29.36
128.0261529078 	 7.58
142.1338734971 	 26.56
150.1025733687 	 4.39
153.0214018809 	 22.52
159.1604225986 	 23.89
165.113472406 	 2.58
167.1291224702 	 39.51
170.0479509824 	 100
184.1556715717 	 72.38
195.0450298156 	 26.88
201.1822206732 	 26.78
209.1509205448 	 8.19
220.0402787887 	 1.84
226.1774696463 	 2.45
237.0668278902 	 2.45
294.1461695179 	 5.35
295.1450782112 	 2.35
296.1403271843 	 2.43
311.1727186194 	 2.77
319.141418491 	 31.57
336.1679675925 	 25.56
338.1621252589 	 8.29
361.1650464257 	 4.27
474.1556972103 	 2.06
505.210472435 	 0
END IONS

BEGIN IONS
PEPMASS=296.1479
CHARGE=1
MSLEVEL=2
RT=0
SOURCE_INSTRUMENT=qTOF
FILENAME=CCMSLIB00000084914.ms
IONMODE=Positive
ORGANISM=Natural
NAME=MLS002153839-01!Dosulepin hydrochloride897-15-4
PI=GNPS
DATACOLLECTOR=GNPS
SMILES=CN(C)CC/C=C/1\c2ccccc2CSc2ccccc12
INCHI=InChI=1S/C19H21NS/c1-20(2)13-7-11-17-16-9-4-3-8-15(16)14-21-19-12-6-5-10-18(17)19/h3-6,8-12H,7,13-14H2,1-2H3/b17-11+
FORMULA=C19H21NS
PUBMED=N/A
SUBMITUSER=BIOADREM
LIBRARYQUALITY=0
SPECTRUMID=CCMSLIB00000084914
SCANS=3058
ID=CCMSLIB00000084914
91.0542261926 	 3.56
115.0542261926 	 18.51
117.0698762568 	 23.02
141.0698762568 	 9.01
147.0262968826 	 20.99
165.0698762568 	 22.58
167.085526321 	 1
173.0419469468 	 6.13
178.0777012889 	 42.18
191.085526321 	 25.88
192.0933513531 	 21.73
197.0419469468 	 1.83
202.0777012889 	 35.9
203.085526321 	 100
208.0341219147 	 4.89
209.0419469468 	 20.5
210.0497719789 	 31.66
217.1011763852 	 73.91
218.1090014173 	 93.74
221.0419469468 	 67.14
223.057597011 	 88.45
225.0732470752 	 23.06
235.057597011 	 21.68
236.0654220431 	 23.4
251.0888971394 	 10.21
296.1467463693 	 3.58
END IONS

BEGIN IONS
PEPMASS=362.141
CHARGE=1
MSLEVEL=2
RT=0
SOURCE_INSTRUMENT=qTOF
FILENAME=CCMSLIB00000084916.ms
IONMODE=Positive
ORGANISM=Natural
NAME=MLS000860037-01!Benoxathian hydrochloride
PI=GNPS
DATACOLLECTOR=GNPS
SMILES=COc1cccc(c1OCCNCC1CSc2ccccc2O1)OC
INCHI=InChI=1S/C19H23NO4S/c1-21-16-7-5-8-17(22-2)19(16)23-11-10-20-12-14-13-25-18-9-4-3-6-15(18)24-14/h3-9,14,20H,10-13H2,1-2H3
FORMULA=C19H23NO4S
PUBMED=N/A
SUBMITUSER=BIOADREM
LIBRARYQUALITY=0
SPECTRUMID=CCMSLIB00000084916
SCANS=3059
ID=CCMSLIB00000084916
91.0542261926 	 2.4
95.0491408147 	 2.59
97.0106468184 	 0.9
103.0542261926 	 4.72
104.0620512247 	 0.48
107.0491408147 	 0.73
109.0106468184 	 1.42
109.0647908789 	 0.44
110.0362304047 	 0.61
119.0491408147 	 30.91
123.0262968826 	 0.75
123.0440554368 	 0.49
125.0055614405 	 3.57
125.059705501 	 0.81
131.0491408147 	 22.93
132.0569658468 	 26.55
135.0262968826 	 7.31
137.0055614405 	 95.99
139.0212115047 	 25.65
147.0262968826 	 2.88
150.0133864726 	 10.31
151.0212115047 	 3.78
153.0546201231 	 1.92
163.0212115047 	 13.74
164.0290365368 	 7.58
165.0368615689 	 100
179.0525116331 	 0.6
208.0790607346 	 51.78
210.0760838467 	 2.32
362.1420549219 	 2.94
END IONS

BEGIN IONS
PEPMASS=213.0638
CHARGE=1
MSLEVEL=2
RT=0
SOURCE_INSTRUMENT=qTOF
FILENAME=CCMSLIB00000084920.ms
IONMODE=Positive
ORGANISM=Natural
NAME=MLS002153350-01!1-[2-(Trifluoromethyl)phenyl]imidazole25371-96-4
PI=GNPS
DATACOLLECTOR=GNPS
SMILES=c1ccc(c(c1)C(F)(F)F)n1ccnc1
INCHI=InChI=1S/C10H7F3N2/c11-10(12,13)8-3-1-2-4-9(8)15-6-5-14-7-15/h1-7H
FORMULA=C10H7F3N2
PUBMED=N/A
SUBMITUSER=BIOADREM
LIBRARYQUALITY=0
SPECTRUMID=CCMSLIB00000084920
SCANS=3062
ID=CCMSLIB00000084920
99.0229260642 	 3.53
100.0181750373 	 1.42
102.0338251015 	 3.09
103.0416501336 	 0.56
116.0494751657 	 6.63
117.0573001978 	 15.72
119.0291542963 	 2.76
125.0197324642 	 2.43
126.0338251015 	 6.99
139.0353825284 	 4.5
145.0259606963 	 27.69
146.0400533336 	 19.37
152.0306315015 	 19.49
159.0416107605 	 3.44
165.0384565336 	 1.79
166.0462815657 	 100
172.0368597336 	 2.45
173.0509523709 	 20.11
185.0446847657 	 0.91
193.057180603 	 32.63
213.0634088351 	 60.94
END IONS

BEGIN IONS
PEPMASS=278.2098
CHARGE=1
MSLEVEL=2
RT=0
SOURCE_INSTRUMENT=qTOF
FILENAME=CCMSLIB00000084921.ms
IONMODE=Positive
ORGANISM=Natural
NAME=MLS002153415-01!ICI 118,551 hydrochloride72795-19-8
PI=GNPS
DATACOLLECTOR=GNPS
SMILES=CC(C)N[C@@H](C)[C@H](COc1ccc(C)c2CCCc12)O
INCHI=InChI=1S/C17H27NO2/c1-11(2)18-13(4)16(19)10-20-17-9-8-12(3)14-6-5-7-15(14)17/h8-9,11,13,16,18-19H,5-7,10H2,1-4H3/t13-,16-/m0/s1
FORMULA=C17H27NO2
PUBMED=N/A
SUBMITUSER=BIOADREM
LIBRARYQUALITY=0
SPECTRUMID=CCMSLIB00000084921
SCANS=3063
ID=CCMSLIB00000084921
91.0542261926 	 7.92
103.0542261926 	 6.38
105.0698762568 	 38.03
107.0491408147 	 1.43
115.0542261926 	 8.68
116.0620512247 	 12.16
117.0698762568 	 6.71
119.085526321 	 13.03
121.0647908789 	 13.38
127.0542261926 	 1.31
128.0620512247 	 8.22
129.0698762568 	 11.8
130.0777012889 	 8.55
131.0491408147 	 10.02
131.085526321 	 43.38
132.0569658468 	 2.38
133.0647908789 	 9.54
133.1011763852 	 4.9
141.0698762568 	 2.26
142.0777012889 	 3.2
143.085526321 	 3.6
145.0647908789 	 9.01
145.1011763852 	 45.63
146.072615911 	 37.05
147.0804409431 	 16.94
149.0960910073 	 11.07
153.0698762568 	 1.83
155.085526321 	 4.32
157.1011763852 	 2.93
158.072615911 	 1.85
159.0804409431 	 4.27
160.0882659752 	 1.65
161.0960910073 	 100
171.0804409431 	 3.87
173.0960910073 	 9.97
173.1324765136 	 17.95
175.1117410715 	 5.01
183.1168264494 	 4.98
185.0960910073 	 2.42
186.1039160394 	 7.99
201.1273911357 	 43.56
278.2114551161 	 12.33
END IONS

BEGIN IONS
PEPMASS=433.1129
CHARGE=1
MSLEVEL=2
RT=0
SOURCE_INSTRUMENT=qTOF
FILENAME=CCMSLIB00000084922.ms
IONMODE=Positive
ORGANISM=Natural
NAME=MLS002153939-01!Vitexin3681-93-4
PI=GNPS
DATACOLLECTOR=GNPS
SMILES=c1cc(ccc1c1cc(=O)c2c(cc(c(c2o1)C1[C@@H]([C@H]([C@@H]([C@@H](CO)O1)O)O)O)O)O)O
INCHI=InChI=1S/C21H20O10/c22-7-14-17(27)18(28)19(29)21(31-14)16-11(25)5-10(24)15-12(26)6-13(30-20(15)16)8-1-3-9(23)4-2-8/h1-6,14,17-19,21-25,27-29H,7H2/t14-,17-,18+,19-,21?/m1/s1
FORMULA=C21H20O10
PUBMED=N/A
SUBMITUSER=BIOADREM
LIBRARYQUALITY=0
SPECTRUMID=CCMSLIB00000084922
SCANS=3064
ID=CCMSLIB00000084922
121.0284053726 	 11.11
149.0233199947 	 2.72
187.0389700589 	 2.65
213.0546201231 	 2.72
228.0780952194 	 2.57
243.0287993031 	 6.22
261.0393639894 	 2.5
283.0600994315 	 69.44
284.0679244636 	 60.08
295.0600994315 	 15.02
297.0757494957 	 33.32
313.0706641178 	 100
323.0913995599 	 16.66
325.0706641178 	 7.64
337.0706641178 	 15.43
343.0812288041 	 11.29
351.086314182 	 8.8
379.0812288041 	 13.75
397.0917934904 	 23.7
415.1023581767 	 6.04
433.112922863 	 0
END IONS

BEGIN IONS
PEPMASS=483.1286
CHARGE=1
MSLEVEL=2
RT=0
SOURCE_INSTRUMENT=qTOF
FILENAME=CCMSLIB00000084923.ms
IONMODE=Positive
ORGANISM=Natural
NAME=MLS000028529-01!SILYBIN22888-70-6
PI=GNPS
DATACOLLECTOR=GNPS
SMILES=COc1cc(ccc1O)C1C(CO)Oc2ccc(cc2O1)C1C(C(=O)c2c(cc(cc2O1)O)O)O
INCHI=InChI=1S/C25H22O10/c1-32-17-6-11(2-4-14(17)28)24-20(10-26)33-16-5-3-12(7-18(16)34-24)25-23(31)22(30)21-15(29)8-13(27)9-19(21)35-25/h2-9,20,23-29,31H,10H2,1H3
FORMULA=C25H22O10
PUBMED=N/A
SUBMITUSER=BIOADREM
LIBRARYQUALITY=0
SPECTRUMID=CCMSLIB00000084923
SCANS=3065
ID=CCMSLIB00000084923
103.0542261926 	 6.32
119.0491408147 	 7.83
121.0284053726 	 12.43
130.0413157826 	 8.39
131.0491408147 	 23.85
133.0284053726 	 10.56
133.0647908789 	 6.92
135.0440554368 	 9.3
137.059705501 	 23.95
139.0389700589 	 14.96
146.0362304047 	 5.81
147.0440554368 	 27.39
149.0233199947 	 39.67
149.059705501 	 22.23
153.0182346168 	 100
159.0440554368 	 5.86
161.059705501 	 12.28
162.0675305331 	 29.61
165.0546201231 	 5.56
167.033884681 	 12.89
173.059705501 	 6.32
180.0780952194 	 10.41
195.0287993031 	 29
195.0804409431 	 6.67
201.0546201231 	 13.59
223.0753555652 	 6.37
229.0495347452 	 22.39
239.0702701873 	 7.78
241.0495347452 	 10.86
251.0702701873 	 10.81
257.0444493673 	 17.69
267.0651848094 	 5.41
279.0651848094 	 5.26
283.0964849378 	 12.03
295.0600994315 	 6.01
391.1176143104 	 7.58
483.1285729272 	 0
END IONS

BEGIN IONS
PEPMASS=605.3075
CHARGE=1
MSLEVEL=2
RT=0
SOURCE_INSTRUMENT=qTOF
FILENAME=CCMSLIB00000084924.ms
IONMODE=Positive
ORGANISM=Natural
NAME=MLS000859999-01!Dilazep dihydrochloride
PI=GNPS
DATACOLLECTOR=GNPS
SMILES=COc1cc(cc(c1OC)OC)C(=O)OCCCN1CCCN(CCCOC(=O)c2cc(c(c(c2)OC)OC)OC)CC1
INCHI=InChI=1S/C31H44N2O10/c1-36-24-18-22(19-25(37-2)28(24)40-5)30(34)42-16-8-12-32-10-7-11-33(15-14-32)13-9-17-43-31(35)23-20-26(38-3)29(41-6)27(21-23)39-4/h18-21H,7-17H2,1-6H3
FORMULA=C31H44N2O10
PUBMED=N/A
SUBMITUSER=BIOADREM
LIBRARYQUALITY=0
SPECTRUMID=CCMSLIB00000084924
SCANS=3066
ID=CCMSLIB00000084924
95.0491408147 	 0.21
96.0807752941 	 0.77
98.0964253583 	 1.22
108.0807752941 	 0.28
109.0284053726 	 0.23
109.0647908789 	 0.47
110.0964253583 	 0.98
111.0916743314 	 0.98
121.0284053726 	 0.26
122.0362304047 	 0.52
122.0964253583 	 0.49
124.0518804689 	 0.77
124.1120754225 	 0.2
125.1073243956 	 0.4
128.046795091 	 0.28
137.0233199947 	 0.44
139.0753555652 	 1.91
140.0791578519 	 0.28
140.1307994919 	 0.41
141.0182346168 	 0.35
152.046795091 	 4.13
153.138624524 	 9.62
156.0417097131 	 0.69
167.0702701873 	 2.51
167.1542745882 	 0.35
168.074072474 	 0.32
179.1542745882 	 0.5
181.1699246524 	 0.81
194.0937452836 	 0.45
195.0651848094 	 100
196.0689870961 	 16.18
197.1648392745 	 0.2
212.0679244636 	 0.29
253.1070496241 	 26.54
255.1101236293 	 0.5
296.1492487898 	 0.99
310.164898854 	 2.48
350.1836229234 	 0.84
351.1914479555 	 0.28
363.1914479555 	 0.24
365.2070980197 	 1.09
366.2063697382 	 0.21
393.2383981481 	 12.53
394.2376698666 	 3.28
395.2387920786 	 0.44
605.3068716438 	 39.12
END IONS

BEGIN IONS
PEPMASS=386.2554
CHARGE=1
MSLEVEL=2
RT=0
SOURCE_INSTRUMENT=qTOF
FILENAME=CCMSLIB00000084927.ms
IONMODE=Positive
ORGANISM=Natural
NAME=MLS001076085-01!Buspar
PI=GNPS
DATACOLLECTOR=GNPS
SMILES=C1CCC2(C1)CC(=O)N(CCCCN1CCN(CC1)c1ncccn1)C(=O)C2
INCHI=InChI=1S/C21H31N5O2/c27-18-16-21(6-1-2-7-21)17-19(28)26(18)11-4-3-10-24-12-14-25(15-13-24)20-22-8-5-9-23-20/h5,8-9H,1-4,6-7,10-17H2
FORMULA=C21H31N5O2
PUBMED=N/A
SUBMITUSER=BIOADREM
LIBRARYQUALITY=0
SPECTRUMID=CCMSLIB00000084927
SCANS=3068
ID=CCMSLIB00000084927
96.0569658468 	 0.88
98.0964253583 	 3.39
107.085526321 	 0.9
109.0647908789 	 7.47
109.1011763852 	 5.42
122.072615911 	 100
124.1120754225 	 0.86
126.0913399804 	 0.89
133.0647908789 	 1.26
134.0964253583 	 0.37
135.0804409431 	 1.05
140.1069900446 	 7.19
148.0882659752 	 25.74
150.1039160394 	 23.86
152.1069900446 	 22.78
168.1019046667 	 15.53
180.1019046667 	 9.54
194.1539402372 	 0.71
222.1488548593 	 26.51
265.191054025 	 20.53
291.2067040892 	 1.38
386.2550512653 	 107.13
END IONS

BEGIN IONS
PEPMASS=595.2803
CHARGE=1
MSLEVEL=2
RT=0
SOURCE_INSTRUMENT=qTOF
FILENAME=CCMSLIB00000084931.ms
IONMODE=Positive
ORGANISM=Natural
NAME=MLS001148225-01!(-)-BEBEERINE
PI=GNPS
DATACOLLECTOR=GNPS
SMILES=CN1CCc2cc(c3cc2[C@H]1Cc1ccc(cc1)Oc1c2c(CCN(C)[C@@H]2Cc2ccc(c(c2)O3)O)cc(c1O)OC)OC
INCHI=InChI=1S/C36H38N2O6/c1-37-13-11-23-18-31(41-3)32-20-26(23)27(37)15-21-5-8-25(9-6-21)43-36-34-24(19-33(42-4)35(36)40)12-14-38(2)28(34)16-22-7-10-29(39)30(17-22)44-32/h5-10,17-20,27-28,39-40H,11-16H2,1-4H3/t27-,28-/m1/s1
FORMULA=C36H38N2O6
PUBMED=N/A
SUBMITUSER=BIOADREM
LIBRARYQUALITY=0
SPECTRUMID=CCMSLIB00000084931
SCANS=3071
ID=CCMSLIB00000084931
145.1011763852 	 9.42
161.0920682619 	 11.16
162.0913399804 	 8.19
175.0991650125 	 16.99
190.0862546025 	 12.08
206.0838492993 	 23.03
237.1233683903 	 10.64
239.0662474419 	 9.31
240.0780952194 	 11.46
252.074072474 	 14.02
253.0859202515 	 14.43
254.0937452836 	 12.49
266.1175547309 	 21.9
267.0975475703 	 18.83
279.0975475703 	 12.69
281.0960910073 	 10.54
281.1172203799 	 9.52
283.1202943851 	 12.18
284.1281194172 	 13.92
293.1131976345 	 9.52
297.1359444493 	 62.03
298.1437694814 	 100
308.1366727308 	 9.01
310.1437694814 	 31.63
315.125379763 	 9.52
329.1257736935 	 24.97
331.1328704441 	 9.83
372.1315873529 	 8.39
386.1750696098 	 30.6
387.1743413283 	 9.11
398.1472374171 	 8.39
411.1617652693 	 9.72
442.203964435 	 11.57
518.1723895351 	 8.39
521.1958646314 	 21.39
522.1911136045 	 18.01
523.1989386366 	 10.44
532.1992729876 	 9.11
533.1958646314 	 14.43
534.1911136045 	 11.77
535.1863625776 	 9.52
536.2067636687 	 10.54
549.2020126418 	 12.59
552.2380637971 	 29.58
553.2333127702 	 21.9
564.2380637971 	 51.59
565.2333127702 	 28.35
566.2411378023 	 12.18
595.2802629628 	 278.51
END IONS

BEGIN IONS
PEPMASS=356.0029
CHARGE=1
MSLEVEL=2
RT=0
SOURCE_INSTRUMENT=qTOF
FILENAME=CCMSLIB00000084934.ms
IONMODE=Positive
ORGANISM=Natural
NAME=MLS001074886-01!BIO
PI=GNPS
DATACOLLECTOR=GNPS
SMILES=c1ccc2c(c1)C(=NO)C(=N2)c1c2ccc(cc2[nH]c1O)Br
INCHI=InChI=1S/C16H10BrN3O2/c17-8-5-6-9-12(7-8)19-16(21)13(9)15-14(20-22)10-3-1-2-4-11(10)18-15/h1-7,19,21-22H
FORMULA=C16H10BrN3O2
PUBMED=N/A
SUBMITUSER=BIOADREM
LIBRARYQUALITY=0
SPECTRUMID=CCMSLIB00000084934
SCANS=3074
ID=CCMSLIB00000084934
190.0651252299 	 1.39
205.0760242672 	 13.96
217.0760242672 	 8.77
219.0916743314 	 1.34
229.0760242672 	 1.05
230.0712732403 	 2.37
231.0790982724 	 4.98
232.0869233045 	 9.31
247.0865889535 	 2.56
258.0661878624 	 1.29
259.0740128945 	 14.74
260.0818379266 	 100
277.0845775808 	 3.16
282.9865368351 	 1.62
283.9943618672 	 0.94
309.9974358724 	 0.79
311.0052609045 	 3.81
337.9923504945 	 17.09
356.0029151808 	 0
END IONS

BEGIN IONS
PEPMASS=361.1999
CHARGE=1
MSLEVEL=2
RT=0
SOURCE_INSTRUMENT=qTOF
FILENAME=CCMSLIB00000084937.ms
IONMODE=Positive
ORGANISM=Natural
NAME=MLS001333164-01!Aldosterone52-39-1
PI=GNPS
DATACOLLECTOR=GNPS
SMILES=C[C@]12CCC(=O)C=C1CC[C@H]1[C@@H]3CC[C@H](C(=O)CO)[C@]3(C[C@@H]([C@H]21)O)C=O
INCHI=InChI=1S/C21H28O5/c1-20-7-6-13(24)8-12(20)2-3-14-15-4-5-16(18(26)10-22)21(15,11-23)9-17(25)19(14)20/h8,11,14-17,19,22,25H,2-7,9-10H2,1H3/t14-,15-,16+,17-,19+,20-,21+/m0/s1
FORMULA=C21H28O5
PUBMED=N/A
SUBMITUSER=BIOADREM
LIBRARYQUALITY=0
SPECTRUMID=CCMSLIB00000084937
SCANS=3076
ID=CCMSLIB00000084937
109.0647908789 	 91.98
117.0698762568 	 46.77
119.085526321 	 28.95
121.0647908789 	 91.76
123.0804409431 	 74.16
128.0620512247 	 51.67
129.0698762568 	 44.1
131.085526321 	 79.06
141.0698762568 	 44.32
143.085526321 	 67.26
147.0804409431 	 30.07
154.0777012889 	 41.2
157.1011763852 	 72.83
159.0804409431 	 25.84
159.1168264494 	 36.08
163.0753555652 	 30.96
167.085526321 	 29.18
169.1011763852 	 35.41
171.1168264494 	 45.21
173.0960910073 	 36.08
181.1011763852 	 51.22
183.1168264494 	 44.32
195.1168264494 	 42.54
197.0960910073 	 26.28
197.1324765136 	 58.13
199.1117410715 	 31.85
225.1273911357 	 28.29
227.1430411999 	 49.44
237.163776642 	 28.06
239.1430411999 	 31.85
240.150866232 	 62.81
249.1273911357 	 39.42
255.137955822 	 28.51
265.1586912641 	 41.87
270.1614309183 	 28.51
299.1641705725 	 100
300.1719956046 	 32.29
315.1954707009 	 65.48
325.1798206367 	 49.89
343.190385323 	 80.18
361.2009500093 	 38.08
END IONS

BEGIN IONS
PEPMASS=437.0043
CHARGE=1
MSLEVEL=2
RT=0
SOURCE_INSTRUMENT=qTOF
FILENAME=CCMSLIB00000084939.ms
IONMODE=Positive
ORGANISM=Natural
NAME=MLS002154122-01!Sertaconazole nitrate99592-39-9
PI=GNPS
DATACOLLECTOR=GNPS
SMILES=c1cc2c(COC(Cn3ccnc3)c3ccc(cc3Cl)Cl)csc2c(c1)Cl
INCHI=InChI=1S/C20H15Cl3N2OS/c21-14-4-5-16(18(23)8-14)19(9-25-7-6-24-12-25)26-10-13-11-27-20-15(13)2-1-3-17(20)22/h1-8,11-12,19H,9-10H2
FORMULA=C20H15Cl3N2OS
PUBMED=N/A
SUBMITUSER=BIOADREM
LIBRARYQUALITY=0
SPECTRUMID=CCMSLIB00000084939
SCANS=3077
ID=CCMSLIB00000084939
102.0464011605 	 0.42
137.0152538705 	 0.33
145.0106468184 	 2.84
146.0184718505 	 1.82
149.0152538705 	 0.53
158.9762815484 	 1.16
172.9919316126 	 0.21
180.9873245605 	 100
181.9917787742 	 13.66
182.9870277473 	 33.63
234.0497719789 	 0.65
256.0107996568 	 0.3
268.0107996568 	 0.89
269.0186246889 	 0.49
270.0105028436 	 0.22
303.9874773989 	 0.69
304.9793555536 	 0.27
338.9563301089 	 0.21
340.9560332957 	 0.24
437.004342934 	 3.96
END IONS

BEGIN IONS
PEPMASS=273.1598
CHARGE=1
MSLEVEL=2
RT=0
SOURCE_INSTRUMENT=qTOF
FILENAME=CCMSLIB00000084943.ms
IONMODE=Positive
ORGANISM=Natural
NAME=MLS002153377-01!1-PIPERIDINYLETHYL-1H-INDOLE-3-CARBOXYLATE HYDROCHLORIDE135938-17-9
PI=GNPS
DATACOLLECTOR=GNPS
SMILES=C1CCN(CC1)CCOC(=O)c1c[nH]c2ccccc12
INCHI=InChI=1S/C16H20N2O2/c19-16(20-11-10-18-8-4-1-5-9-18)14-12-17-15-7-3-2-6-13(14)15/h2-3,6-7,12,17H,1,4-5,8-11H2
FORMULA=C16H20N2O2
PUBMED=N/A
SUBMITUSER=BIOADREM
LIBRARYQUALITY=0
SPECTRUMID=CCMSLIB00000084943
SCANS=3079
ID=CCMSLIB00000084943
89.0385761284 	 0.33
112.1120754225 	 37.54
116.0494751657 	 11.89
130.1226401088 	 23.8
144.0443897878 	 100
188.0706045383 	 26.7
273.1597538966 	 0
END IONS

BEGIN IONS
PEPMASS=581.188
CHARGE=1
MSLEVEL=2
RT=0
SOURCE_INSTRUMENT=qTOF
FILENAME=CCMSLIB00000084948.ms
IONMODE=Positive
ORGANISM=Natural
NAME=MLS001335956-01!Naringin10236-47-2
PI=GNPS
DATACOLLECTOR=GNPS
SMILES=C[C@H]1[C@@H]([C@H]([C@H]([C@@H](O1)O[C@@H]1[C@H]([C@@H]([C@@H](CO)O[C@H]1Oc1cc(c2C(=O)CC(c3ccc(cc3)O)Oc2c1)O)O)O)O)O)O
INCHI=InChI=1S/C27H32O14/c1-10-20(32)22(34)24(36)26(37-10)41-25-23(35)21(33)18(9-28)40-27(25)38-13-6-14(30)19-15(31)8-16(39-17(19)7-13)11-2-4-12(29)5-3-11/h2-7,10,16,18,20-30,32-36H,8-9H2,1H3/t10-,16?,18+,20-,21+,22+,23-,24+,25+,26-,27+/m0/s1
FORMULA=C27H32O14
PUBMED=N/A
SUBMITUSER=BIOADREM
LIBRARYQUALITY=0
SPECTRUMID=CCMSLIB00000084948
SCANS=3082
ID=CCMSLIB00000084948
121.0647908789 	 4.74
123.0440554368 	 2.57
147.0440554368 	 26.7
153.0182346168 	 91.28
165.0182346168 	 8.31
171.0287993031 	 8.92
179.033884681 	 7.76
195.0287993031 	 23.83
219.0287993031 	 6.5
231.0651848094 	 4.18
255.0651848094 	 3.12
261.0393639894 	 2.57
263.0550140536 	 9.12
271.0600994315 	 4.28
273.0757494957 	 100
285.0757494957 	 4.94
297.0757494957 	 2.72
315.086314182 	 3.07
581.1864817366 	 0
END IONS

BEGIN IONS
PEPMASS=329.1687
CHARGE=1
MSLEVEL=2
RT=0
SOURCE_INSTRUMENT=qTOF
FILENAME=CCMSLIB00000084949.ms
IONMODE=Positive
ORGANISM=Natural
NAME=MLS002154007-01!Methotrimeprazine maleate salt7104-38-3
PI=GNPS
DATACOLLECTOR=GNPS
SMILES=C[C@H](CN(C)C)CN1c2ccccc2Sc2ccc(cc12)OC
INCHI=InChI=1S/C19H24N2OS/c1-14(12-20(2)3)13-21-16-7-5-6-8-18(16)23-19-10-9-15(22-4)11-17(19)21/h5-11,14H,12-13H2,1-4H3/t14-/m1/s1
FORMULA=C19H24N2OS
PUBMED=N/A
SUBMITUSER=BIOADREM
LIBRARYQUALITY=0
SPECTRUMID=CCMSLIB00000084949
SCANS=3083
ID=CCMSLIB00000084949
100.1120754225 	 74.95
139.0178406863 	 1.31
144.0807752941 	 1.37
154.0651252299 	 1.72
166.0651252299 	 5.9
167.072950262 	 14.28
179.072950262 	 1.56
180.0807752941 	 2.39
185.0293708878 	 1.54
186.0371959199 	 14.78
194.060039852 	 6.07
195.0678648841 	 9.49
197.0835149483 	 1.52
198.0371959199 	 4.34
199.045020952 	 33.11
201.0368615689 	 1.8
208.0756899162 	 5.59
208.1120754225 	 2.24
209.0835149483 	 12.22
210.0913399804 	 100
211.045020952 	 3.7
212.0528459841 	 4.69
214.032110542 	 18.16
216.0318137288 	 1.97
226.032110542 	 1.61
227.0399355741 	 39
228.0443897878 	 7.83
229.0555856383 	 43.25
240.0477606062 	 2.26
241.0555856383 	 1.33
241.0919711446 	 1.84
242.0634106704 	 93.06
244.0631138572 	 3.55
251.1304651409 	 7.06
252.0841461125 	 1.7
253.0919711446 	 6.1
254.0634106704 	 3.99
255.0712357025 	 1.5
268.0790607346 	 4.66
269.0868857667 	 2.94
284.110360863 	 10.84
329.1682100929 	 4.49
END IONS

BEGIN IONS
PEPMASS=181.072
CHARGE=1
MSLEVEL=2
RT=0
SOURCE_INSTRUMENT=qTOF
FILENAME=CCMSLIB00000084951.ms
IONMODE=Positive
ORGANISM=Natural
NAME=MLS000859929-01!1,7-Dimethylxanthine
PI=GNPS
DATACOLLECTOR=GNPS
SMILES=Cn1cnc2c1c(=O)n(C)c(n2)O
INCHI=InChI=1S/C7H8N4O2/c1-10-3-8-5-4(10)6(12)11(2)7(13)9-5/h3H,1-2H3,(H,9,13)
FORMULA=C7H8N4O2
PUBMED=N/A
SUBMITUSER=BIOADREM
LIBRARYQUALITY=0
SPECTRUMID=CCMSLIB00000084951
SCANS=3085
ID=CCMSLIB00000084951
124.0505377982 	 100
163.0614368355 	 6.24
181.0720015218 	 0
END IONS

BEGIN IONS
PEPMASS=268.1907
CHARGE=1
MSLEVEL=2
RT=0
SOURCE_INSTRUMENT=qTOF
FILENAME=CCMSLIB00000084952.ms
IONMODE=Positive
ORGANISM=Natural
NAME=MLS001074128-01!ALPHA-[1-(T-BUTYLAMINO)ETHYL]-2,5-DIMETHOXYBENZYL ALCOHOL HYDROCHLORIDE
PI=GNPS
DATACOLLECTOR=GNPS
SMILES=C[C@@H]([C@@H](c1cc(ccc1OC)OC)O)NC(C)(C)C
INCHI=InChI=1S/C15H25NO3/c1-10(16-15(2,3)4)14(17)12-9-11(18-5)7-8-13(12)19-6/h7-10,14,16-17H,1-6H3/t10-,14-/m0/s1
FORMULA=C15H25NO3
PUBMED=N/A
SUBMITUSER=BIOADREM
LIBRARYQUALITY=0
SPECTRUMID=CCMSLIB00000084952
SCANS=3086
ID=CCMSLIB00000084952
91.0542261926 	 2.93
103.0542261926 	 5.45
104.0494751657 	 1.64
105.0334907505 	 1.8
105.0698762568 	 8.3
107.0491408147 	 2.83
108.0569658468 	 1.38
109.0647908789 	 4.66
115.0542261926 	 3
118.0651252299 	 7.98
119.0491408147 	 7.64
119.072950262 	 10.69
120.0569658468 	 4.42
121.0647908789 	 16.97
123.0440554368 	 32.47
130.0651252299 	 9.97
131.072950262 	 19.37
132.0443897878 	 11.05
133.0647908789 	 1.45
134.072615911 	 2.34
135.0804409431 	 21.25
136.0756899162 	 17.85
137.059705501 	 20.88
138.0675305331 	 56.34
145.0647908789 	 2.68
146.060039852 	 9
147.0440554368 	 17.18
147.0678648841 	 68.59
149.0960910073 	 4.51
153.0910056294 	 5.19
161.059705501 	 7.36
162.0675305331 	 34.78
162.0913399804 	 96.46
163.0753555652 	 12.23
164.0706045383 	 34.13
177.0910056294 	 4.68
178.0862546025 	 2.08
179.0940796346 	 58.07
194.1175547309 	 100
268.190719674 	 0
END IONS

BEGIN IONS
PEPMASS=264.1747
CHARGE=1
MSLEVEL=2
RT=0
SOURCE_INSTRUMENT=qTOF
FILENAME=CCMSLIB00000084953.ms
IONMODE=Positive
ORGANISM=Natural
NAME=MLS001077267-01!
PI=GNPS
DATACOLLECTOR=GNPS
SMILES=CNCCC=C1c2ccccc2CCc2ccccc12
INCHI=InChI=1S/C19H21N/c1-20-14-6-11-19-17-9-4-2-7-15(17)12-13-16-8-3-5-10-18(16)19/h2-5,7-11,20H,6,12-14H2,1H3
FORMULA=C19H21N
PUBMED=N/A
SUBMITUSER=BIOADREM
LIBRARYQUALITY=0
SPECTRUMID=CCMSLIB00000084953
SCANS=3087
ID=CCMSLIB00000084953
91.0542261926 	 15.66
103.0542261926 	 10.85
105.0698762568 	 32.34
115.0542261926 	 34.02
117.0698762568 	 50.79
127.0542261926 	 3.57
128.0620512247 	 19.03
129.0698762568 	 23.9
131.085526321 	 0.87
141.0698762568 	 14.45
152.0620512247 	 2.5
153.0698762568 	 8.24
154.0777012889 	 5.89
155.085526321 	 28.26
158.0964253583 	 1.02
165.0698762568 	 11.42
176.0620512247 	 1.05
177.0698762568 	 1.31
178.0777012889 	 58.04
179.085526321 	 30.22
189.0698762568 	 14.66
190.0777012889 	 22.42
191.085526321 	 100
202.0777012889 	 19.95
203.085526321 	 80.71
204.0933513531 	 49.31
205.1011763852 	 35.52
207.1168264494 	 2.12
215.085526321 	 7.53
217.1011763852 	 40.2
218.1090014173 	 46.73
231.1168264494 	 3.33
233.1324765136 	 16.57
264.1746756793 	 0.96
END IONS

BEGIN IONS
PEPMASS=375.254
CHARGE=1
MSLEVEL=2
RT=0
SOURCE_INSTRUMENT=qTOF
FILENAME=CCMSLIB00000084954.ms
IONMODE=Positive
ORGANISM=Natural
NAME=MLS001146901-01!21-ACETOXYPREGNENOLONE
PI=GNPS
DATACOLLECTOR=GNPS
SMILES=CC(=O)OCC(=O)[C@H]1CC[C@H]2[C@@H]3CC=C4C[C@H](CC[C@]4(C)[C@H]3CC[C@]12C)O
INCHI=InChI=1S/C23H34O4/c1-14(24)27-13-21(26)20-7-6-18-17-5-4-15-12-16(25)8-10-22(15,2)19(17)9-11-23(18,20)3/h4,16-20,25H,5-13H2,1-3H3/t16-,17-,18-,19-,20+,22-,23-/m0/s1
FORMULA=C23H34O4
PUBMED=N/A
SUBMITUSER=BIOADREM
LIBRARYQUALITY=0
SPECTRUMID=CCMSLIB00000084954
SCANS=3088
ID=CCMSLIB00000084954
95.085526321 	 12.05
105.0698762568 	 44.03
119.085526321 	 20.97
128.0620512247 	 10.54
131.085526321 	 38.01
133.1011763852 	 48.09
141.0698762568 	 25.96
142.0777012889 	 10.78
143.085526321 	 41.14
144.0933513531 	 17.38
145.1011763852 	 52.84
157.1011763852 	 44.61
159.1168264494 	 100
161.1324765136 	 29.2
166.0777012889 	 18.31
170.1090014173 	 13.56
171.1168264494 	 35.57
173.1324765136 	 31.87
181.1011763852 	 12.05
183.1168264494 	 50.06
185.1324765136 	 46
187.1481265778 	 20.74
208.1246514815 	 11.24
209.1324765136 	 27.35
210.1403015457 	 15.06
213.163776642 	 12.17
223.1481265778 	 28.85
225.163776642 	 16.22
237.163776642 	 27.23
255.2107268346 	 16.8
279.2107268346 	 47.62
297.2212915209 	 23.52
315.2318562072 	 18.19
375.2529855798 	 0
END IONS

BEGIN IONS
PEPMASS=362.117
CHARGE=1
MSLEVEL=2
RT=0
SOURCE_INSTRUMENT=qTOF
FILENAME=CCMSLIB00000084955.ms
IONMODE=Positive
ORGANISM=Natural
NAME=MLS001148205-01!41859-67-0
PI=GNPS
DATACOLLECTOR=GNPS
SMILES=CC(C)(C(=O)O)Oc1ccc(cc1)CCNC(=O)c1ccc(cc1)Cl
INCHI=InChI=1S/C19H20ClNO4/c1-19(2,18(23)24)25-16-9-3-13(4-10-16)11-12-21-17(22)14-5-7-15(20)8-6-14/h3-10H,11-12H2,1-2H3,(H,21,22)(H,23,24)
FORMULA=C19H20ClNO4
PUBMED=N/A
SUBMITUSER=BIOADREM
LIBRARYQUALITY=0
SPECTRUMID=CCMSLIB00000084955
SCANS=3089
ID=CCMSLIB00000084955
91.0542261926 	 3
93.0698762568 	 1.83
103.0542261926 	 5.69
105.0698762568 	 0.77
107.0491408147 	 0.73
110.9996038063 	 3.59
121.0647908789 	 58.68
133.0647908789 	 0.71
138.9945184284 	 100
143.085526321 	 0.73
161.0960910073 	 8.43
276.0785824088 	 2.42
362.1153618456 	 0
END IONS

BEGIN IONS
PEPMASS=355.2142
CHARGE=1
MSLEVEL=2
RT=0
SOURCE_INSTRUMENT=qTOF
FILENAME=CCMSLIB00000084957.ms
IONMODE=Positive
ORGANISM=Natural
NAME=MLS001148441-01!
PI=GNPS
DATACOLLECTOR=GNPS
SMILES=CC[N+]1(C)CCCC(C1)OC(=O)C(c1ccccc1)(c1ccccc1)O
INCHI=InChI=1S/C22H28NO3/c1-3-23(2)16-10-15-20(17-23)26-21(24)22(25,18-11-6-4-7-12-18)19-13-8-5-9-14-19/h4-9,11-14,20,25H,3,10,15-17H2,1-2H3/q+1
FORMULA=C22H28NO3
PUBMED=N/A
SUBMITUSER=BIOADREM
LIBRARYQUALITY=0
SPECTRUMID=CCMSLIB00000084957
SCANS=3090
ID=CCMSLIB00000084957
96.0807752941 	 0.71
97.0886003262 	 0.77
98.0964253583 	 2.46
105.0334907505 	 9.21
112.1120754225 	 0.42
114.0913399804 	 2.39
116.1069900446 	 0.51
126.1277254867 	 2.37
128.1433755509 	 0.79
144.138290173 	 100
165.0698762568 	 0.54
172.1332047951 	 2.52
183.0804409431 	 4.31
336.1958050519 	 0.28
354.2063697382 	 27.33
355.2141947703 	 0
END IONS

BEGIN IONS
PEPMASS=509.2345
CHARGE=1
MSLEVEL=2
RT=0
SOURCE_INSTRUMENT=qTOF
FILENAME=CCMSLIB00000084958.ms
IONMODE=Positive
ORGANISM=Natural
NAME=MLS001148580-01!6ALPHA,9ALPHA-DIFLUOROPREDNISOLONE 21-ACETATE 17-BUTYRATE
PI=GNPS
DATACOLLECTOR=GNPS
SMILES=CCCC(=O)O[C@@]1(CC[C@H]2[C@@H]3C[C@@H](C4=CC(=O)C=C[C@]4(C)[C@]3([C@H](C[C@]12C)O)F)F)C(=O)COC(=O)C
INCHI=InChI=1S/C27H34F2O7/c1-5-6-23(34)36-26(22(33)14-35-15(2)30)10-8-17-18-12-20(28)19-11-16(31)7-9-24(19,3)27(18,29)21(32)13-25(17,26)4/h7,9,11,17-18,20-21,32H,5-6,8,10,12-14H2,1-4H3/t17-,18-,20-,21-,24-,25-,26-,27-/m0/s1
FORMULA=C27H34F2O7
PUBMED=N/A
SUBMITUSER=BIOADREM
LIBRARYQUALITY=0
SPECTRUMID=CCMSLIB00000084958
SCANS=3091
ID=CCMSLIB00000084958
105.0698762568 	 16.17
117.0698762568 	 16.05
119.085526321 	 14.95
121.0647908789 	 78.93
143.085526321 	 12.51
145.0647908789 	 33.22
147.0804409431 	 35.93
159.0804409431 	 29.48
169.0647908789 	 15.13
171.0804409431 	 32.04
179.085526321 	 17.06
185.059705501 	 12.75
189.0698762568 	 21.9
195.0804409431 	 13.94
197.0960910073 	 12.69
207.0804409431 	 12.99
209.0960910073 	 18.69
221.0960910073 	 26.57
223.1117410715 	 15.1
229.1011763852 	 16.2
231.0804409431 	 14.18
231.1168264494 	 13.82
233.0960910073 	 18.78
233.1324765136 	 18.57
235.1117410715 	 26.36
237.0910056294 	 20.8
243.1168264494 	 19.08
245.0960910073 	 33.73
246.1039160394 	 50.49
247.1481265778 	 14.23
249.1273911357 	 24.81
251.1430411999 	 21.31
257.1324765136 	 13.79
259.1117410715 	 15.45
260.1195661036 	 47.96
261.1273911357 	 100
263.1066556936 	 18.9
263.1430411999 	 43.8
264.1144807257 	 20.03
275.1430411999 	 63
279.137955822 	 53.22
285.1273911357 	 27.37
288.1144807257 	 17.98
293.1536058862 	 24.4
303.137955822 	 33.31
321.1485205083 	 21.34
509.2345358461 	 0
END IONS

BEGIN IONS
PEPMASS=242.105
CHARGE=1
MSLEVEL=2
RT=0
SOURCE_INSTRUMENT=qTOF
FILENAME=CCMSLIB00000084960.ms
IONMODE=Positive
ORGANISM=Natural
NAME=MLS000859930-01!O6-Benzylguanine
PI=GNPS
DATACOLLECTOR=GNPS
SMILES=c1ccc(cc1)COc1c2c([nH]cn2)[nH]c(=N)n1
INCHI=InChI=1S/C12H11N5O/c13-12-16-10-9(14-7-15-10)11(17-12)18-6-8-4-2-1-3-5-8/h1-5,7H,6H2,(H3,13,14,15,16,17)
FORMULA=C12H11N5O
PUBMED=N/A
SUBMITUSER=BIOADREM
LIBRARYQUALITY=0
SPECTRUMID=CCMSLIB00000084960
SCANS=3092
ID=CCMSLIB00000084960
91.0542261926 	 100
118.0651252299 	 4.16
128.0494751657 	 3.28
145.0760242672 	 4.05
155.060374203 	 5.71
156.0681992351 	 1.41
157.0634482082 	 3.11
172.0869233045 	 15.3
182.0712732403 	 4.58
199.0978223418 	 8.99
242.1036360012 	 0
END IONS

BEGIN IONS
PEPMASS=226.098
CHARGE=1
MSLEVEL=2
RT=0
SOURCE_INSTRUMENT=qTOF
FILENAME=CCMSLIB00000084961.ms
IONMODE=Positive
ORGANISM=Natural
NAME=MLS000859935-01!beta;-Carboline-3-carboxylic acid N-methylamide
PI=GNPS
DATACOLLECTOR=GNPS
SMILES=CNC(=O)c1cc2c3ccccc3nc2c[nH]1
INCHI=InChI=1S/C13H11N3O/c1-14-13(17)11-6-9-8-4-2-3-5-10(8)16-12(9)7-15-11/h2-7,15H,1H3,(H,14,17)
FORMULA=C13H11N3O
PUBMED=N/A
SUBMITUSER=BIOADREM
LIBRARYQUALITY=0
SPECTRUMID=CCMSLIB00000084961
SCANS=3093
ID=CCMSLIB00000084961
113.0385761284 	 0.85
114.0338251015 	 0.67
116.0494751657 	 0.95
140.0494751657 	 76.59
159.0552888251 	 0.56
166.0525491709 	 3.53
167.060374203 	 100
181.0760242672 	 1.02
185.0709388893 	 63.58
208.0869233045 	 2.3
226.0974879908 	 0
END IONS

BEGIN IONS
PEPMASS=231.102
CHARGE=1
MSLEVEL=2
RT=0
SOURCE_INSTRUMENT=qTOF
FILENAME=CCMSLIB00000084963.ms
IONMODE=Positive
ORGANISM=Natural
NAME=MLS001148390-01!DL-KAWAIN
PI=GNPS
DATACOLLECTOR=GNPS
SMILES=COC1=CC(=O)OC(/C=C/c2ccccc2)C1
INCHI=InChI=1S/C14H14O3/c1-16-13-9-12(17-14(15)10-13)8-7-11-5-3-2-4-6-11/h2-8,10,12H,9H2,1H3/b8-7+
FORMULA=C14H14O3
PUBMED=N/A
SUBMITUSER=BIOADREM
LIBRARYQUALITY=0
SPECTRUMID=CCMSLIB00000084963
SCANS=3095
ID=CCMSLIB00000084963
55.0542261926 	 3.14
77.0385761284 	 3.25
103.0542261926 	 9.81
115.0542261926 	 63
126.0464011605 	 5.93
128.0620512247 	 69.5
129.0698762568 	 13.45
131.0491408147 	 6.73
141.0698762568 	 12.54
142.0777012889 	 12.2
145.0647908789 	 4.56
151.0542261926 	 14.65
152.0620512247 	 100
153.0698762568 	 83.24
157.0647908789 	 5.25
158.1090014173 	 3.14
169.0647908789 	 23.09
181.0647908789 	 21.27
185.0960910073 	 5.07
186.1039160394 	 4.56
213.0910056294 	 3.48
214.0988306615 	 3.88
231.1015703157 	 0
END IONS

BEGIN IONS
PEPMASS=323.1571
CHARGE=1
MSLEVEL=2
RT=0
SOURCE_INSTRUMENT=qTOF
FILENAME=CCMSLIB00000084964.ms
IONMODE=Positive
ORGANISM=Natural
NAME=MLS001201790-01!Mequitazine
PI=GNPS
DATACOLLECTOR=GNPS
SMILES=c1ccc2c(c1)N(CC1CN3CCC1CC3)c1ccccc1S2
INCHI=InChI=1S/C20H22N2S/c1-3-7-19-17(5-1)22(18-6-2-4-8-20(18)23-19)14-16-13-21-11-9-15(16)10-12-21/h1-8,15-16H,9-14H2
FORMULA=C20H22N2S
PUBMED=N/A
SUBMITUSER=BIOADREM
LIBRARYQUALITY=0
SPECTRUMID=CCMSLIB00000084964
SCANS=3096
ID=CCMSLIB00000084964
94.0651252299 	 1.6
96.0807752941 	 15.65
98.0964253583 	 3.18
110.0964253583 	 9.53
124.1120754225 	 13.64
125.1199004546 	 13.32
153.0698762568 	 1.4
166.0651252299 	 1.44
179.072950262 	 9.92
180.0807752941 	 51.56
185.0419469468 	 1.48
204.0807752941 	 1.64
205.0886003262 	 1.98
212.0528459841 	 100
224.0528459841 	 2
236.0528459841 	 13.1
237.0606710162 	 16.52
238.0684960483 	 7.94
244.1120754225 	 1.6
250.0684960483 	 5.67
251.0763210804 	 1.46
266.0997961767 	 1.32
276.0841461125 	 1.74
280.1154462409 	 2.23
306.1310963051 	 6.8
323.1576454066 	 113.68
END IONS

BEGIN IONS
PEPMASS=341.1616
CHARGE=1
MSLEVEL=2
RT=0
SOURCE_INSTRUMENT=qTOF
FILENAME=CCMSLIB00000084965.ms
IONMODE=Positive
ORGANISM=Natural
NAME=MLS002696003-01!84226-12-0
PI=GNPS
DATACOLLECTOR=GNPS
SMILES=CCc1cc(c(c(c1O)C(=NC[C@@H]1CCCN1CC)O)OC)Cl
INCHI=InChI=1S/C17H25ClN2O3/c1-4-11-9-13(18)16(23-3)14(15(11)21)17(22)19-10-12-7-6-8-20(12)5-2/h9,12,21H,4-8,10H2,1-3H3,(H,19,22)/t12-/m0/s1
FORMULA=C17H25ClN2O3
PUBMED=N/A
SUBMITUSER=BIOADREM
LIBRARYQUALITY=0
SPECTRUMID=CCMSLIB00000084965
SCANS=3097
ID=CCMSLIB00000084965
91.0542261926 	 0.17
98.0964253583 	 9.225
98.9996038063 	 0.14
103.0542261926 	 0.155
110.0964253583 	 1.845
112.1120754225 	 67.065
119.0491408147 	 0.2
121.0647908789 	 0.3
122.072615911 	 0.405
126.9945184284 	 0.3
127.0309039347 	 0.185
127.1229744598 	 0.135
141.0101684926 	 0.135
149.059705501 	 0.145
150.0675305331 	 0.29
154.0179935247 	 0.125
154.9894330505 	 4.695
155.1178890819 	 0.3
157.041468621 	 0.185
163.0389700589 	 0.38
167.0258185568 	 0.42
170.0129081468 	 0.21
178.0624451552 	 0.205
179.9972580826 	 0.125
182.9843476726 	 21.215
195.0207331789 	 0.19
196.9999977368 	 0.315
198.0078227689 	 41.245
213.0312978652 	 100
341.1626463892 	 12.625
END IONS

BEGIN IONS
PEPMASS=182.118
CHARGE=1
MSLEVEL=2
RT=0
SOURCE_INSTRUMENT=qTOF
FILENAME=CCMSLIB00000084966.ms
IONMODE=Positive
ORGANISM=Natural
NAME=MLS000881153-01!
PI=GNPS
DATACOLLECTOR=GNPS
SMILES=CCNCC(c1cccc(c1)O)O
INCHI=InChI=1S/C10H15NO2/c1-2-11-7-10(13)8-4-3-5-9(12)6-8/h3-6,10-13H,2,7H2,1H3
FORMULA=C10H15NO2
PUBMED=N/A
SUBMITUSER=BIOADREM
LIBRARYQUALITY=0
SPECTRUMID=CCMSLIB00000084966
SCANS=3098
ID=CCMSLIB00000084966
107.0491408147 	 47.69
109.0647908789 	 56.02
117.0573001978 	 41.67
118.0651252299 	 37.04
119.085526321 	 22.69
134.060039852 	 79.17
135.0678648841 	 78.24
136.0756899162 	 25
182.1175547309 	 0
END IONS

BEGIN IONS
PEPMASS=353.1985
CHARGE=1
MSLEVEL=2
RT=0
SOURCE_INSTRUMENT=qTOF
FILENAME=CCMSLIB00000084969.ms
IONMODE=Positive
ORGANISM=Natural
NAME=MLS001148169-01!
PI=GNPS
DATACOLLECTOR=GNPS
SMILES=C[N+]12CCC(CC1)C(C2)OC(=O)C(c1ccccc1)(c1ccccc1)O
INCHI=InChI=1S/C22H26NO3/c1-23-14-12-17(13-15-23)20(16-23)26-21(24)22(25,18-8-4-2-5-9-18)19-10-6-3-7-11-19/h2-11,17,20,25H,12-16H2,1H3/q+1
FORMULA=C22H26NO3
PUBMED=N/A
SUBMITUSER=BIOADREM
LIBRARYQUALITY=0
SPECTRUMID=CCMSLIB00000084969
SCANS=3100
ID=CCMSLIB00000084969
96.0807752941 	 2.25
98.0964253583 	 0.37
122.0964253583 	 0.26
124.1120754225 	 2.56
142.1226401088 	 100
170.1175547309 	 0.69
352.190719674 	 21.03
353.1985447061 	 0
END IONS

BEGIN IONS
PEPMASS=383.1363
CHARGE=1
MSLEVEL=2
RT=0
SOURCE_INSTRUMENT=qTOF
FILENAME=CCMSLIB00000084970.ms
IONMODE=Positive
ORGANISM=Natural
NAME=MLS001148459-01!(-)-BICUCULLINE METHIODIDE
PI=GNPS
DATACOLLECTOR=GNPS
SMILES=C[N+]1(C)CCc2cc3c(cc2[C@H]1[C@H]1c2ccc4c(c2C(=O)O1)OCO4)OCO3
INCHI=InChI=1S/C21H20NO6/c1-22(2)6-5-11-7-15-16(26-9-25-15)8-13(11)18(22)19-12-3-4-14-20(27-10-24-14)17(12)21(23)28-19/h3-4,7-8,18-19H,5-6,9-10H2,1-2H3/q+1/t18-,19+/m0/s1
FORMULA=C21H20NO6
PUBMED=N/A
SUBMITUSER=BIOADREM
LIBRARYQUALITY=0
SPECTRUMID=CCMSLIB00000084970
SCANS=3101
ID=CCMSLIB00000084970
121.0284053726 	 9.84035453040739
145.0886003262 	 3.1822307651236
149.0233199947 	 15.0835602541513
149.059705501 	 4.88547172833574
161.059705501 	 5.1310801430936
173.0835149483 	 4.92818623525015
174.0913399804 	 4.19670030434086
175.0991650125 	 7.18671578834962
177.0182346168 	 12.8250307010518
177.0546201231 	 4.60248812002776
177.0698762568 	 3.35308879278125
178.0777012889 	 4.40493352554861
188.0706045383 	 26.7659778952427
202.0862546025 	 3.44385711997437
203.0940796346 	 54.375567302045
204.0569658468 	 3.75353729510385
205.0647908789 	 13.1507288162742
221.059705501 	 5.61161834588072
233.059705501 	 40.183672379732
234.0675305331 	 5.34465267766565
235.0753555652 	 8.96470713866197
245.059705501 	 3.35308879278125
247.0753555652 	 12.1682951572428
249.0546201231 	 6.7221955256554
251.0702701873 	 10.2568209728229
261.0546201231 	 91.0459714880666
262.0624451552 	 9.8937476640504
263.0702701873 	 28.7361845266699
275.0702701873 	 3.43317849324577
277.0495347452 	 7.05323295424208
279.0651848094 	 21.1223236691761
281.0444493673 	 4.56511292647765
289.0495347452 	 100
290.0573597773 	 8.2972929681243
291.0651848094 	 28.9924715681563
292.0730098415 	 21.2664851300123
293.0808348736 	 4.72529232740669
303.0651848094 	 41.5879117945432
304.0730098415 	 8.85258155801164
307.0600994315 	 11.4314699129692
308.0679244636 	 8.94334988520476
309.0757494957 	 5.37668855785146
319.0600994315 	 47.3330129745315
320.0679244636 	 8.43077580223183
321.0757494957 	 17.57701959528
323.0550140536 	 3.59335789417481
337.0706641178 	 12.4139035720006
339.086314182 	 6.62608788509798
367.1050382514 	 3.35308879278125
382.1285133477 	 42.4582198729243
383.1363383798 	 0
END IONS

BEGIN IONS
PEPMASS=300.291
CHARGE=1
MSLEVEL=2
RT=0
SOURCE_INSTRUMENT=qTOF
FILENAME=CCMSLIB00000084972.ms
IONMODE=Positive
ORGANISM=Natural
NAME=MLS001332469-01!D-Sphingosine123-78-4
PI=GNPS
DATACOLLECTOR=GNPS
SMILES=CCCCCCCCCCCCC/C=C/[C@H]([C@H](CO)N)O
INCHI=InChI=1S/C18H37NO2/c1-2-3-4-5-6-7-8-9-10-11-12-13-14-15-18(21)17(19)16-20/h14-15,17-18,20-21H,2-13,16,19H2,1H3/b15-14+/t17-,18+/m0/s1
FORMULA=C18H37NO2
PUBMED=N/A
SUBMITUSER=BIOADREM
LIBRARYQUALITY=0
SPECTRUMID=CCMSLIB00000084972
SCANS=3103
ID=CCMSLIB00000084972
91.0542261926 	 6.94
93.0698762568 	 7.81
94.0651252299 	 8.51
95.085526321 	 14.86
96.0807752941 	 10.48
97.1011763852 	 6.31
107.085526321 	 14.47
108.0807752941 	 3.99
109.1011763852 	 11.46
111.1168264494 	 4.94
124.1120754225 	 3.01
135.1168264494 	 9.74
170.1903257435 	 3.33
208.2059758077 	 2.59
236.2372759361 	 1.96
252.2685760645 	 94.01
264.2685760645 	 95.27
282.2791407508 	 100
300.2897054371 	 0
END IONS

BEGIN IONS
PEPMASS=285.0759
CHARGE=1
MSLEVEL=2
RT=0
SOURCE_INSTRUMENT=qTOF
FILENAME=CCMSLIB00000084976.ms
IONMODE=Positive
ORGANISM=Natural
NAME=MLS002153960-01!Acacetin480-44-4
PI=GNPS
DATACOLLECTOR=GNPS
SMILES=COc1ccc(cc1)c1cc(=O)c2c(cc(cc2o1)O)O
INCHI=InChI=1S/C16H12O5/c1-20-11-4-2-9(3-5-11)14-8-13(19)16-12(18)6-10(17)7-15(16)21-14/h2-8,17-18H,1H3
FORMULA=C16H12O5
PUBMED=N/A
SUBMITUSER=BIOADREM
LIBRARYQUALITY=0
SPECTRUMID=CCMSLIB00000084976
SCANS=3107
ID=CCMSLIB00000084976
103.0542261926 	 0.55
133.0647908789 	 2.07
159.0440554368 	 0.53
185.059705501 	 0.79
196.0518804689 	 0.59
213.0546201231 	 1.37
214.0624451552 	 0.94
216.0417097131 	 1.19
241.0495347452 	 2.18
242.0573597773 	 100
270.0522743994 	 20.81
285.0757494957 	 32.33
END IONS

BEGIN IONS
PEPMASS=387.1703
CHARGE=1
MSLEVEL=2
RT=0
SOURCE_INSTRUMENT=qTOF
FILENAME=CCMSLIB00000084978.ms
IONMODE=Positive
ORGANISM=Natural
NAME=MLS001056593-01!
PI=GNPS
DATACOLLECTOR=GNPS
SMILES=CCCc1c(c2ccc(cc2)O)nn(c2ccc(cc2)O)c1c1ccc(cc1)O
INCHI=InChI=1S/C24H22N2O3/c1-2-3-22-23(16-4-10-19(27)11-5-16)25-26(18-8-14-21(29)15-9-18)24(22)17-6-12-20(28)13-7-17/h4-15,27-29H,2-3H2,1H3
FORMULA=C24H22N2O3
PUBMED=N/A
SUBMITUSER=BIOADREM
LIBRARYQUALITY=0
SPECTRUMID=CCMSLIB00000084978
SCANS=3108
ID=CCMSLIB00000084978
107.0491408147 	 13.49
108.0443897878 	 7.02
119.0491408147 	 19.17
120.0443897878 	 44.79
131.0491408147 	 4.08
132.0443897878 	 13.75
133.0522148199 	 19.68
153.0698762568 	 2.74
162.0913399804 	 9.88
180.0807752941 	 4.28
181.0647908789 	 14.09
183.0678648841 	 4.98
184.0756899162 	 2.79
196.0756899162 	 7.32
197.059705501 	 3.71
198.0913399804 	 9.88
199.0753555652 	 14.45
212.0706045383 	 97.95
224.0706045383 	 11.96
225.0784295704 	 100
226.0862546025 	 81.76
227.0815035756 	 43.3
238.0862546025 	 40.06
269.1284537682 	 3.39
316.0968192888 	 3.93
327.112803704 	 3.5
342.099893294 	 3.1
343.1077183261 	 30.52
344.1155433582 	 29.72
345.1233683903 	 77.09
357.1233683903 	 38.24
387.1703185829 	 356.45
END IONS

BEGIN IONS
PEPMASS=268.103
CHARGE=1
MSLEVEL=2
RT=0
SOURCE_INSTRUMENT=qTOF
FILENAME=CCMSLIB00000084979.ms
IONMODE=Positive
ORGANISM=Natural
NAME=MLS001066352-01!Adenine 9-beta;-D-arabinofuranoside
PI=GNPS
DATACOLLECTOR=GNPS
SMILES=C([C@@H]1[C@H]([C@@H]([C@H](n2cnc3c(N)ncnc23)O1)O)O)O
INCHI=InChI=1S/C10H13N5O4/c11-8-5-9(13-2-12-8)15(3-14-5)10-7(18)6(17)4(1-16)19-10/h2-4,6-7,10,16-18H,1H2,(H2,11,12,13)/t4-,6-,7+,10-/m1/s1
FORMULA=C10H13N5O4
PUBMED=N/A
SUBMITUSER=BIOADREM
LIBRARYQUALITY=0
SPECTRUMID=CCMSLIB00000084979
SCANS=3109
ID=CCMSLIB00000084979
92.0256657184 	 4.99
93.0321480798 	 5.91
96.0443897878 	 5.64
119.035222085 	 14.04
136.0617711865 	 100
138.0661878624 	 3.94
268.1040299317 	 0
END IONS

BEGIN IONS
PEPMASS=358.2013
CHARGE=1
MSLEVEL=2
RT=0
SOURCE_INSTRUMENT=qTOF
FILENAME=CCMSLIB00000084982.ms
IONMODE=Positive
ORGANISM=Natural
NAME=MLS001333972-01!Nalbuphine hydrochloride hydrate
PI=GNPS
DATACOLLECTOR=GNPS
SMILES=C1CC(C1)CN1CC[C@]23c4c5ccc(c4O[C@H]2[C@H](CC[C@]3([C@H]1C5)O)O)O
INCHI=InChI=1S/C21H27NO4/c23-14-5-4-13-10-16-21(25)7-6-15(24)19-20(21,17(13)18(14)26-19)8-9-22(16)11-12-2-1-3-12/h4-5,12,15-16,19,23-25H,1-3,6-11H2/t15-,16+,19-,20-,21+/m0/s1
FORMULA=C21H27NO4
PUBMED=N/A
SUBMITUSER=BIOADREM
LIBRARYQUALITY=0
SPECTRUMID=CCMSLIB00000084982
SCANS=3112
ID=CCMSLIB00000084982
118.0651252299 	 1.435
147.0440554368 	 3.025
148.0756899162 	 0.71
157.0647908789 	 4.67
161.059705501 	 15.585
165.0698762568 	 3.26
169.0647908789 	 2.495
169.1011763852 	 1.74
171.0804409431 	 1.725
173.059705501 	 3.325
179.085526321 	 1.85
181.0647908789 	 0.625
183.0804409431 	 7.25
185.059705501 	 24.43
187.0753555652 	 4.155
198.0913399804 	 0.56
199.0753555652 	 8.305
200.1069900446 	 5.54
200.1433755509 	 2.975
201.0910056294 	 2.25
202.0862546025 	 2.235
210.0913399804 	 2.645
211.0753555652 	 11.485
214.0862546025 	 1.555
215.0940796346 	 0.79
216.1019046667 	 2.87
225.0910056294 	 2.35
226.0862546025 	 6.86
227.0940796346 	 1.82
228.1019046667 	 22.72
230.1175547309 	 4.575
237.0910056294 	 2.88
242.1175547309 	 1.055
252.1019046667 	 0.55
253.1097296988 	 0.555
254.1175547309 	 15.86
256.0968192888 	 0.775
268.1332047951 	 3.775
271.1202943851 	 4.825
272.1281194172 	 16.03
281.1410298272 	 1.3
294.1488548593 	 0.605
296.1645049235 	 18.27
312.1594195456 	 7.205
322.1801549877 	 4.72
340.190719674 	 100
358.2012843603 	 7.255
END IONS

BEGIN IONS
PEPMASS=308.149
CHARGE=1
MSLEVEL=2
RT=0
SOURCE_INSTRUMENT=qTOF
FILENAME=CCMSLIB00000084983.ms
IONMODE=Positive
ORGANISM=Natural
NAME=MLS002153944-01!Foliosidine2520-38-9
PI=GNPS
DATACOLLECTOR=GNPS
SMILES=CC(C)(C(COc1cccc2c(cc(=O)n(C)c12)OC)O)O
INCHI=InChI=1S/C16H21NO5/c1-16(2,20)13(18)9-22-11-7-5-6-10-12(21-4)8-14(19)17(3)15(10)11/h5-8,13,18,20H,9H2,1-4H3
FORMULA=C16H21NO5
PUBMED=N/A
SUBMITUSER=BIOADREM
LIBRARYQUALITY=0
SPECTRUMID=CCMSLIB00000084983
SCANS=3113
ID=CCMSLIB00000084983
104.0620512247 	 2.85
118.0651252299 	 2.2
132.0569658468 	 2.68
133.0522148199 	 5.95
144.0443897878 	 3.47
145.0284053726 	 4.95
146.060039852 	 12.83
147.0440554368 	 7.43
147.0678648841 	 5.19
148.0393044099 	 6.36
160.0756899162 	 5.19
162.0549544741 	 11.38
163.0627795062 	 10.25
172.0393044099 	 3.44
173.047129442 	 16.4
174.0549544741 	 12.86
175.0627795062 	 5.61
176.034219032 	 5.12
177.0784295704 	 7.46
188.0706045383 	 13.48
190.0498690962 	 26.27
191.0576941283 	 63.48
192.0655191604 	 15.58
202.0498690962 	 4.54
203.0576941283 	 4.09
205.0733441925 	 72.25
206.0811692246 	 100
218.0811692246 	 12.9
261.1359444493 	 2.72
290.1386841035 	 28.92
291.1465091356 	 2.72
308.1492487898 	 0
END IONS

BEGIN IONS
PEPMASS=235.1077
CHARGE=1
MSLEVEL=2
RT=0
SOURCE_INSTRUMENT=qTOF
FILENAME=CCMSLIB00000084984.ms
IONMODE=Positive
ORGANISM=Natural
NAME=MLS002172474-01!RX 821002
PI=GNPS
DATACOLLECTOR=GNPS
SMILES=COC1(COc2ccccc2O1)C1=NCCN1
INCHI=InChI=1S/C12H14N2O3/c1-15-12(11-13-6-7-14-11)8-16-9-4-2-3-5-10(9)17-12/h2-5H,6-8H2,1H3,(H,13,14)
FORMULA=C12H14N2O3
PUBMED=N/A
SUBMITUSER=BIOADREM
LIBRARYQUALITY=0
SPECTRUMID=CCMSLIB00000084984
SCANS=3114
ID=CCMSLIB00000084984
95.060374203 	 13.07
99.0552888251 	 1.11
105.0334907505 	 2.75
107.0491408147 	 1.69
111.0552888251 	 1.28
112.0631138572 	 1.81
120.0443897878 	 1.52
121.0284053726 	 11.75
122.0362304047 	 13.72
127.0865889535 	 9.57
133.0284053726 	 4.93
135.0440554368 	 7.09
146.060039852 	 4.18
147.0916743314 	 3.2
150.0311450268 	 3.27
159.0314793778 	 2.45
165.0546201231 	 31.3
174.0549544741 	 1.56
185.0709388893 	 2.33
203.0815035756 	 100
235.1077183261 	 0
END IONS

BEGIN IONS
PEPMASS=381.0312
CHARGE=1
MSLEVEL=2
RT=0
SOURCE_INSTRUMENT=qTOF
FILENAME=CCMSLIB00000084986.ms
IONMODE=Positive
ORGANISM=Natural
NAME=MLS000028626-01!
PI=GNPS
DATACOLLECTOR=GNPS
SMILES=c1cc(ccc1COC(Cn1ccnc1)c1ccc(cc1Cl)Cl)Cl
INCHI=InChI=1S/C18H15Cl3N2O/c19-14-3-1-13(2-4-14)11-24-18(10-23-8-7-22-12-23)16-6-5-15(20)9-17(16)21/h1-9,12,18H,10-11H2
FORMULA=C18H15Cl3N2O
PUBMED=N/A
SUBMITUSER=BIOADREM
LIBRARYQUALITY=0
SPECTRUMID=CCMSLIB00000084986
SCANS=3116
ID=CCMSLIB00000084986
89.0385761284 	 1.49
90.0464011605 	 0.48
98.9996038063 	 6.97
125.0152538705 	 100
136.0074288384 	 0.31
137.0152538705 	 0.56
171.9841065805 	 0.41
178.0777012889 	 0.63
212.0387289668 	 0.65
213.0465539989 	 0.54
247.0075816768 	 0.53
248.0154067089 	 0.94
282.9842594189 	 0.52
381.032272244 	 6.3
END IONS

BEGIN IONS
PEPMASS=342.1463
CHARGE=1
MSLEVEL=2
RT=0
SOURCE_INSTRUMENT=qTOF
FILENAME=CCMSLIB00000084987.ms
IONMODE=Positive
ORGANISM=Natural
NAME=MLS000069434-01!(RS)-(+/-)-SULPIRIDE15676-16-1
PI=GNPS
DATACOLLECTOR=GNPS
SMILES=CCN1CCCC1CN=C(c1cc(ccc1OC)S(=O)(=O)N)O
INCHI=InChI=1S/C15H23N3O4S/c1-3-18-8-4-5-11(18)10-17-15(19)13-9-12(23(16,20)21)6-7-14(13)22-2/h6-7,9,11H,3-5,8,10H2,1-2H3,(H,17,19)(H2,16,20,21)
FORMULA=C15H23N3O4S
PUBMED=N/A
SUBMITUSER=BIOADREM
LIBRARYQUALITY=0
SPECTRUMID=CCMSLIB00000084987
SCANS=3117
ID=CCMSLIB00000084987
98.0964253583 	 7.57
106.0372930372 	 0.78
108.0205803405 	 0.94
108.0443897878 	 2.9
112.1120754225 	 72.66
133.0284053726 	 1.74
134.0322076593 	 0.76
134.0634106704 	 0.78
144.0239511589 	 0.86
166.0260596489 	 1.92
170.9984646899 	 2.42
214.0168544083 	 100
285.0903537024 	 1.35
324.137638246 	 0.76
342.1482029323 	 27.61
END IONS

BEGIN IONS
PEPMASS=242.1439
CHARGE=1
MSLEVEL=2
RT=0
SOURCE_INSTRUMENT=qTOF
FILENAME=CCMSLIB00000084989.ms
IONMODE=Positive
ORGANISM=Natural
NAME=MLS001066371-01!Terbutryn886-50-0
PI=GNPS
DATACOLLECTOR=GNPS
SMILES=CCN=c1nc([nH]c(n1)SC)NC(C)(C)C
INCHI=InChI=1S/C10H19N5S/c1-6-11-7-12-8(15-10(2,3)4)14-9(13-7)16-5/h6H2,1-5H3,(H2,11,12,13,14,15)
FORMULA=C10H19N5S
PUBMED=N/A
SUBMITUSER=BIOADREM
LIBRARYQUALITY=0
SPECTRUMID=CCMSLIB00000084989
SCANS=3119
ID=CCMSLIB00000084989
91.032444893 	 1.84
96.0556231761 	 5.85
110.0461211223 	 3.8
121.0508721492 	 0.23
138.0774212507 	 13.24
141.0229428392 	 0.24
144.0589939945 	 10.69
158.0494919407 	 13.33
186.0807920691 	 100
242.1433923259 	 0.94
END IONS

BEGIN IONS
PEPMASS=252.146
CHARGE=1
MSLEVEL=2
RT=0
SOURCE_INSTRUMENT=qTOF
FILENAME=CCMSLIB00000084990.ms
IONMODE=Positive
ORGANISM=Natural
NAME=MLS001074890-01!NU6027
PI=GNPS
DATACOLLECTOR=GNPS
SMILES=C1CCC(CC1)COc1c(c(N)[nH]c(=N)n1)N=O
INCHI=InChI=1S/C11H17N5O2/c12-9-8(16-17)10(15-11(13)14-9)18-6-7-4-2-1-3-5-7/h7H,1-6H2,(H4,12,13,14,15)
FORMULA=C11H17N5O2
PUBMED=N/A
SUBMITUSER=BIOADREM
LIBRARYQUALITY=0
SPECTRUMID=CCMSLIB00000084990
SCANS=3120
ID=CCMSLIB00000084990
98.0586971813 	 21.94
99.0427127661 	 2.51
111.0301367071 	 56.58
113.0457867713 	 3.39
114.0298023561 	 4.23
124.0379617392 	 6.73
126.0536118034 	 12.12
128.0566858086 	 2.48
138.0410357444 	 41.89
141.0407013934 	 25.92
156.0516004307 	 100
252.1455008159 	 0
END IONS

BEGIN IONS
PEPMASS=242.0905
CHARGE=1
MSLEVEL=2
RT=0
SOURCE_INSTRUMENT=qTOF
FILENAME=CCMSLIB00000084996.ms
IONMODE=Positive
ORGANISM=Natural
NAME=MLS001032112-01!
PI=GNPS
DATACOLLECTOR=GNPS
SMILES=c1ccc(c(c1)C=NNC(=O)c1ccncc1)O
INCHI=InChI=1S/C13H11N3O2/c17-12-4-2-1-3-11(12)9-15-16-13(18)10-5-7-14-8-6-10/h1-9,17H,(H,16,18)
FORMULA=C13H11N3O2
PUBMED=N/A
SUBMITUSER=BIOADREM
LIBRARYQUALITY=0
SPECTRUMID=CCMSLIB00000084996
SCANS=3123
ID=CCMSLIB00000084996
93.0447241388 	 4.01
95.060374203 	 5.79
96.0443897878 	 0.67
103.0290740746 	 0.54
105.0447241388 	 70.24
106.0287397236 	 1.65
121.0396387609 	 100
123.0552888251 	 29.5
148.0505377982 	 2.93
157.0886003262 	 0.97
167.072950262 	 0.66
185.0835149483 	 2.01
242.0924026129 	 5.34
END IONS

BEGIN IONS
PEPMASS=297.1058
CHARGE=1
MSLEVEL=2
RT=0
SOURCE_INSTRUMENT=qTOF
FILENAME=CCMSLIB00000084997.ms
IONMODE=Positive
ORGANISM=Natural
NAME=MLS001240209-01!5-Phenyl-1,2,3,4,7,9-hexahydro-10-thia-6,9-diaza-benzo[a]azulen-8-one
PI=GNPS
DATACOLLECTOR=GNPS
SMILES=c1ccc(cc1)C1=NCC(=Nc2c1c1CCCCc1s2)O
INCHI=InChI=1S/C17H16N2OS/c20-14-10-18-16(11-6-2-1-3-7-11)15-12-8-4-5-9-13(12)21-17(15)19-14/h1-3,6-7H,4-5,8-10H2,(H,19,20)
FORMULA=C17H16N2OS
PUBMED=N/A
SUBMITUSER=BIOADREM
LIBRARYQUALITY=0
SPECTRUMID=CCMSLIB00000084997
SCANS=3124
ID=CCMSLIB00000084997
97.0106468184 	 1.89
104.0494751657 	 3.16
105.0698762568 	 3.35
111.0262968826 	 4.57
115.0542261926 	 2.79
117.0573001978 	 1.54
118.0651252299 	 2.06
130.0651252299 	 2.13
132.0807752941 	 6.9
133.0886003262 	 6.58
138.0371959199 	 6.85
139.057597011 	 26.91
143.072950262 	 2
149.0419469468 	 2.5
156.0807752941 	 7.63
165.0698762568 	 2.52
166.0684960483 	 100
167.072950262 	 11.26
169.0886003262 	 14.71
180.0807752941 	 1.91
182.0964253583 	 9.64
210.1277254867 	 17.7
218.0964253583 	 17.92
219.1042503904 	 6.7
224.0528459841 	 5.53
226.0559199893 	 2
235.1229744598 	 6.43
236.1307994919 	 6.1
241.0793950856 	 42.01
249.1022390177 	 1.48
263.1178890819 	 2.34
264.125714114 	 3.53
269.110695214 	 41.67
297.1056098361 	 92.93
END IONS

BEGIN IONS
PEPMASS=233.1038
CHARGE=1
MSLEVEL=2
RT=0
SOURCE_INSTRUMENT=qTOF
FILENAME=CCMSLIB00000084999.ms
IONMODE=Positive
ORGANISM=Natural
NAME=MLS002154190-01!Todralazine hydrochloride3778-76-5
PI=GNPS
DATACOLLECTOR=GNPS
SMILES=CCOC(=NNc1c2ccccc2cnn1)O
INCHI=InChI=1S/C11H12N4O2/c1-2-17-11(16)15-14-10-9-6-4-3-5-8(9)7-12-13-10/h3-7H,2H2,1H3,(H,13,14)(H,15,16)
FORMULA=C11H12N4O2
PUBMED=N/A
SUBMITUSER=BIOADREM
LIBRARYQUALITY=0
SPECTRUMID=CCMSLIB00000084999
SCANS=3125
ID=CCMSLIB00000084999
89.0385761284 	 15.12
90.0464011605 	 8.51
103.0416501336 	 20.66
104.0494751657 	 32.59
116.0494751657 	 12.73
117.0573001978 	 70.57
129.0447241388 	 5.47
130.0525491709 	 22.68
132.0681992351 	 42.64
144.0556231761 	 17.32
145.0634482082 	 100
147.0552888251 	 3.01
159.0665222134 	 69.32
161.0821722776 	 80.33
187.0614368355 	 42.72
233.1033016502 	 1.83
END IONS

BEGIN IONS
PEPMASS=251.1513
CHARGE=1
MSLEVEL=2
RT=0
SOURCE_INSTRUMENT=qTOF
FILENAME=CCMSLIB00000085000.ms
IONMODE=Positive
ORGANISM=Natural
NAME=MLS002172458-01!1,3-DIPROPYL-7-METHYLXANTHINE31542-63-9
PI=GNPS
DATACOLLECTOR=GNPS
SMILES=CCCn1c2c(c(=O)n(CCC)c1=O)n(C)cn2
INCHI=InChI=1S/C12H18N4O2/c1-4-6-15-10-9(14(3)8-13-10)11(17)16(7-5-2)12(15)18/h8H,4-7H2,1-3H3
FORMULA=C12H18N4O2
PUBMED=N/A
SUBMITUSER=BIOADREM
LIBRARYQUALITY=0
SPECTRUMID=CCMSLIB00000085000
SCANS=3126
ID=CCMSLIB00000085000
61.0634482082 	 0.49
96.0556231761 	 1.66
97.0396387609 	 1
108.0569658468 	 0.45
110.0712732403 	 0.97
123.0804409431 	 0.6
124.0505377982 	 100
138.0661878624 	 0.69
138.1025733687 	 1.95
148.0869233045 	 5.14
149.0457867713 	 2.92
150.0298023561 	 10.69
166.0974879908 	 9.25
167.0563514576 	 67.47
209.1033016502 	 35.64
251.1502518428 	 6
END IONS

BEGIN IONS
PEPMASS=288.2303
CHARGE=1
MSLEVEL=2
RT=0
SOURCE_INSTRUMENT=qTOF
FILENAME=CCMSLIB00000085001.ms
IONMODE=Positive
ORGANISM=Natural
NAME=MLS001076129-01!
PI=GNPS
DATACOLLECTOR=GNPS
SMILES=c1ccc(cc1)C(CCN1CCCC1)(C1CCCCC1)O
INCHI=InChI=1S/C19H29NO/c21-19(17-9-3-1-4-10-17,18-11-5-2-6-12-18)13-16-20-14-7-8-15-20/h1,3-4,9-10,18,21H,2,5-8,11-16H2
FORMULA=C19H29NO
PUBMED=N/A
SUBMITUSER=BIOADREM
LIBRARYQUALITY=0
SPECTRUMID=CCMSLIB00000085001
SCANS=3127
ID=CCMSLIB00000085001
85.0647908789 	 7.98
91.0542261926 	 26.31
95.085526321 	 29.4
105.0698762568 	 32.26
107.0491408147 	 20.36
115.0542261926 	 29.76
117.0698762568 	 100
121.1011763852 	 16.19
129.0698762568 	 53.45
131.085526321 	 16.67
133.0647908789 	 6.07
143.085526321 	 18.57
157.1011763852 	 17.02
189.1273911357 	 11.55
270.2216258719 	 71.9
288.2321905582 	 20
END IONS

BEGIN IONS
PEPMASS=404.2322
CHARGE=1
MSLEVEL=2
RT=0
SOURCE_INSTRUMENT=qTOF
FILENAME=CCMSLIB00000085003.ms
IONMODE=Positive
ORGANISM=Natural
NAME=MLS001148102-01!
PI=GNPS
DATACOLLECTOR=GNPS
SMILES=CN1C[C@@H](C[C@@H]2c3cccc4c3c(C[C@@H]12)cn4C)CN=C(O)OCc1ccccc1
INCHI=InChI=1S/C25H29N3O2/c1-27-14-18(13-26-25(29)30-16-17-7-4-3-5-8-17)11-21-20-9-6-10-22-24(20)19(12-23(21)27)15-28(22)2/h3-10,15,18,21,23H,11-14,16H2,1-2H3,(H,26,29)/t18-,21+,23+/m0/s1
FORMULA=C25H29N3O2
PUBMED=N/A
SUBMITUSER=BIOADREM
LIBRARYQUALITY=0
SPECTRUMID=CCMSLIB00000085003
SCANS=3129
ID=CCMSLIB00000085003
91.0542261926 	 65.31
144.0807752941 	 4.91
158.0964253583 	 21.88
168.0807752941 	 26.99
169.0886003262 	 13.25
170.0964253583 	 7.2
181.0886003262 	 35.58
182.0964253583 	 26.13
183.1042503904 	 14.7
184.1120754225 	 10.25
194.0964253583 	 11.26
195.1042503904 	 8.91
196.1120754225 	 20.1
206.0964253583 	 20.14
207.1042503904 	 10.31
208.1120754225 	 40.9
209.1199004546 	 22.55
210.1277254867 	 15.19
211.1229744598 	 13.62
213.138624524 	 3.99
220.1120754225 	 27.13
221.1199004546 	 37.41
222.1277254867 	 36.94
224.1307994919 	 3.59
225.138624524 	 3.92
234.1277254867 	 15.12
237.138624524 	 11.32
238.1464495561 	 5.31
239.1542745882 	 15.56
251.1542745882 	 25.11
258.1277254867 	 9.92
268.1808236897 	 13.86
269.1886487218 	 15.42
271.1355505188 	 4.45
272.1433755509 	 6.15
286.1590256151 	 3.63
296.1757383118 	 23.48
297.1471778376 	 5.29
300.1746756793 	 13.27
312.1746756793 	 51.63
313.178477966 	 100
343.216874845 	 7.33
360.2434239465 	 17.12
404.2332531907 	 108.64
END IONS

BEGIN IONS
PEPMASS=359.1965
CHARGE=1
MSLEVEL=2
RT=0
SOURCE_INSTRUMENT=qTOF
FILENAME=CCMSLIB00000085004.ms
IONMODE=Positive
ORGANISM=Natural
NAME=MLS001401433-01!ITOPRIDE HCl
PI=GNPS
DATACOLLECTOR=GNPS
SMILES=CN(C)CCOc1ccc(cc1)CN=C(c1ccc(c(c1)OC)OC)O
INCHI=InChI=1S/C20H26N2O4/c1-22(2)11-12-26-17-8-5-15(6-9-17)14-21-20(23)16-7-10-18(24-3)19(13-16)25-4/h5-10,13H,11-12,14H2,1-4H3,(H,21,23)
FORMULA=C20H26N2O4
PUBMED=N/A
SUBMITUSER=BIOADREM
LIBRARYQUALITY=0
SPECTRUMID=CCMSLIB00000085004
SCANS=3130
ID=CCMSLIB00000085004
79.0178406863 	 0.93
98.0362304047 	 0.9
103.0542261926 	 1.91
105.0698762568 	 2.02
107.072950262 	 0.91
109.0647908789 	 1.72
122.0362304047 	 3.58
122.072615911 	 1.05
126.0311450268 	 2.28
133.0647908789 	 13.33
137.059705501 	 4.34
165.0546201231 	 100
166.1226401088 	 21.37
359.1965333334 	 0
END IONS

BEGIN IONS
PEPMASS=654.2286
CHARGE=1
MSLEVEL=2
RT=0
SOURCE_INSTRUMENT=qTOF
FILENAME=CCMSLIB00000085006.ms
IONMODE=Positive
ORGANISM=Natural
NAME=MLS002153437-01!2-Bromo-alpha-ergocryptine methanesulfonate salt
PI=GNPS
DATACOLLECTOR=GNPS
SMILES=CC(C)C[C@H]1C(=O)N2CCC[C@H]2[C@]2(N1C(=O)[C@](C(C)C)(N=C(C1C=C3c4cccc5c4c(C[C@H]3N(C)C1)c(Br)[nH]5)O)O2)O
INCHI=InChI=1S/C32H40BrN5O5/c1-16(2)12-24-29(40)37-11-7-10-25(37)32(42)38(24)30(41)31(43-32,17(3)4)35-28(39)18-13-20-19-8-6-9-22-26(19)21(27(33)34-22)14-23(20)36(5)15-18/h6,8-9,13,16-18,23-25,34,42H,7,10-12,14-15H2,1-5H3,(H,35,39)/t18?,23-,24+,25+,31-,32+/m1/s1
FORMULA=C32H40BrN5O5
PUBMED=N/A
SUBMITUSER=BIOADREM
LIBRARYQUALITY=0
SPECTRUMID=CCMSLIB00000085006
SCANS=3132
ID=CCMSLIB00000085006
152.0706045383 	 2.74
181.1335391461 	 6.16
191.072950262 	 3.5
206.060039852 	 22.74
207.0678648841 	 94.09
208.0730098415 	 13.75
209.1284537682 	 5.17
211.1441038324 	 12.93
221.1073243956 	 13.73
222.1151494277 	 21.41
223.0865889535 	 6.96
224.0944139856 	 12.71
257.991287862 	 10.3
259.9916817925 	 12.97
266.1287881192 	 4.15
267.1339330766 	 2.3
269.991287862 	 2.79
275.0178369635 	 9.51
277.018230894 	 10.4
285.9862024841 	 25.89
286.9913474415 	 5.84
287.9865964146 	 26.18
291.1703185829 	 24.88
299.0178369635 	 6.21
301.0334870277 	 88.63
302.0386319851 	 19.18
303.0253276446 	 70.55
304.0291299313 	 13.63
305.0131455161 	 59.45
315.0127515856 	 2.99
317.0131455161 	 3.52
329.0284016498 	 5.27
331.0287955803 	 6.11
339.0464570172 	 2.45
346.0549507513 	 100
347.0600957087 	 18.5
348.0553446818 	 95.36
349.0546164003 	 25.5
355.044051714 	 7.76
357.0444456445 	 7.97
383.0389663361 	 21.02
384.0441112935 	 4.84
385.0393602666 	 18.17
398.0862508797 	 2.29
400.0866448102 	 3.1
426.0811655018 	 10.75
428.0815594323 	 9.46
636.2179933342 	 2.45
654.2285580205 	 7.85
END IONS

BEGIN IONS
PEPMASS=401.1443
CHARGE=1
MSLEVEL=2
RT=0
SOURCE_INSTRUMENT=qTOF
FILENAME=CCMSLIB00000085008.ms
IONMODE=Positive
ORGANISM=Natural
NAME=MLS002154089-01!Zuclopenthixol hydrochloride633-59-0
PI=GNPS
DATACOLLECTOR=GNPS
SMILES=c1ccc2c(c1)/C(=C/CCN1CCN(CC1)CCO)/c1cc(ccc1S2)Cl
INCHI=InChI=1S/C22H25ClN2OS/c23-17-7-8-22-20(16-17)18(19-4-1-2-6-21(19)27-22)5-3-9-24-10-12-25(13-11-24)14-15-26/h1-2,4-8,16,26H,3,9-15H2/b18-5-
FORMULA=C22H25ClN2OS
PUBMED=N/A
SUBMITUSER=BIOADREM
LIBRARYQUALITY=0
SPECTRUMID=CCMSLIB00000085008
SCANS=3133
ID=CCMSLIB00000085008
91.0542261926 	 1.78
96.0807752941 	 4.06
97.0760242672 	 15.32
100.0756899162 	 14.87
111.0916743314 	 3.79
112.0994993635 	 1.47
123.0916743314 	 1.6
124.0994993635 	 2.76
127.0865889535 	 1.86
128.0944139856 	 19.72
139.1229744598 	 34.79
141.1022390177 	 4.93
142.1100640498 	 2.11
143.1178890819 	 3.03
152.1307994919 	 1.36
162.0230789026 	 2.17
169.1335391461 	 4.96
192.9873245605 	 1.71
202.0777012889 	 3.77
203.085526321 	 15.37
210.0497719789 	 8.99
221.0419469468 	 94.45
231.0029746247 	 100
234.0497719789 	 19.6
235.057597011 	 73.69
236.0654220431 	 58.57
238.054379031 	 26.19
245.0186246889 	 5.51
255.0029746247 	 3.78
256.0107996568 	 10.81
269.0186246889 	 2.32
271.0342747531 	 76.7
328.092123983 	 7.46
356.1108480524 	 24.27
359.1105137014 	 1.56
401.144887835 	 38.13
END IONS

BEGIN IONS
PEPMASS=305.1985
CHARGE=1
MSLEVEL=2
RT=0
SOURCE_INSTRUMENT=qTOF
FILENAME=CCMSLIB00000085011.ms
IONMODE=Positive
ORGANISM=Natural
NAME=MLS000028616-01!ATROPINE METHYL NITRATE
PI=GNPS
DATACOLLECTOR=GNPS
SMILES=C[N+]1(C)[C@H]2CC[C@@H]1C[C@@H](C2)OC(=O)C(CO)c1ccccc1
INCHI=InChI=1S/C18H26NO3/c1-19(2)14-8-9-15(19)11-16(10-14)22-18(21)17(12-20)13-6-4-3-5-7-13/h3-7,14-17,20H,8-12H2,1-2H3/q+1/t14-,15+,16+,17?
FORMULA=C18H26NO3
PUBMED=N/A
SUBMITUSER=BIOADREM
LIBRARYQUALITY=0
SPECTRUMID=CCMSLIB00000085011
SCANS=3135
ID=CCMSLIB00000085011
91.0542261926 	 3.27
93.0698762568 	 5.71
95.085526321 	 2.92
96.0807752941 	 0.79
97.0886003262 	 0.43
103.0542261926 	 1.63
107.085526321 	 0.27
109.0886003262 	 0.59
110.0964253583 	 1.12
112.1120754225 	 0.44
121.0647908789 	 0.92
122.0964253583 	 0.72
124.1120754225 	 0.58
136.1120754225 	 0.49
138.1277254867 	 100
154.1226401088 	 1.04
304.190719674 	 47.24
305.1985447061 	 0
END IONS

BEGIN IONS
PEPMASS=521.229
CHARGE=1
MSLEVEL=2
RT=0
SOURCE_INSTRUMENT=qTOF
FILENAME=CCMSLIB00000085016.ms
IONMODE=Positive
ORGANISM=Natural
NAME=MLS002153993-01!Alclometasone dipropionate66734-13-2
PI=GNPS
DATACOLLECTOR=GNPS
SMILES=CCC(=O)OCC(=O)C1([C@H](C)C[C@H]2[C@@H]3[C@@H](CC4=CC(=O)C=C[C@]4(C)[C@H]3[C@H](C[C@]12C)O)Cl)OC(=O)CC
INCHI=InChI=1S/C28H37ClO7/c1-6-22(33)35-14-21(32)28(36-23(34)7-2)15(3)10-18-24-19(29)12-16-11-17(30)8-9-26(16,4)25(24)20(31)13-27(18,28)5/h8-9,11,15,18-20,24-25,31H,6-7,10,12-14H2,1-5H3/t15-,18+,19-,20+,24-,25+,26+,27+,28?/m1/s1
FORMULA=C28H37ClO7
PUBMED=N/A
SUBMITUSER=BIOADREM
LIBRARYQUALITY=0
SPECTRUMID=CCMSLIB00000085016
SCANS=3138
ID=CCMSLIB00000085016
121.0647908789 	 22.52
133.1011763852 	 7.77
135.0804409431 	 12.33
143.085526321 	 9.39
145.0647908789 	 6.76
147.0804409431 	 12.5
159.0804409431 	 15.02
161.0960910073 	 9.54
171.0804409431 	 100
185.0960910073 	 9.77
197.0960910073 	 14.32
205.1011763852 	 6.83
208.0882659752 	 12.37
209.093898122 	 13
211.1095481862 	 11.11
219.1168264494 	 8.3
221.0960910073 	 33.9
222.1017231541 	 14.16
223.1117410715 	 28.19
230.106808532 	 8.04
231.0782480578 	 8.97
231.1146335641 	 13.61
233.093898122 	 9.6
234.1017231541 	 12.64
235.1095481862 	 21.74
236.1195661036 	 8.86
237.1273911357 	 11.59
243.1146335641 	 7.02
244.1246514815 	 7.35
245.093898122 	 14.72
246.1017231541 	 14.49
247.1095481862 	 17.58
248.1173732183 	 32.24
249.1273911357 	 34.3
250.1330232825 	 8.13
259.1095481862 	 23.17
260.1173732183 	 17.52
261.1251982504 	 28.59
262.1352161678 	 29.64
263.1408483146 	 37.58
264.1486733467 	 9.33
271.1095481862 	 14.6
273.1251982504 	 12.46
274.1330232825 	 8.95
275.1408483146 	 32.01
276.1486733467 	 20.04
277.1586912641 	 37.91
279.172148443 	 28.5
286.1330232825 	 26.3
289.1564983788 	 9.51
291.172148443 	 23.61
301.1564983788 	 53.56
319.1670630651 	 18.44
337.1776277514 	 12.12
521.2300572524 	 0
END IONS

BEGIN IONS
PEPMASS=383.222
CHARGE=1
MSLEVEL=2
RT=0
SOURCE_INSTRUMENT=qTOF
FILENAME=CCMSLIB00000085017.ms
IONMODE=Positive
ORGANISM=Natural
NAME=MLS000028406-01!HEXESTROL DIPROPIONATE
PI=GNPS
DATACOLLECTOR=GNPS
SMILES=CCC(c1ccc(cc1)OC(=O)CC)C(CC)c1ccc(cc1)OC(=O)CC
INCHI=InChI=1S/C24H30O4/c1-5-21(17-9-13-19(14-10-17)27-23(25)7-3)22(6-2)18-11-15-20(16-12-18)28-24(26)8-4/h9-16,21-22H,5-8H2,1-4H3
FORMULA=C24H30O4
PUBMED=N/A
SUBMITUSER=BIOADREM
LIBRARYQUALITY=0
SPECTRUMID=CCMSLIB00000085017
SCANS=3139
ID=CCMSLIB00000085017
93.0698762568 	 0.32
103.0542261926 	 0.96
107.0491408147 	 100
117.0698762568 	 1.48
121.0647908789 	 12.99
135.0804409431 	 28.79
145.0647908789 	 6.52
163.0753555652 	 8.82
173.0960910073 	 0.61
191.1066556936 	 5.28
233.1536058862 	 0.69
383.2216854514 	 0
END IONS

BEGIN IONS
PEPMASS=256.1314
CHARGE=1
MSLEVEL=2
RT=0
SOURCE_INSTRUMENT=qTOF
FILENAME=CCMSLIB00000085018.ms
IONMODE=Positive
ORGANISM=Natural
NAME=MLS000069388-01!(R)-(+)-SKF-38393 HYDROCHLORIDE
PI=GNPS
DATACOLLECTOR=GNPS
SMILES=c1ccc(cc1)[C@H]1CNCCc2cc(c(cc12)O)O
INCHI=InChI=1S/C16H17NO2/c18-15-8-12-6-7-17-10-14(13(12)9-16(15)19)11-4-2-1-3-5-11/h1-5,8-9,14,17-19H,6-7,10H2/t14-/m1/s1
FORMULA=C16H17NO2
PUBMED=N/A
SUBMITUSER=BIOADREM
LIBRARYQUALITY=0
SPECTRUMID=CCMSLIB00000085018
SCANS=3140
ID=CCMSLIB00000085018
91.0542261926 	 50.36
102.0464011605 	 7.54
103.0542261926 	 19.8
105.0698762568 	 9.69
107.0491408147 	 2.88
109.0647908789 	 2.53
115.0542261926 	 30.61
119.0491408147 	 50.99
120.0807752941 	 28.69
127.0542261926 	 2.64
129.0698762568 	 11.89
130.0413157826 	 3.56
132.0807752941 	 2.7
137.059705501 	 100
141.0698762568 	 3.96
143.0491408147 	 16.8
148.0518804689 	 6.51
152.0620512247 	 6.84
153.0698762568 	 2.43
160.0756899162 	 2.17
161.059705501 	 13.01
164.0706045383 	 8.39
165.0698762568 	 18.52
166.0777012889 	 17.78
167.085526321 	 3.66
178.0777012889 	 49.87
181.0647908789 	 2.44
181.1011763852 	 5.79
191.085526321 	 4.29
193.1011763852 	 17.92
205.0647908789 	 5.49
221.0960910073 	 8.05
239.1066556936 	 5.53
256.1332047951 	 7.85
END IONS

BEGIN IONS
PEPMASS=331.1107
CHARGE=1
MSLEVEL=2
RT=0
SOURCE_INSTRUMENT=qTOF
FILENAME=CCMSLIB00000085021.ms
IONMODE=Positive
ORGANISM=Natural
NAME=MLS002153326-01!SB 205384160296-13-9
PI=GNPS
DATACOLLECTOR=GNPS
SMILES=CC#CCOC(=O)c1c(C)nc2c(c3CCC(Cc3s2)O)c1N
INCHI=InChI=1S/C17H18N2O3S/c1-3-4-7-22-17(21)13-9(2)19-16-14(15(13)18)11-6-5-10(20)8-12(11)23-16/h10,20H,5-8H2,1-2H3,(H2,18,19)
FORMULA=C17H18N2O3S
PUBMED=N/A
SUBMITUSER=BIOADREM
LIBRARYQUALITY=0
SPECTRUMID=CCMSLIB00000085021
SCANS=3141
ID=CCMSLIB00000085021
157.0760242672 	 0.56
162.0371959199 	 0.73
172.0631138572 	 0.7
174.0371959199 	 1.37
177.0480949572 	 0.52
182.0838492993 	 0.63
185.0709388893 	 0.64
188.0528459841 	 0.52
189.0480949572 	 7.35
191.0637450214 	 2.59
200.0528459841 	 3.17
200.0944139856 	 0.62
202.0525491709 	 0.55
203.0637450214 	 0.66
205.0430095793 	 0.83
206.0634106704 	 0.61
215.0637450214 	 2.81
217.0430095793 	 9.81
218.0634106704 	 23.23
220.0631138572 	 1.24
233.0743097077 	 2.99
234.0787639214 	 1
235.0535742656 	 0.52
235.0865889535 	 0.62
237.0692243298 	 1.75
243.0586596435 	 3.57
244.0631138572 	 0.77
245.0743097077 	 0.53
249.0692243298 	 0.5
259.0899597719 	 0.57
261.0692243298 	 100
262.0736785435 	 13.94
269.0743097077 	 0.86
273.0692243298 	 0.71
279.0797890161 	 29.62
280.0842432298 	 3.19
287.084874394 	 1.27
289.1005244582 	 1.4
313.1005244582 	 2.14
331.1110891445 	 10.35
END IONS

BEGIN IONS
PEPMASS=414.9935
CHARGE=1
MSLEVEL=2
RT=0
SOURCE_INSTRUMENT=qTOF
FILENAME=CCMSLIB00000085023.ms
IONMODE=Positive
ORGANISM=Natural
NAME=MLS002154207-01!Isoconazole27523-40-6
PI=GNPS
DATACOLLECTOR=GNPS
SMILES=c1cc(c(COC(Cn2ccnc2)c2ccc(cc2Cl)Cl)c(c1)Cl)Cl
INCHI=InChI=1S/C18H14Cl4N2O/c19-12-4-5-13(17(22)8-12)18(9-24-7-6-23-11-24)25-10-14-15(20)2-1-3-16(14)21/h1-8,11,18H,9-10H2
FORMULA=C18H14Cl4N2O
PUBMED=N/A
SUBMITUSER=BIOADREM
LIBRARYQUALITY=0
SPECTRUMID=CCMSLIB00000085023
SCANS=3142
ID=CCMSLIB00000085023
98.9996038063 	 0.93
122.9996038063 	 7.72
124.0074288384 	 2.28
132.9606314842 	 1.23
158.9762815484 	 100
162.9711961705 	 16.16
230.0133953362 	 0.25
414.9932999219 	 2.62
END IONS

BEGIN IONS
PEPMASS=350.183
CHARGE=1
MSLEVEL=2
RT=0
SOURCE_INSTRUMENT=qTOF
FILENAME=CCMSLIB00000085026.ms
IONMODE=Positive
ORGANISM=Natural
NAME=MLS000859974-01!LY-165,163
PI=GNPS
DATACOLLECTOR=GNPS
SMILES=c1cc(cc(c1)N1CCN(CCc2ccc(cc2)N)CC1)C(F)(F)F
INCHI=InChI=1S/C19H22F3N3/c20-19(21,22)16-2-1-3-18(14-16)25-12-10-24(11-13-25)9-8-15-4-6-17(23)7-5-15/h1-7,14H,8-13,23H2
FORMULA=C19H22F3N3
PUBMED=N/A
SUBMITUSER=BIOADREM
LIBRARYQUALITY=0
SPECTRUMID=CCMSLIB00000085026
SCANS=3144
ID=CCMSLIB00000085026
91.0542261926 	 0.89
94.0651252299 	 1.84
103.0542261926 	 13.75
118.0651252299 	 4.92
120.0807752941 	 100
261.086982884 	 0.21
350.1822802527 	 0.58
END IONS

BEGIN IONS
PEPMASS=173.1081
CHARGE=1
MSLEVEL=2
RT=0
SOURCE_INSTRUMENT=qTOF
FILENAME=CCMSLIB00000085028.ms
IONMODE=Positive
ORGANISM=Natural
NAME=MLS001074953-01!1-Benzyl-2-methylimidazole
PI=GNPS
DATACOLLECTOR=GNPS
SMILES=Cc1nccn1Cc1ccccc1
INCHI=InChI=1S/C11H12N2/c1-10-12-7-8-13(10)9-11-5-3-2-4-6-11/h2-8H,9H2,1H3
FORMULA=C11H12N2
PUBMED=N/A
SUBMITUSER=BIOADREM
LIBRARYQUALITY=0
SPECTRUMID=CCMSLIB00000085028
SCANS=3145
ID=CCMSLIB00000085028
91.0542261926 	 100
105.0573001978 	 6.23
117.0573001978 	 8.05
120.0807752941 	 6.69
173.1073243956 	 10.18
END IONS

BEGIN IONS
PEPMASS=444.1762
CHARGE=1
MSLEVEL=2
RT=0
SOURCE_INSTRUMENT=qTOF
FILENAME=CCMSLIB00000085029.ms
IONMODE=Positive
ORGANISM=Natural
NAME=MLS001146956-01!CIS-THIOTHIXENE
PI=GNPS
DATACOLLECTOR=GNPS
SMILES=CN(C)S(=O)(=O)c1ccc2c(c1)/C(=C/CCN1CCN(C)CC1)/c1ccccc1S2
INCHI=InChI=1S/C23H29N3O2S2/c1-24(2)30(27,28)18-10-11-23-21(17-18)19(20-7-4-5-9-22(20)29-23)8-6-12-26-15-13-25(3)14-16-26/h4-5,7-11,17H,6,12-16H2,1-3H3/b19-8+
FORMULA=C23H29N3O2S2
PUBMED=N/A
SUBMITUSER=BIOADREM
LIBRARYQUALITY=0
SPECTRUMID=CCMSLIB00000085029
SCANS=3146
ID=CCMSLIB00000085029
96.0807752941 	 7.45
97.0760242672 	 10.03
98.0838492993 	 29.95
111.0916743314 	 11.67
112.0994993635 	 4.38
113.1073243956 	 5.19
124.0994993635 	 2.36
125.1073243956 	 6.93
139.1229744598 	 23.64
140.1307994919 	 5.99
196.0341219147 	 4.15
197.0419469468 	 31.42
202.0777012889 	 9.91
203.085526321 	 16.75
210.0497719789 	 9.9
211.0535742656 	 2.78
213.0368615689 	 23.53
221.0419469468 	 100
222.0457492335 	 19.74
234.0497719789 	 16.54
235.057597011 	 77.87
236.0654220431 	 76.25
237.0692243298 	 21.54
251.0763210804 	 3.64
253.0681616973 	 15
261.003846881 	 5.19
278.0957734313 	 4.15
292.1154462409 	 15.91
294.1185202461 	 2.7
304.0460460467 	 61.71
318.0616961109 	 3.02
320.1341703103 	 2.44
335.1576454066 	 25.53
344.0773461751 	 69.23
401.135195405 	 3.8
429.1539194744 	 12.09
444.1773945707 	 104.57
END IONS

BEGIN IONS
PEPMASS=377.107
CHARGE=1
MSLEVEL=2
RT=0
SOURCE_INSTRUMENT=qTOF
FILENAME=CCMSLIB00000085034.ms
IONMODE=Positive
ORGANISM=Natural
NAME=MLS002153524-01!Capsazepine138977-28-3
PI=GNPS
DATACOLLECTOR=GNPS
SMILES=C1Cc2cc(c(cc2CN(C1)C(=NCCc1ccc(cc1)Cl)S)O)O
INCHI=InChI=1S/C19H21ClN2O2S/c20-16-5-3-13(4-6-16)7-8-21-19(25)22-9-1-2-14-10-17(23)18(24)11-15(14)12-22/h3-6,10-11,23-24H,1-2,7-9,12H2,(H,21,25)
FORMULA=C19H21ClN2O2S
PUBMED=N/A
SUBMITUSER=BIOADREM
LIBRARYQUALITY=0
SPECTRUMID=CCMSLIB00000085034
SCANS=3147
ID=CCMSLIB00000085034
91.0542261926 	 1.53
103.0542261926 	 5.44
105.0698762568 	 0.62
115.0542261926 	 0.86
117.0698762568 	 3.6
119.0491408147 	 0.81
119.085526321 	 0.72
133.0647908789 	 0.85
135.0804409431 	 4.73
137.059705501 	 100
145.0647908789 	 4.92
148.0518804689 	 0.78
163.0753555652 	 5.02
180.1019046667 	 2.94
377.1085023287 	 0
END IONS

BEGIN IONS
PEPMASS=328.1534
CHARGE=1
MSLEVEL=2
RT=0
SOURCE_INSTRUMENT=qTOF
FILENAME=CCMSLIB00000085035.ms
IONMODE=Positive
ORGANISM=Natural
NAME=MLS002153900-01!Scoulerine6451-73-6
PI=GNPS
DATACOLLECTOR=GNPS
SMILES=COc1ccc2C[C@H]3c4cc(c(cc4CCN3Cc2c1O)OC)O
INCHI=InChI=1S/C19H21NO4/c1-23-17-4-3-11-7-15-13-9-16(21)18(24-2)8-12(13)5-6-20(15)10-14(11)19(17)22/h3-4,8-9,15,21-22H,5-7,10H2,1-2H3/t15-/m0/s1
FORMULA=C19H21NO4
PUBMED=N/A
SUBMITUSER=BIOADREM
LIBRARYQUALITY=0
SPECTRUMID=CCMSLIB00000085035
SCANS=3148
ID=CCMSLIB00000085035
91.0542261926 	 0.63
118.0651252299 	 0.5
119.0491408147 	 3.73
134.060039852 	 3.22
135.0678648841 	 3.74
136.0518804689 	 1.95
151.0753555652 	 9.99
162.0549544741 	 0.65
163.0627795062 	 40.98
178.0862546025 	 100
252.1019046667 	 0.54
270.112469353 	 0.64
280.0968192888 	 0.72
284.1281194172 	 0.58
298.1073839751 	 0.95
312.1230340393 	 1.68
328.1543341677 	 13.4
END IONS

BEGIN IONS
PEPMASS=281.139
CHARGE=1
MSLEVEL=2
RT=0
SOURCE_INSTRUMENT=qTOF
FILENAME=CCMSLIB00000085036.ms
IONMODE=Positive
ORGANISM=Natural
NAME=MLS002207217-01!L-Histidine beta-naphthylamide7424-15-9
PI=GNPS
DATACOLLECTOR=GNPS
SMILES=c1ccc2cc(ccc2c1)N=C([C@H](Cc1cnc[nH]1)N)O
INCHI=InChI=1S/C16H16N4O/c17-15(8-14-9-18-10-19-14)16(21)20-13-6-5-11-3-1-2-4-12(11)7-13/h1-7,9-10,15H,8,17H2,(H,18,19)(H,20,21)/t15-/m0/s1
FORMULA=C16H16N4O
PUBMED=N/A
SUBMITUSER=BIOADREM
LIBRARYQUALITY=0
SPECTRUMID=CCMSLIB00000085036
SCANS=3149
ID=CCMSLIB00000085036
93.0447241388 	 18.26
110.0712732403 	 100
115.0542261926 	 1.53
127.0542261926 	 1.33
144.0807752941 	 3.16
166.0651252299 	 0.57
192.0807752941 	 0.83
219.0916743314 	 0.83
236.1182234329 	 2.16
281.1396871565 	 0
END IONS

BEGIN IONS
PEPMASS=373.2356
CHARGE=1
MSLEVEL=2
RT=0
SOURCE_INSTRUMENT=qTOF
FILENAME=CCMSLIB00000085038.ms
IONMODE=Positive
ORGANISM=Natural
NAME=MLS001074065-01!DEOXYCORTICOSTERONE ACETATE
PI=GNPS
DATACOLLECTOR=GNPS
SMILES=CC(=O)OCC(=O)[C@H]1CC[C@H]2[C@@H]3CCC4=CC(=O)CC[C@]4(C)[C@H]3CC[C@]12C
INCHI=InChI=1S/C23H32O4/c1-14(24)27-13-21(26)20-7-6-18-17-5-4-15-12-16(25)8-10-22(15,2)19(17)9-11-23(18,20)3/h12,17-20H,4-11,13H2,1-3H3/t17-,18-,19-,20+,22-,23-/m0/s1
FORMULA=C23H32O4
PUBMED=N/A
SUBMITUSER=BIOADREM
LIBRARYQUALITY=0
SPECTRUMID=CCMSLIB00000085038
SCANS=3150
ID=CCMSLIB00000085038
91.0542261926 	 4.03
95.085526321 	 3.43
97.0647908789 	 42.54
105.0698762568 	 6.01
107.085526321 	 6.52
109.0647908789 	 100
117.0698762568 	 2.96
119.085526321 	 5.99
121.0647908789 	 4.35
121.1011763852 	 2.87
123.0804409431 	 11.2
129.0698762568 	 3.82
131.085526321 	 10.9
133.1011763852 	 6.09
135.0804409431 	 7.7
143.085526321 	 8.47
145.1011763852 	 10.76
147.1168264494 	 3.15
149.0960910073 	 3.56
155.085526321 	 3.17
156.0933513531 	 3.7
157.1011763852 	 7.84
159.1168264494 	 11.06
161.0960910073 	 2.84
161.1324765136 	 4.26
163.1117410715 	 6.62
169.1011763852 	 5.65
170.1090014173 	 2.47
171.1168264494 	 10.15
175.1117410715 	 2.48
177.1273911357 	 6.24
185.1324765136 	 5.78
189.1273911357 	 2.96
195.1168264494 	 3.06
203.1430411999 	 2.71
211.1481265778 	 2.54
253.1950767704 	 4.4
255.1743413283 	 2.82
271.2056414567 	 2.5
277.1950767704 	 4.26
295.2056414567 	 5.53
313.216206143 	 6.8
331.2267708293 	 6.59
373.2373355156 	 2.52
END IONS

BEGIN IONS
PEPMASS=319.0397
CHARGE=1
MSLEVEL=2
RT=0
SOURCE_INSTRUMENT=qTOF
FILENAME=CCMSLIB00000085039.ms
IONMODE=Positive
ORGANISM=Natural
NAME=MLS001074199-01!4'-CHLORODIAZEPAM
PI=GNPS
DATACOLLECTOR=GNPS
SMILES=CN1c2ccc(cc2C(=NCC1=O)c1ccc(cc1)Cl)Cl
INCHI=InChI=1S/C16H12Cl2N2O/c1-20-14-7-6-12(18)8-13(14)16(19-9-15(20)21)10-2-4-11(17)5-3-10/h2-8H,9H2,1H3
FORMULA=C16H12Cl2N2O
PUBMED=N/A
SUBMITUSER=BIOADREM
LIBRARYQUALITY=0
SPECTRUMID=CCMSLIB00000085039
SCANS=3151
ID=CCMSLIB00000085039
117.0573001978 	 12.9
118.0651252299 	 7.98
119.072950262 	 6.69
125.0152538705 	 23.04
138.0105028436 	 5.94
138.9945184284 	 7.38
139.0183278757 	 2.71
143.060374203 	 7.17
147.0678648841 	 4.14
150.0105028436 	 7.13
152.0261529078 	 3.41
154.041802972 	 86.46
165.0698762568 	 4.66
167.0132424978 	 5.3
179.0370519451 	 9.33
182.0367175941 	 6.93
191.072950262 	 2.45
192.0807752941 	 7.59
205.0760242672 	 3.22
206.0838492993 	 15.12
214.041802972 	 3.33
220.0994993635 	 3.52
226.041802972 	 4.12
227.0496280041 	 100
238.041802972 	 3.18
241.0527020093 	 7.64
255.0683520735 	 9.95
256.0761771056 	 63.85
262.0184807141 	 20.05
263.0137296872 	 2.92
275.0137296872 	 13.74
289.0293797514 	 5.6
291.0450298156 	 24.49
319.0399444377 	 56.62
END IONS

BEGIN IONS
PEPMASS=433.2585
CHARGE=1
MSLEVEL=2
RT=0
SOURCE_INSTRUMENT=qTOF
FILENAME=CCMSLIB00000085040.ms
IONMODE=Positive
ORGANISM=Natural
NAME=MLS001076086-01!11BETA,17,21-TRIHYDROXYPREGN-4-ENE-3,20-DIONE 17-BUTYRATE
PI=GNPS
DATACOLLECTOR=GNPS
SMILES=CCCC(=O)O[C@@]1(CC[C@H]2[C@@H]3CCC4=CC(=O)CC[C@]4(C)[C@H]3[C@H](C[C@]12C)O)C(=O)CO
INCHI=InChI=1S/C25H36O6/c1-4-5-21(30)31-25(20(29)14-26)11-9-18-17-7-6-15-12-16(27)8-10-23(15,2)22(17)19(28)13-24(18,25)3/h12,17-19,22,26,28H,4-11,13-14H2,1-3H3/t17-,18-,19-,22+,23-,24-,25-/m0/s1
FORMULA=C25H36O6
PUBMED=N/A
SUBMITUSER=BIOADREM
LIBRARYQUALITY=0
SPECTRUMID=CCMSLIB00000085040
SCANS=3152
ID=CCMSLIB00000085040
97.0647908789 	 10.7
105.0698762568 	 19.89
107.085526321 	 7.75
109.0647908789 	 8.18
117.0698762568 	 7.54
119.085526321 	 12.03
121.0647908789 	 100
123.0804409431 	 25.44
128.0620512247 	 12.72
129.0698762568 	 14.39
131.085526321 	 14.44
133.1011763852 	 9.4
135.0804409431 	 8.04
141.0698762568 	 10.45
142.0777012889 	 9.12
143.085526321 	 31.17
145.1011763852 	 29.89
147.0804409431 	 10.31
147.1168264494 	 31.22
154.0777012889 	 6.99
155.085526321 	 13.39
157.1011763852 	 20.33
159.0804409431 	 10.7
159.1168264494 	 14.69
161.0960910073 	 9.05
167.085526321 	 10.38
169.1011763852 	 21.25
171.1168264494 	 12.51
173.0960910073 	 12.81
175.1117410715 	 8.76
181.1011763852 	 11.25
182.1090014173 	 6.74
185.0960910073 	 10.34
185.1324765136 	 8.94
187.1117410715 	 8.73
197.1324765136 	 9.81
207.1168264494 	 10.84
209.1324765136 	 18.47
223.1481265778 	 10.5
225.1273911357 	 8.53
239.1430411999 	 6.85
251.1430411999 	 6.69
253.1586912641 	 27.32
269.1899913925 	 13.84
279.1743413283 	 6.37
297.1849060146 	 11.32
433.2584648882 	 0.83
END IONS

BEGIN IONS
PEPMASS=289.0537
CHARGE=1
MSLEVEL=2
RT=0
SOURCE_INSTRUMENT=qTOF
FILENAME=CCMSLIB00000085042.ms
IONMODE=Positive
ORGANISM=Natural
NAME=MLS001146946-01!
PI=GNPS
DATACOLLECTOR=GNPS
SMILES=c1ccc(c(c1)C1=NCC(=Nc2ccc(cc12)Cl)O)F
INCHI=InChI=1S/C15H10ClFN2O/c16-9-5-6-13-11(7-9)15(18-8-14(20)19-13)10-3-1-2-4-12(10)17/h1-7H,8H2,(H,19,20)
FORMULA=C15H10ClFN2O
PUBMED=N/A
SUBMITUSER=BIOADREM
LIBRARYQUALITY=0
SPECTRUMID=CCMSLIB00000085042
SCANS=3153
ID=CCMSLIB00000085042
104.0494751657 	 6.61
113.0152538705 	 3.91
130.0525491709 	 2.03
138.0105028436 	 6.73
140.0261529078 	 100
143.0239886967 	 1.78
150.0105028436 	 3.68
165.0214018809 	 29.9
166.0054174657 	 8.18
167.0165782373 	 7.8
179.072950262 	 8.56
193.016316503 	 1.96
197.0635284299 	 2.22
198.071353462 	 8.15
205.0760242672 	 8.41
206.0838492993 	 18.43
209.0635284299 	 2.24
211.0791784941 	 11.06
214.041802972 	 22.53
225.0822524993 	 9.45
226.0900775314 	 81.84
232.0323811399 	 2.96
234.0787639214 	 2.09
236.0744274672 	 4.04
241.0527020093 	 4.03
244.0323811399 	 2.97
245.040206172 	 6.37
254.0849921535 	 2.02
259.0432801772 	 3.51
261.0589302414 	 20.1
289.0538448635 	 86.98
END IONS

BEGIN IONS
PEPMASS=290.1738
CHARGE=1
MSLEVEL=2
RT=0
SOURCE_INSTRUMENT=qTOF
FILENAME=CCMSLIB00000085043.ms
IONMODE=Positive
ORGANISM=Natural
NAME=MLS001148094-01!
PI=GNPS
DATACOLLECTOR=GNPS
SMILES=CN1[C@H]2CC[C@@H]1C[C@@H](C2)OC(=O)C(CO)c1ccccc1
INCHI=InChI=1S/C17H23NO3/c1-18-13-7-8-14(18)10-15(9-13)21-17(20)16(11-19)12-5-3-2-4-6-12/h2-6,13-16,19H,7-11H2,1H3/t13-,14+,15+,16?
FORMULA=C17H23NO3
PUBMED=N/A
SUBMITUSER=BIOADREM
LIBRARYQUALITY=0
SPECTRUMID=CCMSLIB00000085043
SCANS=3154
ID=CCMSLIB00000085043
91.0542261926 	 12.95
93.0698762568 	 10.07
96.0807752941 	 3.17
98.0964253583 	 1.86
103.0542261926 	 12.99
108.0807752941 	 3.17
121.0647908789 	 6.28
124.1120754225 	 100
142.1226401088 	 15.13
242.1539402372 	 0.64
260.1645049235 	 4.14
290.1750696098 	 66.65
END IONS

BEGIN IONS
PEPMASS=264.1975
CHARGE=1
MSLEVEL=2
RT=0
SOURCE_INSTRUMENT=qTOF
FILENAME=CCMSLIB00000085044.ms
IONMODE=Positive
ORGANISM=Natural
NAME=MLS001148168-01!BUTETHAMATE CITRATE
PI=GNPS
DATACOLLECTOR=GNPS
SMILES=CCC(c1ccccc1)C(=O)OCCN(CC)CC
INCHI=InChI=1S/C16H25NO2/c1-4-15(14-10-8-7-9-11-14)16(18)19-13-12-17(5-2)6-3/h7-11,15H,4-6,12-13H2,1-3H3
FORMULA=C16H25NO2
PUBMED=N/A
SUBMITUSER=BIOADREM
LIBRARYQUALITY=0
SPECTRUMID=CCMSLIB00000085044
SCANS=3155
ID=CCMSLIB00000085044
91.0542261926 	 86.79
104.0620512247 	 1.13
105.0334907505 	 4.69
105.0698762568 	 1.68
117.0698762568 	 4.18
118.0413157826 	 4.44
119.085526321 	 45.64
147.0804409431 	 0.73
149.059705501 	 6.75
162.0675305331 	 17.17
191.1066556936 	 100
264.1958050519 	 1.88
END IONS

BEGIN IONS
PEPMASS=478.1753
CHARGE=1
MSLEVEL=2
RT=0
SOURCE_INSTRUMENT=qTOF
FILENAME=CCMSLIB00000085045.ms
IONMODE=Positive
ORGANISM=Natural
NAME=MLS001148629-01!
PI=GNPS
DATACOLLECTOR=GNPS
SMILES=Cc1c(CCN2CCC(=C(c3ccc(cc3)F)c3ccc(cc3)F)CC2)c(=O)n2ccsc2n1
INCHI=InChI=1S/C27H25F2N3OS/c1-18-24(26(33)32-16-17-34-27(32)30-18)12-15-31-13-10-21(11-14-31)25(19-2-6-22(28)7-3-19)20-4-8-23(29)9-5-20/h2-9,16-17H,10-15H2,1H3
FORMULA=C27H25F2N3OS
PUBMED=N/A
SUBMITUSER=BIOADREM
LIBRARYQUALITY=0
SPECTRUMID=CCMSLIB00000085045
SCANS=3156
ID=CCMSLIB00000085045
98.0036678273 	 0.27
125.0167948288 	 18.08
126.0183522557 	 1.28
126.9960593867 	 5.03
138.0371959199 	 0.44
150.0246198609 	 0.3
151.032444893 	 1.18
165.0480949572 	 5.24
166.0496523841 	 0.47
193.0430095793 	 100
194.0445670062 	 20.6
478.1759155302 	 6.78
END IONS

BEGIN IONS
PEPMASS=354.2428
CHARGE=1
MSLEVEL=2
RT=0
SOURCE_INSTRUMENT=qTOF
FILENAME=CCMSLIB00000085048.ms
IONMODE=Positive
ORGANISM=Natural
NAME=MLS000859910-01!
PI=GNPS
DATACOLLECTOR=GNPS
SMILES=CCCC(c1ccccc1)(c1ccccc1)C(=O)OCCN(CC)CC
INCHI=InChI=1S/C23H31NO2/c1-4-17-23(20-13-9-7-10-14-20,21-15-11-8-12-16-21)22(25)26-19-18-24(5-2)6-3/h7-16H,4-6,17-19H2,1-3H3
FORMULA=C23H31NO2
PUBMED=N/A
SUBMITUSER=BIOADREM
LIBRARYQUALITY=0
SPECTRUMID=CCMSLIB00000085048
SCANS=3158
ID=CCMSLIB00000085048
91.0542261926 	 14.76
105.0698762568 	 36.16
116.0620512247 	 0.59
117.0698762568 	 0.56
131.085526321 	 18.75
141.0698762568 	 0.42
151.0542261926 	 0.81
152.0620512247 	 9.66
165.0698762568 	 12.14
166.0777012889 	 6.1
167.085526321 	 100
181.1011763852 	 0.51
193.1011763852 	 0.5
209.1324765136 	 13.95
354.2427552445 	 0
END IONS

BEGIN IONS
PEPMASS=333.241
CHARGE=1
MSLEVEL=2
RT=0
SOURCE_INSTRUMENT=qTOF
FILENAME=CCMSLIB00000085049.ms
IONMODE=Positive
ORGANISM=Natural
NAME=MLS001076262-01!
PI=GNPS
DATACOLLECTOR=GNPS
SMILES=CC(=O)[C@H]1CC[C@H]2[C@@H]3CC[C@H]4C[C@@H](CC[C@]4(C)[C@H]3C(=O)C[C@]12C)O
INCHI=InChI=1S/C21H32O3/c1-12(22)16-6-7-17-15-5-4-13-10-14(23)8-9-20(13,2)19(15)18(24)11-21(16,17)3/h13-17,19,23H,4-11H2,1-3H3/t13-,14+,15-,16+,17-,19+,20-,21+/m0/s1
FORMULA=C21H32O3
PUBMED=N/A
SUBMITUSER=BIOADREM
LIBRARYQUALITY=0
SPECTRUMID=CCMSLIB00000085049
SCANS=3159
ID=CCMSLIB00000085049
95.085526321 	 28.18
105.0698762568 	 81.32
107.085526321 	 69.68
117.0698762568 	 34.3
119.085526321 	 91.42
121.1011763852 	 32.01
128.0620512247 	 20.98
129.0698762568 	 18.22
131.085526321 	 73.35
133.1011763852 	 59.26
135.1168264494 	 31.7
137.0960910073 	 18.07
143.085526321 	 34.3
145.1011763852 	 82.24
147.1168264494 	 85.45
149.1324765136 	 38.74
155.085526321 	 29.71
157.1011763852 	 45.79
159.1168264494 	 100
161.1324765136 	 16.69
163.1117410715 	 22.05
168.0933513531 	 22.82
169.1011763852 	 39.05
171.1168264494 	 61.87
173.0960910073 	 21.44
173.1324765136 	 35.38
181.1011763852 	 16.39
183.1168264494 	 38.13
185.1324765136 	 32.31
187.1117410715 	 24.04
189.1273911357 	 39.82
197.1324765136 	 50.54
199.1481265778 	 29.1
211.1481265778 	 20.98
213.163776642 	 23.28
215.1430411999 	 22.97
223.1481265778 	 66.77
241.1586912641 	 19.91
253.1950767704 	 33.54
297.2212915209 	 53.14
333.2424208935 	 0
END IONS

BEGIN IONS
PEPMASS=303.1941
CHARGE=1
MSLEVEL=2
RT=0
SOURCE_INSTRUMENT=qTOF
FILENAME=CCMSLIB00000085052.ms
IONMODE=Positive
ORGANISM=Natural
NAME=MLS002153359-01!FORMESTANE566-48-3
PI=GNPS
DATACOLLECTOR=GNPS
SMILES=C[C@@]12CCC(=O)C(=C2CC[C@H]2[C@@H]3CCC(=O)[C@@]3(C)CC[C@H]12)O
INCHI=InChI=1S/C19H26O3/c1-18-10-8-15(20)17(22)14(18)4-3-11-12-5-6-16(21)19(12,2)9-7-13(11)18/h11-13,22H,3-10H2,1-2H3/t11-,12-,13-,18+,19-/m0/s1
FORMULA=C19H26O3
PUBMED=N/A
SUBMITUSER=BIOADREM
LIBRARYQUALITY=0
SPECTRUMID=CCMSLIB00000085052
SCANS=3161
ID=CCMSLIB00000085052
91.0542261926 	 9.7
105.0698762568 	 17.71
113.059705501 	 74.58
117.0698762568 	 9.49
119.085526321 	 14.24
121.1011763852 	 6.52
125.059705501 	 100
129.0698762568 	 5.45
131.085526321 	 14.73
132.0933513531 	 9.35
133.1011763852 	 9.77
137.059705501 	 13.46
139.0753555652 	 10.69
141.0698762568 	 7.37
142.0777012889 	 5.24
143.085526321 	 8.99
144.0933513531 	 6.66
145.1011763852 	 15.37
147.1168264494 	 9.07
149.1324765136 	 7.29
159.1168264494 	 9.28
165.0910056294 	 6.8
169.1011763852 	 13.53
171.1168264494 	 10.98
173.1324765136 	 32.22
175.1481265778 	 6.3
183.1168264494 	 17.14
197.1324765136 	 5.31
209.1324765136 	 10.27
227.1430411999 	 10.06
285.1849060146 	 11.9
303.1954707009 	 9.07
END IONS

BEGIN IONS
PEPMASS=266.096
CHARGE=1
MSLEVEL=2
RT=0
SOURCE_INSTRUMENT=qTOF
FILENAME=CCMSLIB00000085053.ms
IONMODE=Positive
ORGANISM=Natural
NAME=MLS002154145-01!Methiazole108579-67-5
PI=GNPS
DATACOLLECTOR=GNPS
SMILES=CC(C)Sc1ccc2c(c1)[nH]c(n2)N=C(O)OC
INCHI=InChI=1S/C12H15N3O2S/c1-7(2)18-8-4-5-9-10(6-8)14-11(13-9)15-12(16)17-3/h4-7H,1-3H3,(H2,13,14,15,16)
FORMULA=C12H15N3O2S
PUBMED=N/A
SUBMITUSER=BIOADREM
LIBRARYQUALITY=0
SPECTRUMID=CCMSLIB00000085053
SCANS=3162
ID=CCMSLIB00000085053
104.0368991067 	 0.62
119.047798144 	 0.45
130.0399731119 	 1.09
131.047798144 	 4.75
136.0089697967 	 0.95
147.0427127661 	 0.41
159.0427127661 	 69.26
163.019868834 	 3.17
164.0276938661 	 4.41
191.0147834561 	 28.8
192.0226084882 	 100
223.0409982066 	 1.63
234.0695586808 	 35.78
266.0957734313 	 0
END IONS

BEGIN IONS
PEPMASS=287.138
CHARGE=1
MSLEVEL=2
RT=0
SOURCE_INSTRUMENT=qTOF
FILENAME=CCMSLIB00000085058.ms
IONMODE=Positive
ORGANISM=Natural
NAME=MLS001077309-01!
PI=GNPS
DATACOLLECTOR=GNPS
SMILES=CC1(C)[C@H]([C@@H](c2cc(ccc2O1)C#N)N1CCCC1=O)O
INCHI=InChI=1S/C16H18N2O3/c1-16(2)15(20)14(18-7-3-4-13(18)19)11-8-10(9-17)5-6-12(11)21-16/h5-6,8,14-15,20H,3-4,7H2,1-2H3/t14-,15+/m1/s1
FORMULA=C16H18N2O3
PUBMED=N/A
SUBMITUSER=BIOADREM
LIBRARYQUALITY=0
SPECTRUMID=CCMSLIB00000085058
SCANS=3165
ID=CCMSLIB00000085058
103.0542261926 	 3.05
104.0494751657 	 4.53
105.0698762568 	 5.23
117.0573001978 	 5.5
118.0651252299 	 4.12
129.0698762568 	 7.82
132.0443897878 	 23.45
133.0647908789 	 3.79
141.0573001978 	 2.31
142.0651252299 	 2.68
145.0522148199 	 6.15
156.0443897878 	 3.15
156.0807752941 	 5.09
160.0756899162 	 100
184.0756899162 	 14.15
215.0815035756 	 2.36
287.1390184545 	 0
END IONS

BEGIN IONS
PEPMASS=347.2217
CHARGE=1
MSLEVEL=2
RT=0
SOURCE_INSTRUMENT=qTOF
FILENAME=CCMSLIB00000085060.ms
IONMODE=Positive
ORGANISM=Natural
NAME=MLS001333071-01!CORTEXOLONE
PI=GNPS
DATACOLLECTOR=GNPS
SMILES=C[C@]12CCC(=O)C=C1CC[C@@H]1[C@@H]2CC[C@@]2(C)[C@H]1CC[C@@]2(C(=O)CO)O
INCHI=InChI=1S/C21H30O4/c1-19-8-5-14(23)11-13(19)3-4-15-16(19)6-9-20(2)17(15)7-10-21(20,25)18(24)12-22/h11,15-17,22,25H,3-10,12H2,1-2H3/t15-,16+,17+,19+,20+,21+/m1/s1
FORMULA=C21H30O4
PUBMED=N/A
SUBMITUSER=BIOADREM
LIBRARYQUALITY=0
SPECTRUMID=CCMSLIB00000085060
SCANS=3166
ID=CCMSLIB00000085060
91.0542261926 	 4.87
97.0647908789 	 41.5
105.0698762568 	 14.4
107.0491408147 	 7.72
109.0647908789 	 100
117.0698762568 	 8.24
119.085526321 	 14.66
121.0647908789 	 16.63
123.0804409431 	 21.66
129.0698762568 	 5.13
131.085526321 	 18.08
132.0933513531 	 5.03
142.0777012889 	 5.6
143.085526321 	 12.12
145.1011763852 	 26.37
147.1168264494 	 10.62
155.085526321 	 9.53
157.1011763852 	 12.9
159.1168264494 	 12.64
161.0960910073 	 9.74
171.0804409431 	 7.36
175.1117410715 	 6.22
185.1324765136 	 10.78
213.1273911357 	 4.72
347.2216854514 	 6.48
END IONS

BEGIN IONS
PEPMASS=417.183
CHARGE=1
MSLEVEL=2
RT=0
SOURCE_INSTRUMENT=qTOF
FILENAME=CCMSLIB00000085063.ms
IONMODE=Positive
ORGANISM=Natural
NAME=MLS000859908-01!Cyproterone acetate
PI=GNPS
DATACOLLECTOR=GNPS
SMILES=CC(=O)[C@]1(CC[C@H]2[C@@H]3C=C(C4=CC(=O)[C@@H]5C[C@@H]5[C@]4(C)[C@H]3CC[C@]12C)Cl)OC(=O)C
INCHI=InChI=1S/C24H29ClO4/c1-12(26)24(29-13(2)27)8-6-16-14-10-20(25)19-11-21(28)15-9-18(15)23(19,4)17(14)5-7-22(16,24)3/h10-11,14-18H,5-9H2,1-4H3/t14-,15+,16-,17-,18-,22-,23-,24-/m0/s1
FORMULA=C24H29ClO4
PUBMED=N/A
SUBMITUSER=BIOADREM
LIBRARYQUALITY=0
SPECTRUMID=CCMSLIB00000085063
SCANS=3168
ID=CCMSLIB00000085063
105.0698762568 	 30.18
117.0698762568 	 13.8
119.085526321 	 16.02
129.0698762568 	 16.7
131.085526321 	 17.66
133.1011763852 	 70.39
141.0698762568 	 12.99
142.0777012889 	 19.43
143.085526321 	 24.81
145.1011763852 	 29.07
147.0804409431 	 14.51
147.1168264494 	 49.34
155.085526321 	 17.43
157.1011763852 	 26.51
158.072615911 	 13.37
159.0804409431 	 21.86
159.1168264494 	 14.61
167.085526321 	 16.94
169.1011763852 	 13.65
171.0804409431 	 13.46
171.1168264494 	 18.09
175.1117410715 	 15.29
181.1011763852 	 15.78
183.1168264494 	 26.39
185.0960910073 	 21.8
193.1011763852 	 23.17
195.1168264494 	 21.57
197.1324765136 	 16.15
207.1168264494 	 17.43
209.0960910073 	 12.86
219.1168264494 	 20.52
220.1246514815 	 15.42
221.1324765136 	 24.85
223.1117410715 	 15.38
233.1324765136 	 16.38
235.1117410715 	 14.8
235.1481265778 	 35.67
237.1273911357 	 15.19
246.1403015457 	 14.33
249.1273911357 	 16.83
249.163776642 	 12.86
250.1716016741 	 14.14
251.1430411999 	 13.8
260.1559516099 	 12.84
261.163776642 	 29.97
263.1430411999 	 62.12
264.150866232 	 28.39
277.1586912641 	 57.44
278.1665162962 	 36.09
279.1743413283 	 100
299.119718942 	 13.99
313.1353690062 	 43.45
314.1431940383 	 37.97
417.1827131293 	 0
END IONS

BEGIN IONS
PEPMASS=379.1237
CHARGE=1
MSLEVEL=2
RT=0
SOURCE_INSTRUMENT=qTOF
FILENAME=CCMSLIB00000085066.ms
IONMODE=Positive
ORGANISM=Natural
NAME=MLS001332559-01!Mefloquine hydrochloride51773-92-3
PI=GNPS
DATACOLLECTOR=GNPS
SMILES=C1CCN[C@H](C1)[C@H](c1cc(C(F)(F)F)nc2c1cccc2C(F)(F)F)O
INCHI=InChI=1S/C17H16F6N2O/c18-16(19,20)11-5-3-4-9-10(15(26)12-6-1-2-7-24-12)8-13(17(21,22)23)25-14(9)11/h3-5,8,12,15,24,26H,1-2,6-7H2/t12-,15+/m1/s1
FORMULA=C17H16F6N2O
PUBMED=N/A
SUBMITUSER=BIOADREM
LIBRARYQUALITY=0
SPECTRUMID=CCMSLIB00000085066
SCANS=3171
ID=CCMSLIB00000085066
234.0525097978 	 1.39
247.0603348299 	 2.09
249.0634088351 	 2.85
250.0712338672 	 1.34
252.0430879657 	 2.66
258.0336661336 	 1.7
263.0790588993 	 1.83
266.0587380299 	 3.41
270.0336661336 	 2.43
271.1041307956 	 17.89
272.0493161978 	 3.4
273.0634088351 	 4.78
278.0398943657 	 18.7
281.0884807314 	 1.91
282.0336661336 	 1.44
283.0414911657 	 1.59
284.0493161978 	 6.15
286.064966262 	 1.91
291.1103590277 	 11.02
293.0696370672 	 8.71
296.0493161978 	 5.26
298.064966262 	 4.32
299.0602152351 	 4.28
301.0947089635 	 6.66
302.0398943657 	 3.64
305.050793403 	 2.24
313.0758652993 	 13.14
316.0555444299 	 2.59
321.1009371956 	 18.89
322.1024946225 	 3.43
331.0864299856 	 4.16
333.0820935314 	 23.26
341.1071654277 	 11.91
361.1133936598 	 100
379.1239583461 	 20.04
END IONS

BEGIN IONS
PEPMASS=219.149
CHARGE=1
MSLEVEL=2
RT=0
SOURCE_INSTRUMENT=qTOF
FILENAME=CCMSLIB00000085070.ms
IONMODE=Positive
ORGANISM=Natural
NAME=MLS000069438-01!3-(2-DIMETHYLAMINOETHYL)-5-METHOXYINDOLE
PI=GNPS
DATACOLLECTOR=GNPS
SMILES=CN(C)CCc1c[nH]c2ccc(cc12)OC
INCHI=InChI=1S/C13H18N2O/c1-15(2)7-6-10-9-14-13-5-4-11(16-3)8-12(10)13/h4-5,8-9,14H,6-7H2,1-3H3
FORMULA=C13H18N2O
PUBMED=N/A
SUBMITUSER=BIOADREM
LIBRARYQUALITY=0
SPECTRUMID=CCMSLIB00000085070
SCANS=3174
ID=CCMSLIB00000085070
102.0464011605 	 1.92
103.0542261926 	 3.04
105.0573001978 	 1.99
115.0542261926 	 6.8
116.0494751657 	 3.73
117.0573001978 	 7.6
130.0651252299 	 66.85
131.072950262 	 46.18
142.0651252299 	 10.06
143.072950262 	 37.89
158.060039852 	 4.74
159.0678648841 	 84.22
174.0913399804 	 100
219.1491892103 	 0
END IONS

BEGIN IONS
PEPMASS=446.2074
CHARGE=1
MSLEVEL=2
RT=0
SOURCE_INSTRUMENT=qTOF
FILENAME=CCMSLIB00000085071.ms
IONMODE=Positive
ORGANISM=Natural
NAME=MLS000860072-01!Naloxone benzoylhydrazone
PI=GNPS
DATACOLLECTOR=GNPS
SMILES=C=CCN1CC[C@]23c4c5ccc(c4O[C@H]2C(=NN=C(c2ccccc2)O)CC[C@]3([C@H]1C5)O)O
INCHI=InChI=1S/C26H27N3O4/c1-2-13-29-14-12-25-21-17-8-9-19(30)22(21)33-23(25)18(10-11-26(25,32)20(29)15-17)27-28-24(31)16-6-4-3-5-7-16/h2-9,20,23,30,32H,1,10-15H2,(H,28,31)/t20-,23+,25+,26-/m1/s1
FORMULA=C26H27N3O4
PUBMED=N/A
SUBMITUSER=BIOADREM
LIBRARYQUALITY=0
SPECTRUMID=CCMSLIB00000085071
SCANS=3175
ID=CCMSLIB00000085071
105.0334907505 	 42.33
165.0698762568 	 17.26
192.0807752941 	 8.14
195.0678648841 	 7.65
196.0756899162 	 15.58
197.059705501 	 7.78
204.0807752941 	 7.93
206.060039852 	 7.38
210.0913399804 	 7.41
211.0713328198 	 9.61
212.0706045383 	 38.09
213.0784295704 	 13.3
219.0916743314 	 8.91
220.0756899162 	 30.13
222.0913399804 	 13.02
223.0951422671 	 8.39
224.0706045383 	 31.9
224.1069900446 	 7.41
225.0784295704 	 22.9
226.0822318571 	 13.66
227.0940796346 	 7.81
232.0756899162 	 13.36
238.0862546025 	 53.46
239.0940796346 	 40.35
240.1019046667 	 52.24
241.1057069534 	 10.4
242.1175547309 	 22.17
250.0862546025 	 20.62
252.1019046667 	 35.13
253.1097296988 	 32.42
254.1175547309 	 23.09
255.1168264494 	 10.28
256.1291820497 	 7.44
265.0971536398 	 31.05
266.1049786719 	 34.89
267.112803704 	 32.81
268.1291820497 	 10.52
278.1539402372 	 20.28
280.1332047951 	 37.66
282.1277254867 	 13.82
290.1175547309 	 7.87
294.1488548593 	 45.23
295.1566798914 	 33.67
296.1604821781 	 9.91
307.1441038324 	 78.07
325.1546685187 	 10.61
428.1968676844 	 100
446.2074323707 	 11.74
END IONS

BEGIN IONS
PEPMASS=472.321
CHARGE=1
MSLEVEL=2
RT=0
SOURCE_INSTRUMENT=qTOF
FILENAME=CCMSLIB00000085072.ms
IONMODE=Positive
ORGANISM=Natural
NAME=MLS001148415-01!
PI=GNPS
DATACOLLECTOR=GNPS
SMILES=CC(C)(C)c1ccc(cc1)C(CCCN1CCC(CC1)C(c1ccccc1)(c1ccccc1)O)O
INCHI=InChI=1S/C32H41NO2/c1-31(2,3)26-18-16-25(17-19-26)30(34)15-10-22-33-23-20-29(21-24-33)32(35,27-11-6-4-7-12-27)28-13-8-5-9-14-28/h4-9,11-14,16-19,29-30,34-35H,10,15,20-24H2,1-3H3
FORMULA=C32H41NO2
PUBMED=N/A
SUBMITUSER=BIOADREM
LIBRARYQUALITY=0
SPECTRUMID=CCMSLIB00000085072
SCANS=3176
ID=CCMSLIB00000085072
91.0542261926 	 1.48
96.0807752941 	 1.26
98.0964253583 	 0.73
105.0698762568 	 1.66
115.0542261926 	 0.85
117.0698762568 	 3.55
119.085526321 	 0.65
122.0964253583 	 1.18
124.1120754225 	 4.68
128.0620512247 	 1.81
129.0698762568 	 11.58
131.085526321 	 9.59
143.085526321 	 2.51
147.1168264494 	 7.32
155.085526321 	 1.05
170.0964253583 	 0.76
186.1277254867 	 0.69
205.1011763852 	 1.98
216.1746756793 	 1.77
231.1168264494 	 1.07
242.1903257435 	 0.86
262.1590256151 	 15.58
268.2059758077 	 6.85
288.1746756793 	 3.61
420.2685760645 	 0.66
436.2998761929 	 100
437.307701225 	 49.06
454.3104408792 	 40.51
455.3182659113 	 14.82
472.3210055655 	 4.36
END IONS

BEGIN IONS
PEPMASS=331.0947
CHARGE=1
MSLEVEL=2
RT=0
SOURCE_INSTRUMENT=qTOF
FILENAME=CCMSLIB00000085077.ms
IONMODE=Positive
ORGANISM=Natural
NAME=MLS000860039-01!8-(3-Chlorostyryl)caffeine
PI=GNPS
DATACOLLECTOR=GNPS
SMILES=Cn1c(/C=C/c2cccc(c2)Cl)nc2c1c(=O)n(C)c(=O)n2C
INCHI=InChI=1S/C16H15ClN4O2/c1-19-12(8-7-10-5-4-6-11(17)9-10)18-14-13(19)15(22)21(3)16(23)20(14)2/h4-9H,1-3H3/b8-7+
FORMULA=C16H15ClN4O2
PUBMED=N/A
SUBMITUSER=BIOADREM
LIBRARYQUALITY=0
SPECTRUMID=CCMSLIB00000085077
SCANS=3180
ID=CCMSLIB00000085077
125.0134240104 	 1.17
137.0152538705 	 1.82
138.0105028436 	 1.07
149.0134240104 	 7.01
162.0105028436 	 1.1
164.0261529078 	 32.1
178.0399731119 	 3.63
189.0214018809 	 4.22
209.0583628303 	 2.55
219.0683520735 	 0.91
224.0818379266 	 2.18
230.0479509824 	 4.88
244.0272155403 	 5.63
246.0792511108 	 20.97
258.0428656045 	 17.35
259.0506906366 	 27.81
274.0741657329 	 100
281.1033016502 	 1.26
295.1189517144 	 1.07
296.1267767465 	 1.24
315.0643293281 	 2.04
331.0956294565 	 71.86
END IONS

BEGIN IONS
PEPMASS=333.2298
CHARGE=1
MSLEVEL=2
RT=0
SOURCE_INSTRUMENT=qTOF
FILENAME=CCMSLIB00000085078.ms
IONMODE=Positive
ORGANISM=Natural
NAME=MLS001146922-01!Ipratropium bromide monohydrate
PI=GNPS
DATACOLLECTOR=GNPS
SMILES=CC(C)[N+]1(C)[C@H]2CC[C@@H]1CC(C2)OC(=O)C(CO)c1ccccc1
INCHI=InChI=1S/C20H30NO3/c1-14(2)21(3)16-9-10-17(21)12-18(11-16)24-20(23)19(13-22)15-7-5-4-6-8-15/h4-8,14,16-19,22H,9-13H2,1-3H3/q+1/t16-,17+,18?,19?,21?
FORMULA=C20H30NO3
PUBMED=N/A
SUBMITUSER=BIOADREM
LIBRARYQUALITY=0
SPECTRUMID=CCMSLIB00000085078
SCANS=3181
ID=CCMSLIB00000085078
91.0542261926 	 8
93.0698762568 	 5.15
95.085526321 	 1.6
96.0807752941 	 6.47
103.0542261926 	 7.09
109.1011763852 	 1.73
121.0647908789 	 6
124.1120754225 	 67.56
140.1069900446 	 4.15
142.1226401088 	 4.15
152.1433755509 	 4.99
166.1590256151 	 100
184.1695903014 	 1
260.1645049235 	 1.91
288.1594195456 	 1.75
302.2114551161 	 1.34
332.2220198024 	 84.98
333.2298448345 	 0
END IONS

BEGIN IONS
PEPMASS=285.1592
CHARGE=1
MSLEVEL=2
RT=0
SOURCE_INSTRUMENT=qTOF
FILENAME=CCMSLIB00000085081.ms
IONMODE=Positive
ORGANISM=Natural
NAME=MLS001401385-01!tropisetron??hydrochloride
PI=GNPS
DATACOLLECTOR=GNPS
SMILES=CN1[C@H]2CC[C@@H]1C[C@@H](C2)OC(=O)c1c[nH]c2ccccc12
INCHI=InChI=1S/C17H20N2O2/c1-19-11-6-7-12(19)9-13(8-11)21-17(20)15-10-18-16-5-3-2-4-14(15)16/h2-5,10-13,18H,6-9H2,1H3/t11-,12+,13+
FORMULA=C17H20N2O2
PUBMED=N/A
SUBMITUSER=BIOADREM
LIBRARYQUALITY=0
SPECTRUMID=CCMSLIB00000085081
SCANS=3182
ID=CCMSLIB00000085081
89.0385761284 	 0.44
91.0542261926 	 20.99
93.0698762568 	 21.69
98.0964253583 	 1.35
108.0807752941 	 4.03
109.0886003262 	 2.65
116.0494751657 	 7.65
124.1120754225 	 100
142.1226401088 	 7.41
144.0443897878 	 70.75
162.0549544741 	 0.47
285.1597538966 	 38.4
END IONS

BEGIN IONS
PEPMASS=206.103
CHARGE=1
MSLEVEL=2
RT=0
SOURCE_INSTRUMENT=qTOF
FILENAME=CCMSLIB00000085082.ms
IONMODE=Positive
ORGANISM=Natural
NAME=MLS002153167-01!SQ 22,53617318-31-9
PI=GNPS
DATACOLLECTOR=GNPS
SMILES=C1CC(n2cnc3c(N)ncnc23)OC1
INCHI=InChI=1S/C9H11N5O/c10-8-7-9(12-4-11-8)14(5-13-7)6-2-1-3-15-6/h4-6H,1-3H2,(H2,10,11,12)
FORMULA=C9H11N5O
PUBMED=N/A
SUBMITUSER=BIOADREM
LIBRARYQUALITY=0
SPECTRUMID=CCMSLIB00000085082
SCANS=3183
ID=CCMSLIB00000085082
92.0243230477 	 3.79
109.0508721492 	 3.95
116.0368991067 	 3.71
119.035222085 	 40.92
136.0617711865 	 100
206.1036360012 	 0
END IONS

BEGIN IONS
PEPMASS=269.1648
CHARGE=1
MSLEVEL=2
RT=0
SOURCE_INSTRUMENT=qTOF
FILENAME=CCMSLIB00000085083.ms
IONMODE=Positive
ORGANISM=Natural
NAME=MLS002153222-01!N-(3,3-Diphenylpropyl)glycinamide
PI=GNPS
DATACOLLECTOR=GNPS
SMILES=c1ccc(cc1)C(CCNCC(=N)O)c1ccccc1
INCHI=InChI=1S/C17H20N2O/c18-17(20)13-19-12-11-16(14-7-3-1-4-8-14)15-9-5-2-6-10-15/h1-10,16,19H,11-13H2,(H2,18,20)
FORMULA=C17H20N2O
PUBMED=N/A
SUBMITUSER=BIOADREM
LIBRARYQUALITY=0
SPECTRUMID=CCMSLIB00000085083
SCANS=3184
ID=CCMSLIB00000085083
91.0542261926 	 16.95
115.0542261926 	 34.61
117.0698762568 	 16.52
128.0620512247 	 3.98
152.0620512247 	 64.9
165.0698762568 	 86.63
167.085526321 	 100
180.0933513531 	 2.6
269.1648392745 	 3.18
END IONS

BEGIN IONS
PEPMASS=214.086
CHARGE=1
MSLEVEL=2
RT=0
SOURCE_INSTRUMENT=qTOF
FILENAME=CCMSLIB00000085084.ms
IONMODE=Positive
ORGANISM=Natural
NAME=MLS002153472-01!N-Phenylanthranilic acid91-40-7
PI=GNPS
DATACOLLECTOR=GNPS
SMILES=c1ccc(cc1)Nc1ccccc1C(=O)O
INCHI=InChI=1S/C13H11NO2/c15-13(16)11-8-4-5-9-12(11)14-10-6-2-1-3-7-10/h1-9,14H,(H,15,16)
FORMULA=C13H11NO2
PUBMED=N/A
SUBMITUSER=BIOADREM
LIBRARYQUALITY=0
SPECTRUMID=CCMSLIB00000085084
SCANS=3185
ID=CCMSLIB00000085084
115.0542261926 	 1.74
141.0698762568 	 2.28
142.0651252299 	 0.51
152.0494751657 	 1.01
167.072950262 	 100
195.0678648841 	 14.42
196.0756899162 	 77.74
214.0862546025 	 0
END IONS

BEGIN IONS
PEPMASS=290.035
CHARGE=1
MSLEVEL=2
RT=0
SOURCE_INSTRUMENT=qTOF
FILENAME=CCMSLIB00000085086.ms
IONMODE=Positive
ORGANISM=Natural
NAME=MLS002154126-01!Quinethazone73-49-4
PI=GNPS
DATACOLLECTOR=GNPS
SMILES=CCC1Nc2cc(c(cc2C(=N1)O)S(=O)(=O)N)Cl
INCHI=InChI=1S/C10H12ClN3O3S/c1-2-9-13-7-4-6(11)8(18(12,16)17)3-5(7)10(15)14-9/h3-4,9,13H,2H2,1H3,(H,14,15)(H2,12,16,17)
FORMULA=C10H12ClN3O3S
PUBMED=N/A
SUBMITUSER=BIOADREM
LIBRARYQUALITY=0
SPECTRUMID=CCMSLIB00000085086
SCANS=3186
ID=CCMSLIB00000085086
51.0229260642 	 4.66
118.0624451552 	 4.58
130.0651252299 	 20.88
133.0396387609 	 4.49
138.9978892468 	 4.49
146.060039852 	 7.57
153.013539311 	 7.15
158.060039852 	 30.12
160.0341219147 	 4.58
164.0261529078 	 68.22
165.0312978652 	 29.62
166.0247169782 	 12.81
167.0035500678 	 6.82
167.0291893752 	 13.31
168.0239511589 	 4.99
176.0261529078 	 5.99
178.0054174657 	 19.47
180.000628901 	 6.16
183.9982235978 	 5.82
192.0210675299 	 26.71
193.028892562 	 100
195.0207331789 	 22.05
196.0319290294 	 5.41
197.0186246889 	 4.83
208.9874216778 	 4.49
209.0060486299 	 7.99
209.0379242014 	 5.16
225.0187218062 	 14.64
227.0166133162 	 9.48
244.9782164372 	 4.66
273.0095165656 	 44.26
290.0360656671 	 0
END IONS

BEGIN IONS
PEPMASS=313.2162
CHARGE=1
MSLEVEL=2
RT=0
SOURCE_INSTRUMENT=qTOF
FILENAME=CCMSLIB00000085088.ms
IONMODE=Positive
ORGANISM=Natural
NAME=MLS001076282-01!434-03-7
PI=GNPS
DATACOLLECTOR=GNPS
SMILES=C#C[C@@]1(CC[C@H]2[C@@H]3CCC4=CC(=O)CC[C@]4(C)[C@H]3CC[C@]12C)O
INCHI=InChI=1S/C21H28O2/c1-4-21(23)12-9-18-16-6-5-14-13-15(22)7-10-19(14,2)17(16)8-11-20(18,21)3/h1,13,16-18,23H,5-12H2,2-3H3/t16-,17+,18+,19+,20+,21+/m1/s1
FORMULA=C21H28O2
PUBMED=N/A
SUBMITUSER=BIOADREM
LIBRARYQUALITY=0
SPECTRUMID=CCMSLIB00000085088
SCANS=3187
ID=CCMSLIB00000085088
97.0647908789 	 55.91
103.0542261926 	 2.71
105.0698762568 	 11.91
107.085526321 	 3.09
109.0647908789 	 100
115.0542261926 	 5.5
117.0698762568 	 6.89
119.085526321 	 9.22
121.1011763852 	 6.72
123.0804409431 	 18.87
133.1011763852 	 4.06
135.1168264494 	 2.71
141.0698762568 	 3.26
142.0777012889 	 7.41
143.085526321 	 15.62
145.1011763852 	 9.77
147.1168264494 	 6.46
149.0960910073 	 2.55
154.0777012889 	 2.93
157.1011763852 	 8
167.085526321 	 2.93
169.1011763852 	 6.82
171.1168264494 	 10.73
173.1324765136 	 3.87
181.1011763852 	 4.08
185.1324765136 	 5.78
187.1481265778 	 3.04
207.1168264494 	 3.09
211.1481265778 	 5.07
225.163776642 	 3.02
227.1794267062 	 5.73
245.1899913925 	 5.14
251.1794267062 	 2.74
295.2056414567 	 3.35
313.216206143 	 4.06
END IONS

BEGIN IONS
PEPMASS=396.2068
CHARGE=1
MSLEVEL=2
RT=0
SOURCE_INSTRUMENT=qTOF
FILENAME=CCMSLIB00000085089.ms
IONMODE=Positive
ORGANISM=Natural
NAME=MLS001076321-01!
PI=GNPS
DATACOLLECTOR=GNPS
SMILES=c1ccc(cc1)N1CN=C(C21CCN(CCCC(=O)c1ccc(cc1)F)CC2)O
INCHI=InChI=1S/C23H26FN3O2/c24-19-10-8-18(9-11-19)21(28)7-4-14-26-15-12-23(13-16-26)22(29)25-17-27(23)20-5-2-1-3-6-20/h1-3,5-6,8-11H,4,7,12-17H2,(H,25,29)
FORMULA=C23H26FN3O2
PUBMED=N/A
SUBMITUSER=BIOADREM
LIBRARYQUALITY=0
SPECTRUMID=CCMSLIB00000085089
SCANS=3188
ID=CCMSLIB00000085089
95.0291542963 	 1.56
98.060039852 	 18.87
109.0448043605 	 0.44
110.060039852 	 0.67
123.0240689184 	 63.01
124.0267283509 	 6.56
135.0604544247 	 0.22
147.0604544247 	 0.3
165.071019111 	 100
166.0736785435 	 14.93
194.0975682125 	 1.66
244.1132182767 	 0.33
246.1288683409 	 0.2
262.123782963 	 7.43
273.1397673782 	 0.21
291.1503320645 	 10.01
396.2081812944 	 4.21
END IONS

BEGIN IONS
PEPMASS=338.252
CHARGE=1
MSLEVEL=2
RT=0
SOURCE_INSTRUMENT=qTOF
FILENAME=CCMSLIB00000085090.ms
IONMODE=Positive
ORGANISM=Natural
NAME=MLS001148124-01!
PI=GNPS
DATACOLLECTOR=GNPS
SMILES=CCCCCCCCN[C@H](C)[C@H](c1ccc(cc1)SC(C)C)O
INCHI=InChI=1S/C20H35NOS/c1-5-6-7-8-9-10-15-21-17(4)20(22)18-11-13-19(14-12-18)23-16(2)3/h11-14,16-17,20-22H,5-10,15H2,1-4H3/t17-,20-/m1/s1
FORMULA=C20H35NOS
PUBMED=N/A
SUBMITUSER=BIOADREM
LIBRARYQUALITY=0
SPECTRUMID=CCMSLIB00000085090
SCANS=3189
ID=CCMSLIB00000085090
98.0964253583 	 0.98
105.0698762568 	 3.61
115.0542261926 	 8.63
116.0620512247 	 20.23
123.0262968826 	 9.88
124.0341219147 	 2.74
129.0698762568 	 0.99
130.0651252299 	 2.62
131.072950262 	 2.28
132.0807752941 	 7.96
133.0886003262 	 30.87
134.0184718505 	 18.03
137.0419469468 	 1.27
144.0807752941 	 2.58
146.0964253583 	 4.3
147.0262968826 	 1.96
149.0419469468 	 75.26
151.045020952 	 4.36
164.0528459841 	 3.88
165.0606710162 	 11.84
166.0684960483 	 41.95
178.0684960483 	 3.03
179.0763210804 	 5.02
192.0841461125 	 5.12
206.0997961767 	 3.91
207.1076212088 	 1.35
208.1154462409 	 43.17
220.1154462409 	 0.95
234.1310963051 	 1.82
248.1467463693 	 2.15
262.1623964335 	 8.5
278.1936965619 	 26.84
305.2171716582 	 3.51
320.2406467545 	 100
338.2512114408 	 0.12
END IONS

BEGIN IONS
PEPMASS=480.2129
CHARGE=1
MSLEVEL=2
RT=0
SOURCE_INSTRUMENT=qTOF
FILENAME=CCMSLIB00000085093.ms
IONMODE=Positive
ORGANISM=Natural
NAME=MLS002153279-01!
PI=GNPS
DATACOLLECTOR=GNPS
SMILES=CC1=NC(=C(C(c2cccc(c2)N(=O)=O)/C/1=C(\O)/OC)C(=O)OCCN(C)Cc1ccccc1)C
INCHI=InChI=1S/C26H29N3O6/c1-17-22(25(30)34-4)24(20-11-8-12-21(15-20)29(32)33)23(18(2)27-17)26(31)35-14-13-28(3)16-19-9-6-5-7-10-19/h5-12,15,24,30H,13-14,16H2,1-4H3/b25-22+
FORMULA=C26H29N3O6
PUBMED=N/A
SUBMITUSER=BIOADREM
LIBRARYQUALITY=0
SPECTRUMID=CCMSLIB00000085093
SCANS=3191
ID=CCMSLIB00000085093
91.0542261926 	 9.87
105.0698762568 	 1.92
148.1120754225 	 23.22
181.0886003262 	 1.25
182.0937452836 	 1.11
183.1015703157 	 0.8
198.0886599057 	 0.92
208.0730098415 	 1.73
209.0835149483 	 3.24
210.0886599057 	 9.86
211.0964849378 	 3.38
226.0835745278 	 13.35
227.085526321 	 3.52
236.0679244636 	 1.93
237.0757494957 	 1.05
238.0736785435 	 1.21
239.0815035756 	 1.11
240.099224592 	 1.88
241.0706641178 	 1.76
241.1070496241 	 1.28
242.0784891499 	 1.34
243.086314182 	 2.56
253.0706641178 	 1.08
254.0784891499 	 9.46
255.0804409431 	 3.76
257.0920682619 	 1.2
267.086314182 	 3.45
268.0941392141 	 15.29
269.1019642462 	 23.21
270.1039160394 	 4.55
283.0713328198 	 9.33
285.0631734367 	 0.95
287.1026329482 	 0.85
297.086982884 	 0.95
298.0948079161 	 10.77
299.0788235009 	 4.23
301.0944735651 	 10.7
315.0975475703 	 100
316.0968192888 	 21.28
317.1019642462 	 2.17
359.1237623208 	 30.32
360.1230340393 	 6.6
480.2129116791 	 0
END IONS

BEGIN IONS
PEPMASS=447.1867
CHARGE=1
MSLEVEL=2
RT=0
SOURCE_INSTRUMENT=qTOF
FILENAME=CCMSLIB00000085094.ms
IONMODE=Positive
ORGANISM=Natural
NAME=MLS002154213-01!Thioproperazine dimesylate2347-80-0
PI=GNPS
DATACOLLECTOR=GNPS
SMILES=CN(C)S(=O)(=O)c1ccc2c(c1)N(CCCN1CCN(C)CC1)c1ccccc1S2
INCHI=InChI=1S/C22H30N4O2S2/c1-23(2)30(27,28)18-9-10-22-20(17-18)26(19-7-4-5-8-21(19)29-22)12-6-11-25-15-13-24(3)14-16-25/h4-5,7-10,17H,6,11-16H2,1-3H3
FORMULA=C22H30N4O2S2
PUBMED=N/A
SUBMITUSER=BIOADREM
LIBRARYQUALITY=0
SPECTRUMID=CCMSLIB00000085094
SCANS=3192
ID=CCMSLIB00000085094
96.0807752941 	 1.43
97.0760242672 	 1.59
98.0838492993 	 14.7
111.0916743314 	 7.37
113.1073243956 	 100
141.138624524 	 97.02
167.072950262 	 1.35
180.0807752941 	 5.15
198.0371959199 	 5.38
199.045020952 	 1.82
206.0964253583 	 2.6
210.0371959199 	 4.3
211.045020952 	 15.03
212.0528459841 	 17.59
223.045020952 	 1.17
224.0528459841 	 1.75
226.0684960483 	 3.02
238.0684960483 	 9.46
239.0763210804 	 12.8
242.0634106704 	 4.9
243.0348501962 	 8.39
253.0555856383 	 2.96
254.0634106704 	 1.17
270.0583252925 	 1.88
271.0661503246 	 2.35
287.084874394 	 24.78
289.082765904 	 1.28
319.056945084 	 34.06
347.0882452124 	 4.54
402.1304443781 	 1.06
447.188293608 	 47.71
END IONS

BEGIN IONS
PEPMASS=296.1645
CHARGE=1
MSLEVEL=2
RT=0
SOURCE_INSTRUMENT=qTOF
FILENAME=CCMSLIB00000085096.ms
IONMODE=Positive
ORGANISM=Natural
NAME=MLS000860026-01!R()-Propylnorapomorphine hydrochloride
PI=GNPS
DATACOLLECTOR=GNPS
SMILES=CCCN1CCc2cccc3c2[C@H]1Cc1ccc(c(c31)O)O
INCHI=InChI=1S/C19H21NO2/c1-2-9-20-10-8-12-4-3-5-14-17(12)15(20)11-13-6-7-16(21)19(22)18(13)14/h3-7,15,21-22H,2,8-11H2,1H3/t15-/m1/s1
FORMULA=C19H21NO2
PUBMED=N/A
SUBMITUSER=BIOADREM
LIBRARYQUALITY=0
SPECTRUMID=CCMSLIB00000085096
SCANS=3193
ID=CCMSLIB00000085096
165.0698762568 	 1.56
176.0620512247 	 0.69
179.085526321 	 0.47
181.0647908789 	 0.41
189.0698762568 	 11.81
191.085526321 	 100
201.0698762568 	 4.32
207.0804409431 	 0.3
209.0960910073 	 0.38
219.0804409431 	 34.35
237.0910056294 	 17.99
296.1645049235 	 0
END IONS

BEGIN IONS
PEPMASS=176.108
CHARGE=1
MSLEVEL=2
RT=0
SOURCE_INSTRUMENT=qTOF
FILENAME=CCMSLIB00000085098.ms
IONMODE=Positive
ORGANISM=Natural
NAME=MLS001074862-01!1-Benzyl-2-pyrrolidinone
PI=GNPS
DATACOLLECTOR=GNPS
SMILES=c1ccc(cc1)CN1CCCC1=O
INCHI=InChI=1S/C11H13NO/c13-11-7-4-8-12(11)9-10-5-2-1-3-6-10/h1-3,5-6H,4,7-9H2
FORMULA=C11H13NO
PUBMED=N/A
SUBMITUSER=BIOADREM
LIBRARYQUALITY=0
SPECTRUMID=CCMSLIB00000085098
SCANS=3195
ID=CCMSLIB00000085098
61.0522148199 	 4.81
90.0464011605 	 4.37
91.0542261926 	 100
98.060039852 	 10.16
118.0413157826 	 3.17
176.1069900446 	 0
END IONS

BEGIN IONS
PEPMASS=254.0796
CHARGE=1
MSLEVEL=2
RT=0
SOURCE_INSTRUMENT=qTOF
FILENAME=CCMSLIB00000085099.ms
IONMODE=Positive
ORGANISM=Natural
NAME=MLS001331725-01!(9-oxo-10(9H)-acridinyl)acetic acid
PI=GNPS
DATACOLLECTOR=GNPS
SMILES=c1ccc2c(c1)c(=O)c1ccccc1n2CC(=O)O
INCHI=InChI=1S/C15H11NO3/c17-14(18)9-16-12-7-3-1-5-10(12)15(19)11-6-2-4-8-13(11)16/h1-8H,9H2,(H,17,18)
FORMULA=C15H11NO3
PUBMED=N/A
SUBMITUSER=BIOADREM
LIBRARYQUALITY=0
SPECTRUMID=CCMSLIB00000085099
SCANS=3196
ID=CCMSLIB00000085099
166.0651252299 	 4.83
167.072950262 	 33.61
180.0807752941 	 21.98
194.060039852 	 1.55
195.0678648841 	 100
208.0756899162 	 14.43
209.0835149483 	 11
254.0811692246 	 18.59
END IONS

BEGIN IONS
PEPMASS=386.266
CHARGE=1
MSLEVEL=2
RT=0
SOURCE_INSTRUMENT=qTOF
FILENAME=CCMSLIB00000085105.ms
IONMODE=Positive
ORGANISM=Natural
NAME=MLS002153199-01!Actinonin13434-13-4
PI=GNPS
DATACOLLECTOR=GNPS
SMILES=CCCCCC(CC(=NO)O)C(=NC(C(C)C)C(=O)N1CCCC1CO)O
INCHI=InChI=1S/C19H35N3O5/c1-4-5-6-8-14(11-16(24)21-27)18(25)20-17(13(2)3)19(26)22-10-7-9-15(22)12-23/h13-15,17,23,27H,4-12H2,1-3H3,(H,20,25)(H,21,24)
FORMULA=C19H35N3O5
PUBMED=N/A
SUBMITUSER=BIOADREM
LIBRARYQUALITY=0
SPECTRUMID=CCMSLIB00000085105
SCANS=3199
ID=CCMSLIB00000085105
97.1011763852 	 7.4
98.060039852 	 6.54
102.0913399804 	 100
107.085526321 	 8.61
111.0440554368 	 7.57
125.0960910073 	 12.56
171.1168264494 	 6.54
185.1324765136 	 7.75
201.151200583 	 9.81
224.1645049235 	 35.11
236.1604821781 	 5.68
239.1641705725 	 6.37
336.2407438718 	 7.4
353.243483526 	 8.61
386.2649472496 	 0
END IONS

BEGIN IONS
PEPMASS=483.1286
CHARGE=1
MSLEVEL=2
RT=0
SOURCE_INSTRUMENT=qTOF
FILENAME=CCMSLIB00000085107.ms
IONMODE=Positive
ORGANISM=Natural
NAME=MLS001304057-01!Silymarin22888-70-6
PI=GNPS
DATACOLLECTOR=GNPS
SMILES=COc1cc(ccc1O)[C@@H]1[C@@H](CO)Oc2ccc(cc2O1)[C@@H]1[C@H](C(=O)c2c(cc(cc2O1)O)O)O
INCHI=InChI=1S/C25H22O10/c1-32-17-6-11(2-4-14(17)28)24-20(10-26)33-16-5-3-12(7-18(16)34-24)25-23(31)22(30)21-15(29)8-13(27)9-19(21)35-25/h2-9,20,23-29,31H,10H2,1H3/t20-,23+,24-,25-/m1/s1
FORMULA=C25H22O10
PUBMED=N/A
SUBMITUSER=BIOADREM
LIBRARYQUALITY=0
SPECTRUMID=CCMSLIB00000085107
SCANS=3200
ID=CCMSLIB00000085107
107.0491408147 	 8.71
111.0440554368 	 7.57
119.0491408147 	 11.8
121.0284053726 	 14.26
124.0518804689 	 8.63
130.0413157826 	 10.48
131.0491408147 	 29.05
132.0569658468 	 10.65
133.0284053726 	 10.92
133.0647908789 	 11.36
135.0440554368 	 12.68
137.059705501 	 38.47
145.0647908789 	 7.13
147.0440554368 	 26.41
149.0233199947 	 44.01
149.059705501 	 35.56
153.0182346168 	 100
155.0491408147 	 8.19
159.0440554368 	 7.92
161.059705501 	 23.5
167.033884681 	 12.15
195.0287993031 	 21.92
213.0546201231 	 22.45
231.0651848094 	 7.22
295.0600994315 	 7.83
379.1176143104 	 10.3
407.1125289325 	 11.8
483.1285729272 	 0
END IONS

BEGIN IONS
PEPMASS=220.1685
CHARGE=1
MSLEVEL=2
RT=0
SOURCE_INSTRUMENT=qTOF
FILENAME=CCMSLIB00000085109.ms
IONMODE=Positive
ORGANISM=Natural
NAME=MLS002153291-01!R(+)-3-(3-Hydroxyphenyl)-N-propylpiperidine hydrochloride
PI=GNPS
DATACOLLECTOR=GNPS
SMILES=CCCN1CCC[C@@H](C1)c1cccc(c1)O
INCHI=InChI=1S/C14H21NO/c1-2-8-15-9-4-6-13(11-15)12-5-3-7-14(16)10-12/h3,5,7,10,13,16H,2,4,6,8-9,11H2,1H3/t13-/m0/s1
FORMULA=C14H21NO
PUBMED=N/A
SUBMITUSER=BIOADREM
LIBRARYQUALITY=0
SPECTRUMID=CCMSLIB00000085109
SCANS=3201
ID=CCMSLIB00000085109
103.0542261926 	 4.56
105.0698762568 	 15.87
107.0491408147 	 100
112.1120754225 	 12.61
115.0542261926 	 2.91
117.0698762568 	 3.08
121.0647908789 	 1.74
128.0620512247 	 4.36
131.0491408147 	 5.62
131.085526321 	 1.42
132.0569658468 	 7.19
133.0647908789 	 19.95
143.085526321 	 2.24
146.072615911 	 8.87
147.0804409431 	 2.25
161.0960910073 	 12.07
220.1695903014 	 38.63
END IONS

BEGIN IONS
PEPMASS=290.0942
CHARGE=1
MSLEVEL=2
RT=0
SOURCE_INSTRUMENT=qTOF
FILENAME=CCMSLIB00000085112.ms
IONMODE=Positive
ORGANISM=Natural
NAME=MLS000860018-01!(+/-)-6-Chloro-PB hydrobromide
PI=GNPS
DATACOLLECTOR=GNPS
SMILES=c1ccc(cc1)C1CNCCc2c1cc(c(c2Cl)O)O
INCHI=InChI=1S/C16H16ClNO2/c17-15-11-6-7-18-9-13(10-4-2-1-3-5-10)12(11)8-14(19)16(15)20/h1-5,8,13,18-20H,6-7,9H2
FORMULA=C16H16ClNO2
PUBMED=N/A
SUBMITUSER=BIOADREM
LIBRARYQUALITY=0
SPECTRUMID=CCMSLIB00000085112
SCANS=3203
ID=CCMSLIB00000085112
91.0542261926 	 17.93
103.0542261926 	 14.73
107.0491408147 	 9.14
117.0698762568 	 4.27
118.0413157826 	 6.26
125.0152538705 	 86.27
128.0620512247 	 10.23
129.0698762568 	 9.73
131.0491408147 	 13.07
136.0518804689 	 24.37
149.0152538705 	 19.63
153.0101684926 	 24.39
157.0050831147 	 9.8
160.0518804689 	 21.33
165.0698762568 	 16.13
166.0777012889 	 7.4
171.0207331789 	 100
177.0101684926 	 11.39
178.0777012889 	 5.79
179.085526321 	 10.87
190.0777012889 	 4.61
191.085526321 	 31.81
192.0933513531 	 25.3
195.0207331789 	 12.57
198.0316322162 	 16.13
219.0804409431 	 8.24
220.0882659752 	 15.48
223.0753555652 	 25.48
237.0910056294 	 14.05
238.0988306615 	 26.21
290.094232473 	 0
END IONS

BEGIN IONS
PEPMASS=271.0591
CHARGE=1
MSLEVEL=2
RT=0
SOURCE_INSTRUMENT=qTOF
FILENAME=CCMSLIB00000085113.ms
IONMODE=Positive
ORGANISM=Natural
NAME=MLS001066370-01!518-82-1
PI=GNPS
DATACOLLECTOR=GNPS
SMILES=Cc1cc2c(c(c1)O)C(=O)c1c(cc(cc1O)O)C2=O
INCHI=InChI=1S/C15H10O5/c1-6-2-8-12(10(17)3-6)15(20)13-9(14(8)19)4-7(16)5-11(13)18/h2-5,16-18H,1H3
FORMULA=C15H10O5
PUBMED=N/A
SUBMITUSER=BIOADREM
LIBRARYQUALITY=0
SPECTRUMID=CCMSLIB00000085113
SCANS=3204
ID=CCMSLIB00000085113
91.0542261926 	 9.69
103.0542261926 	 15.34
115.0542261926 	 60.92
140.0620512247 	 6.18
141.0698762568 	 51.44
144.0569658468 	 11.93
145.0647908789 	 33.44
183.0440554368 	 10.01
201.0546201231 	 37.49
207.0440554368 	 5.96
225.0546201231 	 89.67
253.0495347452 	 10.22
271.0600994315 	 166.99
END IONS

BEGIN IONS
PEPMASS=331.2271
CHARGE=1
MSLEVEL=2
RT=0
SOURCE_INSTRUMENT=qTOF
FILENAME=CCMSLIB00000085114.ms
IONMODE=Positive
ORGANISM=Natural
NAME=MLS001076270-01!21-HYDROXYPROGESTERONE64-85-7
PI=GNPS
DATACOLLECTOR=GNPS
SMILES=C[C@]12CCC(=O)C=C1CC[C@H]1[C@@H]3CC[C@H](C(=O)CO)[C@@]3(C)CC[C@H]21
INCHI=InChI=1S/C21H30O3/c1-20-9-7-14(23)11-13(20)3-4-15-16-5-6-18(19(24)12-22)21(16,2)10-8-17(15)20/h11,15-18,22H,3-10,12H2,1-2H3/t15-,16-,17-,18+,20-,21-/m0/s1
FORMULA=C21H30O3
PUBMED=N/A
SUBMITUSER=BIOADREM
LIBRARYQUALITY=0
SPECTRUMID=CCMSLIB00000085114
SCANS=3205
ID=CCMSLIB00000085114
91.0542261926 	 3.28
93.0698762568 	 3.28
95.0491408147 	 2.56
95.085526321 	 7.32
97.0647908789 	 58.65
105.0698762568 	 13.32
107.0491408147 	 3.21
107.085526321 	 9.83
109.0647908789 	 100
115.0542261926 	 2.78
116.0620512247 	 3.21
117.0698762568 	 3.37
119.085526321 	 12.98
121.0647908789 	 5.84
123.0804409431 	 22
130.0777012889 	 3.74
131.085526321 	 10.07
133.1011763852 	 8.13
137.0960910073 	 2.66
142.0777012889 	 4.05
161.1324765136 	 3.31
163.1117410715 	 4.2
168.0933513531 	 3.28
171.1168264494 	 10.48
183.1168264494 	 2.75
189.1273911357 	 2.56
199.1481265778 	 5.41
295.2056414567 	 4.08
331.2267708293 	 3.74
END IONS

BEGIN IONS
PEPMASS=369.1485
CHARGE=1
MSLEVEL=2
RT=0
SOURCE_INSTRUMENT=qTOF
FILENAME=CCMSLIB00000085115.ms
IONMODE=Positive
ORGANISM=Natural
NAME=MLS001076340-01!
PI=GNPS
DATACOLLECTOR=GNPS
SMILES=CN([C@@H]1CCCC[C@H]1N1CCCC1)C(=O)Cc1ccc(c(c1)Cl)Cl
INCHI=InChI=1S/C19H26Cl2N2O/c1-22(19(24)13-14-8-9-15(20)16(21)12-14)17-6-2-3-7-18(17)23-10-4-5-11-23/h8-9,12,17-18H,2-7,10-11,13H2,1H3/t17-,18-/m1/s1
FORMULA=C19H26Cl2N2O
PUBMED=N/A
SUBMITUSER=BIOADREM
LIBRARYQUALITY=0
SPECTRUMID=CCMSLIB00000085115
SCANS=3206
ID=CCMSLIB00000085115
112.1120754225 	 90.81
122.9996038063 	 1.14
152.1433755509 	 1.83
158.9762815484 	 70.93
200.0028306499 	 0.82
218.0133953362 	 85.58
298.075995593 	 100
369.1494948871 	 0.66
END IONS

BEGIN IONS
PEPMASS=411.1978
CHARGE=1
MSLEVEL=2
RT=0
SOURCE_INSTRUMENT=qTOF
FILENAME=CCMSLIB00000085116.ms
IONMODE=Positive
ORGANISM=Natural
NAME=MLS001077306-01!
PI=GNPS
DATACOLLECTOR=GNPS
SMILES=C[C@@H]1C[C@H]2[C@@H]3C[C@@H](C4=CC(=O)C=C[C@]4(C)[C@]3([C@H](C[C@]2(C)[C@]1(C(=O)CO)O)O)F)F
INCHI=InChI=1S/C22H28F2O5/c1-11-6-13-14-8-16(23)15-7-12(26)4-5-19(15,2)21(14,24)17(27)9-20(13,3)22(11,29)18(28)10-25/h4-5,7,11,13-14,16-17,25,27,29H,6,8-10H2,1-3H3/t11-,13+,14+,16+,17+,19+,20+,21+,22+/m1/s1
FORMULA=C22H28F2O5
PUBMED=N/A
SUBMITUSER=BIOADREM
LIBRARYQUALITY=0
SPECTRUMID=CCMSLIB00000085116
SCANS=3207
ID=CCMSLIB00000085116
105.0698762568 	 18.1
119.085526321 	 13.69
121.0647908789 	 100
135.0804409431 	 36.88
143.085526321 	 21.95
147.0804409431 	 27.15
151.0553690468 	 16.74
152.0643369331 	 11.65
159.0804409431 	 23.87
171.0804409431 	 17.99
179.0866691752 	 13.69
196.0882659752 	 15.27
205.1011763852 	 13.24
209.0960910073 	 19.57
210.1050588936 	 25.68
211.1117410715 	 19.68
221.0960910073 	 16.63
222.1039160394 	 23.08
223.1117410715 	 17.76
225.1273911357 	 24.66
235.1117410715 	 81.67
237.1273911357 	 39.93
245.0960910073 	 14.93
247.1117410715 	 19.68
248.1195661036 	 12.9
253.1223057578 	 65.05
255.1191121578 	 14.14
259.1117410715 	 12.22
260.1195661036 	 17.76
261.1273911357 	 18.67
262.1352161678 	 31.79
274.1352161678 	 19.8
277.1586912641 	 35.07
289.1586912641 	 13.69
295.1692559504 	 13.69
411.1977564093 	 0
END IONS

BEGIN IONS
PEPMASS=281.2012
CHARGE=1
MSLEVEL=2
RT=0
SOURCE_INSTRUMENT=qTOF
FILENAME=CCMSLIB00000085117.ms
IONMODE=Positive
ORGANISM=Natural
NAME=MLS001146891-01!113-52-0
PI=GNPS
DATACOLLECTOR=GNPS
SMILES=CN(C)CCCN1c2ccccc2CCc2ccccc12
INCHI=InChI=1S/C19H24N2/c1-20(2)14-7-15-21-18-10-5-3-8-16(18)12-13-17-9-4-6-11-19(17)21/h3-6,8-11H,7,12-15H2,1-2H3
FORMULA=C19H24N2
PUBMED=N/A
SUBMITUSER=BIOADREM
LIBRARYQUALITY=0
SPECTRUMID=CCMSLIB00000085117
SCANS=3208
ID=CCMSLIB00000085117
166.0777012889 	 1.37
167.072950262 	 2.22
193.0886003262 	 100
208.1120754225 	 63.7
236.1433755509 	 5.62
281.2012247808 	 0
END IONS

BEGIN IONS
PEPMASS=266.1636
CHARGE=1
MSLEVEL=2
RT=0
SOURCE_INSTRUMENT=qTOF
FILENAME=CCMSLIB00000085118.ms
IONMODE=Positive
ORGANISM=Natural
NAME=MLS001148180-01!ANTAZOLINE PHOSPHATE
PI=GNPS
DATACOLLECTOR=GNPS
SMILES=c1ccc(cc1)CN(CC1=NCCN1)c1ccccc1
INCHI=InChI=1S/C17H19N3/c1-3-7-15(8-4-1)13-20(14-17-18-11-12-19-17)16-9-5-2-6-10-16/h1-10H,11-14H2,(H,18,19)
FORMULA=C17H19N3
PUBMED=N/A
SUBMITUSER=BIOADREM
LIBRARYQUALITY=0
SPECTRUMID=CCMSLIB00000085118
SCANS=3209
ID=CCMSLIB00000085118
91.0542261926 	 100
104.0494751657 	 0.94
106.0651252299 	 4.18
117.0573001978 	 0.755
118.0651252299 	 6.08
145.0760242672 	 0.855
146.0712732403 	 0.945
161.1073243956 	 2.005
165.0698762568 	 0.875
174.1025733687 	 4.475
179.085526321 	 1.625
180.0807752941 	 1.92
196.1120754225 	 71.3
266.1651736255 	 0.965
END IONS

BEGIN IONS
PEPMASS=319.096
CHARGE=1
MSLEVEL=2
RT=0
SOURCE_INSTRUMENT=qTOF
FILENAME=CCMSLIB00000085119.ms
IONMODE=Positive
ORGANISM=Natural
NAME=MLS001148397-01!PHENOLPHTHALEIN77-09-8
PI=GNPS
DATACOLLECTOR=GNPS
SMILES=c1ccc2c(c1)C(=O)OC2(c1ccc(cc1)O)c1ccc(cc1)O
INCHI=InChI=1S/C20H14O4/c21-15-9-5-13(6-10-15)20(14-7-11-16(22)12-8-14)18-4-2-1-3-17(18)19(23)24-20/h1-12,21-22H
FORMULA=C20H14O4
PUBMED=N/A
SUBMITUSER=BIOADREM
LIBRARYQUALITY=0
SPECTRUMID=CCMSLIB00000085119
SCANS=3210
ID=CCMSLIB00000085119
115.0542261926 	 8.56
141.0698762568 	 47.31
151.0542261926 	 4.9
152.0620512247 	 6.27
169.0647908789 	 17.33
179.0491408147 	 3.39
180.0569658468 	 0.75
197.059705501 	 32.54
207.0440554368 	 1.9
225.0546201231 	 100
301.0859202515 	 1.13
319.0964849378 	 1.49
END IONS

BEGIN IONS
PEPMASS=429.2999
CHARGE=1
MSLEVEL=2
RT=0
SOURCE_INSTRUMENT=qTOF
FILENAME=CCMSLIB00000085120.ms
IONMODE=Positive
ORGANISM=Natural
NAME=MLS001148643-01!17ALPHA-HYDROXYPROGESTERONE CAPROATE630-56-8
PI=GNPS
DATACOLLECTOR=GNPS
SMILES=CCCCCC(=O)O[C@@]1(CC[C@H]2[C@@H]3CCC4=CC(=O)CC[C@]4(C)[C@H]3CC[C@]12C)C(=O)C
INCHI=InChI=1S/C27H40O4/c1-5-6-7-8-24(30)31-27(18(2)28)16-13-23-21-10-9-19-17-20(29)11-14-25(19,3)22(21)12-15-26(23,27)4/h17,21-23H,5-16H2,1-4H3/t21-,22+,23+,25+,26+,27+/m1/s1
FORMULA=C27H40O4
PUBMED=N/A
SUBMITUSER=BIOADREM
LIBRARYQUALITY=0
SPECTRUMID=CCMSLIB00000085120
SCANS=3211
ID=CCMSLIB00000085120
97.0647908789 	 40.66
105.0698762568 	 11.64
107.085526321 	 9.68
109.0647908789 	 100
111.0804409431 	 7.71
117.0698762568 	 7.94
119.085526321 	 18.49
123.0804409431 	 32.61
129.0698762568 	 13.38
131.085526321 	 16.74
133.1011763852 	 24.33
137.0960910073 	 6.95
143.085526321 	 15.75
145.1011763852 	 39.05
147.1168264494 	 35.17
149.1324765136 	 6.56
155.085526321 	 7.25
157.1011763852 	 18.75
159.1168264494 	 34.57
161.1324765136 	 16.37
163.1117410715 	 13.39
163.1481265778 	 9.11
169.1011763852 	 17.37
171.1168264494 	 32.22
173.1324765136 	 29.35
175.1481265778 	 40.8
177.1273911357 	 6.71
183.1168264494 	 14.92
185.1324765136 	 13.89
187.1481265778 	 18.44
197.1324765136 	 18.03
199.1481265778 	 14.9
205.1586912641 	 7.57
209.1324765136 	 9.48
211.1481265778 	 19.27
225.163776642 	 7.91
237.163776642 	 15.46
251.1794267062 	 7.82
252.1872517383 	 9.93
253.1950767704 	 31.92
269.1899913925 	 13.64
270.1978164246 	 15.91
271.2056414567 	 56.67
295.2056414567 	 16.81
313.216206143 	 22.17
429.2999357724 	 0
END IONS

BEGIN IONS
PEPMASS=405.1827
CHARGE=1
MSLEVEL=2
RT=0
SOURCE_INSTRUMENT=qTOF
FILENAME=CCMSLIB00000085121.ms
IONMODE=Positive
ORGANISM=Natural
NAME=MLS001148653-01!
PI=GNPS
DATACOLLECTOR=GNPS
SMILES=CC(=O)[C@]1(CC[C@H]2[C@@H]3C=C(C4=CC(=O)CC[C@]4(C)[C@H]3CC[C@]12C)Cl)OC(=O)C
INCHI=InChI=1S/C23H29ClO4/c1-13(25)23(28-14(2)26)10-7-18-16-12-20(24)19-11-15(27)5-8-21(19,3)17(16)6-9-22(18,23)4/h11-12,16-18H,5-10H2,1-4H3/t16-,17+,18+,21-,22+,23+/m1/s1
FORMULA=C23H29ClO4
PUBMED=N/A
SUBMITUSER=BIOADREM
LIBRARYQUALITY=0
SPECTRUMID=CCMSLIB00000085121
SCANS=3212
ID=CCMSLIB00000085121
105.0698762568 	 15.04
131.085526321 	 13.28
133.1011763852 	 43.95
143.085526321 	 8.49
145.1011763852 	 16.95
147.1168264494 	 14.37
155.085526321 	 12.21
157.1011763852 	 8.32
167.0833334357 	 10.2
169.1011763852 	 12.49
171.0804409431 	 16.86
172.0882659752 	 8.29
173.0960910073 	 13.31
175.1117410715 	 11.29
179.0833334357 	 8.54
181.1011763852 	 14.34
193.0989834999 	 11.88
194.106808532 	 7.59
195.1168264494 	 14.79
205.1011763852 	 7.84
207.0571186852 	 20.92
207.1146335641 	 14.54
209.093898122 	 13.14
209.1302836283 	 16.92
210.1403015457 	 9.1
211.1095481862 	 8.6
219.1168264494 	 9.86
221.1324765136 	 12.86
222.1381086604 	 8.94
223.1117410715 	 12.41
223.1459336925 	 31.06
224.1537587246 	 8.24
225.1273911357 	 15.66
233.1324765136 	 20.39
237.1251982504 	 11.15
243.0935041915 	 11.9
245.1091542557 	 9.24
248.1537587246 	 10.03
249.1615837567 	 16.41
250.1352161678 	 19.38
251.1430411999 	 62.52
252.1486733467 	 15.18
257.1091542557 	 12.86
265.1586912641 	 50.22
266.1643234109 	 30.7
267.172148443 	 100
287.119718942 	 14.82
291.172148443 	 13.47
301.1353690062 	 74.23
309.1827131293 	 20.17
327.1510190704 	 7.56
405.1827131293 	 0
END IONS

BEGIN IONS
PEPMASS=226.094
CHARGE=1
MSLEVEL=2
RT=0
SOURCE_INSTRUMENT=qTOF
FILENAME=CCMSLIB00000085123.ms
IONMODE=Positive
ORGANISM=Natural
NAME=MLS000069633-01!Acyclovir59277-89-3
PI=GNPS
DATACOLLECTOR=GNPS
SMILES=C(COCn1cnc2c1[nH]c(=N)nc2O)O
INCHI=InChI=1S/C8H11N5O3/c9-8-11-6-5(7(15)12-8)10-3-13(6)4-16-2-1-14/h3,14H,1-2,4H2,(H3,9,11,12,15)
FORMULA=C8H11N5O3
PUBMED=N/A
SUBMITUSER=BIOADREM
LIBRARYQUALITY=0
SPECTRUMID=CCMSLIB00000085123
SCANS=3214
ID=CCMSLIB00000085123
80.0454524203 	 12
125.047129442 	 9.75
134.034887734 	 10.25
135.0301367071 	 100
148.0465150528 	 4.75
226.0934652454 	 0
END IONS

BEGIN IONS
PEPMASS=273.223
CHARGE=1
MSLEVEL=2
RT=0
SOURCE_INSTRUMENT=qTOF
FILENAME=CCMSLIB00000085124.ms
IONMODE=Positive
ORGANISM=Natural
NAME=MLS000069748-01!5ALPHA-ANDROST-16-EN-3-ONE
PI=GNPS
DATACOLLECTOR=GNPS
SMILES=C[C@]12C=CC[C@H]2[C@@H]2CC[C@H]3CC(=O)CC[C@]3(C)[C@H]2CC1
INCHI=InChI=1S/C19H28O/c1-18-9-3-4-16(18)15-6-5-13-12-14(20)7-11-19(13,2)17(15)8-10-18/h3,9,13,15-17H,4-8,10-12H2,1-2H3/t13-,15-,16-,17-,18-,19-/m0/s1
FORMULA=C19H28O
PUBMED=N/A
SUBMITUSER=BIOADREM
LIBRARYQUALITY=0
SPECTRUMID=CCMSLIB00000085124
SCANS=3215
ID=CCMSLIB00000085124
93.0698762568 	 32.85
107.085526321 	 44.52
109.1011763852 	 12.68
117.0698762568 	 22.62
119.085526321 	 47.84
121.1011763852 	 18.16
133.1011763852 	 54.76
135.1168264494 	 29.11
143.085526321 	 26.95
149.1324765136 	 11.67
213.163776642 	 10.66
227.1794267062 	 10.23
255.2107268346 	 19.88
273.2212915209 	 0
END IONS

BEGIN IONS
PEPMASS=352.0402
CHARGE=1
MSLEVEL=2
RT=0
SOURCE_INSTRUMENT=qTOF
FILENAME=CCMSLIB00000085125.ms
IONMODE=Positive
ORGANISM=Natural
NAME=MLS000859933-01!Meloxicam sodium salt hydrate
PI=GNPS
DATACOLLECTOR=GNPS
SMILES=Cc1cnc(N=C(C2=C(c3ccccc3S(=O)(=O)N2C)[O-])O)s1
INCHI=InChI=1S/C14H13N3O4S2/c1-8-7-15-14(22-8)16-13(19)11-12(18)9-5-3-4-6-10(9)23(20,21)17(11)2/h3-7,18H,1-2H3,(H,15,16,19)/p-1
FORMULA=C14H13N3O4S2
PUBMED=N/A
SUBMITUSER=BIOADREM
LIBRARYQUALITY=0
SPECTRUMID=CCMSLIB00000085125
SCANS=3216
ID=CCMSLIB00000085125
88.0215458557 	 0.49
90.0185689678 	 0.115
91.0542261926 	 0.165
97.0106468184 	 0.31
100.0215458557 	 0.135
105.0334907505 	 0.44
108.0080042815 	 0.145
109.0106468184 	 1.635
113.0167948288 	 1.41
114.0008104136 	 2.175
114.0185689678 	 0.16
115.032444893 	 100
116.034219032 	 3.48
118.032110542 	 0.13
118.0651252299 	 0.16
121.0284053726 	 0.135
127.032444893 	 1.015
132.0443897878 	 0.12
136.0215458557 	 0.125
137.0055614405 	 1.71
141.0117094509 	 82.66
142.0134835899 	 2.865
146.060039852 	 0.78
151.9926510305 	 0.465
153.0004760626 	 7.66
155.0273595151 	 0.155
156.0589939945 	 0.22
164.0164604778 	 1.725
166.032110542 	 0.18
168.9953906847 	 1.83
176.0164604778 	 0.14
182.0270251641 	 0.515
184.0539086166 	 0.765
194.0270251641 	 0.36
210.0219397862 	 1.555
211.0297648183 	 0.16
238.0168544083 	 0.135
352.0420233013 	 0.155
END IONS

BEGIN IONS
PEPMASS=256.06
CHARGE=1
MSLEVEL=2
RT=0
SOURCE_INSTRUMENT=qTOF
FILENAME=CCMSLIB00000085129.ms
IONMODE=Positive
ORGANISM=Natural
NAME=MLS001304087-01!Imidacloprid138261-41-3
PI=GNPS
DATACOLLECTOR=GNPS
SMILES=c1cc(Cl)ncc1CN1CCN=C1NN(=O)=O
INCHI=InChI=1S/C9H10ClN5O2/c10-8-2-1-7(5-12-8)6-14-4-3-11-9(14)13-15(16)17/h1-2,5H,3-4,6H2,(H,11,13)
FORMULA=C9H10ClN5O2
PUBMED=N/A
SUBMITUSER=BIOADREM
LIBRARYQUALITY=0
SPECTRUMID=CCMSLIB00000085129
SCANS=3217
ID=CCMSLIB00000085129
99.0539461544 	 4.17
107.060374203 	 6.89
120.0556231761 	 8.48
128.0243230477 	 9.17
129.0101684926 	 4.47
131.060374203 	 10.83
133.0594254628 	 14.09
134.0712732403 	 7.27
141.0214018809 	 10.45
147.0665222134 	 23.79
158.0712732403 	 5.3
159.075075527 	 17.58
160.0869233045 	 8.26
166.016650854 	 4.85
169.041468621 	 4.09
174.0899973097 	 26.06
175.0978223418 	 100
180.0210675299 	 5.08
181.028892562 	 7.35
195.0431999555 	 6.14
208.0510249876 	 5.76
209.0588500197 	 73.64
256.0595783012 	 0
END IONS

BEGIN IONS
PEPMASS=854.3382
CHARGE=1
MSLEVEL=2
RT=0
SOURCE_INSTRUMENT=qTOF
FILENAME=CCMSLIB00000085132.ms
IONMODE=Positive
ORGANISM=Natural
NAME=MLS002154218-01!16837-52-8
PI=GNPS
DATACOLLECTOR=GNPS
SMILES=CC1=C2[C@H](C(=O)[C@]3(C)[C@H](C[C@@H]4[C@@](CO4)([C@H]3[C@@H]([C@](C[C@@H]1OC(=O)[C@@H]([C@H](c1ccccc1)N=C(c1ccccc1)O)O)(C2(C)C)O)OC(=O)c1ccccc1)OC(=O)C)O)OC(=O)C
INCHI=InChI=1S/C47H51NO14/c1-25-31(60-43(56)36(52)35(28-16-10-7-11-17-28)48-41(54)29-18-12-8-13-19-29)23-47(57)40(61-42(55)30-20-14-9-15-21-30)38-45(6,32(51)22-33-46(38,24-58-33)62-27(3)50)39(53)37(59-26(2)49)34(25)44(47,4)5/h7-21,31-33,35-38,40,51-52,57H,22-24H2,1-6H3,(H,48,54)/t31-,32-,33+,35-,36+,37+,38-,40-,45+,46-,47+/m0/s1
FORMULA=C47H51NO14
PUBMED=N/A
SUBMITUSER=BIOADREM
LIBRARYQUALITY=0
SPECTRUMID=CCMSLIB00000085132
SCANS=3219
ID=CCMSLIB00000085132
105.0334907505 	 100
118.0651252299 	 8.47
119.0491408147 	 7.39
119.085526321 	 5.4
121.0647908789 	 7.9
133.0647908789 	 7.28
133.1011763852 	 7.87
143.085526321 	 5.11
147.0804409431 	 6.26
149.059705501 	 9.47
149.0960910073 	 6.49
157.1011763852 	 5.31
159.0804409431 	 9.26
161.0960910073 	 11.41
169.1011763852 	 5.47
173.0960910073 	 5.26
175.0753555652 	 5.81
177.0910056294 	 5.88
183.1168264494 	 7.3
185.0960910073 	 4.92
193.1011763852 	 6.27
195.1168264494 	 7.64
197.0960910073 	 6.96
199.1117410715 	 5.92
206.1090014173 	 4.67
207.1168264494 	 5.05
209.0960910073 	 5.24
209.1324765136 	 9.57
211.1117410715 	 8.43
211.1481265778 	 5.39
213.1273911357 	 5.33
220.1246514815 	 4.93
221.1324765136 	 8.6
223.1117410715 	 7.53
225.1273911357 	 8.67
235.1481265778 	 11.86
237.1273911357 	 9.84
239.1430411999 	 11.62
240.1019046667 	 46.45
248.1195661036 	 6.19
249.1273911357 	 7.66
251.1430411999 	 5.77
253.1586912641 	 6.08
263.1430411999 	 16.72
267.137955822 	 7.1
268.0968192888 	 6.9
281.1536058862 	 12.58
286.1073839751 	 21.33
291.137955822 	 6.94
299.1641705725 	 8.12
309.1485205083 	 13.97
327.1590851946 	 11.68
509.2196740787 	 6.54
854.3382313517 	 0
END IONS

BEGIN IONS
PEPMASS=584.2852
CHARGE=1
MSLEVEL=2
RT=0
SOURCE_INSTRUMENT=qTOF
FILENAME=CCMSLIB00000085133.ms
IONMODE=Positive
ORGANISM=Natural
NAME=MLS000859925-01!Dihydroergotamine methanesulfonate salt
PI=GNPS
DATACOLLECTOR=GNPS
SMILES=CC1(C(=O)N2[C@@H](Cc3ccccc3)C(=O)N3CCC[C@H]3C2(O)O1)N=C([C@@H]1CC2c3cccc4c3c(C[C@H]2N(C)C1)c[nH]4)O
INCHI=InChI=1S/C33H37N5O5/c1-32(35-29(39)21-15-23-22-10-6-11-24-28(22)20(17-34-24)16-25(23)36(2)18-21)31(41)38-26(14-19-8-4-3-5-9-19)30(40)37-13-7-12-27(37)33(38,42)43-32/h3-6,8-11,17,21,23,25-27,34,42H,7,12-16,18H2,1-2H3,(H,35,39)/t21-,23?,25-,26+,27+,32?,33?/m1/s1
FORMULA=C33H37N5O5
PUBMED=N/A
SUBMITUSER=BIOADREM
LIBRARYQUALITY=0
SPECTRUMID=CCMSLIB00000085133
SCANS=3220
ID=CCMSLIB00000085133
144.0780952194 	 0.63
154.0651252299 	 1.7
155.0702701873 	 1.11
156.0780952194 	 0.59
167.072950262 	 0.81
168.0807752941 	 13.1
169.0859202515 	 1.33
170.0937452836 	 0.83
180.0807752941 	 1.43
182.0937452836 	 2.72
184.0994993635 	 0.69
192.0807752941 	 0.62
194.0964253583 	 6.15
195.1015703157 	 4.86
196.1093953478 	 1.9
197.1073243956 	 2.76
198.112469353 	 0.5
208.0756899162 	 1.49
209.1073243956 	 0.67
210.0913399804 	 17.39
211.1202943851 	 0.61
222.0913399804 	 1.94
223.1202943851 	 1.31
224.1281194172 	 0.76
225.138624524 	 21.97
226.1424268107 	 4.55
227.1178890819 	 1.5
238.1100640498 	 1.58
241.1308590714 	 0.68
253.1335391461 	 38.53
254.1373414328 	 7.95
270.1600882476 	 100
271.1638905343 	 22.18
294.1600882476 	 9.54
295.1638905343 	 2.15
322.1550028697 	 3.99
323.1588051564 	 0.98
538.2812660158 	 4.1
539.2890910479 	 1.91
566.2761806379 	 1.76
567.28400567 	 0.93
584.2867453242 	 7.2
END IONS

BEGIN IONS
PEPMASS=495.185
CHARGE=1
MSLEVEL=2
RT=0
SOURCE_INSTRUMENT=qTOF
FILENAME=CCMSLIB00000085136.ms
IONMODE=Positive
ORGANISM=Natural
NAME=MLS001056797-01!CGP-20712A methanesulfonate salt
PI=GNPS
DATACOLLECTOR=GNPS
SMILES=Cn1cc(C(F)(F)F)nc1c1ccc(cc1)OCC(CNCCOc1ccc(c(c1)C(=N)O)O)O
INCHI=InChI=1S/C23H25F3N4O5/c1-30-12-20(23(24,25)26)29-22(30)14-2-4-16(5-3-14)35-13-15(31)11-28-8-9-34-17-6-7-19(32)18(10-17)21(27)33/h2-7,10,12,15,28,31-32H,8-9,11,13H2,1H3,(H2,27,33)
FORMULA=C23H25F3N4O5
PUBMED=N/A
SUBMITUSER=BIOADREM
LIBRARYQUALITY=0
SPECTRUMID=CCMSLIB00000085136
SCANS=3221
ID=CCMSLIB00000085136
109.0322283015 	 1.99
137.021977324 	 17.83
138.0275574963 	 1.73
146.0586971813 	 2.48
182.0411961878 	 2.08
192.0641764897 	 8.88
193.0634482082 	 2.85
201.0658535114 	 3.74
210.0724963162 	 3.25
218.0798265539 	 2.99
223.0666024351 	 13.2
224.0717473925 	 2.87
227.072950262 	 1.78
235.0627795062 	 1.61
236.0903912402 	 7.48
237.0896629587 	 1.71
242.0623255604 	 6.03
243.0728306672 	 100
244.0756899162 	 7.92
255.0764181977 	 4.32
261.0784295704 	 2.94
265.0771671214 	 2.15
269.0884807314 	 6.92
270.0936256888 	 2.9
281.0880455165 	 4.93
282.087317235 	 1.75
285.0833953535 	 13.32
286.086054786 	 2.13
324.1279998224 	 1.92
330.0810496298 	 2.41
342.1385645087 	 4.09
343.1490696155 	 1.87
358.0685537925 	 2.85
360.0864487165 	 3.06
401.0943539703 	 11.54
402.094768543 	 3.97
414.1185779903 	 2.24
418.1498781187 	 1.61
440.1416385139 	 22.88
441.1380303412 	 8.37
458.1522032002 	 12.04
459.1638511612 	 3.39
460.147866746 	 23.32
478.1584314323 	 10.4
495.1849805338 	 3.6
END IONS

BEGIN IONS
PEPMASS=286.096
CHARGE=1
MSLEVEL=2
RT=0
SOURCE_INSTRUMENT=qTOF
FILENAME=CCMSLIB00000085137.ms
IONMODE=Positive
ORGANISM=Natural
NAME=MLS001066367-01!2-Fluoroadenosine
PI=GNPS
DATACOLLECTOR=GNPS
SMILES=C([C@@H]1[C@H]([C@H]([C@H](n2cnc3c(N)nc(F)nc23)O1)O)O)O
INCHI=InChI=1S/C10H12FN5O4/c11-10-14-7(12)4-8(15-10)16(2-13-4)9-6(19)5(18)3(1-17)20-9/h2-3,5-6,9,17-19H,1H2,(H2,12,14,15)/t3-,5-,6-,9-/m1/s1
FORMULA=C10H12FN5O4
PUBMED=N/A
SUBMITUSER=BIOADREM
LIBRARYQUALITY=0
SPECTRUMID=CCMSLIB00000085137
SCANS=3222
ID=CCMSLIB00000085137
74.0526293926 	 3.56
97.0295482268 	 5.9
107.033884681 	 4.69
134.0447837183 	 69.42
154.0510119504 	 100
286.0946080996 	 0
END IONS

BEGIN IONS
PEPMASS=312.1376
CHARGE=1
MSLEVEL=2
RT=0
SOURCE_INSTRUMENT=qTOF
FILENAME=CCMSLIB00000085138.ms
IONMODE=Positive
ORGANISM=Natural
NAME=MLS001076161-01!1156-19-0
PI=GNPS
DATACOLLECTOR=GNPS
SMILES=Cc1ccc(cc1)S(=O)(=O)NC(=NN1CCCCCC1)O
INCHI=InChI=1S/C14H21N3O3S/c1-12-6-8-13(9-7-12)21(19,20)16-14(18)15-17-10-4-2-3-5-11-17/h6-9H,2-5,10-11H2,1H3,(H2,15,16,18)
FORMULA=C14H21N3O3S
PUBMED=N/A
SUBMITUSER=BIOADREM
LIBRARYQUALITY=0
SPECTRUMID=CCMSLIB00000085138
SCANS=3223
ID=CCMSLIB00000085138
58.0525491709 	 3.69
91.0542261926 	 31.19
92.0580284793 	 2.78
92.0831805973 	 2.45
96.0556231761 	 2.93
97.0886003262 	 4.8
98.0964253583 	 51.2
99.1042503904 	 28.07
105.0083386325 	 3.31
106.0651252299 	 2.54
113.1073243956 	 19.91
115.1229744598 	 80.04
116.1069900446 	 2.59
139.0865889535 	 13
141.1022390177 	 100
143.1053130229 	 2.54
152.0613992977 	 2.54
155.0161261268 	 59.74
156.0192376698 	 2.74
156.113138055 	 3.6
157.007276 	 5.76
157.031776191 	 2.88
172.0426752283 	 11.66
173.0385761284 	 2.5
312.137638246 	 4.65
END IONS

BEGIN IONS
PEPMASS=237.012
CHARGE=1
MSLEVEL=2
RT=0
SOURCE_INSTRUMENT=qTOF
FILENAME=CCMSLIB00000085139.ms
IONMODE=Positive
ORGANISM=Natural
NAME=MLS001146905-01!
PI=GNPS
DATACOLLECTOR=GNPS
SMILES=CC(=O)N=c1n(C)nc(s1)S(=O)(=O)N
INCHI=InChI=1S/C5H8N4O3S2/c1-3(10)7-4-9(2)8-5(13-4)14(6,11)12/h1-2H3,(H2,6,11,12)
FORMULA=C5H8N4O3S2
PUBMED=N/A
SUBMITUSER=BIOADREM
LIBRARYQUALITY=0
SPECTRUMID=CCMSLIB00000085139
SCANS=3224
ID=CCMSLIB00000085139
105.0294680051 	 4.62
114.0120438019 	 4.94
132.0351845472 	 4.94
149.0127720834 	 5.26
155.0385929034 	 6.02
175.9708697309 	 6.87
195.0004928376 	 100
195.9970844814 	 4.4
237.0110575239 	 0
END IONS

BEGIN IONS
PEPMASS=211.1225
CHARGE=1
MSLEVEL=2
RT=0
SOURCE_INSTRUMENT=qTOF
FILENAME=CCMSLIB00000085140.ms
IONMODE=Positive
ORGANISM=Natural
NAME=MLS001148448-01!
PI=GNPS
DATACOLLECTOR=GNPS
SMILES=c1ccc2c(c1)cccc2CC1=NCCN1
INCHI=InChI=1S/C14H14N2/c1-2-7-13-11(4-1)5-3-6-12(13)10-14-15-8-9-16-14/h1-7H,8-10H2,(H,15,16)
FORMULA=C14H14N2
PUBMED=N/A
SUBMITUSER=BIOADREM
LIBRARYQUALITY=0
SPECTRUMID=CCMSLIB00000085140
SCANS=3225
ID=CCMSLIB00000085140
89.0385761284 	 0.32
115.0542261926 	 40.24
141.0698762568 	 100
195.0916743314 	 0.48
211.1229744598 	 30.92
END IONS

BEGIN IONS
PEPMASS=300.0801
CHARGE=1
MSLEVEL=2
RT=0
SOURCE_INSTRUMENT=qTOF
FILENAME=CCMSLIB00000085142.ms
IONMODE=Positive
ORGANISM=Natural
NAME=MLS001201824-01!1-(6-Methoxy-benzothiazol-2-yl)-3-phenyl-urea
PI=GNPS
DATACOLLECTOR=GNPS
SMILES=COc1ccc2c(c1)sc(n2)NC(=Nc1ccccc1)O
INCHI=InChI=1S/C15H13N3O2S/c1-20-11-7-8-12-13(9-11)21-15(17-12)18-14(19)16-10-5-3-2-4-6-10/h2-9H,1H3,(H2,16,17,18,19)
FORMULA=C15H13N3O2S
PUBMED=N/A
SUBMITUSER=BIOADREM
LIBRARYQUALITY=0
SPECTRUMID=CCMSLIB00000085142
SCANS=3226
ID=CCMSLIB00000085142
95.0491408147 	 0.63
111.0137208236 	 2.22
120.0443897878 	 0.83
120.9980707594 	 0.37
122.060039852 	 1.06
136.0089697967 	 0.52
138.0246198609 	 28.55
154.032110542 	 2.22
164.0038844188 	 1.78
166.019534483 	 83.82
179.0273595151 	 1.7
181.0430095793 	 100
191.9987990409 	 5.04
207.0222741372 	 9.68
300.0801233671 	 0.07
END IONS

BEGIN IONS
PEPMASS=404.1432
CHARGE=1
MSLEVEL=2
RT=0
SOURCE_INSTRUMENT=qTOF
FILENAME=CCMSLIB00000085144.ms
IONMODE=Positive
ORGANISM=Natural
NAME=MLS002153399-01!L-733,060 hydrochloride
PI=GNPS
DATACOLLECTOR=GNPS
SMILES=c1ccc(cc1)[C@@H]1[C@@H](CCCN1)OCc1cc(cc(c1)C(F)(F)F)C(F)(F)F
INCHI=InChI=1S/C20H19F6NO/c21-19(22,23)15-9-13(10-16(11-15)20(24,25)26)12-28-17-7-4-8-27-18(17)14-5-2-1-3-6-14/h1-3,5-6,9-11,17-18,27H,4,7-8,12H2/t17-,18-/m1/s1
FORMULA=C20H19F6NO
PUBMED=N/A
SUBMITUSER=BIOADREM
LIBRARYQUALITY=0
SPECTRUMID=CCMSLIB00000085144
SCANS=3228
ID=CCMSLIB00000085144
91.0542261926 	 4.75
103.0542261926 	 7.71
105.0698762568 	 0.68
115.0542261926 	 4.88
117.0698762568 	 8.63
119.072950262 	 0.94
127.0542261926 	 0.41
128.0620512247 	 6.47
130.0651252299 	 2.59
131.085526321 	 4.59
132.0807752941 	 19.99
143.085526321 	 2.91
160.1120754225 	 100
187.0165388642 	 1.5
207.0227670963 	 1.63
227.0289953284 	 58
282.0462421926 	 0.57
297.0697172889 	 3.73
302.0524704247 	 0.54
317.075945521 	 21.79
367.1115821036 	 0.39
386.1337947509 	 0.81
387.1178103357 	 1.12
404.1443594372 	 1.99
END IONS

BEGIN IONS
PEPMASS=462.2354
CHARGE=1
MSLEVEL=2
RT=0
SOURCE_INSTRUMENT=qTOF
FILENAME=CCMSLIB00000085145.ms
IONMODE=Positive
ORGANISM=Natural
NAME=MLS001077311-01!2062-78-4
PI=GNPS
DATACOLLECTOR=GNPS
SMILES=c1ccc2c(c1)nc(n2C1CCN(CCCC(c2ccc(cc2)F)c2ccc(cc2)F)CC1)O
INCHI=InChI=1S/C28H29F2N3O/c29-22-11-7-20(8-12-22)25(21-9-13-23(30)14-10-21)4-3-17-32-18-15-24(16-19-32)33-27-6-2-1-5-26(27)31-28(33)34/h1-2,5-14,24-25H,3-4,15-19H2,(H,31,34)
FORMULA=C28H29F2N3O
PUBMED=N/A
SUBMITUSER=BIOADREM
LIBRARYQUALITY=0
SPECTRUMID=CCMSLIB00000085145
SCANS=3229
ID=CCMSLIB00000085145
96.0807752941 	 0.91
98.0964253583 	 11.46
103.0542261926 	 1.96
109.0448043605 	 60.29
110.047463793 	 4.6
110.0964253583 	 2.25
121.0448043605 	 1.69
123.0604544247 	 4.38
124.0631138572 	 0.7
124.1120754225 	 3.69
127.0542261926 	 0.88
129.0698762568 	 0.64
130.0651252299 	 2.14
131.072950262 	 1.14
133.0448043605 	 0.67
134.0526293926 	 0.9
135.0552888251 	 10.28
136.0631138572 	 0.78
145.0760242672 	 1.82
146.0526293926 	 2.14
147.0604544247 	 51.77
148.0631138572 	 6.01
149.0761044889 	 24.46
150.0787639214 	 3.05
155.060374203 	 1.33
161.0709388893 	 0.58
171.0552888251 	 0.9
173.0709388893 	 53.55
174.071353462 	 6.57
175.0791784941 	 0.56
178.1026535904 	 0.94
183.0604544247 	 4.13
184.0631138572 	 0.65
187.0865889535 	 2.97
197.0761044889 	 2.49
201.1022390177 	 42.87
202.0588576247 	 0.8
202.1026535904 	 4.38
203.0666826568 	 28.37
204.0693420893 	 3.37
217.082332721 	 7.19
218.0849921535 	 1
218.1287881192 	 1.88
230.1287881192 	 6.2
232.149603783 	 1.59
243.0979827852 	 3.98
244.1006422177 	 0.85
274.1401819509 	 5.37
275.1428413834 	 1.03
326.1714820793 	 29.87
327.1741415118 	 7.21
328.1871321435 	 100
329.189791576 	 23.08
462.2351449686 	 130.7
END IONS

BEGIN IONS
PEPMASS=372.2305
CHARGE=1
MSLEVEL=2
RT=0
SOURCE_INSTRUMENT=qTOF
FILENAME=CCMSLIB00000085147.ms
IONMODE=Positive
ORGANISM=Natural
NAME=MLS001332535-01!TAMOXIFEN10540-29-1
PI=GNPS
DATACOLLECTOR=GNPS
SMILES=CC/C(=C(\c1ccccc1)/c1ccc(cc1)OCCN(C)C)/c1ccccc1
INCHI=InChI=1S/C26H29NO/c1-4-25(21-11-7-5-8-12-21)26(22-13-9-6-10-14-22)23-15-17-24(18-16-23)28-20-19-27(2)3/h5-18H,4,19-20H2,1-3H3/b26-25-
FORMULA=C26H29NO
PUBMED=N/A
SUBMITUSER=BIOADREM
LIBRARYQUALITY=0
SPECTRUMID=CCMSLIB00000085147
SCANS=3231
ID=CCMSLIB00000085147
91.0542261926 	 4.23
103.0542261926 	 3.255
105.0698762568 	 4.365
115.0542261926 	 6.135
128.0620512247 	 38.335
129.0698762568 	 100
141.0698762568 	 6.7
153.0698762568 	 4.93
165.0698762568 	 10.795
166.0777012889 	 5.24
167.085526321 	 12.595
178.0777012889 	 60.155
179.085526321 	 22.565
190.0777012889 	 2.665
191.085526321 	 30.545
192.0933513531 	 15.205
193.1011763852 	 22.66
194.072615911 	 11.8
195.0804409431 	 6.135
202.0777012889 	 2.585
203.085526321 	 8.41
204.0933513531 	 4.43
205.1011763852 	 7.095
206.1090014173 	 13.72
207.0804409431 	 29.095
208.0882659752 	 5.605
216.0933513531 	 6.5
217.1011763852 	 2.69
220.0882659752 	 6.3
221.0960910073 	 12.635
223.1117410715 	 2.81
228.0933513531 	 3.415
229.1011763852 	 2.865
234.1039160394 	 8.625
239.085526321 	 7.75
240.0933513531 	 6.695
241.1011763852 	 13.44
243.1168264494 	 7.535
249.1273911357 	 4.535
252.0933513531 	 5.375
253.1011763852 	 26.595
254.1090014173 	 28.105
255.1168264494 	 16.655
265.1011763852 	 4.535
267.1168264494 	 5.885
271.1117410715 	 9.44
283.1117410715 	 5.635
285.1273911357 	 14.775
298.1352161678 	 5.56
299.1430411999 	 6.975
300.150866232 	 5.85
327.1743413283 	 6.52
372.2321905582 	 56.6
END IONS

BEGIN IONS
PEPMASS=355.201
CHARGE=1
MSLEVEL=2
RT=0
SOURCE_INSTRUMENT=qTOF
FILENAME=CCMSLIB00000085150.ms
IONMODE=Positive
ORGANISM=Natural
NAME=MLS002153925-01!Epivincamine6835-99-0
PI=GNPS
DATACOLLECTOR=GNPS
SMILES=CC[C@]12CCCN3CCc4c5ccccc5n(c4[C@H]23)[C@@](C1)(C(=O)OC)O
INCHI=InChI=1S/C21H26N2O3/c1-3-20-10-6-11-22-12-9-15-14-7-4-5-8-16(14)23(17(15)18(20)22)21(25,13-20)19(24)26-2/h4-5,7-8,18,25H,3,6,9-13H2,1-2H3/t18-,20+,21-/m1/s1
FORMULA=C21H26N2O3
PUBMED=N/A
SUBMITUSER=BIOADREM
LIBRARYQUALITY=0
SPECTRUMID=CCMSLIB00000085150
SCANS=3233
ID=CCMSLIB00000085150
130.0624451552 	 12.51
144.0780952194 	 75.98
156.0780952194 	 9.33
158.0937452836 	 22.07
168.0807752941 	 9.65
169.0859202515 	 9.41
170.0937452836 	 9.79
180.0780952194 	 10.27
181.0859202515 	 10.68
184.1093953478 	 13.15
194.0964253583 	 12.13
195.1015703157 	 10.13
198.125045412 	 9.43
206.0937452836 	 9.47
208.1093953478 	 24.65
209.1172203799 	 33.34
212.1069900446 	 14.27
220.1093953478 	 13.43
221.1172203799 	 11.36
222.125045412 	 19.34
225.1359444493 	 13.66
234.125045412 	 9.29
236.1406954762 	 25.25
237.138624524 	 23.84
238.1226401088 	 10.67
239.0940796346 	 17
251.1515945135 	 10.12
253.1699246524 	 36.95
254.1175547309 	 33.09
264.1019046667 	 12.45
265.1097296988 	 43.95
266.1175547309 	 27.61
268.1332047951 	 68.08
277.1672445777 	 14.19
278.1175547309 	 20.46
279.125379763 	 26.71
280.1332047951 	 100
294.1488548593 	 50.42
295.1804893387 	 47.82
309.1597538966 	 15.9
325.191054025 	 18.07
326.1750696098 	 12.61
337.191054025 	 87.97
355.2016187113 	 161.31
END IONS

BEGIN IONS
PEPMASS=371.0965
CHARGE=1
MSLEVEL=2
RT=0
SOURCE_INSTRUMENT=qTOF
FILENAME=CCMSLIB00000085151.ms
IONMODE=Positive
ORGANISM=Natural
NAME=MLS002154079-01!Remoxipride Hydrochloride73220-03-8
PI=GNPS
DATACOLLECTOR=GNPS
SMILES=CCN1CCC[C@H]1CN=C(c1c(ccc(c1OC)Br)OC)O
INCHI=InChI=1S/C16H23BrN2O3/c1-4-19-9-5-6-11(19)10-18-16(20)14-13(21-2)8-7-12(17)15(14)22-3/h7-8,11H,4-6,9-10H2,1-3H3,(H,18,20)/t11-/m0/s1
FORMULA=C16H23BrN2O3
PUBMED=N/A
SUBMITUSER=BIOADREM
LIBRARYQUALITY=0
SPECTRUMID=CCMSLIB00000085151
SCANS=3234
ID=CCMSLIB00000085151
106.0049302763 	 0.91
108.0569658468 	 0.48
121.0284053726 	 0.25
133.9998448984 	 0.39
136.0518804689 	 0.76
149.0233199947 	 4.61
164.046795091 	 0.76
184.9232678763 	 8.16
199.9467429726 	 3.44
227.9416575947 	 58.71
242.965132691 	 100
371.096481215 	 6.28
END IONS

BEGIN IONS
PEPMASS=303.0857
CHARGE=1
MSLEVEL=2
RT=0
SOURCE_INSTRUMENT=qTOF
FILENAME=CCMSLIB00000085152.ms
IONMODE=Positive
ORGANISM=Natural
NAME=MLS002154205-01!Hesperetin520-33-2
PI=GNPS
DATACOLLECTOR=GNPS
SMILES=COc1ccc(cc1O)[C@@H]1CC(=O)c2c(cc(cc2O1)O)O
INCHI=InChI=1S/C16H14O6/c1-21-13-3-2-8(4-10(13)18)14-7-12(20)16-11(19)5-9(17)6-15(16)22-14/h2-6,14,17-19H,7H2,1H3/t14-/m0/s1
FORMULA=C16H14O6
PUBMED=N/A
SUBMITUSER=BIOADREM
LIBRARYQUALITY=0
SPECTRUMID=CCMSLIB00000085152
SCANS=3235
ID=CCMSLIB00000085152
89.0385761284 	 1.66
117.0334907505 	 6.75
123.0440554368 	 3.74
134.0362304047 	 5.59
145.0284053726 	 9.27
149.059705501 	 12.84
153.0182346168 	 100
177.0546201231 	 18.19
287.0550140536 	 1.96
303.086314182 	 3.63
END IONS

BEGIN IONS
PEPMASS=186.0903
CHARGE=1
MSLEVEL=2
RT=0
SOURCE_INSTRUMENT=qTOF
FILENAME=CCMSLIB00000085154.ms
IONMODE=Positive
ORGANISM=Natural
NAME=MLS000860042-01!Pirfenidone
PI=GNPS
DATACOLLECTOR=GNPS
SMILES=Cc1ccc(=O)n(c1)c1ccccc1
INCHI=InChI=1S/C12H11NO/c1-10-7-8-12(14)13(9-10)11-5-3-2-4-6-11/h2-9H,1H3
FORMULA=C12H11NO
PUBMED=N/A
SUBMITUSER=BIOADREM
LIBRARYQUALITY=0
SPECTRUMID=CCMSLIB00000085154
SCANS=3236
ID=CCMSLIB00000085154
92.0494751657 	 28.76
102.0464011605 	 4.38
104.0494751657 	 16.29
110.060039852 	 51.33
115.0542261926 	 55.37
116.0620512247 	 11.71
117.0573001978 	 9.18
127.0542261926 	 5.39
128.0620512247 	 14.48
130.0651252299 	 9.43
131.072950262 	 17.77
141.0698762568 	 38.36
142.0651252299 	 34.86
143.072950262 	 100
144.0569658468 	 3.62
153.0573001978 	 18.78
156.0807752941 	 11.37
157.0886003262 	 24.13
158.0964253583 	 82.57
168.0807752941 	 22.53
171.0678648841 	 14.32
186.0913399804 	 336.55
END IONS

BEGIN IONS
PEPMASS=612.3163
CHARGE=1
MSLEVEL=2
RT=0
SOURCE_INSTRUMENT=qTOF
FILENAME=CCMSLIB00000085156.ms
IONMODE=Positive
ORGANISM=Natural
NAME=MLS001076298-01!
PI=GNPS
DATACOLLECTOR=GNPS
SMILES=CC(C)[C@@]1(C(=O)N2[C@@H](Cc3ccccc3)C(=O)N3CCC[C@H]3[C@]2(O)O1)N=C([C@@H]1C[C@@H]2c3cccc4c3c(C[C@H]2N(C)C1)c[nH]4)O
INCHI=InChI=1S/C35H41N5O5/c1-20(2)34(37-31(41)23-16-25-24-11-7-12-26-30(24)22(18-36-26)17-27(25)38(3)19-23)33(43)40-28(15-21-9-5-4-6-10-21)32(42)39-14-8-13-29(39)35(40,44)45-34/h4-7,9-12,18,20,23,25,27-29,36,44H,8,13-17,19H2,1-3H3,(H,37,41)/t23-,25-,27-,28+,29+,34-,35+/m1/s1
FORMULA=C35H41N5O5
PUBMED=N/A
SUBMITUSER=BIOADREM
LIBRARYQUALITY=0
SPECTRUMID=CCMSLIB00000085156
SCANS=3237
ID=CCMSLIB00000085156
144.0807752941 	 0.48
154.0651252299 	 1.73
155.0702701873 	 1.05
156.0780952194 	 0.64
167.072950262 	 0.66
168.0780952194 	 11.64
169.0845775808 	 1.33
170.0964253583 	 0.65
180.0807752941 	 0.94
182.0937452836 	 1.55
187.1229744598 	 0.51
192.0780952194 	 0.57
194.0937452836 	 5.62
195.1042503904 	 4.43
196.1080526771 	 1.35
197.1073243956 	 2.4
209.0808348736 	 0.42
209.1046443209 	 0.76
210.0886599057 	 16.55
215.1178890819 	 0.68
222.0886599057 	 0.81
223.1229744598 	 0.95
224.1267767465 	 0.58
225.1359444493 	 16.11
226.1424268107 	 2.74
227.1152090072 	 1.43
238.1100640498 	 1.39
239.1138663365 	 0.4
241.1335391461 	 0.44
253.1308590714 	 29.58
254.1373414328 	 4.63
255.1366131513 	 0.44
270.1600882476 	 100
271.1638905343 	 26.73
322.1873656306 	 3.33
350.1822802527 	 9.12
566.3125661442 	 0.38
594.3074807663 	 0.86
612.3180454526 	 4.19
END IONS

BEGIN IONS
PEPMASS=263.0662
CHARGE=1
MSLEVEL=2
RT=0
SOURCE_INSTRUMENT=qTOF
FILENAME=CCMSLIB00000085158.ms
IONMODE=Positive
ORGANISM=Natural
NAME=MLS001148076-01!
PI=GNPS
DATACOLLECTOR=GNPS
SMILES=CCn1c2cc3c(cc2c(=O)c(C(=O)O)n1)OCO3
INCHI=InChI=1S/C12H10N2O5/c1-2-14-7-4-9-8(18-5-19-9)3-6(7)11(15)10(13-14)12(16)17/h3-4H,2,5H2,1H3,(H,16,17)
FORMULA=C12H10N2O5
PUBMED=N/A
SUBMITUSER=BIOADREM
LIBRARYQUALITY=0
SPECTRUMID=CCMSLIB00000085158
SCANS=3238
ID=CCMSLIB00000085158
105.0083386325 	 4.49
105.0447241388 	 9.17
106.0287397236 	 3.11
131.0239886967 	 11.07
149.034553383 	 1.84
161.034553383 	 40.31
173.034553383 	 2.27
189.0294680051 	 100
191.0451180693 	 2.67
217.0607681335 	 70.47
235.0713328198 	 2.76
245.0556827556 	 13.74
263.0662474419 	 5.69
END IONS

BEGIN IONS
PEPMASS=312.1666
CHARGE=1
MSLEVEL=2
RT=0
SOURCE_INSTRUMENT=qTOF
FILENAME=CCMSLIB00000085159.ms
IONMODE=Positive
ORGANISM=Natural
NAME=MLS001148608-01!XANTHINOL NICOTINATE437-74-1
PI=GNPS
DATACOLLECTOR=GNPS
SMILES=CN(CCO)CC(Cn1cnc2c1c(=O)n(C)c(=O)n2C)O
INCHI=InChI=1S/C13H21N5O4/c1-15(4-5-19)6-9(20)7-18-8-14-11-10(18)12(21)17(3)13(22)16(11)2/h8-9,19-20H,4-7H2,1-3H3
FORMULA=C13H21N5O4
PUBMED=N/A
SUBMITUSER=BIOADREM
LIBRARYQUALITY=0
SPECTRUMID=CCMSLIB00000085159
SCANS=3239
ID=CCMSLIB00000085159
106.0498690962 	 13.87
107.060374203 	 52.21
108.0556231761 	 20.14
109.0369586862 	 12.74
114.0913399804 	 54.37
125.0709388893 	 36.28
132.1019046667 	 30.01
134.0712732403 	 40.39
136.0869233045 	 7.19
137.0821722776 	 14.18
147.0400326914 	 10.48
152.0818379266 	 51.8
153.0770868997 	 10.89
162.0661878624 	 59.4
163.0713328198 	 12.13
180.0767525487 	 100
181.0720015218 	 49.33
192.0767525487 	 28.06
207.087651586 	 6.99
211.0825662081 	 10.38
219.087651586 	 69.48
237.0982162723 	 80.27
312.1666301885 	 0
END IONS

BEGIN IONS
PEPMASS=349.2162
CHARGE=1
MSLEVEL=2
RT=0
SOURCE_INSTRUMENT=qTOF
FILENAME=CCMSLIB00000085160.ms
IONMODE=Positive
ORGANISM=Natural
NAME=MLS002153338-01!TTNPB71441-28-6
PI=GNPS
DATACOLLECTOR=GNPS
SMILES=C/C(=C\c1ccc(cc1)C(=O)O)/c1ccc2c(c1)C(C)(C)CCC2(C)C
INCHI=InChI=1S/C24H28O2/c1-16(14-17-6-8-18(9-7-17)22(25)26)19-10-11-20-21(15-19)24(4,5)13-12-23(20,2)3/h6-11,14-15H,12-13H2,1-5H3,(H,25,26)/b16-14+
FORMULA=C24H28O2
PUBMED=N/A
SUBMITUSER=BIOADREM
LIBRARYQUALITY=0
SPECTRUMID=CCMSLIB00000085160
SCANS=3240
ID=CCMSLIB00000085160
91.0542261926 	 10.07
105.0698762568 	 9.64
107.0491408147 	 12.14
115.0542261926 	 41.79
117.0698762568 	 32.57
128.0620512247 	 18.86
129.0698762568 	 34.21
131.085526321 	 23.14
142.0777012889 	 17.86
143.085526321 	 15.5
157.1011763852 	 12.79
165.0698762568 	 13.43
178.0777012889 	 22.43
179.085526321 	 37.21
190.0777012889 	 16.79
191.085526321 	 19.07
192.0933513531 	 49.64
203.085526321 	 22.29
205.1011763852 	 31.5
207.1168264494 	 16
217.1011763852 	 19
219.1168264494 	 8.86
247.1117410715 	 32.43
251.1066556936 	 62.36
261.1273911357 	 100
265.1223057578 	 26.14
275.1430411999 	 12.57
279.137955822 	 59.07
319.1692559504 	 9.86
320.1770809825 	 10.36
331.2056414567 	 19.07
349.216206143 	 9
END IONS

BEGIN IONS
PEPMASS=531.2943
CHARGE=1
MSLEVEL=2
RT=0
SOURCE_INSTRUMENT=qTOF
FILENAME=CCMSLIB00000085163.ms
IONMODE=Positive
ORGANISM=Natural
NAME=MLS002154084-01!Proscillaridin A466-06-8
PI=GNPS
DATACOLLECTOR=GNPS
SMILES=C[C@H]1[C@@H]([C@H]([C@H]([C@@H](O1)O[C@H]1CC[C@@]2(C)C(=C1)CCC1C2CC[C@]2(C)[C@H](CC[C@]12O)c1ccc(=O)oc1)O)O)O
INCHI=InChI=1S/C30H42O8/c1-16-24(32)25(33)26(34)27(37-16)38-19-8-11-28(2)18(14-19)5-6-22-21(28)9-12-29(3)20(10-13-30(22,29)35)17-4-7-23(31)36-15-17/h4,7,14-16,19-22,24-27,32-35H,5-6,8-13H2,1-3H3/t16-,19-,20+,21?,22?,24-,25+,26+,27-,28-,29+,30-/m0/s1
FORMULA=C30H42O8
PUBMED=N/A
SUBMITUSER=BIOADREM
LIBRARYQUALITY=0
SPECTRUMID=CCMSLIB00000085163
SCANS=3241
ID=CCMSLIB00000085163
105.0698762568 	 40.42
107.085526321 	 26.93
117.0698762568 	 12.73
119.085526321 	 34.18
131.085526321 	 59.69
133.1011763852 	 17.86
135.1168264494 	 15.09
143.085526321 	 22.1
145.1011763852 	 32.35
147.1168264494 	 35
155.085526321 	 26.46
157.1011763852 	 41.43
159.1168264494 	 43.08
161.0960910073 	 27.05
161.1324765136 	 31.05
169.1011763852 	 14.97
171.1168264494 	 24.57
173.1324765136 	 22.69
181.1011763852 	 14.79
183.1168264494 	 13.79
185.1324765136 	 23.81
187.1481265778 	 18.15
195.1168264494 	 12.91
197.1324765136 	 24.75
199.1481265778 	 15.85
209.1324765136 	 26.93
211.1481265778 	 14.2
213.163776642 	 30.94
223.1481265778 	 14.85
227.1430411999 	 11.55
227.1794267062 	 15.26
253.1950767704 	 28.93
255.137955822 	 12.96
269.1536058862 	 18.15
283.1692559504 	 18.8
331.2056414567 	 13.97
339.2318562072 	 12.43
349.216206143 	 100
350.2240311751 	 37.89
367.2267708293 	 68
513.2846796387 	 39.78
514.2925046708 	 21.27
531.295244325 	 112.43
END IONS

BEGIN IONS
PEPMASS=400.1933
CHARGE=1
MSLEVEL=2
RT=0
SOURCE_INSTRUMENT=qTOF
FILENAME=CCMSLIB00000085165.ms
IONMODE=Positive
ORGANISM=Natural
NAME=MLS002153514-01!MRS 1523
PI=GNPS
DATACOLLECTOR=GNPS
SMILES=CCCc1c(c(CC)nc(c2ccccc2)c1C(=O)OCCC)C(=O)SCC
INCHI=InChI=1S/C23H29NO3S/c1-5-12-17-19(23(26)28-8-4)18(7-3)24-21(16-13-10-9-11-14-16)20(17)22(25)27-15-6-2/h9-11,13-14H,5-8,12,15H2,1-4H3
FORMULA=C23H29NO3S
PUBMED=N/A
SUBMITUSER=BIOADREM
LIBRARYQUALITY=0
SPECTRUMID=CCMSLIB00000085165
SCANS=3242
ID=CCMSLIB00000085165
193.0886003262 	 3.36
194.0964253583 	 4.32
196.1120754225 	 21.85
197.1199004546 	 19.92
207.1042503904 	 5.36
208.1120754225 	 6.81
217.0886003262 	 6.87
222.0913399804 	 3.12
222.1277254867 	 14.18
223.0991650125 	 4.19
224.1069900446 	 3.14
224.1433755509 	 3.92
232.1120754225 	 12.92
234.0913399804 	 3.88
234.1277254867 	 4.3
235.0991650125 	 7.91
236.1069900446 	 7.72
238.0862546025 	 3.34
240.1019046667 	 4.58
241.1097296988 	 6.45
245.0835149483 	 2.73
250.1226401088 	 24.41
252.1019046667 	 10.24
252.138290173 	 5.5
254.1175547309 	 17.82
260.1069900446 	 23.09
263.0940796346 	 6.29
264.1019046667 	 3.62
266.1175547309 	 4.54
268.1332047951 	 10.96
278.1175547309 	 75.46
279.1201972678 	 20.17
280.0968192888 	 2.98
281.1046443209 	 10.63
282.1072868578 	 2.47
296.1281194172 	 100
297.1307619541 	 50.75
300.0688899788 	 7.26
312.1052754851 	 3.46
330.1158401714 	 30.28
338.1750696098 	 44.35
339.1777121467 	 8.22
340.1365756135 	 9.7
358.1471402998 	 55.71
372.162790364 	 3.76
400.1940904924 	 48.8
END IONS

BEGIN IONS
PEPMASS=215.1169
CHARGE=1
MSLEVEL=2
RT=0
SOURCE_INSTRUMENT=qTOF
FILENAME=CCMSLIB00000085166.ms
IONMODE=Positive
ORGANISM=Natural
NAME=MLS002153914-01!Methoxy-6-harmalan3589-73-9
PI=GNPS
DATACOLLECTOR=GNPS
SMILES=CC1=NCCc2c3cc(ccc3[nH]c12)OC
INCHI=InChI=1S/C13H14N2O/c1-8-13-10(5-6-14-8)11-7-9(16-2)3-4-12(11)15-13/h3-4,7,15H,5-6H2,1-2H3
FORMULA=C13H14N2O
PUBMED=N/A
SUBMITUSER=BIOADREM
LIBRARYQUALITY=0
SPECTRUMID=CCMSLIB00000085166
SCANS=3243
ID=CCMSLIB00000085166
103.0542261926 	 1.22
117.0573001978 	 1.6
118.0651252299 	 0.68
128.0494751657 	 0.91
129.0573001978 	 1.01
130.0651252299 	 14.85
131.072950262 	 23.75
132.0443897878 	 0.43
140.0494751657 	 1.25
142.0651252299 	 2.94
143.072950262 	 12.86
144.0807752941 	 9.22
154.0651252299 	 3.87
156.0681992351 	 4.87
157.0760242672 	 15.39
158.060039852 	 2.18
159.0678648841 	 13.81
169.0760242672 	 1.57
171.0916743314 	 49.01
172.0994993635 	 100
174.0913399804 	 28.05
185.0709388893 	 8.71
199.0865889535 	 7.4
200.0944139856 	 31.21
215.1178890819 	 31.34
END IONS

BEGIN IONS
PEPMASS=352.044
CHARGE=1
MSLEVEL=2
RT=0
SOURCE_INSTRUMENT=qTOF
FILENAME=CCMSLIB00000085169.ms
IONMODE=Positive
ORGANISM=Natural
NAME=MLS002222336-01!71125-38-7
PI=GNPS
DATACOLLECTOR=GNPS
SMILES=Cc1cnc(N=C(C2C(=O)c3ccccc3S(=O)(=O)N2C)O)s1
INCHI=InChI=1S/C14H13N3O4S2/c1-8-7-15-14(22-8)16-13(19)11-12(18)9-5-3-4-6-10(9)23(20,21)17(11)2/h3-7,11H,1-2H3,(H,15,16,19)
FORMULA=C14H13N3O4S2
PUBMED=N/A
SUBMITUSER=BIOADREM
LIBRARYQUALITY=0
SPECTRUMID=CCMSLIB00000085169
SCANS=3245
ID=CCMSLIB00000085169
97.0106468184 	 0.53
105.0294680051 	 0.61
109.0106468184 	 1.11
113.0141147541 	 0.91
113.9981303389 	 1
114.0661878624 	 0.41
115.032444893 	 100
116.034219032 	 4.54
125.0055614405 	 0.82
126.0093637272 	 0.61
135.9977364084 	 0.54
137.0055614405 	 1.19
141.0090293762 	 62.84
146.0560171066 	 0.64
153.0004760626 	 5.35
154.0042783493 	 0.62
164.0124377324 	 0.92
194.0230024187 	 0.6
265.0099948914 	 0.79
352.0420233013 	 0
END IONS

BEGIN IONS
PEPMASS=340.2383
CHARGE=1
MSLEVEL=2
RT=0
SOURCE_INSTRUMENT=qTOF
FILENAME=CCMSLIB00000085170.ms
IONMODE=Positive
ORGANISM=Natural
NAME=MLS000028431-01!
PI=GNPS
DATACOLLECTOR=GNPS
SMILES=CC(C)N(CCC(c1ccccc1)(c1ccccn1)C(=N)O)C(C)C
INCHI=InChI=1S/C21H29N3O/c1-16(2)24(17(3)4)15-13-21(20(22)25,18-10-6-5-7-11-18)19-12-8-9-14-23-19/h5-12,14,16-17H,13,15H2,1-4H3,(H2,22,25)
FORMULA=C21H29N3O
PUBMED=N/A
SUBMITUSER=BIOADREM
LIBRARYQUALITY=0
SPECTRUMID=CCMSLIB00000085170
SCANS=3246
ID=CCMSLIB00000085170
116.0494751657 	 0.175
118.0651252299 	 7.65
167.072950262 	 4.285
194.0964253583 	 82.34
195.1042503904 	 100
221.1073243956 	 8.04
239.1178890819 	 44.57
340.2383385686 	 0.015
END IONS

BEGIN IONS
PEPMASS=166.1328
CHARGE=1
MSLEVEL=2
RT=0
SOURCE_INSTRUMENT=qTOF
FILENAME=CCMSLIB00000085172.ms
IONMODE=Positive
ORGANISM=Natural
NAME=MLS000543058-01!N,1-dimethyl-4,5,6,7-tetrahydro-1H-indazol-3-amine
PI=GNPS
DATACOLLECTOR=GNPS
SMILES=CNc1c2CCCCc2nn1C
INCHI=InChI=1S/C9H15N3/c1-10-9-7-5-3-4-6-8(7)11-12(9)2/h10H,3-6H2,1-2H3
FORMULA=C9H15N3
PUBMED=N/A
SUBMITUSER=BIOADREM
LIBRARYQUALITY=0
SPECTRUMID=CCMSLIB00000085172
SCANS=3247
ID=CCMSLIB00000085172
94.0651252299 	 8.78
95.060374203 	 8.19
106.0651252299 	 5.93
107.060374203 	 5.47
108.0556231761 	 7.65
121.0760242672 	 21.65
122.0712732403 	 9.99
122.0964253583 	 6.56
123.0790982724 	 37.4
124.0869233045 	 32.51
133.0760242672 	 11.03
135.0916743314 	 16.34
138.1025733687 	 6.77
149.1073243956 	 4.89
150.1025733687 	 100
166.1338734971 	 66.9
END IONS

BEGIN IONS
PEPMASS=250.0857
CHARGE=1
MSLEVEL=2
RT=0
SOURCE_INSTRUMENT=qTOF
FILENAME=CCMSLIB00000085173.ms
IONMODE=Positive
ORGANISM=Natural
NAME=MLS001074296-01!2-Phenyl-4-quinolinecarboxylic acid132-60-5
PI=GNPS
DATACOLLECTOR=GNPS
SMILES=c1ccc(cc1)c1cc(c2ccccc2n1)C(=O)O
INCHI=InChI=1S/C16H11NO2/c18-16(19)13-10-15(11-6-2-1-3-7-11)17-14-9-5-4-8-12(13)14/h1-10H,(H,18,19)
FORMULA=C16H11NO2
PUBMED=N/A
SUBMITUSER=BIOADREM
LIBRARYQUALITY=0
SPECTRUMID=CCMSLIB00000085173
SCANS=3248
ID=CCMSLIB00000085173
89.0385761284 	 2.58
92.0494751657 	 0.63
101.0385761284 	 7.24
105.0334907505 	 1.42
116.0494751657 	 38.52
119.0491408147 	 0.94
120.0443897878 	 1.29
128.0494751657 	 100
130.0287397236 	 4.64
134.060039852 	 0.66
144.0443897878 	 24.99
146.060039852 	 7.62
151.0542261926 	 0.96
154.0287397236 	 1.88
162.0549544741 	 10.55
172.0393044099 	 7.26
177.0698762568 	 5.36
191.072950262 	 1.23
194.0964253583 	 2.3
204.0807752941 	 52.1
206.0964253583 	 57.78
222.0913399804 	 93.41
250.0862546025 	 222.45
END IONS

BEGIN IONS
PEPMASS=319.155
CHARGE=1
MSLEVEL=2
RT=0
SOURCE_INSTRUMENT=qTOF
FILENAME=CCMSLIB00000085176.ms
IONMODE=Positive
ORGANISM=Natural
NAME=MLS001174881-01!
PI=GNPS
DATACOLLECTOR=GNPS
SMILES=C[C@H]1CCCC(=O)CCCC=Cc2cc(cc(c2C(=O)O1)O)O
INCHI=InChI=1S/C18H22O5/c1-12-6-5-9-14(19)8-4-2-3-7-13-10-15(20)11-16(21)17(13)18(22)23-12/h3,7,10-12,20-21H,2,4-6,8-9H2,1H3/t12-/m0/s1
FORMULA=C18H22O5
PUBMED=N/A
SUBMITUSER=BIOADREM
LIBRARYQUALITY=0
SPECTRUMID=CCMSLIB00000085176
SCANS=3250
ID=CCMSLIB00000085176
105.0698762568 	 13.86
115.0542261926 	 17.23
128.0620512247 	 18.16
129.0698762568 	 32.33
131.0491408147 	 13.11
133.0647908789 	 10.49
139.0542261926 	 10.24
141.0698762568 	 47.25
143.0491408147 	 13.86
144.0569658468 	 6.49
147.0440554368 	 29.84
147.0804409431 	 6.55
149.059705501 	 10.05
157.0647908789 	 100
159.0804409431 	 14.23
160.0518804689 	 27.65
161.059705501 	 43.07
169.0647908789 	 27.28
170.072615911 	 14.29
175.0389700589 	 58.93
175.0753555652 	 42.32
177.0546201231 	 18.16
185.059705501 	 96.88
187.0753555652 	 79.65
189.0546201231 	 30.09
197.059705501 	 12.23
203.0702701873 	 73.78
205.0859202515 	 7.37
213.0546201231 	 14.98
214.0624451552 	 7.55
215.0702701873 	 19.29
223.0753555652 	 12.73
229.0859202515 	 15.79
241.0859202515 	 7.43
283.1328704441 	 7.8
319.1539998167 	 0
END IONS

BEGIN IONS
PEPMASS=190.057
CHARGE=1
MSLEVEL=2
RT=0
SOURCE_INSTRUMENT=qTOF
FILENAME=CCMSLIB00000085177.ms
IONMODE=Positive
ORGANISM=Natural
NAME=MLS001333083-01!THIO-TEPA52-24-4
PI=GNPS
DATACOLLECTOR=GNPS
SMILES=C1CN1P(=S)(N1CC1)N1CC1
INCHI=InChI=1S/C6H12N3PS/c11-10(7-1-2-7,8-3-4-8)9-5-6-9/h1-6H2
FORMULA=C6H12N3PS
PUBMED=N/A
SUBMITUSER=BIOADREM
LIBRARYQUALITY=0
SPECTRUMID=CCMSLIB00000085177
SCANS=3251
ID=CCMSLIB00000085177
82.9824206952 	 10.02
101.0263106809 	 20.05
102.034135713 	 6.76
103.0545368041 	 8.62
103.9718322694 	 100
105.9841115152 	 37.3
115.045020952 	 8.16
120.9950105525 	 11.89
147.0140314351 	 70.63
190.0562306008 	 0
END IONS

BEGIN IONS
PEPMASS=386.1813
CHARGE=1
MSLEVEL=2
RT=0
SOURCE_INSTRUMENT=qTOF
FILENAME=CCMSLIB00000085178.ms
IONMODE=Positive
ORGANISM=Natural
NAME=MLS002153162-01!(-)-N6-(2-Phenylisopropyl)adenosine38594-96-6
PI=GNPS
DATACOLLECTOR=GNPS
SMILES=C[C@H](Cc1ccccc1)Nc1c2c(ncn1)n(cn2)[C@H]1[C@@H]([C@@H]([C@@H](CO)O1)O)O
INCHI=InChI=1S/C19H23N5O4/c1-11(7-12-5-3-2-4-6-12)23-17-14-18(21-9-20-17)24(10-22-14)19-16(27)15(26)13(8-25)28-19/h2-6,9-11,13,15-16,19,25-27H,7-8H2,1H3,(H,20,21,23)/t11-,13-,15-,16-,19-/m1/s1
FORMULA=C19H23N5O4
PUBMED=N/A
SUBMITUSER=BIOADREM
LIBRARYQUALITY=0
SPECTRUMID=CCMSLIB00000085178
SCANS=3252
ID=CCMSLIB00000085178
91.0542261926 	 8.69
109.0495347452 	 0.38
119.033884681 	 6.18
119.085526321 	 5.08
136.0604337825 	 100
162.0760838467 	 1.93
254.1386841035 	 90.42
386.1822802527 	 0.4
END IONS

BEGIN IONS
PEPMASS=312.2305
CHARGE=1
MSLEVEL=2
RT=0
SOURCE_INSTRUMENT=qTOF
FILENAME=CCMSLIB00000085179.ms
IONMODE=Positive
ORGANISM=Natural
NAME=MLS002153848-01!Biperiden hydrochloride1235-82-1
PI=GNPS
DATACOLLECTOR=GNPS
SMILES=c1ccc(cc1)C(CCN1CCCCC1)(C1C[C@@H]2C=C[C@H]1C2)O
INCHI=InChI=1S/C21H29NO/c23-21(19-7-3-1-4-8-19,11-14-22-12-5-2-6-13-22)20-16-17-9-10-18(20)15-17/h1,3-4,7-10,17-18,20,23H,2,5-6,11-16H2/t17-,18+,20?,21?/m1/s1
FORMULA=C21H29NO
PUBMED=N/A
SUBMITUSER=BIOADREM
LIBRARYQUALITY=0
SPECTRUMID=CCMSLIB00000085179
SCANS=3253
ID=CCMSLIB00000085179
91.0542261926 	 0.29
96.0807752941 	 1.8
98.0964253583 	 100
103.0542261926 	 0.26
105.0698762568 	 0.81
111.1042503904 	 0.29
115.0542261926 	 1.78
117.0698762568 	 1.35
126.0464011605 	 0.29
127.0542261926 	 0.34
128.0620512247 	 8.09
133.0647908789 	 0.86
141.0698762568 	 0.69
143.085526321 	 10.96
145.0647908789 	 0.26
155.085526321 	 0.31
166.0777012889 	 0.21
167.085526321 	 0.72
181.1011763852 	 0.39
198.1277254867 	 0.31
228.1746756793 	 2.85
246.1852403656 	 1.53
294.2216258719 	 4.95
312.2321905582 	 3.63
END IONS

BEGIN IONS
PEPMASS=281.186
CHARGE=1
MSLEVEL=2
RT=0
SOURCE_INSTRUMENT=qTOF
FILENAME=CCMSLIB00000085180.ms
IONMODE=Positive
ORGANISM=Natural
NAME=MLS002154238-01!Mefexamide hydrochloride3413-64-7
PI=GNPS
DATACOLLECTOR=GNPS
SMILES=CCN(CC)CCN=C(COc1ccc(cc1)OC)O
INCHI=InChI=1S/C15H24N2O3/c1-4-17(5-2)11-10-16-15(18)12-20-14-8-6-13(19-3)7-9-14/h6-9H,4-5,10-12H2,1-3H3,(H,16,18)
FORMULA=C15H24N2O3
PUBMED=N/A
SUBMITUSER=BIOADREM
LIBRARYQUALITY=0
SPECTRUMID=CCMSLIB00000085180
SCANS=3254
ID=CCMSLIB00000085180
94.0413157826 	 1.24
95.0491408147 	 5.69
105.0334907505 	 2.45
106.0413157826 	 1.32
109.0647908789 	 12.1
119.072950262 	 0.48
121.0647908789 	 1.27
122.0362304047 	 0.61
123.0440554368 	 27.87
131.072950262 	 2.07
132.0443897878 	 0.84
133.0284053726 	 1.59
133.0522148199 	 2.55
137.059705501 	 100
139.0627795062 	 0.53
147.0678648841 	 8.89
148.0756899162 	 3.7
149.047129442 	 2.18
162.0913399804 	 8.71
176.0706045383 	 2.64
190.0862546025 	 2.57
193.0733441925 	 3.17
208.0968192888 	 53.75
281.1859686471 	 0
END IONS

BEGIN IONS
PEPMASS=355.2016
CHARGE=1
MSLEVEL=2
RT=0
SOURCE_INSTRUMENT=qTOF
FILENAME=CCMSLIB00000085181.ms
IONMODE=Positive
ORGANISM=Natural
NAME=MLS000728591-01!Yohimbine
PI=GNPS
DATACOLLECTOR=GNPS
SMILES=COC(=O)[C@@H]1[C@H]2C[C@H]3c4c(CCN3C[C@@H]2CC[C@@H]1O)c1ccccc1[nH]4
INCHI=InChI=1S/C21H26N2O3/c1-26-21(25)19-15-10-17-20-14(13-4-2-3-5-16(13)22-20)8-9-23(17)11-12(15)6-7-18(19)24/h2-5,12,15,17-19,22,24H,6-11H2,1H3/t12-,15-,17-,18-,19+/m0/s1
FORMULA=C21H26N2O3
PUBMED=N/A
SUBMITUSER=BIOADREM
LIBRARYQUALITY=0
SPECTRUMID=CCMSLIB00000085181
SCANS=3255
ID=CCMSLIB00000085181
94.0624451552 	 0.555
103.0542261926 	 1.11
106.0651252299 	 0.775
107.085526321 	 0.31
115.0542261926 	 1.605
117.0698762568 	 4.165
127.0542261926 	 1.53
128.0494751657 	 0.53
130.0651252299 	 1.8
131.0702701873 	 0.295
132.0807752941 	 0.565
134.0964253583 	 3.39
142.0624451552 	 0.32
142.0651252299 	 0.28
143.072950262 	 9.17
144.0807752941 	 100
152.1069900446 	 0.24
156.0780952194 	 0.415
156.0807752941 	 0.32
157.0859202515 	 0.275
158.0964253583 	 1.615
162.0913399804 	 2.07
167.072950262 	 0.225
168.0807752941 	 0.33
170.0964253583 	 0.3
180.1019046667 	 1
181.0886003262 	 0.29
182.0964253583 	 0.245
194.1175547309 	 3.76
196.1120754225 	 0.37
206.0964253583 	 0.605
207.1042503904 	 0.255
208.1093953478 	 0.445
208.1120754225 	 0.425
212.1281194172 	 14.025
218.0964253583 	 0.6
220.1120754225 	 0.45
232.1120754225 	 0.36
233.1199004546 	 0.495
234.125045412 	 0.24
248.1433755509 	 1
249.151200583 	 0.325
266.1539402372 	 0.265
294.1488548593 	 0.675
320.1645049235 	 0.22
338.1750696098 	 0.61
355.2016187113 	 9.585
END IONS

BEGIN IONS
PEPMASS=361.2248
CHARGE=1
MSLEVEL=2
RT=0
SOURCE_INSTRUMENT=qTOF
FILENAME=CCMSLIB00000085183.ms
IONMODE=Positive
ORGANISM=Natural
NAME=MLS001056755-01!()-Scopolamine N-butyl bromide
PI=GNPS
DATACOLLECTOR=GNPS
SMILES=CCCC[N+]1(C)C2CC(CC1C1C2O1)OC(=O)C(CO)c1ccccc1
INCHI=InChI=1S/C21H30NO4/c1-3-4-10-22(2)17-11-15(12-18(22)20-19(17)26-20)25-21(24)16(13-23)14-8-6-5-7-9-14/h5-9,15-20,23H,3-4,10-13H2,1-2H3/q+1
FORMULA=C21H30NO4
PUBMED=N/A
SUBMITUSER=BIOADREM
LIBRARYQUALITY=0
SPECTRUMID=CCMSLIB00000085183
SCANS=3257
ID=CCMSLIB00000085183
91.0542261926 	 2.05
93.0698762568 	 1.16
94.0651252299 	 9.38
95.0491408147 	 0.87
97.0522148199 	 2.34
98.060039852 	 18.26
103.0542261926 	 65.88
107.072950262 	 0.99
108.0807752941 	 4.86
109.0647908789 	 0.52
110.060039852 	 5.21
110.0964253583 	 23.2
113.059705501 	 0.52
120.0807752941 	 12.56
121.0647908789 	 54.13
122.0964253583 	 6.75
123.0678648841 	 0.9
126.1277254867 	 1.38
136.0756899162 	 1.02
136.1120754225 	 0.84
138.0913399804 	 100
154.0862546025 	 1.62
154.1226401088 	 5.18
156.1019046667 	 44.89
166.1590256151 	 0.61
194.1539402372 	 78.28
212.1645049235 	 13.09
288.1594195456 	 3.46
361.2247594566 	 0
END IONS

BEGIN IONS
PEPMASS=254.1534
CHARGE=1
MSLEVEL=2
RT=0
SOURCE_INSTRUMENT=qTOF
FILENAME=CCMSLIB00000085186.ms
IONMODE=Positive
ORGANISM=Natural
NAME=MLS001210851-01!
PI=GNPS
DATACOLLECTOR=GNPS
SMILES=CN1CCOC(c2ccccc2)c2ccccc2C1
INCHI=InChI=1S/C17H19NO/c1-18-11-12-19-17(14-7-3-2-4-8-14)16-10-6-5-9-15(16)13-18/h2-10,17H,11-13H2,1H3
FORMULA=C17H19NO
PUBMED=N/A
SUBMITUSER=BIOADREM
LIBRARYQUALITY=0
SPECTRUMID=CCMSLIB00000085186
SCANS=3259
ID=CCMSLIB00000085186
103.0542261926 	 1.65
115.0542261926 	 4.22
117.0573001978 	 5.1
129.0698762568 	 0.54
132.0807752941 	 6.08
141.0698762568 	 15.3
152.0620512247 	 4.4
153.0698762568 	 9.72
165.0698762568 	 97.3
166.0777012889 	 100
178.0777012889 	 47.98
179.085526321 	 66.67
181.1011763852 	 48.08
191.085526321 	 0.29
208.1120754225 	 2.16
210.1277254867 	 2.29
254.1539402372 	 14.12
END IONS

BEGIN IONS
PEPMASS=335.1946
CHARGE=1
MSLEVEL=2
RT=0
SOURCE_INSTRUMENT=qTOF
FILENAME=CCMSLIB00000085189.ms
IONMODE=Positive
ORGANISM=Natural
NAME=MLS002154082-01!Nitrocaramiphen hydrochloride
PI=GNPS
DATACOLLECTOR=GNPS
SMILES=CCN(CC)CCOC(=O)C1(CCCC1)c1ccc(cc1)N(=O)=O
INCHI=InChI=1S/C18H26N2O4/c1-3-19(4-2)13-14-24-17(21)18(11-5-6-12-18)15-7-9-16(10-8-15)20(22)23/h7-10H,3-6,11-14H2,1-2H3
FORMULA=C18H26N2O4
PUBMED=N/A
SUBMITUSER=BIOADREM
LIBRARYQUALITY=0
SPECTRUMID=CCMSLIB00000085189
SCANS=3261
ID=CCMSLIB00000085189
92.0256657184 	 2.18
104.0256657184 	 0.77
106.0413157826 	 10.55
115.0542261926 	 3.96
116.0620512247 	 17.64
120.0205803405 	 2.98
127.0542261926 	 0.85
128.0620512247 	 8.69
129.0698762568 	 64.74
132.0569658468 	 2.26
136.0393044099 	 51.81
141.0698762568 	 0.82
143.085526321 	 9.63
144.0933513531 	 94.5
150.0185689678 	 29.45
152.0620512247 	 0.93
161.0960910073 	 1.95
162.0549544741 	 1.11
173.0835149483 	 6.64
190.0862546025 	 68.9
194.0447837183 	 39.7
200.0706045383 	 2.2
218.0811692246 	 2.99
220.0604337825 	 4.9
262.1073839751 	 100
335.1965333334 	 12.53
END IONS

BEGIN IONS
PEPMASS=388.1978
CHARGE=1
MSLEVEL=2
RT=0
SOURCE_INSTRUMENT=qTOF
FILENAME=CCMSLIB00000085192.ms
IONMODE=Positive
ORGANISM=Natural
NAME=MLS001165675-01!terazosin
PI=GNPS
DATACOLLECTOR=GNPS
SMILES=COc1cc2c(cc1OC)nc([nH]c2=N)N1CCN(CC1)C(=O)[C@@H]1CCCO1
INCHI=InChI=1S/C19H25N5O4/c1-26-15-10-12-13(11-16(15)27-2)21-19(22-17(12)20)24-7-5-23(6-8-24)18(25)14-4-3-9-28-14/h10-11,14H,3-9H2,1-2H3,(H2,20,21,22)/t14-/m0/s1
FORMULA=C19H25N5O4
PUBMED=N/A
SUBMITUSER=BIOADREM
LIBRARYQUALITY=0
SPECTRUMID=CCMSLIB00000085192
SCANS=3264
ID=CCMSLIB00000085192
142.0862546025 	 4.02
168.1019046667 	 0.9
203.0927369639 	 6.64
204.0780952194 	 4.11
205.0733441925 	 5.89
206.0798265539 	 4.37
217.0720015218 	 1.58
221.1033016502 	 26.76
229.1097296988 	 1.81
230.0798265539 	 1.31
231.0889942567 	 35.71
232.0954766181 	 20.05
233.1033016502 	 7.93
243.087651586 	 0.93
245.1033016502 	 6.15
247.1189517144 	 100
257.1046443209 	 5.25
258.1111266823 	 2.55
260.1142006875 	 1.23
272.1142006875 	 2.19
273.1346017786 	 6.4
274.1298507517 	 7.49
284.1142006875 	 1.37
288.1455008159 	 6.68
290.1611508801 	 77.15
300.1455008159 	 2.85
302.1247653738 	 0.85
316.140415438 	 1.8
344.1717155664 	 0.97
354.1560655022 	 0.71
372.1666301885 	 1.75
373.1744552206 	 2.4
388.1979303169 	 85.06
END IONS

BEGIN IONS
PEPMASS=356.152
CHARGE=1
MSLEVEL=2
RT=0
SOURCE_INSTRUMENT=qTOF
FILENAME=CCMSLIB00000085194.ms
IONMODE=Positive
ORGANISM=Natural
NAME=MLS001304065-01!
PI=GNPS
DATACOLLECTOR=GNPS
SMILES=CCN(CC)Cc1cc(ccc1O)Nc1ccnc2cc(ccc12)Cl
INCHI=InChI=1S/C20H22ClN3O/c1-3-24(4-2)13-14-11-16(6-8-20(14)25)23-18-9-10-22-19-12-15(21)5-7-17(18)19/h5-12,25H,3-4,13H2,1-2H3,(H,22,23)
FORMULA=C20H22ClN3O
PUBMED=N/A
SUBMITUSER=BIOADREM
LIBRARYQUALITY=0
SPECTRUMID=CCMSLIB00000085194
SCANS=3265
ID=CCMSLIB00000085194
128.0494751657 	 0.95
162.0100156542 	 1.07
164.0261529078 	 1.59
167.072950262 	 3.12
177.0334907505 	 2.87
188.0261529078 	 1.98
193.0886003262 	 1.86
214.041802972 	 1.03
219.0916743314 	 5.9
220.0994993635 	 4.16
229.0527020093 	 1.22
238.041802972 	 2.72
240.0448769772 	 4.49
241.028892562 	 0.85
253.0527020093 	 2.68
255.0683520735 	 13.84
268.0397915993 	 3.28
283.0632666956 	 100
356.1524160539 	 0
END IONS

BEGIN IONS
PEPMASS=340.2031
CHARGE=1
MSLEVEL=2
RT=0
SOURCE_INSTRUMENT=qTOF
FILENAME=CCMSLIB00000085198.ms
IONMODE=Positive
ORGANISM=Natural
NAME=MLS002153146-01!MK-912 hydrate
PI=GNPS
DATACOLLECTOR=GNPS
SMILES=CN1CC[C@]2(CCN3CCc4c5ccccc5oc4[C@@H]3C2)N(C)C1=O
INCHI=InChI=1S/C20H25N3O2/c1-21-11-8-20(22(2)19(21)24)9-12-23-10-7-15-14-5-3-4-6-17(14)25-18(15)16(23)13-20/h3-6,16H,7-13H2,1-2H3/t16-,20+/m0/s1
FORMULA=C20H25N3O2
PUBMED=N/A
SUBMITUSER=BIOADREM
LIBRARYQUALITY=0
SPECTRUMID=CCMSLIB00000085198
SCANS=3268
ID=CCMSLIB00000085198
103.0542261926 	 4.99
105.0698762568 	 5.33
115.0542261926 	 9.87
117.0698762568 	 22.44
128.0620512247 	 10.19
131.0491408147 	 14.38
131.085526321 	 8.22
145.0647908789 	 100
156.0807752941 	 3.4
157.0647908789 	 9.26
159.0804409431 	 11.33
165.0698762568 	 6.34
168.0933513531 	 3.37
169.0647908789 	 11.67
171.0804409431 	 28.73
172.0756899162 	 81.33
180.0933513531 	 4.48
181.0647908789 	 14.35
183.1168264494 	 3.02
184.0756899162 	 23.16
185.0835149483 	 11.67
186.0913399804 	 45.52
195.0804409431 	 9.5
195.1168264494 	 10.8
200.1069900446 	 61.17
211.1117410715 	 6.87
223.1117410715 	 39.23
235.1117410715 	 8.73
238.1226401088 	 13.18
240.138290173 	 18.91
252.138290173 	 89.39
283.1804893387 	 4.38
340.2019530623 	 18.54
END IONS

BEGIN IONS
PEPMASS=209.0971
CHARGE=1
MSLEVEL=2
RT=0
SOURCE_INSTRUMENT=qTOF
FILENAME=CCMSLIB00000085199.ms
IONMODE=Positive
ORGANISM=Natural
NAME=MLS000069600-01!CHALCONE614-47-1
PI=GNPS
DATACOLLECTOR=GNPS
SMILES=c1ccc(cc1)/C=C/C(=O)c1ccccc1
INCHI=InChI=1S/C15H12O/c16-15(14-9-5-2-6-10-14)12-11-13-7-3-1-4-8-13/h1-12H/b12-11+
FORMULA=C15H12O
PUBMED=N/A
SUBMITUSER=BIOADREM
LIBRARYQUALITY=0
SPECTRUMID=CCMSLIB00000085199
SCANS=3269
ID=CCMSLIB00000085199
103.0542261926 	 100
105.0334907505 	 8.15
131.0491408147 	 30.17
194.072615911 	 1.98
209.0960910073 	 0.6
END IONS

BEGIN IONS
PEPMASS=261.098
CHARGE=1
MSLEVEL=2
RT=0
SOURCE_INSTRUMENT=qTOF
FILENAME=CCMSLIB00000085200.ms
IONMODE=Positive
ORGANISM=Natural
NAME=MLS001332409-01!N-Benzyl-2-nitro-1H-imidazole-1-acetamide22994-85-0
PI=GNPS
DATACOLLECTOR=GNPS
SMILES=c1ccc(cc1)CN=C(Cn1ccnc1N(=O)=O)O
INCHI=InChI=1S/C12H12N4O3/c17-11(14-8-10-4-2-1-3-5-10)9-15-7-6-13-12(15)16(18)19/h1-7H,8-9H2,(H,14,17)
FORMULA=C12H12N4O3
PUBMED=N/A
SUBMITUSER=BIOADREM
LIBRARYQUALITY=0
SPECTRUMID=CCMSLIB00000085200
SCANS=3270
ID=CCMSLIB00000085200
91.0542261926 	 100
106.0651252299 	 7.78
107.0491408147 	 35.49
109.0647908789 	 8.91
114.0311450268 	 8.91
117.0546201231 	 8.43
118.0624451552 	 82.82
120.0443897878 	 7.13
128.046795091 	 8.43
148.0756899162 	 7.78
154.0287397236 	 15.24
157.0733441925 	 14.75
197.0709388893 	 6.65
261.0982162723 	 0
END IONS

BEGIN IONS
PEPMASS=400.3405
CHARGE=1
MSLEVEL=2
RT=0
SOURCE_INSTRUMENT=qTOF
FILENAME=CCMSLIB00000085201.ms
IONMODE=Positive
ORGANISM=Natural
NAME=MLS002153285-01!Palmitoyl-DL-carnitine chloride
PI=GNPS
DATACOLLECTOR=GNPS
SMILES=CCCCCCCCCCCCCCCC(=O)OC(CC(=O)[O-])C[N+](C)(C)C
INCHI=InChI=1S/C23H45NO4/c1-5-6-7-8-9-10-11-12-13-14-15-16-17-18-23(27)28-21(19-22(25)26)20-24(2,3)4/h21H,5-20H2,1-4H3
FORMULA=C23H45NO4
PUBMED=N/A
SUBMITUSER=BIOADREM
LIBRARYQUALITY=0
SPECTRUMID=CCMSLIB00000085201
SCANS=3271
ID=CCMSLIB00000085201
85.0284053726 	 2.27
95.085526321 	 6.96
103.0389700589 	 2.28
103.0753555652 	 1.02
109.1011763852 	 5.7
114.0549544741 	 0.92
125.1324765136 	 1.07
129.0784295704 	 17.97
144.1019046667 	 100
162.112469353 	 5.47
239.2369415851 	 14.1
257.2475062714 	 7.51
283.2631563356 	 1.16
341.268635644 	 34.99
400.3421349381 	 100.39
END IONS

BEGIN IONS
PEPMASS=205.096
CHARGE=1
MSLEVEL=2
RT=0
SOURCE_INSTRUMENT=qTOF
FILENAME=CCMSLIB00000085202.ms
IONMODE=Positive
ORGANISM=Natural
NAME=MLS002153961-01!Ethotoin86-35-1
PI=GNPS
DATACOLLECTOR=GNPS
SMILES=CCN1C(=O)C(c2ccccc2)N=C1O
INCHI=InChI=1S/C11H12N2O2/c1-2-13-10(14)9(12-11(13)15)8-6-4-3-5-7-8/h3-7,9H,2H2,1H3,(H,12,15)
FORMULA=C11H12N2O2
PUBMED=N/A
SUBMITUSER=BIOADREM
LIBRARYQUALITY=0
SPECTRUMID=CCMSLIB00000085202
SCANS=3272
ID=CCMSLIB00000085202
106.0651252299 	 100
134.060039852 	 14.9
175.0502034472 	 7.28
205.0971536398 	 0
END IONS

BEGIN IONS
PEPMASS=584.2867
CHARGE=1
MSLEVEL=2
RT=0
SOURCE_INSTRUMENT=qTOF
FILENAME=CCMSLIB00000085203.ms
IONMODE=Positive
ORGANISM=Natural
NAME=MLS002154214-01!Dihydroergotamine tartrate5989-77-5
PI=GNPS
DATACOLLECTOR=GNPS
SMILES=C[C@@]1(C(=O)N2[C@@H](Cc3ccccc3)C(=O)N3CCC[C@H]3[C@]2(O)O1)N=C([C@@H]1CC2c3cccc4c3c(C[C@H]2N(C)C1)c[nH]4)O
INCHI=InChI=1S/C33H37N5O5/c1-32(35-29(39)21-15-23-22-10-6-11-24-28(22)20(17-34-24)16-25(23)36(2)18-21)31(41)38-26(14-19-8-4-3-5-9-19)30(40)37-13-7-12-27(37)33(38,42)43-32/h3-6,8-11,17,21,23,25-27,34,42H,7,12-16,18H2,1-2H3,(H,35,39)/t21-,23?,25-,26+,27+,32-,33+/m1/s1
FORMULA=C33H37N5O5
PUBMED=N/A
SUBMITUSER=BIOADREM
LIBRARYQUALITY=0
SPECTRUMID=CCMSLIB00000085203
SCANS=3273
ID=CCMSLIB00000085203
130.0651252299 	 0.42
144.0780952194 	 0.57
154.0624451552 	 2.84
154.0651252299 	 2.57
155.0702701873 	 2.05
156.0780952194 	 0.72
156.0807752941 	 0.87
168.0780952194 	 12.9
168.0807752941 	 12.82
170.0937452836 	 1.72
180.0780952194 	 1.16
180.0807752941 	 1.42
182.0937452836 	 2.48
182.0964253583 	 3.02
184.0994993635 	 1.15
192.0780952194 	 0.63
192.0807752941 	 0.78
194.0937452836 	 7.26
194.0964253583 	 7.26
196.1093953478 	 2.7
197.1046443209 	 3.1
197.1073243956 	 3.72
208.0730098415 	 1.61
208.0756899162 	 1.16
209.1046443209 	 1.29
209.1073243956 	 0.83
210.0886599057 	 19.82
210.0913399804 	 20.03
221.1033016502 	 0.61
222.0886599057 	 1.5
222.0913399804 	 1.86
223.1202943851 	 1.33
223.1229744598 	 1.44
225.1359444493 	 23.03
225.138624524 	 22.26
226.1424268107 	 5.06
227.1152090072 	 1.41
227.1178890819 	 1.75
238.1073839751 	 2.23
238.1100640498 	 1.95
239.1138663365 	 0.61
241.1308590714 	 0.36
251.1178890819 	 0.58
253.1308590714 	 33.64
253.1335391461 	 41.02
254.1373414328 	 7.48
270.1574081729 	 100
270.1600882476 	 100
271.1638905343 	 23.47
294.1574081729 	 9.61
294.1600882476 	 10.82
295.1638905343 	 1.79
312.1679728592 	 0.32
322.1550028697 	 4.26
323.1588051564 	 0.8
538.2812660158 	 3.34
566.2761806379 	 2.12
584.2867453242 	 13.17
END IONS

BEGIN IONS
PEPMASS=309.123
CHARGE=1
MSLEVEL=2
RT=0
SOURCE_INSTRUMENT=qTOF
FILENAME=CCMSLIB00000085205.ms
IONMODE=Positive
ORGANISM=Natural
NAME=MLS002172487-01!Tyrphostin AG 698
PI=GNPS
DATACOLLECTOR=GNPS
SMILES=c1ccc(cc1)CCN=C(/C(=C/c1ccc(c(c1)O)O)/C#N)O
INCHI=InChI=1S/C18H16N2O3/c19-12-15(10-14-6-7-16(21)17(22)11-14)18(23)20-9-8-13-4-2-1-3-5-13/h1-7,10-11,21-22H,8-9H2,(H,20,23)/b15-10+
FORMULA=C18H16N2O3
PUBMED=N/A
SUBMITUSER=BIOADREM
LIBRARYQUALITY=0
SPECTRUMID=CCMSLIB00000085205
SCANS=3274
ID=CCMSLIB00000085205
102.0464011605 	 2.44
104.0494751657 	 17.11
105.0698762568 	 100
114.0338251015 	 89.23
122.0964253583 	 3.55
132.0443897878 	 48.01
133.0284053726 	 38.39
142.0287397236 	 94.02
161.0233199947 	 14.67
170.0236543457 	 48.54
188.034219032 	 88.3
309.1233683903 	 0
END IONS

BEGIN IONS
PEPMASS=427.2005
CHARGE=1
MSLEVEL=2
RT=0
SOURCE_INSTRUMENT=qTOF
FILENAME=CCMSLIB00000085207.ms
IONMODE=Positive
ORGANISM=Natural
NAME=MLS000860027-01!(R)-(+)-WIN 55,212-2 mesylate salt
PI=GNPS
DATACOLLECTOR=GNPS
SMILES=Cc1c(c2cccc3c2n1[C@H](CN1CCOCC1)CO3)C(=O)c1cccc2ccccc12
INCHI=InChI=1S/C27H26N2O3/c1-18-25(27(30)22-9-4-7-19-6-2-3-8-21(19)22)23-10-5-11-24-26(23)29(18)20(17-32-24)16-28-12-14-31-15-13-28/h2-11,20H,12-17H2,1H3/t20-/m1/s1
FORMULA=C27H26N2O3
PUBMED=N/A
SUBMITUSER=BIOADREM
LIBRARYQUALITY=0
SPECTRUMID=CCMSLIB00000085207
SCANS=3276
ID=CCMSLIB00000085207
100.0756899162 	 11.34
103.0542261926 	 11.3
115.0542261926 	 0.21
117.0698762568 	 0.29
126.0464011605 	 1.63
126.0913399804 	 0.98
127.0542261926 	 14.21
128.0580284793 	 2.25
131.0491408147 	 1.29
143.0491408147 	 0.36
145.0647908789 	 8.71
155.0491408147 	 100
156.0529431014 	 19.59
172.0756899162 	 0.44
184.0756899162 	 0.75
200.0706045383 	 4.89
212.0706045383 	 2.4
270.0913399804 	 0.42
271.0991650125 	 0.85
271.1441038324 	 0.21
282.0913399804 	 0.23
296.1069900446 	 0.42
297.1148150767 	 0.22
298.0862546025 	 0.54
299.0940796346 	 2.45
299.1390184545 	 1.9
300.138290173 	 0.4
312.138290173 	 0.86
314.1175547309 	 0.28
325.1097296988 	 0.22
328.1332047951 	 5.49
340.1332047951 	 2.83
427.2016187113 	 3.12
END IONS

BEGIN IONS
PEPMASS=166.1219
CHARGE=1
MSLEVEL=2
RT=0
SOURCE_INSTRUMENT=qTOF
FILENAME=CCMSLIB00000085209.ms
IONMODE=Positive
ORGANISM=Natural
NAME=MLS001074086-01!
PI=GNPS
DATACOLLECTOR=GNPS
SMILES=CC[N+](C)(C)c1cccc(c1)[O-]
INCHI=InChI=1S/C10H15NO/c1-4-11(2,3)9-6-5-7-10(12)8-9/h5-8H,4H2,1-3H3
FORMULA=C10H15NO
PUBMED=N/A
SUBMITUSER=BIOADREM
LIBRARYQUALITY=0
SPECTRUMID=CCMSLIB00000085209
SCANS=3277
ID=CCMSLIB00000085209
94.0413157826 	 4.3
110.0964253583 	 3.44
118.0651252299 	 3.91
119.0491408147 	 3.83
120.0443897878 	 6.57
121.0522148199 	 5.79
136.0756899162 	 100
138.0913399804 	 12.28
166.1226401088 	 5.47
END IONS

BEGIN IONS
PEPMASS=164.0441
CHARGE=1
MSLEVEL=2
RT=0
SOURCE_INSTRUMENT=qTOF
FILENAME=CCMSLIB00000085213.ms
IONMODE=Positive
ORGANISM=Natural
NAME=MLS001148387-01!
PI=GNPS
DATACOLLECTOR=GNPS
SMILES=c1cc(cc2c1c[nH]n2)N(=O)=O
INCHI=InChI=1S/C7H5N3O2/c11-10(12)6-2-1-5-4-8-9-7(5)3-6/h1-4H,(H,8,9)
FORMULA=C7H5N3O2
PUBMED=N/A
SUBMITUSER=BIOADREM
LIBRARYQUALITY=0
SPECTRUMID=CCMSLIB00000085213
SCANS=3281
ID=CCMSLIB00000085213
91.0416501336 	 15.4
101.0260000694 	 12.37
103.0290740746 	 9.6
106.0525491709 	 15.15
118.0525491709 	 100
164.0454524203 	 12.25
END IONS

BEGIN IONS
PEPMASS=384.075
CHARGE=1
MSLEVEL=2
RT=0
SOURCE_INSTRUMENT=qTOF
FILENAME=CCMSLIB00000085215.ms
IONMODE=Positive
ORGANISM=Natural
NAME=MLS002153409-01!
PI=GNPS
DATACOLLECTOR=GNPS
SMILES=CCO/C(=C/1\C(=NC(=C(C1c1cccc(c1Cl)Cl)C(=O)OC)C)C)/O
INCHI=InChI=1S/C18H19Cl2NO4/c1-5-25-18(23)14-10(3)21-9(2)13(17(22)24-4)15(14)11-7-6-8-12(19)16(11)20/h6-8,15,23H,5H2,1-4H3/b18-14+
FORMULA=C18H19Cl2NO4
PUBMED=N/A
SUBMITUSER=BIOADREM
LIBRARYQUALITY=0
SPECTRUMID=CCMSLIB00000085215
SCANS=3283
ID=CCMSLIB00000085215
150.0549544741 	 5.16
178.0498690962 	 10.41
210.0760838467 	 22.8
210.9878156083 	 4.71
214.0406638556 	 4.86
215.0484888877 	 10.69
238.9827302304 	 5.07
242.0355784777 	 30.8
243.0434035098 	 43.53
244.0451776488 	 11.91
245.0449365567 	 13.35
250.0173415977 	 11.43
264.9983802946 	 5.73
270.0304930998 	 18.19
272.0268436515 	 5.7
278.0122562198 	 63.1
279.0140303588 	 10.78
288.0410577861 	 46.13
290.0374083378 	 17.09
302.0567078503 	 43.3
306.0071708419 	 53.29
309.0068364909 	 5.52
316.0723579145 	 5.91
322.002085464 	 5
324.0177355282 	 100
327.0174011772 	 9.28
336.0177355282 	 6.18
338.0333855924 	 84.15
352.0490356566 	 12.02
384.0752504071 	 0.75
END IONS

BEGIN IONS
PEPMASS=369.132
CHARGE=1
MSLEVEL=2
RT=0
SOURCE_INSTRUMENT=qTOF
FILENAME=CCMSLIB00000085216.ms
IONMODE=Positive
ORGANISM=Natural
NAME=MLS000069631-01!CURCUMIN458-37-7
PI=GNPS
DATACOLLECTOR=GNPS
SMILES=COc1cc(/C=C/C(=O)CC(=O)/C=C/c2ccc(c(c2)OC)O)ccc1O
INCHI=InChI=1S/C21H20O6/c1-26-20-11-14(5-9-18(20)24)3-7-16(22)13-17(23)8-4-15-6-10-19(25)21(12-15)27-2/h3-12,24-25H,13H2,1-2H3/b7-3+,8-4+
FORMULA=C21H20O6
PUBMED=N/A
SUBMITUSER=BIOADREM
LIBRARYQUALITY=0
SPECTRUMID=CCMSLIB00000085216
SCANS=3284
ID=CCMSLIB00000085216
89.0385761284 	 1.34
103.0542261926 	 2.32
106.0413157826 	 2.53
115.0542261926 	 0.89
117.0334907505 	 43.37
121.0647908789 	 1.15
131.0491408147 	 1.09
134.0362304047 	 7.46
145.0284053726 	 100
149.059705501 	 19.1
151.0389700589 	 1.92
154.0777012889 	 0.94
161.059705501 	 12.46
162.0311450268 	 1.21
167.0491408147 	 0.75
177.0546201231 	 66.88
182.072615911 	 2.03
187.0753555652 	 0.85
210.0675305331 	 4.25
225.0910056294 	 7.38
238.0624451552 	 1.9
253.0859202515 	 7.83
255.0651848094 	 0.75
259.0964849378 	 1.3
270.0886599057 	 1.35
285.112135002 	 5.05
369.1332643746 	 0
END IONS

BEGIN IONS
PEPMASS=224.1519
CHARGE=1
MSLEVEL=2
RT=0
SOURCE_INSTRUMENT=qTOF
FILENAME=CCMSLIB00000085220.ms
IONMODE=Positive
ORGANISM=Natural
NAME=MLS001333720-01!NEOSTIGMINE METHYL SULFATE
PI=GNPS
DATACOLLECTOR=GNPS
SMILES=CN(C)C(=O)Oc1cccc(c1)[N+](C)(C)C
INCHI=InChI=1S/C12H19N2O2/c1-13(2)12(15)16-11-8-6-7-10(9-11)14(3,4)5/h6-9H,1-5H3/q+1
FORMULA=C12H19N2O2
PUBMED=N/A
SUBMITUSER=BIOADREM
LIBRARYQUALITY=0
SPECTRUMID=CCMSLIB00000085220
SCANS=3286
ID=CCMSLIB00000085220
108.0569658468 	 1.485
108.0807752941 	 1.26
120.0807752941 	 2.155
122.0964253583 	 2.035
134.0964253583 	 1.12
135.0678648841 	 1.53
135.1042503904 	 3.41
136.0756899162 	 14.18
137.0835149483 	 8.225
150.0913399804 	 39.415
151.0991650125 	 24.085
163.1229744598 	 0.655
166.1226401088 	 0.99
180.125714114 	 0.625
207.112803704 	 2.075
208.1206287361 	 100
223.1441038324 	 27.585
224.1519288645 	 0
END IONS

BEGIN IONS
PEPMASS=268.103
CHARGE=1
MSLEVEL=2
RT=0
SOURCE_INSTRUMENT=qTOF
FILENAME=CCMSLIB00000085225.ms
IONMODE=Positive
ORGANISM=Natural
NAME=MLS002153992-01!Vidarabine5536-17-4
PI=GNPS
DATACOLLECTOR=GNPS
SMILES=C([C@@H]1[C@H]([C@@H](C(n2cnc3c(N)ncnc23)O1)O)O)O
INCHI=InChI=1S/C10H13N5O4/c11-8-5-9(13-2-12-8)15(3-14-5)10-7(18)6(17)4(1-16)19-10/h2-4,6-7,10,16-18H,1H2,(H2,11,12,13)/t4-,6-,7+,10?/m1/s1
FORMULA=C10H13N5O4
PUBMED=N/A
SUBMITUSER=BIOADREM
LIBRARYQUALITY=0
SPECTRUMID=CCMSLIB00000085225
SCANS=3289
ID=CCMSLIB00000085225
84.0080042815 	 1.88
119.033884681 	 9.93
120.0318137288 	 2.82
136.0604337825 	 100
137.0583628303 	 2.68
138.0675305331 	 3.49
268.1040299317 	 0
END IONS

BEGIN IONS
PEPMASS=847.4487
CHARGE=1
MSLEVEL=2
RT=0
SOURCE_INSTRUMENT=qTOF
FILENAME=CCMSLIB00000085226.ms
IONMODE=Positive
ORGANISM=Natural
NAME=MLS002154158-01!Rifabutin72559-06-9
PI=GNPS
DATACOLLECTOR=GNPS
SMILES=CCC(C)N1CCC2(CC1)N=c1c3c4c(c(C)c5c3C(=O)[C@@](C)(OC=C[C@@H]([C@@H](C)[C@H]([C@H](C)[C@@H]([C@H](C)[C@H]([C@@H](C)C=CC=C(C)C(=Nc(c1=N2)c4O)O)O)O)OC(=O)C)OC)O5)O
INCHI=InChI=1S/C46H62N4O11/c1-12-24(4)50-19-17-46(18-20-50)48-34-31-32-39(54)28(8)42-33(31)43(56)45(10,61-42)59-21-16-30(58-11)25(5)41(60-29(9)51)27(7)38(53)26(6)37(52)22(2)14-13-15-23(3)44(57)47-36(40(32)55)35(34)49-46/h13-16,21-22,24-27,30,37-38,41,52-55H,12,17-20H2,1-11H3,(H,47,57)/t22-,24?,25+,26+,27+,30-,37-,38+,41+,45-/m0/s1
FORMULA=C46H62N4O11
PUBMED=N/A
SUBMITUSER=BIOADREM
LIBRARYQUALITY=0
SPECTRUMID=CCMSLIB00000085226
SCANS=3290
ID=CCMSLIB00000085226
95.085526321 	 7.58
105.0698762568 	 2.9
107.085526321 	 8.61
109.0647908789 	 6.46
119.085526321 	 2.96
121.0647908789 	 3.39
121.1011763852 	 2.79
123.0804409431 	 18.65
125.0960910073 	 2.69
133.1011763852 	 2.36
135.0804409431 	 8.71
135.1168264494 	 2.43
137.0960910073 	 2.5
145.1011763852 	 5.11
147.1168264494 	 4.77
151.0753555652 	 25.56
153.0910056294 	 5.91
161.0960910073 	 5.28
163.1117410715 	 13.52
173.0960910073 	 2.53
175.1117410715 	 3.67
179.1066556936 	 3.41
191.1066556936 	 7.02
193.1223057578 	 2.78
307.0713328198 	 2.52
309.086982884 	 2.94
321.086982884 	 4.3
322.0822318571 	 8.6
324.0978819213 	 9.25
325.1057069534 	 3.36
338.1135319855 	 7.56
339.1186769429 	 4.36
340.1291820497 	 4.2
406.1761322423 	 2.24
422.1948563117 	 4.49
423.2026813438 	 8.82
424.2078263012 	 3.56
545.2758462869 	 2.44
573.270760909 	 3.99
632.3177706811 	 3.62
670.3122913727 	 2.42
730.3334207453 	 4.48
737.3908760447 	 4.8
755.401440731 	 36.38
756.4092657631 	 16.27
787.4276554815 	 2.54
797.4120054173 	 6.98
798.4198304494 	 2.84
815.4225701036 	 100
816.4303951357 	 81.68
847.4487848541 	 23.07
END IONS

BEGIN IONS
PEPMASS=272.0603
CHARGE=1
MSLEVEL=2
RT=0
SOURCE_INSTRUMENT=qTOF
FILENAME=CCMSLIB00000085230.ms
IONMODE=Positive
ORGANISM=Natural
NAME=MLS001076555-01!
PI=GNPS
DATACOLLECTOR=GNPS
SMILES=C#CCN(C)CCCOc1ccc(cc1Cl)Cl
INCHI=InChI=1S/C13H15Cl2NO/c1-3-7-16(2)8-4-9-17-13-6-5-11(14)10-12(13)15/h1,5-6,10H,4,7-9H2,2H3
FORMULA=C13H15Cl2NO
PUBMED=N/A
SUBMITUSER=BIOADREM
LIBRARYQUALITY=0
SPECTRUMID=CCMSLIB00000085230
SCANS=3293
ID=CCMSLIB00000085230
94.0651252299 	 16.15
98.9996038063 	 2.59
108.9839537421 	 10.54
110.0964253583 	 28.87
110.9996038063 	 24.01
112.0074288384 	 21.45
120.9606314842 	 5.56
125.0152538705 	 12.75
125.9866933963 	 3.38
126.9945184284 	 8.03
131.0491408147 	 5.62
132.9606314842 	 89.84
133.0647908789 	 16.27
139.0309039347 	 5.88
144.9606314842 	 14
146.9762815484 	 36.73
153.0101684926 	 15.51
160.9555461063 	 32.33
167.0258185568 	 3
168.0336435889 	 25.76
174.9711961705 	 100
203.0024962989 	 2.62
232.0290454004 	 22.96
272.0603455288 	 0
END IONS

BEGIN IONS
PEPMASS=495.255
CHARGE=1
MSLEVEL=2
RT=0
SOURCE_INSTRUMENT=qTOF
FILENAME=CCMSLIB00000085231.ms
IONMODE=Positive
ORGANISM=Natural
NAME=MLS001077304-01!FLUMETHASONE PIVALATE
PI=GNPS
DATACOLLECTOR=GNPS
SMILES=C[C@@H]1C[C@H]2[C@@H]3C[C@@H](C4=CC(=O)C=C[C@]4(C)[C@]3([C@H](C[C@]2(C)[C@]1(C(=O)COC(=O)C(C)(C)C)O)O)F)F
INCHI=InChI=1S/C27H36F2O6/c1-14-9-16-17-11-19(28)18-10-15(30)7-8-24(18,5)26(17,29)20(31)12-25(16,6)27(14,34)21(32)13-35-22(33)23(2,3)4/h7-8,10,14,16-17,19-20,31,34H,9,11-13H2,1-6H3/t14-,16+,17+,19+,20+,24+,25+,26+,27+/m1/s1
FORMULA=C27H36F2O6
PUBMED=N/A
SUBMITUSER=BIOADREM
LIBRARYQUALITY=0
SPECTRUMID=CCMSLIB00000085231
SCANS=3294
ID=CCMSLIB00000085231
107.085526321 	 11.32
121.0647908789 	 89.1
133.0647908789 	 16.45
135.0804409431 	 26.09
139.0553690468 	 35.13
145.0647908789 	 21.57
145.1011763852 	 11.89
147.0804409431 	 29.51
159.0804409431 	 22.9
165.071019111 	 14.51
171.0804409431 	 27.42
173.0960910073 	 14.32
183.0815837973 	 12.8
187.0753555652 	 12.04
196.0882659752 	 16.75
199.1117410715 	 10.9
205.1023192394 	 14.62
207.1168264494 	 13.9
210.1039160394 	 17.47
220.0882659752 	 10.79
221.0960910073 	 15.65
222.1039160394 	 16.37
225.1273911357 	 40.87
234.1039160394 	 10.22
235.1117410715 	 100
237.1273911357 	 40.07
238.0988306615 	 17.77
245.0972338615 	 9.8
253.1223057578 	 75.73
255.1179693036 	 15.19
263.1430411999 	 12.53
273.1285339899 	 14.43
274.1352161678 	 16.29
277.1586912641 	 27.12
289.1586912641 	 11.17
307.1692559504 	 16.94
317.1547487404 	 16.56
495.2552712882 	 0
END IONS

BEGIN IONS
PEPMASS=209.1068
CHARGE=1
MSLEVEL=2
RT=0
SOURCE_INSTRUMENT=qTOF
FILENAME=CCMSLIB00000085234.ms
IONMODE=Positive
ORGANISM=Natural
NAME=MLS001194484-01!2,9-dimethyl-1,10-phenanthroline
PI=GNPS
DATACOLLECTOR=GNPS
SMILES=Cc1ccc2ccc3ccc(C)nc3c2n1
INCHI=InChI=1S/C14H12N2/c1-9-3-5-11-7-8-12-6-4-10(2)16-14(12)13(11)15-9/h3-8H,1-2H3
FORMULA=C14H12N2
PUBMED=N/A
SUBMITUSER=BIOADREM
LIBRARYQUALITY=0
SPECTRUMID=CCMSLIB00000085234
SCANS=3296
ID=CCMSLIB00000085234
115.0542261926 	 4.29
116.0494751657 	 0.66
117.0573001978 	 1.07
127.0542261926 	 1.17
139.0542261926 	 3.1
141.0698762568 	 2.36
142.0651252299 	 2.18
143.072950262 	 5.17
144.0681992351 	 1.22
151.0542261926 	 0.67
154.0651252299 	 2.26
157.0886003262 	 1.06
164.0494751657 	 0.9
166.0651252299 	 6.88
167.072950262 	 27.84
179.060374203 	 0.88
180.0807752941 	 7.38
193.0760242672 	 34.8
194.0838492993 	 25.19
207.0916743314 	 64.53
208.0994993635 	 100
209.1073243956 	 204.39
END IONS

BEGIN IONS
PEPMASS=400.1755
CHARGE=1
MSLEVEL=2
RT=0
SOURCE_INSTRUMENT=qTOF
FILENAME=CCMSLIB00000085238.ms
IONMODE=Positive
ORGANISM=Natural
NAME=MLS001055448-01!COLCHICINE
PI=GNPS
DATACOLLECTOR=GNPS
SMILES=CC(=N[C@H]1CCc2cc(c(c(c2c2ccc(c(=O)cc12)OC)OC)OC)OC)O
INCHI=InChI=1S/C22H25NO6/c1-12(24)23-16-8-6-13-10-19(27-3)21(28-4)22(29-5)20(13)14-7-9-18(26-2)17(25)11-15(14)16/h7,9-11,16H,6,8H2,1-5H3,(H,23,24)/t16-/m0/s1
FORMULA=C22H25NO6
PUBMED=N/A
SUBMITUSER=BIOADREM
LIBRARYQUALITY=0
SPECTRUMID=CCMSLIB00000085238
SCANS=3299
ID=CCMSLIB00000085238
223.0753555652 	 18.06
224.0831805973 	 17.67
227.0702701873 	 16.83
235.0753555652 	 19.25
237.0910056294 	 24.13
239.1066556936 	 23.58
241.0859202515 	 21.43
251.0702701873 	 30.05
252.0780952194 	 26.55
255.0651848094 	 19.26
255.1015703157 	 20.07
263.0702701873 	 20.5
265.0859202515 	 22.48
266.0937452836 	 19.62
267.1015703157 	 79.38
270.0886599057 	 23.12
279.0651848094 	 17.5
280.0968192888 	 13.58
282.125045412 	 66.51
283.0964849378 	 51.43
285.112135002 	 37.1
287.0913995599 	 15.78
295.0964849378 	 64.2
298.1199600341 	 29.9
300.1230340393 	 42.69
311.0913995599 	 56.6
312.099224592 	 15.09
313.1434351304 	 20.87
314.1022985972 	 17.05
314.1386841035 	 14.27
324.1230340393 	 21.6
328.1179486614 	 32.32
340.1543341677 	 18.6
341.1383497525 	 40.32
342.1335987256 	 22.36
343.1414237577 	 16.4
358.164898854 	 58.73
400.1754635403 	 52.88
END IONS

BEGIN IONS
PEPMASS=299.2015
CHARGE=1
MSLEVEL=2
RT=0
SOURCE_INSTRUMENT=qTOF
FILENAME=CCMSLIB00000085239.ms
IONMODE=Positive
ORGANISM=Natural
NAME=MLS001163874-01!19-Norethindrone68-22-4
PI=GNPS
DATACOLLECTOR=GNPS
SMILES=C#C[C@@]1(CC[C@H]2[C@@H]3CCC4=CC(=O)CC[C@@H]4[C@H]3CC[C@]12C)O
INCHI=InChI=1S/C20H26O2/c1-3-20(22)11-9-18-17-6-4-13-12-14(21)5-7-15(13)16(17)8-10-19(18,20)2/h1,12,15-18,22H,4-11H2,2H3/t15-,16+,17+,18-,19-,20-/m0/s1
FORMULA=C20H26O2
PUBMED=N/A
SUBMITUSER=BIOADREM
LIBRARYQUALITY=0
SPECTRUMID=CCMSLIB00000085239
SCANS=3300
ID=CCMSLIB00000085239
91.0542261926 	 27.65
93.0698762568 	 16.49
95.085526321 	 12.09
103.0542261926 	 17.76
105.0698762568 	 64.71
107.0491408147 	 36.34
107.085526321 	 13.74
109.0647908789 	 100
109.1011763852 	 26.88
115.0542261926 	 34.47
117.0698762568 	 64.54
119.085526321 	 48.93
123.0804409431 	 11.21
128.0620512247 	 70.42
129.0698762568 	 64.82
130.0777012889 	 21.99
131.085526321 	 53.22
133.1011763852 	 33.1
135.0804409431 	 42.06
141.0698762568 	 27.32
142.0777012889 	 23.53
143.085526321 	 82.3
145.1011763852 	 64.05
147.0804409431 	 15.56
147.1168264494 	 17.54
149.0960910073 	 22.21
154.0777012889 	 11.27
155.085526321 	 36.78
156.0933513531 	 19.35
157.1011763852 	 37.82
159.0804409431 	 12.48
159.1168264494 	 17.92
161.0960910073 	 24.85
161.1324765136 	 17.26
167.085526321 	 21.99
169.1011763852 	 38.43
171.1168264494 	 33.7
175.1117410715 	 18.97
179.085526321 	 12.09
185.1324765136 	 30.07
191.085526321 	 12.64
193.1011763852 	 15.34
206.1090014173 	 10.89
213.163776642 	 27.27
221.1324765136 	 10.89
231.1743413283 	 39.64
299.2005560788 	 23.42
END IONS

BEGIN IONS
PEPMASS=367.2737
CHARGE=1
MSLEVEL=2
RT=0
SOURCE_INSTRUMENT=qTOF
FILENAME=CCMSLIB00000085242.ms
IONMODE=Positive
ORGANISM=Natural
NAME=MLS001333222-01!
PI=GNPS
DATACOLLECTOR=GNPS
SMILES=CC(C)COCC(CN(Cc1ccccc1)c1ccccc1)N1CCCC1
INCHI=InChI=1S/C24H34N2O/c1-21(2)19-27-20-24(25-15-9-10-16-25)18-26(23-13-7-4-8-14-23)17-22-11-5-3-6-12-22/h3-8,11-14,21,24H,9-10,15-20H2,1-2H3
FORMULA=C24H34N2O
PUBMED=N/A
SUBMITUSER=BIOADREM
LIBRARYQUALITY=0
SPECTRUMID=CCMSLIB00000085242
SCANS=3303
ID=CCMSLIB00000085242
84.0807752941 	 0.55
91.0542261926 	 22.56
96.0807752941 	 0.56
98.0964253583 	 3.8
104.0494751657 	 0.42
105.0573001978 	 0.27
105.0698762568 	 0.55
106.0651252299 	 2.31
110.0964253583 	 29.87
112.1120754225 	 3.09
114.0913399804 	 8.86
115.0542261926 	 0.51
117.0698762568 	 0.88
118.0651252299 	 3.26
120.0807752941 	 4.12
126.0913399804 	 0.29
128.1069900446 	 1.36
130.0651252299 	 1.2
132.0807752941 	 0.78
144.0807752941 	 0.68
152.0620512247 	 0.3
165.0698762568 	 0.34
166.0777012889 	 0.25
170.1539402372 	 29.71
179.085526321 	 0.44
184.1695903014 	 100
186.1726643066 	 1.1
194.0964253583 	 0.84
196.1120754225 	 45.7
222.1277254867 	 3.06
367.2743897239 	 0.35
END IONS

BEGIN IONS
PEPMASS=313.2023
CHARGE=1
MSLEVEL=2
RT=0
SOURCE_INSTRUMENT=qTOF
FILENAME=CCMSLIB00000085243.ms
IONMODE=Positive
ORGANISM=Natural
NAME=MLS001401373-01!Granisetron??Hydrochloride
PI=GNPS
DATACOLLECTOR=GNPS
SMILES=CN1[C@@H]2CCC[C@H]1C[C@H](C2)NC(=O)c1c2ccccc2n(C)n1
INCHI=InChI=1S/C18H24N4O/c1-21-13-6-5-7-14(21)11-12(10-13)19-18(23)17-15-8-3-4-9-16(15)22(2)20-17/h3-4,8-9,12-14H,5-7,10-11H2,1-2H3,(H,19,23)/t12-,13+,14-
FORMULA=C18H24N4O
PUBMED=N/A
SUBMITUSER=BIOADREM
LIBRARYQUALITY=0
SPECTRUMID=CCMSLIB00000085243
SCANS=3304
ID=CCMSLIB00000085243
91.0542261926 	 0.66
96.0807752941 	 6.4
107.085526321 	 2.16
110.0964253583 	 2.78
112.1120754225 	 5.41
138.1277254867 	 100
158.0712732403 	 0.92
159.0552888251 	 94.57
176.0818379266 	 3.14
313.2022874133 	 25.27
END IONS

BEGIN IONS
PEPMASS=311.079
CHARGE=1
MSLEVEL=2
RT=0
SOURCE_INSTRUMENT=qTOF
FILENAME=CCMSLIB00000085245.ms
IONMODE=Positive
ORGANISM=Natural
NAME=MLS002154150-01!Sulfadoxin2447-57-6
PI=GNPS
DATACOLLECTOR=GNPS
SMILES=COc1c(ncnc1OC)NS(=O)(=O)c1ccc(cc1)N
INCHI=InChI=1S/C12H14N4O4S/c1-19-10-11(14-7-15-12(10)20-2)16-21(17,18)9-5-3-8(13)4-6-9/h3-7H,13H2,1-2H3,(H,14,15,16)
FORMULA=C12H14N4O4S
PUBMED=N/A
SUBMITUSER=BIOADREM
LIBRARYQUALITY=0
SPECTRUMID=CCMSLIB00000085245
SCANS=3306
ID=CCMSLIB00000085245
92.0494751657 	 9.44
95.047798144 	 3.03
108.0443897878 	 100
110.0236543457 	 2.65
112.0505377982 	 8.6
123.0427127661 	 2.92
124.0215458557 	 2.13
124.0505377982 	 1.67
126.0298023561 	 3.99
126.0661878624 	 4.73
138.0298023561 	 8.2
140.0454524203 	 63.32
141.0532774524 	 32.28
142.0525491709 	 3.15
154.0611024845 	 71.33
155.0637450214 	 5.69
156.0113750999 	 41.79
156.0767525487 	 57.04
201.0770868997 	 8.86
212.0692618676 	 14.38
213.0692243298 	 2.84
230.0798265539 	 7.72
245.1033016502 	 10.68
311.0808516486 	 0
END IONS

BEGIN IONS
PEPMASS=220.095
CHARGE=1
MSLEVEL=2
RT=0
SOURCE_INSTRUMENT=qTOF
FILENAME=CCMSLIB00000085246.ms
IONMODE=Positive
ORGANISM=Natural
NAME=MLS000028591-01!
PI=GNPS
DATACOLLECTOR=GNPS
SMILES=COc1ccc(cc1)C(=O)N1CCCC1=O
INCHI=InChI=1S/C12H13NO3/c1-16-10-6-4-9(5-7-10)12(15)13-8-2-3-11(13)14/h4-7H,2-3,8H2,1H3
FORMULA=C12H13NO3
PUBMED=N/A
SUBMITUSER=BIOADREM
LIBRARYQUALITY=0
SPECTRUMID=CCMSLIB00000085246
SCANS=3307
ID=CCMSLIB00000085246
92.0256657184 	 6.77
107.0491408147 	 5.74
123.0440554368 	 2.27
125.059705501 	 2.19
135.0440554368 	 100
220.0968192888 	 0
END IONS

BEGIN IONS
PEPMASS=215.139
CHARGE=1
MSLEVEL=2
RT=0
SOURCE_INSTRUMENT=qTOF
FILENAME=CCMSLIB00000085248.ms
IONMODE=Positive
ORGANISM=Natural
NAME=MLS001066403-01!d-Desthiobiotin
PI=GNPS
DATACOLLECTOR=GNPS
SMILES=C[C@H]1[C@@H](CCCCCC(=O)O)NC(=N1)O
INCHI=InChI=1S/C10H18N2O3/c1-7-8(12-10(15)11-7)5-3-2-4-6-9(13)14/h7-8H,2-6H2,1H3,(H,13,14)(H2,11,12,15)/t7-,8+/m0/s1
FORMULA=C10H18N2O3
PUBMED=N/A
SUBMITUSER=BIOADREM
LIBRARYQUALITY=0
SPECTRUMID=CCMSLIB00000085248
SCANS=3308
ID=CCMSLIB00000085248
91.0542261926 	 10.99
94.0651252299 	 16.38
96.0443897878 	 15.52
98.047463793 	 9.7
99.0552888251 	 32.97
109.1011763852 	 30.39
110.0964253583 	 48.06
111.0552888251 	 12.28
112.0631138572 	 15.73
112.1120754225 	 9.7
117.0698762568 	 10.56
119.085526321 	 10.34
123.0678648841 	 12.72
124.1120754225 	 10.34
126.1277254867 	 17.89
134.0937452836 	 17.67
136.0756899162 	 17.24
136.1093953478 	 19.4
137.1073243956 	 11.21
151.0865889535 	 19.18
163.0865889535 	 9.27
215.1390184545 	 0
END IONS

BEGIN IONS
PEPMASS=357.162
CHARGE=1
MSLEVEL=2
RT=0
SOURCE_INSTRUMENT=qTOF
FILENAME=CCMSLIB00000085249.ms
IONMODE=Positive
ORGANISM=Natural
NAME=MLS001076079-01!1-[(2-[DIETHYLAMINO]ETHYL)AMINO]-4-[HYDROXYMETHYL]-9H-THIOXANTHEN-9-ONE
PI=GNPS
DATACOLLECTOR=GNPS
SMILES=CCN(CC)CCNc1ccc(CO)c2c1c(=O)c1ccccc1s2
INCHI=InChI=1S/C20H24N2O2S/c1-3-22(4-2)12-11-21-16-10-9-14(13-23)20-18(16)19(24)15-7-5-6-8-17(15)25-20/h5-10,21,23H,3-4,11-13H2,1-2H3
FORMULA=C20H24N2O2S
PUBMED=N/A
SUBMITUSER=BIOADREM
LIBRARYQUALITY=0
SPECTRUMID=CCMSLIB00000085249
SCANS=3309
ID=CCMSLIB00000085249
109.0106468184 	 1.01
117.0546201231 	 1.1
137.0055614405 	 8.85
145.0495347452 	 0.65
200.0501659094 	 0.71
211.0423408773 	 1.25
212.0501659094 	 1.56
223.0423408773 	 1.33
224.0501659094 	 2.72
225.0579909415 	 3.11
226.0658159736 	 3.85
235.0423408773 	 1.19
236.0501659094 	 9.68
238.0658159736 	 2.19
239.0372554994 	 2.76
240.0450805315 	 1.14
248.0501659094 	 2.32
252.0450805315 	 21.01
253.0529055636 	 14.69
254.0607305957 	 100
266.0607305957 	 45.6
284.071295282 	 12.41
357.1604446403 	 0.17
END IONS

BEGIN IONS
PEPMASS=394.2125
CHARGE=1
MSLEVEL=2
RT=0
SOURCE_INSTRUMENT=qTOF
FILENAME=CCMSLIB00000085251.ms
IONMODE=Positive
ORGANISM=Natural
NAME=MLS000859948-01!NAN-190 hydrobromide
PI=GNPS
DATACOLLECTOR=GNPS
SMILES=COc1ccccc1N1CCN(CCCCN2C(=O)c3ccccc3C2=O)CC1
INCHI=InChI=1S/C23H27N3O3/c1-29-21-11-5-4-10-20(21)25-16-14-24(15-17-25)12-6-7-13-26-22(27)18-8-2-3-9-19(18)23(26)28/h2-5,8-11H,6-7,12-17H2,1H3
FORMULA=C23H27N3O3
PUBMED=N/A
SUBMITUSER=BIOADREM
LIBRARYQUALITY=0
SPECTRUMID=CCMSLIB00000085251
SCANS=3311
ID=CCMSLIB00000085251
91.0542261926 	 0.52
94.0651252299 	 0.33
105.0334907505 	 0.51
117.0573001978 	 0.74
118.0651252299 	 8.87
120.0443897878 	 23.53
121.0522148199 	 8.97
122.060039852 	 1.11
130.0287397236 	 4.11
132.0443897878 	 0.59
133.0284053726 	 5.23
134.060039852 	 5.2
135.0678648841 	 2.4
136.0756899162 	 1.96
146.060039852 	 0.39
148.0393044099 	 4.22
148.0756899162 	 2.18
150.0913399804 	 33.6
160.0393044099 	 100
162.0913399804 	 1.04
178.1226401088 	 0.75
202.0862546025 	 18.8
245.1284537682 	 22.85
271.1441038324 	 0.54
394.2125177486 	 74.75
END IONS

BEGIN IONS
PEPMASS=402.2483
CHARGE=1
MSLEVEL=2
RT=0
SOURCE_INSTRUMENT=qTOF
FILENAME=CCMSLIB00000085253.ms
IONMODE=Positive
ORGANISM=Natural
NAME=MLS000860044-01!5-Methylurapidil
PI=GNPS
DATACOLLECTOR=GNPS
SMILES=Cc1c(NCCCN2CCN(CC2)c2ccccc2OC)n(C)c(=O)n(C)c1=O
INCHI=InChI=1S/C21H31N5O3/c1-16-19(23(2)21(28)24(3)20(16)27)22-10-7-11-25-12-14-26(15-13-25)17-8-5-6-9-18(17)29-4/h5-6,8-9,22H,7,10-15H2,1-4H3
FORMULA=C21H31N5O3
PUBMED=N/A
SUBMITUSER=BIOADREM
LIBRARYQUALITY=0
SPECTRUMID=CCMSLIB00000085253
SCANS=3312
ID=CCMSLIB00000085253
96.0430471171 	 1.48
96.0807752941 	 0.91
97.0760242672 	 1.25
98.060039852 	 1.87
98.0838492993 	 1.07
106.0624451552 	 1.74
118.0651252299 	 1.27
120.0443897878 	 2.52
121.0607681335 	 1.19
125.0709388893 	 2.08
130.0624451552 	 0.84
131.060374203 	 1.19
133.0522148199 	 0.93
134.060039852 	 7.28
135.0665222134 	 1.53
135.0790982724 	 1.2
136.0756899162 	 1.55
146.060039852 	 0.8
146.0838492993 	 2.88
147.0678648841 	 0.95
148.0743472455 	 1.58
150.0899973097 	 3.31
153.1022390177 	 3.45
155.0815035756 	 17.79
159.0678648841 	 0.86
159.0916743314 	 1.01
162.0913399804 	 27.48
163.0951422671 	 2.95
174.0899973097 	 1.82
174.1151494277 	 1.6
175.0865889535 	 7.63
176.1056473739 	 1.2
177.1022390177 	 6.55
182.0924026129 	 7.11
189.1022390177 	 4.13
190.1100640498 	 100
191.1138663365 	 11.95
203.1165464112 	 4.28
204.1243714433 	 2.18
205.1335391461 	 71.57
206.1373414328 	 7.55
210.1237027413 	 31.96
217.1295164007 	 1.02
219.1478465396 	 17.26
231.1491892103 	 1.27
232.1444381834 	 1.86
247.1679132797 	 10.14
248.1717155664 	 2.09
253.165901907 	 1.36
402.2499658874 	 7.43
END IONS

BEGIN IONS
PEPMASS=304.1543
CHARGE=1
MSLEVEL=2
RT=0
SOURCE_INSTRUMENT=qTOF
FILENAME=CCMSLIB00000085255.ms
IONMODE=Positive
ORGANISM=Natural
NAME=MLS001056741-01!
PI=GNPS
DATACOLLECTOR=GNPS
SMILES=CC(Cc1ccc(cc1)O)NCC(c1cc(cc(c1)O)O)O
INCHI=InChI=1S/C17H21NO4/c1-11(6-12-2-4-14(19)5-3-12)18-10-17(22)13-7-15(20)9-16(21)8-13/h2-5,7-9,11,17-22H,6,10H2,1H3
FORMULA=C17H21NO4
PUBMED=N/A
SUBMITUSER=BIOADREM
LIBRARYQUALITY=0
SPECTRUMID=CCMSLIB00000085255
SCANS=3313
ID=CCMSLIB00000085255
107.0491408147 	 100
117.0698762568 	 0.5
135.0804409431 	 17.41
286.1437694814 	 0.47
304.1543341677 	 0.37
END IONS

BEGIN IONS
PEPMASS=261.056
CHARGE=1
MSLEVEL=2
RT=0
SOURCE_INSTRUMENT=qTOF
FILENAME=CCMSLIB00000085258.ms
IONMODE=Positive
ORGANISM=Natural
NAME=MLS002153845-01!Tiaprofenic acid33005-95-7
PI=GNPS
DATACOLLECTOR=GNPS
SMILES=CC(c1ccc(C(=O)c2ccccc2)s1)C(=O)O
INCHI=InChI=1S/C14H12O3S/c1-9(14(16)17)11-7-8-12(18-11)13(15)10-5-3-2-4-6-10/h2-9H,1H3,(H,16,17)
FORMULA=C14H12O3S
PUBMED=N/A
SUBMITUSER=BIOADREM
LIBRARYQUALITY=0
SPECTRUMID=CCMSLIB00000085258
SCANS=3315
ID=CCMSLIB00000085258
105.0334907505 	 100
109.0106468184 	 5.4
110.0184718505 	 43.27
110.9899113763 	 2.63
111.0262968826 	 11.88
111.9977364084 	 1.79
126.9848259984 	 8.6
137.0055614405 	 4.18
138.0133864726 	 38.46
165.0004760626 	 4.78
167.9875656526 	 4.96
183.0110407489 	 92.24
187.057597011 	 22.34
215.0525116331 	 20.54
261.0579909415 	 0
END IONS

BEGIN IONS
PEPMASS=523.2664
CHARGE=1
MSLEVEL=2
RT=0
SOURCE_INSTRUMENT=qTOF
FILENAME=CCMSLIB00000085261.ms
IONMODE=Positive
ORGANISM=Natural
NAME=MLS002172449-01!L-765,314 hydrate
PI=GNPS
DATACOLLECTOR=GNPS
SMILES=CC(C)(C)N=C([C@@H]1CN(CCN1C(=O)OCc1ccccc1)c1nc2cc(c(cc2c(=N)[nH]1)OC)OC)O
INCHI=InChI=1S/C27H34N6O5/c1-27(2,3)31-24(34)20-15-32(11-12-33(20)26(35)38-16-17-9-7-6-8-10-17)25-29-19-14-22(37-5)21(36-4)13-18(19)23(28)30-25/h6-10,13-14,20H,11-12,15-16H2,1-5H3,(H,31,34)(H2,28,29,30)/t20-/m0/s1
FORMULA=C27H34N6O5
PUBMED=N/A
SUBMITUSER=BIOADREM
LIBRARYQUALITY=0
SPECTRUMID=CCMSLIB00000085261
SCANS=3316
ID=CCMSLIB00000085261
91.0542261926 	 13.45
204.0767525487 	 1.07
205.0733441925 	 5.29
206.0798265539 	 1.17
219.0916743314 	 1.1
220.0968192888 	 6.54
221.1033016502 	 16.41
222.1039160394 	 1.53
230.0798265539 	 1.03
232.0954766181 	 1.06
233.1033016502 	 21.45
244.0954766181 	 1.03
245.1033016502 	 24.21
247.1189517144 	 9.12
248.1195661036 	 1.08
259.1189517144 	 17.53
260.1195661036 	 4.9
261.1233683903 	 1.08
271.1189517144 	 9.41
272.1155433582 	 4.86
273.1022390177 	 2.6
273.1148150767 	 1.56
286.1298507517 	 13.53
287.1390184545 	 24.7
288.1455008159 	 96.14
289.1461152051 	 19.9
314.1247653738 	 8.15
315.125379763 	 1.88
316.1040299317 	 1.04
330.1196799959 	 1.68
331.127505028 	 24.12
332.1353300601 	 100
333.1359444493 	 22.13
334.1424268107 	 2.02
358.114594618 	 2.27
364.178143615 	 1.11
378.1924510085 	 7.64
387.2139147321 	 2.9
415.2088293542 	 0.99
422.1822802527 	 12.46
450.1771948748 	 6.5
467.2037439763 	 4.5
479.2765149889 	 2.7
523.2663442331 	 72.11
END IONS

BEGIN IONS
PEPMASS=351.207
CHARGE=1
MSLEVEL=2
RT=0
SOURCE_INSTRUMENT=qTOF
FILENAME=CCMSLIB00000085265.ms
IONMODE=Positive
ORGANISM=Natural
NAME=MLS001076294-01!VINPOCETINE
PI=GNPS
DATACOLLECTOR=GNPS
SMILES=CC[C@]12CCCN3CCc4c5ccccc5n(C(=C1)C(=O)OCC)c4[C@H]23
INCHI=InChI=1S/C22H26N2O2/c1-3-22-11-7-12-23-13-10-16-15-8-5-6-9-17(15)24(19(16)20(22)23)18(14-22)21(25)26-4-2/h5-6,8-9,14,20H,3-4,7,10-13H2,1-2H3/t20-,22+/m1/s1
FORMULA=C22H26N2O2
PUBMED=N/A
SUBMITUSER=BIOADREM
LIBRARYQUALITY=0
SPECTRUMID=CCMSLIB00000085265
SCANS=3320
ID=CCMSLIB00000085265
194.0964253583 	 3.67
204.0807752941 	 4.69
205.0886003262 	 9.2
206.0964253583 	 15.91
207.1042503904 	 9.83
208.1120754225 	 14.49
209.1199004546 	 7.44
218.0964253583 	 5.69
219.1042503904 	 10.55
220.1120754225 	 16.43
221.1199004546 	 9.3
222.1277254867 	 19.6
224.0706045383 	 3.52
225.0784295704 	 3.36
232.1120754225 	 4.48
233.1199004546 	 4.26
234.1277254867 	 18.46
236.1433755509 	 17.45
237.0784295704 	 5.54
238.0862546025 	 6.15
239.0940796346 	 5.75
250.0862546025 	 12.88
251.0940796346 	 25.02
252.1019046667 	 29.91
253.1097296988 	 24.64
254.1175547309 	 9.6
264.1019046667 	 12.2
265.1097296988 	 26.01
266.1175547309 	 97.48
277.1699246524 	 6.28
278.1175547309 	 16.4
279.125379763 	 19.35
279.1855747166 	 9.25
280.1332047951 	 100
282.1488548593 	 13.05
294.1488548593 	 56.68
306.1488548593 	 9.44
308.1645049235 	 38.34
321.1597538966 	 10.3
323.1754039608 	 29.58
351.2067040892 	 91.7
END IONS

BEGIN IONS
PEPMASS=417.2384
CHARGE=1
MSLEVEL=2
RT=0
SOURCE_INSTRUMENT=qTOF
FILENAME=CCMSLIB00000085269.ms
IONMODE=Positive
ORGANISM=Natural
NAME=MLS001165746-01!ramipril
PI=GNPS
DATACOLLECTOR=GNPS
SMILES=CCOC(=O)[C@@H](CCc1ccccc1)N[C@H](C)C(=O)N1[C@H]2CCC[C@H]2C[C@H]1C(=O)O
INCHI=InChI=1S/C23H32N2O5/c1-3-30-23(29)18(13-12-16-8-5-4-6-9-16)24-15(2)21(26)25-19-11-7-10-17(19)14-20(25)22(27)28/h4-6,8-9,15,17-20,24H,3,7,10-14H2,1-2H3,(H,27,28)/t15-,17+,18-,19+,20+/m1/s1
FORMULA=C23H32N2O5
PUBMED=N/A
SUBMITUSER=BIOADREM
LIBRARYQUALITY=0
SPECTRUMID=CCMSLIB00000085269
SCANS=3323
ID=CCMSLIB00000085269
91.0542261926 	 9.76
102.0549544741 	 5.71
110.0964253583 	 4.24
111.1042503904 	 2.02
115.0542261926 	 2.86
117.0698762568 	 90.71
130.0862546025 	 38.41
134.0964253583 	 23.71
138.0913399804 	 2.47
144.0807752941 	 2.33
156.1019046667 	 14.45
157.1097296988 	 4.05
160.1120754225 	 52.05
206.1175547309 	 5.57
234.1488548593 	 100
343.2016187113 	 9.54
417.2383981481 	 0
END IONS

BEGIN IONS
PEPMASS=309.216
CHARGE=1
MSLEVEL=2
RT=0
SOURCE_INSTRUMENT=qTOF
FILENAME=CCMSLIB00000085270.ms
IONMODE=Positive
ORGANISM=Natural
NAME=MLS001332643-01!Benoxinate hydrochloride5987-82-6
PI=GNPS
DATACOLLECTOR=GNPS
SMILES=CCCCOc1cc(ccc1N)C(=O)OCCN(CC)CC
INCHI=InChI=1S/C17H28N2O3/c1-4-7-11-21-16-13-14(8-9-15(16)18)17(20)22-12-10-19(5-2)6-3/h8-9,13H,4-7,10-12,18H2,1-3H3
FORMULA=C17H28N2O3
PUBMED=N/A
SUBMITUSER=BIOADREM
LIBRARYQUALITY=0
SPECTRUMID=CCMSLIB00000085270
SCANS=3324
ID=CCMSLIB00000085270
91.0542261926 	 0.155018731430048
93.0573001978 	 0.20669164190673
94.0651252299 	 0.251905438573828
106.0287397236 	 0.452137966670973
106.0651252299 	 0.458597080480558
107.0365647557 	 0.394005942384705
107.072950262 	 0.264823666192998
108.0443897878 	 14.5394651853766
109.0522148199 	 0.348792145717608
109.0886003262 	 0.180855186668389
112.0393044099 	 0.167936959049218
119.0491408147 	 0.432760625242217
122.060039852 	 0.452137966670973
124.0393044099 	 1.0140808681049
134.060039852 	 0.355251259527193
135.0314793778 	 1.52435085906214
136.0393044099 	 64.5911380958533
151.0627795062 	 0.19377341428756
152.0706045383 	 0.684666063816044
164.1069900446 	 0.484433535718899
179.0576941283 	 4.62472548766309
180.0655191604 	 11.8912285234466
192.1019046667 	 100
236.1281194172 	 22.632734788787
309.2172687755 	 0.109804934762951
END IONS

BEGIN IONS
PEPMASS=423.2735
CHARGE=1
MSLEVEL=2
RT=0
SOURCE_INSTRUMENT=qTOF
FILENAME=CCMSLIB00000085272.ms
IONMODE=Positive
ORGANISM=Natural
NAME=MLS001334042-01!WAY-100635 maleate salt
PI=GNPS
DATACOLLECTOR=GNPS
SMILES=COc1ccccc1N1CCN(CC1)CCN(c1ccccn1)C(=O)C1CCCCC1
INCHI=InChI=1S/C25H34N4O2/c1-31-23-12-6-5-11-22(23)28-18-15-27(16-19-28)17-20-29(24-13-7-8-14-26-24)25(30)21-9-3-2-4-10-21/h5-8,11-14,21H,2-4,9-10,15-20H2,1H3
FORMULA=C25H34N4O2
PUBMED=N/A
SUBMITUSER=BIOADREM
LIBRARYQUALITY=0
SPECTRUMID=CCMSLIB00000085272
SCANS=3325
ID=CCMSLIB00000085272
94.0651252299 	 0.485
95.060374203 	 0.32
104.0494751657 	 0.405
119.060374203 	 0.835
121.0760242672 	 48.08
134.060039852 	 0.22
137.0709388893 	 0.81
145.0760242672 	 0.12
149.0709388893 	 3.95
162.0913399804 	 0.185
175.0865889535 	 0.465
189.1022390177 	 0.135
190.1100640498 	 5.1
231.1491892103 	 100
313.2022874133 	 6.015
423.2754523564 	 2.23
END IONS

BEGIN IONS
PEPMASS=232.1081
CHARGE=1
MSLEVEL=2
RT=0
SOURCE_INSTRUMENT=qTOF
FILENAME=CCMSLIB00000085274.ms
IONMODE=Positive
ORGANISM=Natural
NAME=MLS002154005-01!Isocarboxazid59-63-2
PI=GNPS
DATACOLLECTOR=GNPS
SMILES=Cc1cc(C(=O)NNCc2ccccc2)no1
INCHI=InChI=1S/C12H13N3O2/c1-9-7-11(15-17-9)12(16)14-13-8-10-5-3-2-4-6-10/h2-7,13H,8H2,1H3,(H,14,16)
FORMULA=C12H13N3O2
PUBMED=N/A
SUBMITUSER=BIOADREM
LIBRARYQUALITY=0
SPECTRUMID=CCMSLIB00000085274
SCANS=3326
ID=CCMSLIB00000085274
91.0542261926 	 100
115.0542261926 	 4.58
130.0651252299 	 2.06
144.0807752941 	 2.15
157.0647908789 	 2.24
232.1080526771 	 0
END IONS

BEGIN IONS
PEPMASS=237.1361
CHARGE=1
MSLEVEL=2
RT=0
SOURCE_INSTRUMENT=qTOF
FILENAME=CCMSLIB00000085275.ms
IONMODE=Positive
ORGANISM=Natural
NAME=MLS001049024-01!
PI=GNPS
DATACOLLECTOR=GNPS
SMILES=CC(C)Cn1cnc2c1c(=O)n(C)c(=O)n2C
INCHI=InChI=1S/C11H16N4O2/c1-7(2)5-15-6-12-9-8(15)10(16)14(4)11(17)13(9)3/h6-7H,5H2,1-4H3
FORMULA=C11H16N4O2
PUBMED=N/A
SUBMITUSER=BIOADREM
LIBRARYQUALITY=0
SPECTRUMID=CCMSLIB00000085275
SCANS=3327
ID=CCMSLIB00000085275
96.0556231761 	 5.08
109.0270627019 	 2.01
124.0505377982 	 100
181.0720015218 	 86.28
237.1346017786 	 0.53
END IONS

BEGIN IONS
PEPMASS=300.0912
CHARGE=1
MSLEVEL=2
RT=0
SOURCE_INSTRUMENT=qTOF
FILENAME=CCMSLIB00000085277.ms
IONMODE=Positive
ORGANISM=Natural
NAME=MLS001066622-01!CHLORDIAZEPOXIDE
PI=GNPS
DATACOLLECTOR=GNPS
SMILES=CN=C1CN(=C(c2ccccc2)c2cc(ccc2N1)Cl)=O
INCHI=InChI=1S/C16H14ClN3O/c1-18-15-10-20(21)16(11-5-3-2-4-6-11)13-9-12(17)7-8-14(13)19-15/h2-9H,10H2,1H3,(H,18,19)
FORMULA=C16H14ClN3O
PUBMED=N/A
SUBMITUSER=BIOADREM
LIBRARYQUALITY=0
SPECTRUMID=CCMSLIB00000085277
SCANS=3329
ID=CCMSLIB00000085277
138.0105028436 	 0.97
163.0057518167 	 4.46
165.0214018809 	 2.51
165.0698762568 	 11.23
180.0448769772 	 3
190.0651252299 	 1.96
191.072950262 	 2.1
192.0807752941 	 25.1
203.072950262 	 1.27
205.0760242672 	 2.54
206.0838492993 	 2.77
214.041802972 	 1.82
216.0681992351 	 1.87
218.0838492993 	 2.01
219.0916743314 	 1.64
224.0261529078 	 1.41
226.041802972 	 4.22
227.0496280041 	 100
232.0869233045 	 0.86
238.041802972 	 2.5
240.0448769772 	 1.27
241.0527020093 	 16.97
246.1025733687 	 1.9
247.1103984008 	 5.28
251.0370519451 	 2.29
254.0605270414 	 1.34
255.0683520735 	 5.69
266.0605270414 	 1.61
267.0557760145 	 1.69
269.0840021377 	 4.63
282.0792511108 	 10.61
300.0898157971 	 0.15
END IONS

BEGIN IONS
PEPMASS=330.15
CHARGE=1
MSLEVEL=2
RT=0
SOURCE_INSTRUMENT=qTOF
FILENAME=CCMSLIB00000085281.ms
IONMODE=Positive
ORGANISM=Natural
NAME=MLS001401441-01!Paroxetine
PI=GNPS
DATACOLLECTOR=GNPS
SMILES=c1cc(ccc1[C@@H]1CCNC[C@H]1COc1ccc2c(c1)OCO2)F
INCHI=InChI=1S/C19H20FNO3/c20-15-3-1-13(2-4-15)17-7-8-21-10-14(17)11-22-16-5-6-18-19(9-16)24-12-23-18/h1-6,9,14,17,21H,7-8,10-12H2/t14-,17-/m0/s1
FORMULA=C19H20FNO3
PUBMED=N/A
SUBMITUSER=BIOADREM
LIBRARYQUALITY=0
SPECTRUMID=CCMSLIB00000085281
SCANS=3332
ID=CCMSLIB00000085281
91.0542261926 	 0.534866083902128
93.0334907505 	 0.8262483534906
93.0698762568 	 0.874146808765417
102.0464011605 	 0.506925318325151
103.0542261926 	 8.75344270147288
105.0698762568 	 0.375204566319403
107.085526321 	 3.53251107651778
109.0448043605 	 43.3161697201932
115.0542261926 	 7.74757514070171
116.0620512247 	 0.750409132638806
121.0284053726 	 2.38294814992217
121.0448043605 	 3.13734882050054
122.0362304047 	 0.710493753243125
123.0604544247 	 33.5129525406139
127.0542261926 	 0.594739152995649
128.0620512247 	 1.55669979643156
129.0698762568 	 0.455035325110765
130.0651252299 	 0.758392208517942
133.0448043605 	 7.95114357561969
134.0526293926 	 2.16341356324592
135.0604544247 	 72.5462020516505
135.1168264494 	 39.9153793956812
136.0682794568 	 6.26272302718237
137.0761044889 	 1.14157985071648
138.071353462 	 2.22727817027901
139.0389700589 	 2.29513431525167
141.0698762568 	 0.882129884644554
143.085526321 	 2.06761665269628
146.0526293926 	 6.33856224803417
147.0604544247 	 14.5611304035445
148.0682794568 	 13.5712289945316
149.0761044889 	 8.70554424619806
150.071353462 	 9.24839340597932
151.0389700589 	 15.6508202610466
160.0682794568 	 0.985909871073325
161.0761044889 	 19.3310182413284
163.0917545531 	 40.2746178102423
175.0917545531 	 1.34514828563445
176.046795091 	 0.518899932143855
176.0995795852 	 3.30100187602283
178.1026535904 	 8.60575579770886
190.1026535904 	 1.96782820420708
192.1183036546 	 100
208.1132182767 	 0.395162256017243
313.123448612 	 0.415119945715084
330.1499977135 	 43.4079750928033
END IONS

BEGIN IONS
PEPMASS=352.1519
CHARGE=1
MSLEVEL=2
RT=0
SOURCE_INSTRUMENT=qTOF
FILENAME=CCMSLIB00000085283.ms
IONMODE=Positive
ORGANISM=Natural
NAME=MLS002153789-01!Benfluorex hydrochloride23642-66-2
PI=GNPS
DATACOLLECTOR=GNPS
SMILES=CC(Cc1cccc(c1)C(F)(F)F)NCCOC(=O)c1ccccc1
INCHI=InChI=1S/C19H20F3NO2/c1-14(12-15-6-5-9-17(13-15)19(20,21)22)23-10-11-25-18(24)16-7-3-2-4-8-16/h2-9,13-14,23H,10-12H2,1H3
FORMULA=C19H20F3NO2
PUBMED=N/A
SUBMITUSER=BIOADREM
LIBRARYQUALITY=0
SPECTRUMID=CCMSLIB00000085283
SCANS=3334
ID=CCMSLIB00000085283
105.0334907505 	 30.945
109.0448043605 	 3.565
139.0353825284 	 1.105
147.0604544247 	 0.445
149.059705501 	 29.445
159.0416107605 	 100
165.0510325926 	 0.115
167.0666826568 	 0.435
185.0572608247 	 0.225
187.0729108889 	 10.445
190.1026535904 	 0.115
210.1088818225 	 0.895
213.0885609531 	 0.15
230.1151100546 	 20.905
352.1518894914 	 0.065
END IONS

BEGIN IONS
PEPMASS=263.2112
CHARGE=1
MSLEVEL=2
RT=0
SOURCE_INSTRUMENT=qTOF
FILENAME=CCMSLIB00000085285.ms
IONMODE=Positive
ORGANISM=Natural
NAME=MLS000859919-01!Lidocaine N-ethyl bromide
PI=GNPS
DATACOLLECTOR=GNPS
SMILES=CC[N+](CC)(CC)CC(=Nc1c(C)cccc1C)[O-]
INCHI=InChI=1S/C16H26N2O/c1-6-18(7-2,8-3)12-15(19)17-16-13(4)10-9-11-14(16)5/h9-11H,6-8,12H2,1-5H3
FORMULA=C16H26N2O
PUBMED=N/A
SUBMITUSER=BIOADREM
LIBRARYQUALITY=0
SPECTRUMID=CCMSLIB00000085285
SCANS=3335
ID=CCMSLIB00000085285
100.1120754225 	 20.75
103.0542261926 	 9.62
105.0698762568 	 18.73
107.085526321 	 6.93
115.0542261926 	 8.16
118.0651252299 	 16.51
119.072950262 	 12.36
120.0807752941 	 19.15
122.0964253583 	 3.3
131.072950262 	 3.25
132.0807752941 	 2.69
134.0964253583 	 100
144.0807752941 	 3.68
147.0678648841 	 34.34
150.0913399804 	 9.76
162.0913399804 	 10.94
217.1699246524 	 9.06
233.1648392745 	 6.7
235.1804893387 	 16.89
263.2117894671 	 210.52
END IONS

BEGIN IONS
PEPMASS=272.1142
CHARGE=1
MSLEVEL=2
RT=0
SOURCE_INSTRUMENT=qTOF
FILENAME=CCMSLIB00000085286.ms
IONMODE=Positive
ORGANISM=Natural
NAME=MLS000859963-01!Zaprinast
PI=GNPS
DATACOLLECTOR=GNPS
SMILES=CCCOc1ccccc1c1nc2c(c(n1)O)nn[nH]2
INCHI=InChI=1S/C13H13N5O2/c1-2-7-20-9-6-4-3-5-8(9)11-14-12-10(13(19)15-11)16-18-17-12/h3-6H,2,7H2,1H3,(H2,14,15,16,17,18,19)
FORMULA=C13H13N5O2
PUBMED=N/A
SUBMITUSER=BIOADREM
LIBRARYQUALITY=0
SPECTRUMID=CCMSLIB00000085286
SCANS=3336
ID=CCMSLIB00000085286
92.0494751657 	 2.99
102.0338251015 	 4.24
104.0494751657 	 12.21
105.0447241388 	 3.34
120.0443897878 	 100
121.0284053726 	 5.05
122.060039852 	 4.7
129.0447241388 	 8.04
132.0443897878 	 27.28
147.0552888251 	 7.52
148.0393044099 	 6.37
156.0556231761 	 2.64
157.0396387609 	 37.86
159.0552888251 	 23.52
160.0393044099 	 2.68
174.0661878624 	 8
202.0611024845 	 47.22
230.0672504949 	 33.37
272.1142006875 	 0
END IONS

BEGIN IONS
PEPMASS=312.158
CHARGE=1
MSLEVEL=2
RT=0
SOURCE_INSTRUMENT=qTOF
FILENAME=CCMSLIB00000085287.ms
IONMODE=Positive
ORGANISM=Natural
NAME=MLS000860063-01!R()-2,10,11-Trihydroxy-N-propyl-noraporphine hydrobromide hydrate
PI=GNPS
DATACOLLECTOR=GNPS
SMILES=CCCN1CCc2cc(cc3c2[C@H]1Cc1ccc(c(c31)O)O)O
INCHI=InChI=1S/C19H21NO3/c1-2-6-20-7-5-12-8-13(21)10-14-17(12)15(20)9-11-3-4-16(22)19(23)18(11)14/h3-4,8,10,15,21-23H,2,5-7,9H2,1H3/t15-/m1/s1
FORMULA=C19H21NO3
PUBMED=N/A
SUBMITUSER=BIOADREM
LIBRARYQUALITY=0
SPECTRUMID=CCMSLIB00000085287
SCANS=3337
ID=CCMSLIB00000085287
152.0620512247 	 0.73
165.0698762568 	 2.41
178.0777012889 	 16.54
179.085526321 	 28.07
183.0804409431 	 0.63
189.0698762568 	 28.07
192.0569658468 	 0.97
205.0647908789 	 1.85
206.072615911 	 4.42
207.0804409431 	 100
217.0647908789 	 6.17
223.0753555652 	 3
235.0753555652 	 51.24
253.0859202515 	 17.7
312.1594195456 	 0.79
END IONS

BEGIN IONS
PEPMASS=354.0213
CHARGE=1
MSLEVEL=2
RT=0
SOURCE_INSTRUMENT=qTOF
FILENAME=CCMSLIB00000085288.ms
IONMODE=Positive
ORGANISM=Natural
NAME=MLS001240217-01!3-[4-(Thiazol-2-ylsulfamoyl)-phenylcarbamoyl]-acrylic acid
PI=GNPS
DATACOLLECTOR=GNPS
SMILES=c1cc(ccc1NC(=O)/C=C/C(=O)O)S(=O)(=O)Nc1nccs1
INCHI=InChI=1S/C13H11N3O5S2/c17-11(5-6-12(18)19)15-9-1-3-10(4-2-9)23(20,21)16-13-14-7-8-22-13/h1-8H,(H,14,16)(H,15,17)(H,18,19)/b6-5+
FORMULA=C13H11N3O5S2
PUBMED=N/A
SUBMITUSER=BIOADREM
LIBRARYQUALITY=0
SPECTRUMID=CCMSLIB00000085288
SCANS=3338
ID=CCMSLIB00000085288
91.0542261926 	 3.98
92.0494751657 	 6.87
99.0011447646 	 3.37
100.0089697967 	 4.04
108.0443897878 	 15.43
116.0494751657 	 8.76
117.0573001978 	 3.03
132.0443897878 	 3.03
140.0164604778 	 13.27
144.0443897878 	 100
145.0522148199 	 32.21
146.0508346114 	 7.88
148.0393044099 	 2.96
156.0113750999 	 7.48
158.0144491051 	 2.96
161.0419469468 	 2.96
172.0393044099 	 21.02
174.0457492335 	 3.5
188.0402699251 	 7.14
190.0498690962 	 34.7
191.0484888877 	 7.21
200.0402699251 	 3.5
218.0508346114 	 3.23
254.0117690304 	 7.55
354.0212878592 	 0
END IONS

BEGIN IONS
PEPMASS=399.1775
CHARGE=1
MSLEVEL=2
RT=0
SOURCE_INSTRUMENT=qTOF
FILENAME=CCMSLIB00000085289.ms
IONMODE=Positive
ORGANISM=Natural
NAME=MLS001361402-01!Nalpha-Benzoyl-DL-arginine 4-nitroanilide hydrochloride911-77-3
PI=GNPS
DATACOLLECTOR=GNPS
SMILES=c1ccc(cc1)C(=NC(CCCNC(=N)N)C(=O)Nc1ccc(cc1)N(=O)=O)O
INCHI=InChI=1S/C19H22N6O4/c20-19(21)22-12-4-7-16(24-17(26)13-5-2-1-3-6-13)18(27)23-14-8-10-15(11-9-14)25(28)29/h1-3,5-6,8-11,16H,4,7,12H2,(H,23,27)(H,24,26)(H4,20,21,22)
FORMULA=C19H22N6O4
PUBMED=N/A
SUBMITUSER=BIOADREM
LIBRARYQUALITY=0
SPECTRUMID=CCMSLIB00000085289
SCANS=3339
ID=CCMSLIB00000085289
95.060374203 	 5.57
97.0760242672 	 1
98.060039852 	 1.27
104.0494751657 	 4.28
105.0334907505 	 100
107.0365647557 	 0.74
112.0869233045 	 4.43
113.0709388893 	 4.55
114.1025733687 	 3.12
116.0706045383 	 0.49
121.0760242672 	 0.45
122.060039852 	 33.79
130.0974879908 	 2.69
156.0807752941 	 0.5
158.0964253583 	 1.53
172.0954766181 	 0.63
173.1073243956 	 5.03
174.0913399804 	 6.89
192.1019046667 	 1.87
198.1025733687 	 1.22
201.1022390177 	 7.56
216.113138055 	 17.75
219.112803704 	 3.74
234.087317235 	 0.58
235.1189517144 	 0.65
244.1080526771 	 4.4
261.0982162723 	 0.54
261.1346017786 	 2.03
322.1172746927 	 1.06
339.1451664649 	 1.02
340.127839379 	 5.35
364.140415438 	 0.89
365.1356644111 	 0.47
381.1669645395 	 0.96
382.1509801243 	 1.03
399.1775292258 	 7.65
END IONS

BEGIN IONS
PEPMASS=371.1536
CHARGE=1
MSLEVEL=2
RT=0
SOURCE_INSTRUMENT=qTOF
FILENAME=CCMSLIB00000085291.ms
IONMODE=Positive
ORGANISM=Natural
NAME=MLS000069348-01!TELENZEPINE DIHYDROCHLORIDE
PI=GNPS
DATACOLLECTOR=GNPS
SMILES=Cc1c2c(cs1)C(=Nc1ccccc1N2C(=O)CN1CCN(C)CC1)O
INCHI=InChI=1S/C19H22N4O2S/c1-13-18-14(12-26-13)19(25)20-15-5-3-4-6-16(15)23(18)17(24)11-22-9-7-21(2)8-10-22/h3-6,12H,7-11H2,1-2H3,(H,20,25)
FORMULA=C19H22N4O2S
PUBMED=N/A
SUBMITUSER=BIOADREM
LIBRARYQUALITY=0
SPECTRUMID=CCMSLIB00000085291
SCANS=3340
ID=CCMSLIB00000085291
97.0760242672 	 1.74
98.0838492993 	 15.47
113.1073243956 	 100
184.0215458557 	 0.97
186.0371959199 	 2.41
201.0480949572 	 1.91
212.0164604778 	 2.04
215.0273595151 	 1.13
225.0480949572 	 0.75
227.0637450214 	 1.88
229.0430095793 	 13.02
241.0430095793 	 1.86
243.0586596435 	 2.4
255.0586596435 	 0.76
256.0300991693 	 1.09
272.0613992977 	 0.85
371.1536226612 	 29.04
END IONS

BEGIN IONS
PEPMASS=249.1234
CHARGE=1
MSLEVEL=2
RT=0
SOURCE_INSTRUMENT=qTOF
FILENAME=CCMSLIB00000085292.ms
IONMODE=Positive
ORGANISM=Natural
NAME=MLS000860057-01!6-Hydroxymelatonin
PI=GNPS
DATACOLLECTOR=GNPS
SMILES=CC(=NCCc1c[nH]c2cc(c(cc12)OC)O)O
INCHI=InChI=1S/C13H16N2O3/c1-8(16)14-4-3-9-7-15-11-6-12(17)13(18-2)5-10(9)11/h5-7,15,17H,3-4H2,1-2H3,(H,14,16)
FORMULA=C13H16N2O3
PUBMED=N/A
SUBMITUSER=BIOADREM
LIBRARYQUALITY=0
SPECTRUMID=CCMSLIB00000085292
SCANS=3341
ID=CCMSLIB00000085292
102.0464011605 	 1.86
103.0542261926 	 9.87
104.0494751657 	 2.33
117.0573001978 	 1.24
118.0651252299 	 9.55
119.072950262 	 14.76
128.0494751657 	 1
130.0651252299 	 50.83
146.060039852 	 8.06
147.0678648841 	 18.7
157.0522148199 	 1.22
158.060039852 	 100
164.0706045383 	 0.87
175.0627795062 	 25.63
190.0862546025 	 32.38
249.1233683903 	 0
END IONS

BEGIN IONS
PEPMASS=375.253
CHARGE=1
MSLEVEL=2
RT=0
SOURCE_INSTRUMENT=qTOF
FILENAME=CCMSLIB00000085293.ms
IONMODE=Positive
ORGANISM=Natural
NAME=MLS001333710-01!21-Acetoxypregnenolone566-78-9
PI=GNPS
DATACOLLECTOR=GNPS
SMILES=CC(=O)OCC(=O)C1CCC2C3CC=C4CC(CCC4(C)C3CCC12C)O
INCHI=InChI=1S/C23H34O4/c1-14(24)27-13-21(26)20-7-6-18-17-5-4-15-12-16(25)8-10-22(15,2)19(17)9-11-23(18,20)3/h4,16-20,25H,5-13H2,1-3H3
FORMULA=C23H34O4
PUBMED=N/A
SUBMITUSER=BIOADREM
LIBRARYQUALITY=0
SPECTRUMID=CCMSLIB00000085293
SCANS=3342
ID=CCMSLIB00000085293
91.0542261926 	 14.75
105.0698762568 	 43.32
107.085526321 	 12.6
109.1011763852 	 16.59
117.0698762568 	 12.75
119.085526321 	 33.33
121.1011763852 	 13.82
131.085526321 	 70.97
133.1011763852 	 57.3
143.085526321 	 21.66
145.1011763852 	 49.77
147.1168264494 	 19.97
149.0960910073 	 12.29
155.085526321 	 34.72
157.1011763852 	 53.76
159.1168264494 	 100
167.085526321 	 18.89
168.0933513531 	 12.29
171.1168264494 	 37.94
173.1324765136 	 33.18
181.1011763852 	 17.2
185.1324765136 	 36.87
187.1481265778 	 19.2
201.1273911357 	 14.29
209.1324765136 	 25.81
215.1794267062 	 15.21
224.1559516099 	 17.2
227.1794267062 	 12.44
279.2107268346 	 13.52
315.2318562072 	 32.72
375.2529855798 	 0
END IONS

BEGIN IONS
PEPMASS=396.2751
CHARGE=1
MSLEVEL=2
RT=0
SOURCE_INSTRUMENT=qTOF
FILENAME=CCMSLIB00000085296.ms
IONMODE=Positive
ORGANISM=Natural
NAME=MLS002153307-01!8-(Diethylamino)octyl-3,4,5-trimethoxybenzoate hydrochloride53464-72-5
PI=GNPS
DATACOLLECTOR=GNPS
SMILES=CCN(CC)CCCCCCCCOC(=O)c1cc(c(c(c1)OC)OC)OC
INCHI=InChI=1S/C22H37NO5/c1-6-23(7-2)14-12-10-8-9-11-13-15-28-22(24)18-16-19(25-3)21(27-5)20(17-18)26-4/h16-17H,6-15H2,1-5H3
FORMULA=C22H37NO5
PUBMED=N/A
SUBMITUSER=BIOADREM
LIBRARYQUALITY=0
SPECTRUMID=CCMSLIB00000085296
SCANS=3345
ID=CCMSLIB00000085296
98.0964253583 	 1.02
109.0647908789 	 3.76
111.0440554368 	 0.96
122.0362304047 	 1.89
123.0440554368 	 1.9
124.0518804689 	 4.31
125.059705501 	 1.79
135.0440554368 	 1.19
137.0233199947 	 1.46
137.059705501 	 1.59
138.0675305331 	 14.08
139.0389700589 	 8.71
139.0753555652 	 9.22
142.1590256151 	 1.18
151.0389700589 	 3.27
152.046795091 	 9
153.0546201231 	 2.85
154.0624451552 	 84.23
156.1746756793 	 4.34
165.0182346168 	 2.15
167.0702701873 	 3.84
169.0859202515 	 19.54
179.033884681 	 4.03
182.1903257435 	 2.69
183.0287993031 	 1.38
184.2059758077 	 100
195.0651848094 	 96.13
197.0444493673 	 1.26
198.0522743994 	 13.06
200.2008904298 	 1.03
213.0757494957 	 7.74
310.2376698666 	 2.88
338.2325844887 	 15.52
348.2169344245 	 1.6
350.2325844887 	 1.76
352.2482345529 	 4.33
362.2325844887 	 15.04
366.2274991108 	 22.23
380.243149175 	 17.94
396.2744493034 	 205.74
END IONS

BEGIN IONS
PEPMASS=281.0934
CHARGE=1
MSLEVEL=2
RT=0
SOURCE_INSTRUMENT=qTOF
FILENAME=CCMSLIB00000085297.ms
IONMODE=Positive
ORGANISM=Natural
NAME=MLS002172496-01!Tyrphostin AG 494133550-35-3
PI=GNPS
DATACOLLECTOR=GNPS
SMILES=c1ccc(cc1)N=C(/C(=C/c1ccc(c(c1)O)O)/C#N)O
INCHI=InChI=1S/C16H12N2O3/c17-10-12(8-11-6-7-14(19)15(20)9-11)16(21)18-13-4-2-1-3-5-13/h1-9,19-20H,(H,18,21)/b12-8+
FORMULA=C16H12N2O3
PUBMED=N/A
SUBMITUSER=BIOADREM
LIBRARYQUALITY=0
SPECTRUMID=CCMSLIB00000085297
SCANS=3346
ID=CCMSLIB00000085297
104.0494751657 	 45.98
105.0334907505 	 8.33
114.0338251015 	 100
116.0494751657 	 4.74
132.0443897878 	 62.2
133.0284053726 	 29.04
142.0287397236 	 72.99
144.0443897878 	 5.23
145.0284053726 	 3.19
160.0393044099 	 75.51
170.0236543457 	 39.55
180.0807752941 	 6.53
190.0651252299 	 11.28
208.0756899162 	 5.66
218.0838492993 	 3.24
236.0706045383 	 9.54
238.0862546025 	 3.29
253.0971536398 	 7.12
263.0815035756 	 3.63
264.0893286077 	 3.39
281.0920682619 	 2.42
END IONS

BEGIN IONS
PEPMASS=283.2506
CHARGE=1
MSLEVEL=2
RT=0
SOURCE_INSTRUMENT=qTOF
FILENAME=CCMSLIB00000085300.ms
IONMODE=Positive
ORGANISM=Natural
NAME=MLS001146935-01!ANISOTROPINE METHYLBROMIDE
PI=GNPS
DATACOLLECTOR=GNPS
SMILES=CCCC(CCC)C(=O)O[C@@H]1C[C@@H]2CC[C@H](C1)[N+]2(C)C
INCHI=InChI=1S/C17H32NO2/c1-5-7-13(8-6-2)17(19)20-16-11-14-9-10-15(12-16)18(14,3)4/h13-16H,5-12H2,1-4H3/q+1/t14-,15+,16+
FORMULA=C17H32NO2
PUBMED=N/A
SUBMITUSER=BIOADREM
LIBRARYQUALITY=0
SPECTRUMID=CCMSLIB00000085300
SCANS=3349
ID=CCMSLIB00000085300
91.0542261926 	 5.07
93.0698762568 	 7.39
95.085526321 	 3.4
96.0807752941 	 0.42
108.0807752941 	 1.01
110.0964253583 	 1.21
122.0964253583 	 0.77
123.1042503904 	 0.87
138.1277254867 	 100
156.138290173 	 1.36
282.2427552445 	 42.46
283.2505802766 	 0
END IONS

BEGIN IONS
PEPMASS=362.248
CHARGE=1
MSLEVEL=2
RT=0
SOURCE_INSTRUMENT=qTOF
FILENAME=CCMSLIB00000085303.ms
IONMODE=Positive
ORGANISM=Natural
NAME=MLS001148641-01!(+)-BUTACLAMOL HYDROCHLORIDE
PI=GNPS
DATACOLLECTOR=GNPS
SMILES=CC(C)(C)[C@@]1(CCN2C[C@H]3c4ccccc4CCc4cccc([C@@H]2C1)c34)O
INCHI=InChI=1S/C25H31NO/c1-24(2,3)25(27)13-14-26-16-21-19-9-5-4-7-17(19)11-12-18-8-6-10-20(23(18)21)22(26)15-25/h4-10,21-22,27H,11-16H2,1-3H3/t21-,22-,25-/m0/s1
FORMULA=C25H31NO
PUBMED=N/A
SUBMITUSER=BIOADREM
LIBRARYQUALITY=0
SPECTRUMID=CCMSLIB00000085303
SCANS=3352
ID=CCMSLIB00000085303
91.0542261926 	 1.61
115.0542261926 	 1.84
117.0698762568 	 1.93
129.0698762568 	 11.33
141.0698762568 	 1.35
155.085526321 	 1.59
156.0807752941 	 1.85
165.0698762568 	 1.46
178.0777012889 	 3.67
179.085526321 	 6.28
182.0964253583 	 4.02
191.085526321 	 2.45
192.0933513531 	 4.33
193.1011763852 	 3.14
202.0777012889 	 1.93
205.1011763852 	 18.66
207.1168264494 	 26.11
217.1011763852 	 9.55
232.1120754225 	 6.18
233.1324765136 	 7.89
234.1277254867 	 42.84
246.1277254867 	 10.35
247.1355505188 	 5.38
260.1433755509 	 12.78
262.1590256151 	 16.75
286.1590256151 	 11.22
314.1903257435 	 2.13
316.2059758077 	 4.4
329.2138008398 	 3.18
344.2372759361 	 100
362.2478406224 	 242.77
END IONS

BEGIN IONS
PEPMASS=811.4277
CHARGE=1
MSLEVEL=2
RT=0
SOURCE_INSTRUMENT=qTOF
FILENAME=CCMSLIB00000085305.ms
IONMODE=Positive
ORGANISM=Natural
NAME=MLS002153253-01!VINBLASTINE SULFATE
PI=GNPS
DATACOLLECTOR=GNPS
SMILES=CC[C@@]1(C[C@H]2C[C@](c3cc4c(cc3OC)N(C)[C@@H]3[C@@]54CCN4CC=C[C@](CC)([C@@H]54)[C@H]([C@@]3(C(=O)OC)O)OC(=O)C)(c3c(CCN(C2)C1)c1ccccc1[nH]3)C(=O)OC)O
INCHI=InChI=1S/C46H58N4O9/c1-8-42(54)23-28-24-45(40(52)57-6,36-30(15-19-49(25-28)26-42)29-13-10-11-14-33(29)47-36)32-21-31-34(22-35(32)56-5)48(4)38-44(31)17-20-50-18-12-16-43(9-2,37(44)50)39(59-27(3)51)46(38,55)41(53)58-7/h10-14,16,21-22,28,37-39,47,54-55H,8-9,15,17-20,23-26H2,1-7H3/t28-,37-,38+,39+,42-,43+,44+,45-,46-/m0/s1
FORMULA=C46H58N4O9
PUBMED=N/A
SUBMITUSER=BIOADREM
LIBRARYQUALITY=0
SPECTRUMID=CCMSLIB00000085305
SCANS=3353
ID=CCMSLIB00000085305
124.1120754225 	 7.71
138.1277254867 	 8.23
144.0807752941 	 22.11
154.1226401088 	 8.87
188.1069900446 	 10.19
209.1046443209 	 7.94
214.1226401088 	 11.69
222.112469353 	 13.3
224.1281194172 	 100
225.1346017786 	 51.12
260.1281194172 	 16.41
263.1515945135 	 11.8
265.1699246524 	 22.28
266.1737269391 	 8.12
277.1699246524 	 8.06
283.1804893387 	 10.19
295.1804893387 	 25.73
323.1754039608 	 25.04
337.191054025 	 33.45
353.1832885724 	 42.26
354.1911136045 	 9.21
355.2016187113 	 58.84
356.205420998 	 16.75
413.2394607806 	 8.23
462.2472858127 	 8.18
470.2371150569 	 8.23
480.257850499 	 9.61
483.2794751018 	 8.12
508.2527651211 	 12.44
510.2724379307 	 13.99
522.2724379307 	 26.66
524.2840652495 	 22.05
525.2900397881 	 9.84
540.283002617 	 31.55
542.2946299358 	 63.56
543.3006044744 	 31.95
649.3635986617 	 18.31
650.3799770074 	 17.44
691.3701406026 	 12.03
719.3650552247 	 11.4
733.3847280343 	 24.87
734.388530321 	 12.44
751.3952927206 	 55.21
752.3905416937 	 23.2
811.4276554815 	 346.06
END IONS

BEGIN IONS
PEPMASS=452.1603
CHARGE=1
MSLEVEL=2
RT=0
SOURCE_INSTRUMENT=qTOF
FILENAME=CCMSLIB00000085310.ms
IONMODE=Positive
ORGANISM=Natural
NAME=MLS001240227-01!3-[4-(2-Hydroxy-ethyl)-piperazin-1-yl]-1-(2-trifluoromethyl-phenothiazin-10-yl)-propan-1-one
PI=GNPS
DATACOLLECTOR=GNPS
SMILES=c1ccc2c(c1)N(c1cc(ccc1S2)C(F)(F)F)C(=O)CCN1CCN(CC1)CCO
INCHI=InChI=1S/C22H24F3N3O2S/c23-22(24,25)16-5-6-20-18(15-16)28(17-3-1-2-4-19(17)31-20)21(30)7-8-26-9-11-27(12-10-26)13-14-29/h1-6,15,29H,7-14H2
FORMULA=C22H24F3N3O2S
PUBMED=N/A
SUBMITUSER=BIOADREM
LIBRARYQUALITY=0
SPECTRUMID=CCMSLIB00000085310
SCANS=3357
ID=CCMSLIB00000085310
97.0760242672 	 2.08
98.0838492993 	 17.35
100.0756899162 	 25.57
112.0994993635 	 1.48
113.1073243956 	 3
125.1073243956 	 0.52
128.0944139856 	 5.29
143.1178890819 	 100
452.1614083202 	 2.35
END IONS

BEGIN IONS
PEPMASS=363.1028
CHARGE=1
MSLEVEL=2
RT=0
SOURCE_INSTRUMENT=qTOF
FILENAME=CCMSLIB00000085312.ms
IONMODE=Positive
ORGANISM=Natural
NAME=MLS002154123-01!Piretanide55837-27-9
PI=GNPS
DATACOLLECTOR=GNPS
SMILES=c1ccc(cc1)Oc1c(cc(cc1S(=O)(=O)N)C(=O)O)N1CCCC1
INCHI=InChI=1S/C17H18N2O5S/c18-25(22,23)15-11-12(17(20)21)10-14(19-8-4-5-9-19)16(15)24-13-6-2-1-3-7-13/h1-3,6-7,10-11H,4-5,8-9H2,(H,20,21)(H2,18,22,23)
FORMULA=C17H18N2O5S
PUBMED=N/A
SUBMITUSER=BIOADREM
LIBRARYQUALITY=0
SPECTRUMID=CCMSLIB00000085312
SCANS=3358
ID=CCMSLIB00000085312
115.0542261926 	 6.21
139.0502034472 	 5.38
141.0698762568 	 34.31
142.0736785435 	 8.96
162.0133864726 	 3.18
166.0684960483 	 3.23
167.0451180693 	 3.95
167.0702701873 	 9.41
168.0569658468 	 14.25
168.0780952194 	 12.62
169.0647908789 	 23.72
170.0685931656 	 4.43
178.0684960483 	 3.4
180.0807752941 	 6.27
181.0886003262 	 3
182.0685931656 	 5.64
183.0678648841 	 4.95
184.0664846756 	 2.66
191.085526321 	 3.89
193.0886003262 	 4.21
194.060039852 	 5.72
196.0756899162 	 34.62
204.0655191604 	 10.5
205.0859202515 	 2.66
207.0678648841 	 6.98
208.0730098415 	 6.27
208.1120754225 	 4.06
209.0808348736 	 11.36
210.125045412 	 25.21
220.1093953478 	 3.09
221.0835149483 	 5.81
221.1172203799 	 3
222.0497719789 	 3.23
222.0913399804 	 11.65
223.0964849378 	 3.75
236.1069900446 	 100
237.112135002 	 35.62
238.1199600341 	 28.84
240.0603366652 	 8.67
241.0681616973 	 3.06
264.1019046667 	 9.79
269.059053574 	 2.8
281.0954390803 	 2.95
282.112469353 	 40.46
304.0274190946 	 8.33
363.1009183887 	 5.29
END IONS

BEGIN IONS
PEPMASS=283.1805
CHARGE=1
MSLEVEL=2
RT=0
SOURCE_INSTRUMENT=qTOF
FILENAME=CCMSLIB00000085313.ms
IONMODE=Positive
ORGANISM=Natural
NAME=MLS002153354-01!Tyrphostin A910537-47-0
PI=GNPS
DATACOLLECTOR=GNPS
SMILES=CC(C)(C)c1cc(C=C(C#N)C#N)cc(c1O)C(C)(C)C
INCHI=InChI=1S/C18H22N2O/c1-17(2,3)14-8-12(7-13(10-19)11-20)9-15(16(14)21)18(4,5)6/h7-9,21H,1-6H3
FORMULA=C18H22N2O
PUBMED=N/A
SUBMITUSER=BIOADREM
LIBRARYQUALITY=0
SPECTRUMID=CCMSLIB00000085313
SCANS=3359
ID=CCMSLIB00000085313
107.085526321 	 10.6
143.0491408147 	 17.19
156.0807752941 	 14.61
167.085526321 	 11.17
169.0760242672 	 24.07
180.0443897878 	 12.03
183.0552888251 	 21.78
183.0916743314 	 10.32
184.1120754225 	 13.47
195.0916743314 	 24.64
196.0631138572 	 14.61
197.0709388893 	 83.38
209.1073243956 	 13.47
211.0865889535 	 22.64
227.1178890819 	 36.1
283.1804893387 	 0
END IONS

BEGIN IONS
PEPMASS=331.2268
CHARGE=1
MSLEVEL=2
RT=0
SOURCE_INSTRUMENT=qTOF
FILENAME=CCMSLIB00000085319.ms
IONMODE=Positive
ORGANISM=Natural
NAME=MLS001074094-01!11ALPHA-HYDROXYPROGESTERONE
PI=GNPS
DATACOLLECTOR=GNPS
SMILES=CC(=O)[C@H]1CC[C@H]2[C@@H]3CCC4=CC(=O)CC[C@]4(C)[C@H]3[C@@H](C[C@]12C)O
INCHI=InChI=1S/C21H30O3/c1-12(22)16-6-7-17-15-5-4-13-10-14(23)8-9-20(13,2)19(15)18(24)11-21(16,17)3/h10,15-19,24H,4-9,11H2,1-3H3/t15-,16+,17-,18+,19+,20-,21+/m0/s1
FORMULA=C21H30O3
PUBMED=N/A
SUBMITUSER=BIOADREM
LIBRARYQUALITY=0
SPECTRUMID=CCMSLIB00000085319
SCANS=3364
ID=CCMSLIB00000085319
95.085526321 	 19.43
97.0647908789 	 46.06
105.0698762568 	 45.18
107.085526321 	 21.19
109.0647908789 	 44.44
115.0542261926 	 11.63
117.0698762568 	 26.49
119.085526321 	 30.83
121.0647908789 	 67.03
121.1011763852 	 25.24
123.0804409431 	 100
128.0620512247 	 15.89
130.0777012889 	 22.74
131.085526321 	 54.82
133.1011763852 	 53.13
135.0804409431 	 17.51
135.1168264494 	 27.67
142.0777012889 	 18.62
143.085526321 	 46.36
144.0933513531 	 29.29
145.1011763852 	 71.3
147.0804409431 	 25.75
147.1168264494 	 40.32
148.0882659752 	 18.91
149.0960910073 	 13.1
155.085526321 	 21.71
156.0933513531 	 14.57
157.1011763852 	 32.74
159.1168264494 	 42.38
161.0960910073 	 22.22
163.1117410715 	 42.24
169.1011763852 	 34.73
171.1168264494 	 54.6
173.0960910073 	 16.85
175.1117410715 	 14.57
175.1481265778 	 13.25
185.1324765136 	 31.79
187.1481265778 	 17.14
195.1168264494 	 12.21
197.1324765136 	 13.91
213.163776642 	 17.59
229.1586912641 	 13.25
239.1430411999 	 11.48
253.1950767704 	 15.01
271.2056414567 	 26.2
295.2056414567 	 23.47
313.216206143 	 14.79
331.2267708293 	 0
END IONS

BEGIN IONS
PEPMASS=353.0786
CHARGE=1
MSLEVEL=2
RT=0
SOURCE_INSTRUMENT=qTOF
FILENAME=CCMSLIB00000085321.ms
IONMODE=Positive
ORGANISM=Natural
NAME=MLS001183742-01!
PI=GNPS
DATACOLLECTOR=GNPS
SMILES=CC1CC(=O)C=C(C21C(=O)c1c(cc(c(c1O2)Cl)OC)OC)OC
INCHI=InChI=1S/C17H17ClO6/c1-8-5-9(19)6-12(23-4)17(8)16(20)13-10(21-2)7-11(22-3)14(18)15(13)24-17/h6-8H,5H2,1-4H3
FORMULA=C17H17ClO6
PUBMED=N/A
SUBMITUSER=BIOADREM
LIBRARYQUALITY=0
SPECTRUMID=CCMSLIB00000085321
SCANS=3366
ID=CCMSLIB00000085321
94.0413157826 	 3.74
107.0491408147 	 6.07
122.0362304047 	 19.2
128.9737829863 	 7.76
141.9816080184 	 3.46
150.0311450268 	 14.21
156.9686976084 	 2.19
165.0546201231 	 100
169.9765226405 	 4.3
171.9921727047 	 23.28
182.9843476726 	 2.36
191.0702701873 	 1.88
199.9870873268 	 29.36
215.0105624231 	 61.9
217.9976520131 	 4.69
224.0234728331 	 7.37
242.0340375194 	 2.29
252.0183874552 	 3.25
265.0625979936 	 3.63
270.0289521415 	 6.68
285.0524272378 	 19.4
293.0575126157 	 2.19
311.068077302 	 2.29
353.0786419883 	 0
END IONS

BEGIN IONS
PEPMASS=500.2252
CHARGE=1
MSLEVEL=2
RT=0
SOURCE_INSTRUMENT=qTOF
FILENAME=CCMSLIB00000085322.ms
IONMODE=Positive
ORGANISM=Natural
NAME=MLS002153401-01!CGS 21680 HYDROCHLORIDE
PI=GNPS
DATACOLLECTOR=GNPS
SMILES=CCN=C([C@@H]1[C@H]([C@H]([C@H](n2cnc3c(N)[nH]c(=NCCc4ccc(cc4)CCC(=O)O)nc23)O1)O)O)O
INCHI=InChI=1S/C23H29N7O6/c1-2-25-21(35)18-16(33)17(34)22(36-18)30-11-27-15-19(24)28-23(29-20(15)30)26-10-9-13-5-3-12(4-6-13)7-8-14(31)32/h3-6,11,16-18,22,33-34H,2,7-10H2,1H3,(H,25,35)(H,31,32)(H3,24,26,28,29)/t16-,17+,18-,22+/m0/s1
FORMULA=C23H29N7O6
PUBMED=N/A
SUBMITUSER=BIOADREM
LIBRARYQUALITY=0
SPECTRUMID=CCMSLIB00000085322
SCANS=3367
ID=CCMSLIB00000085322
91.0542261926 	 0.47
115.0542261926 	 1.71
116.0620512247 	 1.06
117.0698762568 	 30.97
118.0736785435 	 3.4
129.0698762568 	 1.22
131.085526321 	 28.85
132.0893286077 	 3.59
133.0607681335 	 0.75
134.0447837183 	 1.15
135.0804409431 	 1.62
151.0713328198 	 5.65
159.0804409431 	 23.43
160.0842432298 	 3.21
163.0713328198 	 9.9
174.0760838467 	 2.78
177.0910056294 	 21.04
178.0948079161 	 2.81
205.0818975061 	 1.94
233.0768121282 	 0.48
235.0924621924 	 0.74
295.166570609 	 0.49
309.1444977629 	 11.25
327.1550624492 	 100
339.1563998532 	 0.66
351.1563998532 	 0.45
367.1513144753 	 1.04
369.1669645395 	 3.47
393.1669645395 	 0.51
397.1618791616 	 1.37
399.1775292258 	 1.05
409.1618791616 	 1.11
411.1775292258 	 0.42
427.1724438479 	 2.25
428.1816115507 	 0.73
437.1567937837 	 0.9
455.16735847 	 3.29
482.2146430136 	 0.53
500.2252076999 	 8.38
END IONS

BEGIN IONS
PEPMASS=381.1947
CHARGE=1
MSLEVEL=2
RT=0
SOURCE_INSTRUMENT=qTOF
FILENAME=CCMSLIB00000085323.ms
IONMODE=Positive
ORGANISM=Natural
NAME=MLS000862200-01!SB 222200
PI=GNPS
DATACOLLECTOR=GNPS
SMILES=CC[C@@H](c1ccccc1)N=C(c1c(C)c(c2ccccc2)nc2ccccc12)O
INCHI=InChI=1S/C26H24N2O/c1-3-22(19-12-6-4-7-13-19)28-26(29)24-18(2)25(20-14-8-5-9-15-20)27-23-17-11-10-16-21(23)24/h4-17,22H,3H2,1-2H3,(H,28,29)/t22-/m0/s1
FORMULA=C26H24N2O
PUBMED=N/A
SUBMITUSER=BIOADREM
LIBRARYQUALITY=0
SPECTRUMID=CCMSLIB00000085323
SCANS=3368
ID=CCMSLIB00000085323
115.0542261926 	 4.63
116.0494751657 	 1.76
142.0651252299 	 12.02
157.0760242672 	 1.93
185.0709388893 	 2.66
204.0807752941 	 2.99
218.0964253583 	 35.25
220.1120754225 	 14.68
232.0756899162 	 3.53
245.1073243956 	 0.99
246.0913399804 	 7.98
263.1178890819 	 100
381.1961394029 	 30.18
END IONS

BEGIN IONS
PEPMASS=388.2256
CHARGE=1
MSLEVEL=2
RT=0
SOURCE_INSTRUMENT=qTOF
FILENAME=CCMSLIB00000085324.ms
IONMODE=Positive
ORGANISM=Natural
NAME=MLS001077346-01!TAMOXIFEN, 4-HYDROXY-, (Z)-
PI=GNPS
DATACOLLECTOR=GNPS
SMILES=CC/C(=C(\c1ccc(cc1)O)/c1ccc(cc1)OCCN(C)C)/c1ccccc1
INCHI=InChI=1S/C26H29NO2/c1-4-25(20-8-6-5-7-9-20)26(21-10-14-23(28)15-11-21)22-12-16-24(17-13-22)29-19-18-27(2)3/h5-17,28H,4,18-19H2,1-3H3/b26-25-
FORMULA=C26H29NO2
PUBMED=N/A
SUBMITUSER=BIOADREM
LIBRARYQUALITY=0
SPECTRUMID=CCMSLIB00000085324
SCANS=3369
ID=CCMSLIB00000085324
91.0542261926 	 14.99
103.0542261926 	 10.15
107.0491408147 	 45.7
115.0542261926 	 8.49
117.0698762568 	 12.26
121.0647908789 	 15.1
127.0542261926 	 9.56
128.0620512247 	 33.33
129.0698762568 	 100
131.0491408147 	 12.37
145.0647908789 	 87.82
165.0698762568 	 18.82
167.085526321 	 10.76
171.0804409431 	 9
178.0777012889 	 19.14
179.085526321 	 14.97
181.0647908789 	 9.48
181.1011763852 	 8.89
183.0804409431 	 16.31
194.072615911 	 51.78
195.0804409431 	 23.21
199.0753555652 	 21.87
203.085526321 	 9.37
207.0804409431 	 55.15
208.0882659752 	 61.34
209.0960910073 	 28.38
220.0882659752 	 11.99
221.0960910073 	 20.21
223.0753555652 	 21.23
223.1117410715 	 63.67
225.0910056294 	 10.09
237.0910056294 	 13.07
238.0988306615 	 11.51
249.1273911357 	 12.48
252.0933513531 	 8.51
257.0960910073 	 8.94
269.0960910073 	 15.07
270.1039160394 	 32.48
283.1117410715 	 12.02
287.1066556936 	 11.97
299.1066556936 	 11.91
301.1223057578 	 55.31
302.1301307899 	 17.05
314.1301307899 	 15.82
316.1457808541 	 31.03
343.1692559504 	 13.07
388.2271051803 	 95.39
END IONS

BEGIN IONS
PEPMASS=396.1702
CHARGE=1
MSLEVEL=2
RT=0
SOURCE_INSTRUMENT=qTOF
FILENAME=CCMSLIB00000085325.ms
IONMODE=Positive
ORGANISM=Natural
NAME=MLS001333708-01!KETANSERIN TARTRATE
PI=GNPS
DATACOLLECTOR=GNPS
SMILES=c1ccc2c(c1)c(=O)n(CCN1CCC(CC1)C(=O)c1ccc(cc1)F)c(n2)O
INCHI=InChI=1S/C22H22FN3O3/c23-17-7-5-15(6-8-17)20(27)16-9-11-25(12-10-16)13-14-26-21(28)18-3-1-2-4-19(18)24-22(26)29/h1-8,16H,9-14H2,(H,24,29)
FORMULA=C22H22FN3O3
PUBMED=N/A
SUBMITUSER=BIOADREM
LIBRARYQUALITY=0
SPECTRUMID=CCMSLIB00000085325
SCANS=3370
ID=CCMSLIB00000085325
90.0338251015 	 0.815
116.0494751657 	 0.19
117.0447241388 	 0.41
118.0287397236 	 0.565
144.0443897878 	 0.2
145.0396387609 	 4.07
146.0236543457 	 78.78
163.0502034472 	 0.13
171.0552888251 	 1.155
189.0658535114 	 100
396.1717957881 	 4.13
END IONS

BEGIN IONS
PEPMASS=308.222
CHARGE=1
MSLEVEL=2
RT=0
SOURCE_INSTRUMENT=qTOF
FILENAME=CCMSLIB00000085327.ms
IONMODE=Positive
ORGANISM=Natural
NAME=MLS002153458-01!Dihydrocapsaicin19408-84-5
PI=GNPS
DATACOLLECTOR=GNPS
SMILES=CC(C)CCCCCCC(=NCc1ccc(c(c1)OC)O)O
INCHI=InChI=1S/C18H29NO3/c1-14(2)8-6-4-5-7-9-18(21)19-13-15-10-11-16(20)17(12-15)22-3/h10-12,14,20H,4-9,13H2,1-3H3,(H,19,21)
FORMULA=C18H29NO3
PUBMED=N/A
SUBMITUSER=BIOADREM
LIBRARYQUALITY=0
SPECTRUMID=CCMSLIB00000085327
SCANS=3372
ID=CCMSLIB00000085327
91.0542261926 	 0.28
94.0413157826 	 5.69
107.0491408147 	 0.63
109.0647908789 	 0.34
122.0362304047 	 25.2
137.059705501 	 100
308.2220198024 	 0
END IONS

BEGIN IONS
PEPMASS=405.2272
CHARGE=1
MSLEVEL=2
RT=0
SOURCE_INSTRUMENT=qTOF
FILENAME=CCMSLIB00000085329.ms
IONMODE=Positive
ORGANISM=Natural
NAME=MLS002637530-01!Cortell50-03-3
PI=GNPS
DATACOLLECTOR=GNPS
SMILES=CC(=O)OCC(=O)C1(CCC2C3CCC4=CC(=O)CCC4(C)C3C(CC12C)O)O
INCHI=InChI=1S/C23H32O6/c1-13(24)29-12-19(27)23(28)9-7-17-16-5-4-14-10-15(25)6-8-21(14,2)20(16)18(26)11-22(17,23)3/h10,16-18,20,26,28H,4-9,11-12H2,1-3H3
FORMULA=C23H32O6
PUBMED=N/A
SUBMITUSER=BIOADREM
LIBRARYQUALITY=0
SPECTRUMID=CCMSLIB00000085329
SCANS=3373
ID=CCMSLIB00000085329
97.0647908789 	 29.54
105.0698762568 	 30.57
109.0647908789 	 19.5
115.0542261926 	 15.83
117.0698762568 	 17.57
119.085526321 	 46.78
121.0647908789 	 100
123.0804409431 	 27.03
128.0620512247 	 14.48
129.0698762568 	 18.79
131.085526321 	 27.8
133.1011763852 	 19.24
135.0804409431 	 23.75
141.0698762568 	 17.82
143.085526321 	 61.52
145.1011763852 	 48.91
147.0804409431 	 21.11
149.0960910073 	 14.41
155.085526321 	 29.34
156.0933513531 	 14.99
157.1011763852 	 54.95
159.0804409431 	 29.86
159.1168264494 	 34.68
163.1117410715 	 37.77
169.1011763852 	 52.83
171.1168264494 	 35.2
173.0960910073 	 21.94
173.1324765136 	 17.05
175.1117410715 	 22.65
181.1011763852 	 18.6
183.1168264494 	 30.69
185.0960910073 	 21.11
187.1117410715 	 37.84
195.1168264494 	 35.59
197.1324765136 	 31.66
199.1117410715 	 15.57
199.1481265778 	 16.8
201.1273911357 	 16.86
209.1324765136 	 36.87
211.1117410715 	 23.81
211.1481265778 	 15.12
213.1273911357 	 30.69
221.1324765136 	 14.16
223.1481265778 	 33.78
226.1352161678 	 14.86
239.1430411999 	 33.72
241.1586912641 	 68.08
267.1743413283 	 41.18
281.1899913925 	 26.58
291.1743413283 	 26.13
309.1849060146 	 34.49
327.1954707009 	 30.76
345.2060353872 	 15.83
405.2271647598 	 0
END IONS

BEGIN IONS
PEPMASS=282.9895
CHARGE=1
MSLEVEL=2
RT=0
SOURCE_INSTRUMENT=qTOF
FILENAME=CCMSLIB00000085330.ms
IONMODE=Positive
ORGANISM=Natural
NAME=MLS000860040-01!()-p-Bromolevamisole oxalate
PI=GNPS
DATACOLLECTOR=GNPS
SMILES=c1cc(ccc1[C@H]1CN2CCSC2=N1)Br
INCHI=InChI=1S/C11H11BrN2S/c12-9-3-1-8(2-4-9)10-7-14-5-6-15-11(14)13-10/h1-4,10H,5-7H2/t10-/m1/s1
FORMULA=C11H11BrN2S
PUBMED=N/A
SUBMITUSER=BIOADREM
LIBRARYQUALITY=0
SPECTRUMID=CCMSLIB00000085330
SCANS=3374
ID=CCMSLIB00000085330
102.0464011605 	 4.7
103.0542261926 	 6.62
104.0620512247 	 14.7
115.0542261926 	 8.05
116.0620512247 	 21.95
117.0573001978 	 12.86
118.0777012889 	 2.69
119.072950262 	 1.53
121.0106468184 	 5.53
122.0184718505 	 16.17
128.0620512247 	 16.15
130.0651252299 	 94.78
132.0807752941 	 5.46
143.072950262 	 4.95
144.0807752941 	 36.18
145.0886003262 	 19.99
148.0215458557 	 18.71
149.0293708878 	 94.17
168.9647387605 	 65.17
176.0402699251 	 2.89
200.9368094505 	 7.23
204.0715700535 	 4.02
224.0069379262 	 10.25
255.9790086162 	 100
282.9899076535 	 85.72
END IONS

BEGIN IONS
PEPMASS=347.1238
CHARGE=1
MSLEVEL=2
RT=0
SOURCE_INSTRUMENT=qTOF
FILENAME=CCMSLIB00000085332.ms
IONMODE=Positive
ORGANISM=Natural
NAME=MLS001148146-01!
PI=GNPS
DATACOLLECTOR=GNPS
SMILES=CC1=NC(=C(C(c2ccccc2N(=O)=O)/C/1=C(\O)/OC)C(=O)OC)C
INCHI=InChI=1S/C17H18N2O6/c1-9-13(16(20)24-3)15(14(10(2)18-9)17(21)25-4)11-7-5-6-8-12(11)19(22)23/h5-8,15,20H,1-4H3/b16-13+
FORMULA=C17H18N2O6
PUBMED=N/A
SUBMITUSER=BIOADREM
LIBRARYQUALITY=0
SPECTRUMID=CCMSLIB00000085332
SCANS=3376
ID=CCMSLIB00000085332
115.0542261926 	 10.86
142.0651252299 	 10.74
152.0494751657 	 10.86
155.060374203 	 11.1
156.0569658468 	 7.16
166.0651252299 	 36.87
167.072950262 	 33.53
168.0807752941 	 31.86
169.0495347452 	 10.14
170.060039852 	 26.13
179.060374203 	 11.58
180.0655191604 	 13.01
181.0760242672 	 25.06
182.0811692246 	 8.11
183.0916743314 	 18.14
185.047129442 	 7.88
193.0760242672 	 24.7
194.0811692246 	 72.32
195.0889942567 	 100
196.0968192888 	 27.09
197.0709388893 	 11.81
199.0865889535 	 6.92
211.0865889535 	 36.52
214.0498690962 	 8
221.0709388893 	 12.29
222.0760838467 	 14.92
223.0839088788 	 93.08
224.0917339109 	 14.8
227.0815035756 	 7.16
239.0815035756 	 37.71
241.0944735651 	 9.43
253.0971536398 	 60.38
254.1049786719 	 91.77
270.0760838467 	 30.31
284.0917339109 	 16.11
286.0948079161 	 13.48
347.1237623208 	 0
END IONS

BEGIN IONS
PEPMASS=231.0199
CHARGE=1
MSLEVEL=2
RT=0
SOURCE_INSTRUMENT=qTOF
FILENAME=CCMSLIB00000085334.ms
IONMODE=Positive
ORGANISM=Natural
NAME=MLS001333215-01!GUANABENZ ACETATE
PI=GNPS
DATACOLLECTOR=GNPS
SMILES=c1cc(c(C=NNC(=N)N)c(c1)Cl)Cl
INCHI=InChI=1S/C8H8Cl2N4/c9-6-2-1-3-7(10)5(6)4-13-14-8(11)12/h1-4H,(H4,11,12,14)
FORMULA=C8H8Cl2N4
PUBMED=N/A
SUBMITUSER=BIOADREM
LIBRARYQUALITY=0
SPECTRUMID=CCMSLIB00000085334
SCANS=3378
ID=CCMSLIB00000085334
99.0103500052 	 3.385
100.0181750373 	 30.03
101.0260000694 	 1.57
104.0135768488 	 1.425
105.0214018809 	 0.575
108.9839537421 	 20.49
111.9948527794 	 1.975
112.9793555536 	 1.255
117.0447241388 	 0.405
118.029226913 	 1.875
118.0525491709 	 1.665
119.060374203 	 0.735
126.0105028436 	 1.815
132.9606314842 	 0.55
135.9948527794 	 14.555
139.9902545909 	 1.025
144.9606314842 	 3.375
153.0214018809 	 5.855
154.0059046551 	 5.34
158.9762815484 	 1.5
164.0010007898 	 27.495
171.9715305215 	 100
179.0244758861 	 0.735
188.998079623 	 4.87
213.9933285961 	 11.48
231.0198776976 	 0.565
END IONS

BEGIN IONS
PEPMASS=336.1659
CHARGE=1
MSLEVEL=2
RT=0
SOURCE_INSTRUMENT=qTOF
FILENAME=CCMSLIB00000085335.ms
IONMODE=Positive
ORGANISM=Natural
NAME=MLS002153196-01!N6-CYCLOPENTYLADENOSINE
PI=GNPS
DATACOLLECTOR=GNPS
SMILES=C1CCC(C1)Nc1c2c(ncn1)n(cn2)[C@H]1[C@@H]([C@@H]([C@@H](CO)O1)O)O
INCHI=InChI=1S/C15H21N5O4/c21-5-9-11(22)12(23)15(24-9)20-7-18-10-13(16-6-17-14(10)20)19-8-3-1-2-4-8/h6-9,11-12,15,21-23H,1-5H2,(H,16,17,19)/t9-,11-,12-,15-/m1/s1
FORMULA=C15H21N5O4
PUBMED=N/A
SUBMITUSER=BIOADREM
LIBRARYQUALITY=0
SPECTRUMID=CCMSLIB00000085335
SCANS=3379
ID=CCMSLIB00000085335
109.0508721492 	 0.37
119.035222085 	 4.83
136.0617711865 	 100
204.1243714433 	 64.34
336.1666301885 	 0.34
END IONS

BEGIN IONS
PEPMASS=545.0196
CHARGE=1
MSLEVEL=2
RT=0
SOURCE_INSTRUMENT=qTOF
FILENAME=CCMSLIB00000085336.ms
IONMODE=Positive
ORGANISM=Natural
NAME=MLS002153535-01!Chloro-IB-MECA
PI=GNPS
DATACOLLECTOR=GNPS
SMILES=CN=C([C@@H]1[C@H]([C@H]([C@H](n2cnc3c(NCc4cccc(c4)I)nc(Cl)nc23)O1)O)O)O
INCHI=InChI=1S/C18H18ClIN6O4/c1-21-16(29)13-11(27)12(28)17(30-13)26-7-23-10-14(24-18(19)25-15(10)26)22-6-8-3-2-4-9(20)5-8/h2-5,7,11-13,17,27-28H,6H2,1H3,(H,21,29)(H,22,24,25)/t11-,12+,13-,17+/m0/s1
FORMULA=C18H18ClIN6O4
PUBMED=N/A
SUBMITUSER=BIOADREM
LIBRARYQUALITY=0
SPECTRUMID=CCMSLIB00000085336
SCANS=3380
ID=CCMSLIB00000085336
90.0464011605 	 0.47
134.0447837183 	 0.24
161.059705501 	 1.24
181.0652780683 	 100
182.0214614604 	 0.24
222.0760838467 	 0.75
223.0825662081 	 0.66
223.0839088788 	 0.29
224.0903912402 	 1.66
259.0605866209 	 0.2
259.0605866209 	 68.42
260.0670689823 	 9.03
261.0636606261 	 18.91
262.0615896739 	 2.12
296.069749057 	 0.35
301.0724887112 	 1.29
302.0776336686 	 0.24
331.0830533975 	 0.29
341.0674033333 	 0.31
359.0779680196 	 0.69
418.1150818074 	 0.77
END IONS

BEGIN IONS
PEPMASS=247.1329
CHARGE=1
MSLEVEL=2
RT=0
SOURCE_INSTRUMENT=qTOF
FILENAME=CCMSLIB00000085338.ms
IONMODE=Positive
ORGANISM=Natural
NAME=MLS000736510-01!Santonin
PI=GNPS
DATACOLLECTOR=GNPS
SMILES=CC1C2CC[C@@]3(C)C=CC(=O)C(=C3C2OC1=O)C
INCHI=InChI=1S/C15H18O3/c1-8-10-4-6-15(3)7-5-11(16)9(2)12(15)13(10)18-14(8)17/h5,7-8,10,13H,4,6H2,1-3H3/t8?,10?,13?,15-/m0/s1
FORMULA=C15H18O3
PUBMED=N/A
SUBMITUSER=BIOADREM
LIBRARYQUALITY=0
SPECTRUMID=CCMSLIB00000085338
SCANS=3382
ID=CCMSLIB00000085338
91.0542261926 	 2.16
105.0698762568 	 14.81
107.085526321 	 3.37
115.0542261926 	 13.24
116.0620512247 	 5.66
117.0698762568 	 7.42
119.085526321 	 2.39
121.0647908789 	 3.86
127.0542261926 	 2.58
128.0620512247 	 9.64
129.0698762568 	 20.95
130.0777012889 	 16.41
131.0491408147 	 4.41
131.085526321 	 4.64
133.0647908789 	 3.4
134.072615911 	 2.35
135.0804409431 	 53.64
140.0620512247 	 2.22
141.0698762568 	 6.93
143.085526321 	 4.94
144.0569658468 	 2.58
145.0647908789 	 12.91
145.1011763852 	 20.01
146.072615911 	 6.37
147.0804409431 	 2.35
149.0960910073 	 9.71
153.0698762568 	 8.17
155.085526321 	 22.69
157.0647908789 	 15.07
158.072615911 	 100
159.0804409431 	 26.15
161.0960910073 	 11.61
171.0804409431 	 7.45
173.0960910073 	 64.47
186.1039160394 	 9.97
201.1273911357 	 7.68
247.1328704441 	 0
END IONS

BEGIN IONS
PEPMASS=382.1948
CHARGE=1
MSLEVEL=2
RT=0
SOURCE_INSTRUMENT=qTOF
FILENAME=CCMSLIB00000085340.ms
IONMODE=Positive
ORGANISM=Natural
NAME=MLS000860070-01!SKF-95282 dimaleate salt
PI=GNPS
DATACOLLECTOR=GNPS
SMILES=C1CCN(CC1)Cc1cccc(c1)OCCCN=c1[nH]c2ccccc2s1
INCHI=InChI=1S/C22H27N3OS/c1-4-13-25(14-5-1)17-18-8-6-9-19(16-18)26-15-7-12-23-22-24-20-10-2-3-11-21(20)27-22/h2-3,6,8-11,16H,1,4-5,7,12-15,17H2,(H,23,24)
FORMULA=C22H27N3OS
PUBMED=N/A
SUBMITUSER=BIOADREM
LIBRARYQUALITY=0
SPECTRUMID=CCMSLIB00000085340
SCANS=3383
ID=CCMSLIB00000085340
91.0542261926 	 3.16
93.0698762568 	 1.21
105.0698762568 	 2.63
107.0491408147 	 13
115.0542261926 	 2.34
117.0698762568 	 5.36
119.085526321 	 11.99
121.0647908789 	 1.35
124.0215458557 	 1.51
129.0698762568 	 3.07
132.0569658468 	 1.84
136.0215458557 	 7.76
147.0804409431 	 56.74
148.0215458557 	 2.85
150.0246198609 	 3.71
151.032444893 	 19.92
161.0167948288 	 2.42
162.0371959199 	 5.92
163.032444893 	 27.92
175.032444893 	 36.88
176.0494751657 	 4.67
178.0559199893 	 1.33
188.0402699251 	 1.64
189.0480949572 	 21.61
191.0637450214 	 59.03
192.0681992351 	 9.91
203.0637450214 	 27.28
204.0715700535 	 3.61
239.0637450214 	 1.9
255.0586596435 	 1.89
256.0664846756 	 2.67
269.0743097077 	 20.68
297.1056098361 	 100
382.1947591944 	 20.98
END IONS

BEGIN IONS
PEPMASS=267.1452
CHARGE=1
MSLEVEL=2
RT=0
SOURCE_INSTRUMENT=qTOF
FILENAME=CCMSLIB00000085343.ms
IONMODE=Positive
ORGANISM=Natural
NAME=MLS002153423-01!8-Methoxymethyl-3-isobutyl-1-methylxanthine78033-08-6
PI=GNPS
DATACOLLECTOR=GNPS
SMILES=CC(C)Cn1c2c(c(=O)n(C)c1=O)nc(COC)[nH]2
INCHI=InChI=1S/C12H18N4O3/c1-7(2)5-16-10-9(11(17)15(3)12(16)18)13-8(14-10)6-19-4/h7H,5-6H2,1-4H3,(H,13,14)
FORMULA=C12H18N4O3
PUBMED=N/A
SUBMITUSER=BIOADREM
LIBRARYQUALITY=0
SPECTRUMID=CCMSLIB00000085343
SCANS=3385
ID=CCMSLIB00000085343
93.0447241388 	 1.85
96.0556231761 	 2.01
108.0556231761 	 1.11
110.034887734 	 0.93
120.0192376698 	 13.05
122.034887734 	 26.54
124.0505377982 	 1.47
136.0505377982 	 1.72
140.0454524203 	 1.94
148.0141522919 	 23.95
151.0614368355 	 5.73
161.0457867713 	 55.77
179.0563514576 	 100
235.1189517144 	 9.69
267.1451664649 	 0
END IONS

BEGIN IONS
PEPMASS=205.0794
CHARGE=1
MSLEVEL=2
RT=0
SOURCE_INSTRUMENT=qTOF
FILENAME=CCMSLIB00000085344.ms
IONMODE=Positive
ORGANISM=Natural
NAME=MLS002153440-01!16595-80-5
PI=GNPS
DATACOLLECTOR=GNPS
SMILES=c1ccc(cc1)[C@H]1CN2CCSC2=N1
INCHI=InChI=1S/C11H12N2S/c1-2-4-9(5-3-1)10-8-13-6-7-14-11(13)12-10/h1-5,10H,6-8H2/t10-/m1/s1
FORMULA=C11H12N2S
PUBMED=N/A
SUBMITUSER=BIOADREM
LIBRARYQUALITY=0
SPECTRUMID=CCMSLIB00000085344
SCANS=3386
ID=CCMSLIB00000085344
91.0542261926 	 10.79
102.0464011605 	 1.29
103.0542261926 	 13.82
104.0620512247 	 3.38
105.0698762568 	 13.2
106.0651252299 	 3.74
115.0542261926 	 14.93
118.0651252299 	 18.05
120.0807752941 	 2.16
123.0262968826 	 54.42
127.0542261926 	 5.8
128.0620512247 	 22.54
129.0698762568 	 12.22
130.0651252299 	 16.62
131.072950262 	 10.56
132.0807752941 	 5.21
135.0262968826 	 6.55
144.0807752941 	 10.2
146.0964253583 	 9.07
150.0371959199 	 5.04
178.0684960483 	 100
188.0528459841 	 2.2
205.0793950856 	 74.61
END IONS

BEGIN IONS
PEPMASS=330.1331
CHARGE=1
MSLEVEL=2
RT=0
SOURCE_INSTRUMENT=qTOF
FILENAME=CCMSLIB00000085345.ms
IONMODE=Positive
ORGANISM=Natural
NAME=MLS002153958-01!Ungerine nitrate
PI=GNPS
DATACOLLECTOR=GNPS
SMILES=CN1CCC2=C[C@@H]([C@@H]3C(c4cc5c(cc4C(=O)O3)OCO5)[C@H]12)OC
INCHI=InChI=1S/C18H19NO5/c1-19-4-3-9-5-14(21-2)17-15(16(9)19)10-6-12-13(23-8-22-12)7-11(10)18(20)24-17/h5-7,14-17H,3-4,8H2,1-2H3/t14-,15?,16+,17+/m0/s1
FORMULA=C18H19NO5
PUBMED=N/A
SUBMITUSER=BIOADREM
LIBRARYQUALITY=0
SPECTRUMID=CCMSLIB00000085345
SCANS=3387
ID=CCMSLIB00000085345
135.0440554368 	 13.88
147.0440554368 	 16.71
152.0620512247 	 15.88
153.0698762568 	 58.67
155.085526321 	 16.3
159.0440554368 	 12.26
161.0233199947 	 11.05
165.0698762568 	 31.35
167.085526321 	 13.67
169.0647908789 	 14.99
175.0389700589 	 31.18
177.0182346168 	 20.44
179.033884681 	 21.65
181.0647908789 	 100
183.0804409431 	 35.91
191.033884681 	 56.53
193.0647908789 	 15.75
194.0964253583 	 41.23
195.0804409431 	 12.95
209.059705501 	 39.05
211.0753555652 	 43.09
217.0495347452 	 19.37
221.059705501 	 11.29
222.0913399804 	 52.45
225.0546201231 	 15.02
227.0702701873 	 28.56
234.0913399804 	 11.08
237.0546201231 	 18.06
238.0624451552 	 14.64
239.0702701873 	 53.21
241.0859202515 	 10.88
251.0702701873 	 29.14
254.0573597773 	 15.23
262.0862546025 	 52.83
264.0655191604 	 26.35
265.0733441925 	 37.4
267.0651848094 	 10.7
269.0808348736 	 38.5
270.112469353 	 24.07
280.0968192888 	 43.99
298.1073839751 	 83.67
330.1335987256 	 77.69
END IONS

BEGIN IONS
PEPMASS=276.159
CHARGE=1
MSLEVEL=2
RT=0
SOURCE_INSTRUMENT=qTOF
FILENAME=CCMSLIB00000085346.ms
IONMODE=Positive
ORGANISM=Natural
NAME=MLS002154189-01!Homatropine hydrobromide (R,S)51-56-9
PI=GNPS
DATACOLLECTOR=GNPS
SMILES=CN1[C@H]2CC[C@@H]1C[C@@H](C2)OC(=O)C(c1ccccc1)O
INCHI=InChI=1S/C16H21NO3/c1-17-12-7-8-13(17)10-14(9-12)20-16(19)15(18)11-5-3-2-4-6-11/h2-6,12-15,18H,7-10H2,1H3/t12-,13+,14+,15?
FORMULA=C16H21NO3
PUBMED=N/A
SUBMITUSER=BIOADREM
LIBRARYQUALITY=0
SPECTRUMID=CCMSLIB00000085346
SCANS=3388
ID=CCMSLIB00000085346
91.0542261926 	 8.21
92.0620512247 	 0.79
93.0698762568 	 11.33
96.0807752941 	 3.72
98.0964253583 	 5.77
108.0807752941 	 0.96
109.0886003262 	 1.93
111.0804409431 	 1.23
124.1120754225 	 81.53
142.1226401088 	 100
276.1594195456 	 50.4
END IONS

BEGIN IONS
PEPMASS=555.2659
CHARGE=1
MSLEVEL=2
RT=0
SOURCE_INSTRUMENT=qTOF
FILENAME=CCMSLIB00000085348.ms
IONMODE=Positive
ORGANISM=Natural
NAME=MLS002172442-01!L-368,899
PI=GNPS
DATACOLLECTOR=GNPS
SMILES=Cc1ccccc1N1CCN(CC1)S(=O)(=O)C[C@]12CCC(CC1N=C([C@H](CCS(=O)(=O)C)N)O)C2(C)C
INCHI=InChI=1S/C26H42N4O5S2/c1-19-7-5-6-8-22(19)29-12-14-30(15-13-29)37(34,35)18-26-11-9-20(25(26,2)3)17-23(26)28-24(31)21(27)10-16-36(4,32)33/h5-8,20-21,23H,9-18,27H2,1-4H3,(H,28,31)/t20?,21-,23?,26+/m0/s1
FORMULA=C26H42N4O5S2
PUBMED=N/A
SUBMITUSER=BIOADREM
LIBRARYQUALITY=0
SPECTRUMID=CCMSLIB00000085348
SCANS=3389
ID=CCMSLIB00000085348
93.0698762568 	 1.56
107.085526321 	 7.3
109.1011763852 	 4.69
134.0964253583 	 13.2
135.1168264494 	 27.51
136.0426752283 	 71.39
138.0371959199 	 3.65
152.1433755509 	 56.3
177.138624524 	 100
180.138290173 	 2.34
181.0641389519 	 2.51
190.1590256151 	 8.76
191.0484888877 	 1.8
207.0797890161 	 1.69
216.1052754851 	 14.56
217.0892910699 	 2.64
235.1804893387 	 1.64
244.1001901072 	 6.08
270.1522256777 	 3.29
299.1423892729 	 0.87
315.1736894013 	 13.61
375.2100749076 	 4.01
392.2366240091 	 14.16
418.215888567 	 1.02
555.2669378595 	 21.68
END IONS

BEGIN IONS
PEPMASS=336.0649
CHARGE=1
MSLEVEL=2
RT=0
SOURCE_INSTRUMENT=qTOF
FILENAME=CCMSLIB00000085349.ms
IONMODE=Positive
ORGANISM=Natural
NAME=MLS000069554-01!ISOXICAM
PI=GNPS
DATACOLLECTOR=GNPS
SMILES=Cc1cc(=NC(=O)C2=C(c3ccccc3S(=O)(=O)N2C)O)[nH]o1
INCHI=InChI=1S/C14H13N3O5S/c1-8-7-11(16-22-8)15-14(19)12-13(18)9-5-3-4-6-10(9)23(20,21)17(12)2/h3-7,18H,1-2H3,(H,15,16,19)
FORMULA=C14H13N3O5S
PUBMED=N/A
SUBMITUSER=BIOADREM
LIBRARYQUALITY=0
SPECTRUMID=CCMSLIB00000085349
SCANS=3390
ID=CCMSLIB00000085349
97.0106468184 	 12.06
99.0552888251 	 100
103.0542261926 	 2.95
104.0256657184 	 3.76
105.0334907505 	 9.32
109.0106468184 	 13.04
113.0055614405 	 2.48
117.0573001978 	 10.39
118.0651252299 	 6.46
118.9671645615 	 2.44
120.0165575951 	 3.33
121.0243826272 	 4.62
122.9899113763 	 2.91
126.0371959199 	 8.04
128.0494751657 	 10.43
135.9977364084 	 7.7
137.0055614405 	 13.42
138.0059929088 	 4.83
141.0004760626 	 6.33
146.060039852 	 27.66
147.0638421387 	 4.15
150.0185689678 	 2.52
151.9926510305 	 11.93
153.0004760626 	 66.61
154.0042783493 	 5.43
164.0164604778 	 25.44
165.0242855099 	 3.12
168.9953906847 	 67.38
169.9991929714 	 6.37
170.9984646899 	 5.39
182.0270251641 	 6.71
210.0219397862 	 75.93
211.0257420729 	 15.86
238.0168544083 	 4.15
336.0648672334 	 0
END IONS

BEGIN IONS
PEPMASS=356.0369
CHARGE=1
MSLEVEL=2
RT=0
SOURCE_INSTRUMENT=qTOF
FILENAME=CCMSLIB00000085350.ms
IONMODE=Positive
ORGANISM=Natural
NAME=MLS000069715-01!SUCCINYLSULFATHIAZOLE
PI=GNPS
DATACOLLECTOR=GNPS
SMILES=c1cc(ccc1NC(=O)CCC(=O)O)S(=O)(=O)Nc1nccs1
INCHI=InChI=1S/C13H13N3O5S2/c17-11(5-6-12(18)19)15-9-1-3-10(4-2-9)23(20,21)16-13-14-7-8-22-13/h1-4,7-8H,5-6H2,(H,14,16)(H,15,17)(H,18,19)
FORMULA=C13H13N3O5S2
PUBMED=N/A
SUBMITUSER=BIOADREM
LIBRARYQUALITY=0
SPECTRUMID=CCMSLIB00000085350
SCANS=3391
ID=CCMSLIB00000085350
92.0104095847 	 5.42
92.0528459841 	 5.19
100.0089697967 	 6.88
104.0494751657 	 7
108.0443897878 	 42.55
109.0522148199 	 5.3
110.060039852 	 20.99
117.0573001978 	 9.37
118.0651252299 	 16.37
120.0477606062 	 5.64
122.0634106704 	 11.96
132.0443897878 	 15.01
140.0164604778 	 14.22
146.060039852 	 63.77
147.0678648841 	 11.96
156.0086950252 	 32.62
157.0522148199 	 6.32
164.0706045383 	 32.51
174.0549544741 	 17.04
175.0535742656 	 5.19
192.0655191604 	 100
193.0681616973 	 22.46
202.0644733029 	 9.37
208.0604337825 	 7.22
220.0790607346 	 7.45
238.0168544083 	 6.32
256.0274190946 	 11.29
356.0369379234 	 0
END IONS

BEGIN IONS
PEPMASS=301.1183
CHARGE=1
MSLEVEL=2
RT=0
SOURCE_INSTRUMENT=qTOF
FILENAME=CCMSLIB00000085352.ms
IONMODE=Positive
ORGANISM=Natural
NAME=MLS000859983-01!5-Nitro-2-(3-phenylpropylamino)benzoic acid
PI=GNPS
DATACOLLECTOR=GNPS
SMILES=c1ccc(cc1)CCCNc1ccc(cc1C(=O)O)N(=O)=O
INCHI=InChI=1S/C16H16N2O4/c19-16(20)14-11-13(18(21)22)8-9-15(14)17-10-4-7-12-5-2-1-3-6-12/h1-3,5-6,8-9,11,17H,4,7,10H2,(H,19,20)
FORMULA=C16H16N2O4
PUBMED=N/A
SUBMITUSER=BIOADREM
LIBRARYQUALITY=0
SPECTRUMID=CCMSLIB00000085352
SCANS=3392
ID=CCMSLIB00000085352
91.0542261926 	 77.12
105.0209146915 	 3.01
108.0443897878 	 5.62
115.0542261926 	 9.43
117.0698762568 	 28
118.0287397236 	 3.81
131.0365647557 	 75.21
132.0443897878 	 10.39
134.060039852 	 6.32
136.0393044099 	 15.76
145.0522148199 	 4.97
148.0267283509 	 44.71
161.034553383 	 100
163.0263939999 	 74.66
166.0372930372 	 78.78
177.0420440641 	 3.81
179.0451180693 	 49.62
192.0529431014 	 4.97
284.1155433582 	 37.18
301.1182830124 	 0
END IONS

BEGIN IONS
PEPMASS=369.2325
CHARGE=1
MSLEVEL=2
RT=0
SOURCE_INSTRUMENT=qTOF
FILENAME=CCMSLIB00000085357.ms
IONMODE=Positive
ORGANISM=Natural
NAME=MLS001148649-01!298-57-7
PI=GNPS
DATACOLLECTOR=GNPS
SMILES=c1ccc(cc1)/C=C/CN1CCN(CC1)C(c1ccccc1)c1ccccc1
INCHI=InChI=1S/C26H28N2/c1-4-11-23(12-5-1)13-10-18-27-19-21-28(22-20-27)26(24-14-6-2-7-15-24)25-16-8-3-9-17-25/h1-17,26H,18-22H2/b13-10+
FORMULA=C26H28N2
PUBMED=N/A
SUBMITUSER=BIOADREM
LIBRARYQUALITY=0
SPECTRUMID=CCMSLIB00000085357
SCANS=3396
ID=CCMSLIB00000085357
115.0542261926 	 0.69
117.0698762568 	 1.85
128.0620512247 	 0.69
141.0698762568 	 1.26
151.0542261926 	 1.76
152.0620512247 	 34.66
165.0698762568 	 35.72
166.0777012889 	 16.22
167.085526321 	 100
369.2325249092 	 0
END IONS

BEGIN IONS
PEPMASS=302.0578
CHARGE=1
MSLEVEL=2
RT=0
SOURCE_INSTRUMENT=qTOF
FILENAME=CCMSLIB00000085358.ms
IONMODE=Positive
ORGANISM=Natural
NAME=MLS000860046-01!Nocodazole
PI=GNPS
DATACOLLECTOR=GNPS
SMILES=COC(=Nc1nc2ccc(cc2[nH]1)C(=O)c1cccs1)O
INCHI=InChI=1S/C14H11N3O3S/c1-20-14(19)17-13-15-9-5-4-8(7-10(9)16-13)12(18)11-3-2-6-21-11/h2-7H,1H3,(H2,15,16,17,19)
FORMULA=C14H11N3O3S
PUBMED=N/A
SUBMITUSER=BIOADREM
LIBRARYQUALITY=0
SPECTRUMID=CCMSLIB00000085358
SCANS=3397
ID=CCMSLIB00000085358
104.0368991067 	 0.23
105.0447241388 	 0.21
110.9899113763 	 46.56
130.0399731119 	 1.35
131.0239886967 	 0.69
131.047798144 	 0.44
132.0239511589 	 0.2
132.0556231761 	 0.54
158.034887734 	 1.38
159.0427127661 	 1.08
160.018865781 	 0.3
160.0505377982 	 1.2
162.0298023561 	 0.54
186.0345158452 	 4.61
187.032444893 	 0.99
214.0433439303 	 1.84
216.0403670424 	 0.22
242.0382585524 	 0.71
270.0331731745 	 100
302.059387925 	 0.77
END IONS

BEGIN IONS
PEPMASS=164.0455
CHARGE=1
MSLEVEL=2
RT=0
SOURCE_INSTRUMENT=qTOF
FILENAME=CCMSLIB00000085359.ms
IONMODE=Positive
ORGANISM=Natural
NAME=MLS001074098-01!
PI=GNPS
DATACOLLECTOR=GNPS
SMILES=c1cc2c[nH]nc2c(c1)N(=O)=O
INCHI=InChI=1S/C7H5N3O2/c11-10(12)6-3-1-2-5-4-8-9-7(5)6/h1-4H,(H,8,9)
FORMULA=C7H5N3O2
PUBMED=N/A
SUBMITUSER=BIOADREM
LIBRARYQUALITY=0
SPECTRUMID=CCMSLIB00000085359
SCANS=3398
ID=CCMSLIB00000085359
90.0338251015 	 35.91
91.0416501336 	 41.99
92.0368991067 	 17.68
117.0447241388 	 92.27
118.0525491709 	 87.85
133.0396387609 	 100
147.0427127661 	 46.41
164.0454524203 	 0
END IONS

BEGIN IONS
PEPMASS=290.1744
CHARGE=1
MSLEVEL=2
RT=0
SOURCE_INSTRUMENT=qTOF
FILENAME=CCMSLIB00000085361.ms
IONMODE=Positive
ORGANISM=Natural
NAME=MLS001304011-01!
PI=GNPS
DATACOLLECTOR=GNPS
SMILES=CN1[C@@H]2CC[C@H]1C[C@H](C2)OC(=O)[C@H](CO)c1ccccc1
INCHI=InChI=1S/C17H23NO3/c1-18-13-7-8-14(18)10-15(9-13)21-17(20)16(11-19)12-5-3-2-4-6-12/h2-6,13-16,19H,7-11H2,1H3/t13-,14+,15+,16-/m1/s1
FORMULA=C17H23NO3
PUBMED=N/A
SUBMITUSER=BIOADREM
LIBRARYQUALITY=0
SPECTRUMID=CCMSLIB00000085361
SCANS=3400
ID=CCMSLIB00000085361
91.0542261926 	 14.48
93.0698762568 	 19.42
98.0964253583 	 2.02
103.0542261926 	 15.35
108.0807752941 	 3.41
109.0886003262 	 2.22
121.0647908789 	 8.41
124.1120754225 	 100
142.1226401088 	 18.82
214.1590256151 	 1.68
260.1645049235 	 4.25
290.1750696098 	 79.14
END IONS

BEGIN IONS
PEPMASS=267.1703
CHARGE=1
MSLEVEL=2
RT=0
SOURCE_INSTRUMENT=qTOF
FILENAME=CCMSLIB00000085362.ms
IONMODE=Positive
ORGANISM=Natural
NAME=MLS001332498-01!(R)-(+)-Atenolol
PI=GNPS
DATACOLLECTOR=GNPS
SMILES=CC(C)NC[C@H](COc1ccc(cc1)CC(=N)O)O
INCHI=InChI=1S/C14H22N2O3/c1-10(2)16-8-12(17)9-19-13-5-3-11(4-6-13)7-14(15)18/h3-6,10,12,16-17H,7-9H2,1-2H3,(H2,15,18)/t12-/m1/s1
FORMULA=C14H22N2O3
PUBMED=N/A
SUBMITUSER=BIOADREM
LIBRARYQUALITY=0
SPECTRUMID=CCMSLIB00000085362
SCANS=3401
ID=CCMSLIB00000085362
89.0385761284 	 1.76
91.0542261926 	 3.93
94.0651252299 	 1.58
103.0542261926 	 5.9
105.0698762568 	 3.95
106.0651252299 	 5.33
107.0491408147 	 21.11
115.0542261926 	 13.68
116.0494751657 	 3.43
117.0334907505 	 3.23
117.0698762568 	 15.32
119.0491408147 	 8.26
121.0647908789 	 13.8
122.060039852 	 1.68
127.0542261926 	 1.76
131.0491408147 	 2.21
133.0647908789 	 35.89
134.060039852 	 5.27
144.0807752941 	 2.49
145.0647908789 	 100
147.0440554368 	 5.09
152.0706045383 	 1.64
162.0913399804 	 4.81
163.0753555652 	 3.17
164.0706045383 	 11.25
178.0862546025 	 16.28
180.1019046667 	 5.15
190.0862546025 	 23.08
208.0968192888 	 3.65
267.1703185829 	 0
END IONS

BEGIN IONS
PEPMASS=263.0775
CHARGE=1
MSLEVEL=2
RT=0
SOURCE_INSTRUMENT=qTOF
FILENAME=CCMSLIB00000085363.ms
IONMODE=Positive
ORGANISM=Natural
NAME=MLS001333201-01!Carbadox6804-07-5
PI=GNPS
DATACOLLECTOR=GNPS
SMILES=COC(=NN=Cc1cn(=O)c2ccccc2n1=O)O
INCHI=InChI=1S/C11H10N4O4/c1-19-11(16)13-12-6-8-7-14(17)9-4-2-3-5-10(9)15(8)18/h2-7H,1H3,(H,13,16)
FORMULA=C11H10N4O4
PUBMED=N/A
SUBMITUSER=BIOADREM
LIBRARYQUALITY=0
SPECTRUMID=CCMSLIB00000085363
SCANS=3402
ID=CCMSLIB00000085363
102.0338251015 	 12.13
103.0416501336 	 14.98
104.046795091 	 14.31
115.0416501336 	 4.36
116.0368991067 	 5.02
117.0447241388 	 8.34
118.0651252299 	 4.27
127.0178406863 	 4.55
129.0447241388 	 100
130.0525491709 	 23.79
131.0576941283 	 14.5
133.0647908789 	 4.64
135.0314793778 	 7.87
143.047798144 	 19.15
145.0396387609 	 27.39
147.0552888251 	 8.25
155.047798144 	 10.52
159.0552888251 	 31
164.0580284793 	 4.83
171.0427127661 	 23.98
172.0505377982 	 8.34
184.0743472455 	 4.36
188.0454524203 	 10.52
197.0457867713 	 27.96
229.0720015218 	 23.98
263.0774808302 	 0
END IONS

BEGIN IONS
PEPMASS=368.2173
CHARGE=1
MSLEVEL=2
RT=0
SOURCE_INSTRUMENT=qTOF
FILENAME=CCMSLIB00000085365.ms
IONMODE=Positive
ORGANISM=Natural
NAME=MLS002153784-01!Bambuterol hydrochloride81732-46-9
PI=GNPS
DATACOLLECTOR=GNPS
SMILES=CC(C)(C)NCC(c1cc(cc(c1)OC(=O)N(C)C)OC(=O)N(C)C)O
INCHI=InChI=1S/C18H29N3O5/c1-18(2,3)19-11-15(22)12-8-13(25-16(23)20(4)5)10-14(9-12)26-17(24)21(6)7/h8-10,15,19,22H,11H2,1-7H3
FORMULA=C18H29N3O5
PUBMED=N/A
SUBMITUSER=BIOADREM
LIBRARYQUALITY=0
SPECTRUMID=CCMSLIB00000085365
SCANS=3404
ID=CCMSLIB00000085365
233.0556827556 	 0.17
249.086982884 	 5.495
251.1390184545 	 5.87
277.1182830124 	 2.25
294.1448321139 	 100
312.1553968002 	 1.605
368.217997057 	 0.255
END IONS

BEGIN IONS
PEPMASS=347.223
CHARGE=1
MSLEVEL=2
RT=0
SOURCE_INSTRUMENT=qTOF
FILENAME=CCMSLIB00000085366.ms
IONMODE=Positive
ORGANISM=Natural
NAME=MLS002153896-01!Calycanthine595-05-1
PI=GNPS
DATACOLLECTOR=GNPS
SMILES=CN1CC[C@@]23c4ccccc4N[C@H]1[C@@]13CCN(C)[C@H]2Nc2ccccc12
INCHI=InChI=1S/C22H26N4/c1-25-13-11-22-16-8-4-5-9-17(16)23-19(25)21(22)12-14-26(2)20(22)24-18-10-6-3-7-15(18)21/h3-10,19-20,23-24H,11-14H2,1-2H3/t19-,20-,21-,22-/m1/s1
FORMULA=C22H26N4
PUBMED=N/A
SUBMITUSER=BIOADREM
LIBRARYQUALITY=0
SPECTRUMID=CCMSLIB00000085366
SCANS=3405
ID=CCMSLIB00000085366
106.0651252299 	 8.7
115.0542261926 	 7.07
117.0573001978 	 19.57
118.0651252299 	 9.42
130.0651252299 	 62.23
131.072950262 	 7.43
132.0807752941 	 38.59
144.0807752941 	 70.56
156.0807752941 	 8.42
158.0964253583 	 8.15
159.0916743314 	 13.22
168.0807752941 	 22.46
172.0994993635 	 32.25
173.1073243956 	 100
179.072950262 	 6.7
180.0807752941 	 15.4
183.0916743314 	 10.6
185.1073243956 	 17.93
206.0964253583 	 7.88
211.1229744598 	 30.34
223.1229744598 	 13.95
224.1307994919 	 6.61
231.0916743314 	 25.36
232.0994993635 	 54.8
243.0916743314 	 6.25
245.1073243956 	 11.59
247.1229744598 	 85.96
256.0994993635 	 15.58
258.1151494277 	 12.68
259.1229744598 	 91.94
262.1338734971 	 9.24
269.1073243956 	 12.5
275.1542745882 	 9.06
284.1307994919 	 6.97
285.138624524 	 47.92
290.1651736255 	 28.08
316.1808236897 	 25.36
347.2230228554 	 0
END IONS

BEGIN IONS
PEPMASS=360.0382
CHARGE=1
MSLEVEL=2
RT=0
SOURCE_INSTRUMENT=qTOF
FILENAME=CCMSLIB00000085367.ms
IONMODE=Positive
ORGANISM=Natural
NAME=MLS002172454-01!SB 415286
PI=GNPS
DATACOLLECTOR=GNPS
SMILES=c1ccc(c(c1)C1=C(C(=O)N=C1O)Nc1ccc(c(c1)Cl)O)N(=O)=O
INCHI=InChI=1S/C16H10ClN3O5/c17-10-7-8(5-6-12(10)21)18-14-13(15(22)19-16(14)23)9-3-1-2-4-11(9)20(24)25/h1-7,21H,(H2,18,19,22,23)
FORMULA=C16H10ClN3O5
PUBMED=N/A
SUBMITUSER=BIOADREM
LIBRARYQUALITY=0
SPECTRUMID=CCMSLIB00000085367
SCANS=3406
ID=CCMSLIB00000085367
65.0021906221 	 4.1
90.0338251015 	 30.19
92.0494751657 	 7.88
98.9996038063 	 16.16
100.9981678767 	 11.89
104.0130896594 	 4.51
118.0287397236 	 5.09
119.0365647557 	 9.19
126.9945184284 	 5.17
139.9897674015 	 9.19
142.0049302763 	 7.22
145.0050831147 	 6.97
146.0236543457 	 100
154.0054174657 	 70.3
157.0032532546 	 4.68
179.0689275166 	 4.76
181.0607681335 	 6.73
189.0187218062 	 4.68
222.0549544741 	 4.43
242.0326948487 	 5.74
271.0268811893 	 9.02
297.0425312535 	 4.51
316.0483449129 	 4.76
360.0381741571 	 0
END IONS

BEGIN IONS
PEPMASS=256.1366
CHARGE=1
MSLEVEL=2
RT=0
SOURCE_INSTRUMENT=qTOF
FILENAME=CCMSLIB00000085369.ms
IONMODE=Positive
ORGANISM=Natural
NAME=MLS001240218-01!4-Methyl-N,N-dipropyl-benzenesulfonamide
PI=GNPS
DATACOLLECTOR=GNPS
SMILES=CCCN(CCC)S(=O)(=O)c1ccc(C)cc1
INCHI=InChI=1S/C13H21NO2S/c1-4-10-14(11-5-2)17(15,16)13-8-6-12(3)7-9-13/h6-9H,4-5,10-11H2,1-3H3
FORMULA=C13H21NO2S
PUBMED=N/A
SUBMITUSER=BIOADREM
LIBRARYQUALITY=0
SPECTRUMID=CCMSLIB00000085369
SCANS=3408
ID=CCMSLIB00000085369
75.0103500052 	 5.81
91.0542261926 	 90.66
120.0841461125 	 7.2
131.0888971394 	 6.44
146.0964253583 	 7.2
154.0651252299 	 7.95
155.0161261268 	 100
171.1042503904 	 4.42
172.0426752283 	 6.57
184.1120754225 	 4.67
256.1365756135 	 0
END IONS

BEGIN IONS
PEPMASS=249.0692
CHARGE=1
MSLEVEL=2
RT=0
SOURCE_INSTRUMENT=qTOF
FILENAME=CCMSLIB00000085371.ms
IONMODE=Positive
ORGANISM=Natural
NAME=MLS001335964-01!Enoximone77671-31-9
PI=GNPS
DATACOLLECTOR=GNPS
SMILES=Cc1c(C(=O)c2ccc(cc2)SC)[nH]c(n1)O
INCHI=InChI=1S/C12H12N2O2S/c1-7-10(14-12(16)13-7)11(15)8-3-5-9(17-2)6-4-8/h3-6H,1-2H3,(H2,13,14,16)
FORMULA=C12H12N2O2S
PUBMED=N/A
SUBMITUSER=BIOADREM
LIBRARYQUALITY=0
SPECTRUMID=CCMSLIB00000085371
SCANS=3410
ID=CCMSLIB00000085371
97.0106468184 	 3.98
121.0106468184 	 1.74
123.0262968826 	 5.97
125.034553383 	 100
126.0371959199 	 4.05
144.0477606062 	 1.78
151.0212115047 	 16.55
249.0692243298 	 0
END IONS

BEGIN IONS
PEPMASS=667.2869
CHARGE=1
MSLEVEL=2
RT=0
SOURCE_INSTRUMENT=qTOF
FILENAME=CCMSLIB00000085373.ms
IONMODE=Positive
ORGANISM=Natural
NAME=MLS002153876-01!Syrosingopine84-36-6
PI=GNPS
DATACOLLECTOR=GNPS
SMILES=CCOC(=O)Oc1c(cc(cc1OC)C(=O)O[C@@H]1C[C@@H]2CN3CCc4c5ccc(cc5[nH]c4[C@H]3C[C@@H]2[C@@H]([C@H]1OC)C(=O)OC)OC)OC
INCHI=InChI=1S/C35H42N2O11/c1-7-46-35(40)48-31-26(42-3)12-18(13-27(31)43-4)33(38)47-28-14-19-17-37-11-10-22-21-9-8-20(41-2)15-24(21)36-30(22)25(37)16-23(19)29(32(28)44-5)34(39)45-6/h8-9,12-13,15,19,23,25,28-29,32,36H,7,10-11,14,16-17H2,1-6H3/t19-,23+,25-,28-,29+,32+/m1/s1
FORMULA=C35H42N2O11
PUBMED=N/A
SUBMITUSER=BIOADREM
LIBRARYQUALITY=0
SPECTRUMID=CCMSLIB00000085373
SCANS=3412
ID=CCMSLIB00000085373
130.0651252299 	 2.28
131.072950262 	 3.16
132.0807752941 	 2.25
143.072950262 	 3.92
144.0807752941 	 2.15
148.0756899162 	 2.19
153.0546201231 	 3
159.0678648841 	 7.13
160.0756899162 	 6.39
161.0835149483 	 2.71
162.0913399804 	 2.73
174.0913399804 	 100
181.0495347452 	 68.38
186.0913399804 	 3
188.1069900446 	 4.13
190.0862546025 	 2.49
192.1019046667 	 14.7
200.1069900446 	 6.52
204.1019046667 	 5.74
209.0808348736 	 7.94
212.1069900446 	 1.78
215.1178890819 	 2.3
222.112469353 	 1.71
224.1281194172 	 11.6
226.1226401088 	 1.83
227.1178890819 	 1.75
236.1281194172 	 18.15
238.1226401088 	 2.38
250.1226401088 	 2.59
253.0706641178 	 4.68
253.1335391461 	 1.58
262.1226401088 	 1.68
276.138290173 	 3.25
288.138290173 	 2.59
304.1332047951 	 2.08
305.1648392745 	 1.86
322.1437694814 	 1.75
333.1597538966 	 1.87
336.1594195456 	 7.24
337.164564503 	 1.8
348.1594195456 	 3.76
365.1859686471 	 18.2
366.1911136045 	 4.88
368.1856342961 	 4.25
397.2121833976 	 51.93
398.217328355 	 11.96
399.2192801482 	 1.55
492.1864221571 	 1.94
506.204752296 	 25.43
507.2098972534 	 8.42
635.2599214512 	 2.1
667.2861362017 	 57.81
END IONS

BEGIN IONS
PEPMASS=239.154
CHARGE=1
MSLEVEL=2
RT=0
SOURCE_INSTRUMENT=qTOF
FILENAME=CCMSLIB00000085374.ms
IONMODE=Positive
ORGANISM=Natural
NAME=MLS000069687-01!NOMIFENSINE MALEATE SALT
PI=GNPS
DATACOLLECTOR=GNPS
SMILES=CN1CC(c2ccccc2)c2cccc(c2C1)N
INCHI=InChI=1S/C16H18N2/c1-18-10-14(12-6-3-2-4-7-12)13-8-5-9-16(17)15(13)11-18/h2-9,14H,10-11,17H2,1H3
FORMULA=C16H18N2
PUBMED=N/A
SUBMITUSER=BIOADREM
LIBRARYQUALITY=0
SPECTRUMID=CCMSLIB00000085374
SCANS=3413
ID=CCMSLIB00000085374
91.0542261926 	 13.34
103.0542261926 	 6.97
105.0698762568 	 1.855
106.0651252299 	 10.095
115.0542261926 	 14.3
117.0573001978 	 19.62
118.0651252299 	 80.285
120.0807752941 	 10.67
129.0698762568 	 0.62
130.0651252299 	 26.04
132.0807752941 	 15.25
133.0760242672 	 5.245
141.0698762568 	 2.56
145.0760242672 	 2.085
146.0838492993 	 5.995
147.0916743314 	 8.14
152.0620512247 	 3.735
153.0698762568 	 3.68
156.0807752941 	 1.075
159.0916743314 	 2.1
161.1073243956 	 2.54
164.0620512247 	 0.73
165.0698762568 	 13.605
166.0777012889 	 4.385
168.0807752941 	 1.13
176.0620512247 	 2.01
177.0698762568 	 4.58
178.0777012889 	 63.1
179.085526321 	 43.685
180.0807752941 	 81.275
181.0886003262 	 100
191.085526321 	 6.26
193.0886003262 	 26.98
194.0964253583 	 27.565
195.1042503904 	 11.685
196.1120754225 	 45.16
206.0964253583 	 2.155
207.1042503904 	 2.025
208.1120754225 	 14.09
210.1277254867 	 8.48
223.1229744598 	 3.14
224.1307994919 	 2.805
239.1542745882 	 26.615
END IONS

BEGIN IONS
PEPMASS=160.1121
CHARGE=1
MSLEVEL=2
RT=0
SOURCE_INSTRUMENT=qTOF
FILENAME=CCMSLIB00000085375.ms
IONMODE=Positive
ORGANISM=Natural
NAME=MLS001076511-01!PARGYLINE HYDROCHLORIDE306-07-0
PI=GNPS
DATACOLLECTOR=GNPS
SMILES=C#CCN(C)Cc1ccccc1
INCHI=InChI=1S/C11H13N/c1-3-9-12(2)10-11-7-5-4-6-8-11/h1,4-8H,9-10H2,2H3
FORMULA=C11H13N
PUBMED=N/A
SUBMITUSER=BIOADREM
LIBRARYQUALITY=0
SPECTRUMID=CCMSLIB00000085375
SCANS=3414
ID=CCMSLIB00000085375
91.0542261926 	 100
120.0807752941 	 10.25
144.0807752941 	 24.38
160.1120754225 	 0
END IONS

BEGIN IONS
PEPMASS=201.139
CHARGE=1
MSLEVEL=2
RT=0
SOURCE_INSTRUMENT=qTOF
FILENAME=CCMSLIB00000085376.ms
IONMODE=Positive
ORGANISM=Natural
NAME=MLS001146954-01!Tyzine
PI=GNPS
DATACOLLECTOR=GNPS
SMILES=c1ccc2c(c1)CCCC2C1=NCCN1
INCHI=InChI=1S/C13H16N2/c1-2-6-11-10(4-1)5-3-7-12(11)13-14-8-9-15-13/h1-2,4,6,12H,3,5,7-9H2,(H,14,15)
FORMULA=C13H16N2
PUBMED=N/A
SUBMITUSER=BIOADREM
LIBRARYQUALITY=0
SPECTRUMID=CCMSLIB00000085376
SCANS=3415
ID=CCMSLIB00000085376
91.0542261926 	 14.33
103.0542261926 	 1.99
105.0698762568 	 0.72
115.0542261926 	 15.45
116.0620512247 	 18.23
128.0620512247 	 3.87
129.0698762568 	 17.46
131.085526321 	 100
144.0807752941 	 2.27
146.0964253583 	 1.1
158.0838492993 	 3.21
171.0916743314 	 2.69
173.1073243956 	 3.98
201.138624524 	 74.88
END IONS

BEGIN IONS
PEPMASS=494.3282
CHARGE=1
MSLEVEL=2
RT=0
SOURCE_INSTRUMENT=qTOF
FILENAME=CCMSLIB00000085378.ms
IONMODE=Positive
ORGANISM=Natural
NAME=MLS001333570-01!55297-96-6
PI=GNPS
DATACOLLECTOR=GNPS
SMILES=C=C[C@]1(C)C[C@H]([C@]2(C)C(C)CC[C@]3(CCC(=O)[C@@H]23)[C@@H](C)[C@@H]1O)OC(=O)CSCCN(CC)CC
INCHI=InChI=1S/C28H47NO4S/c1-8-26(6)17-22(33-23(31)18-34-16-15-29(9-2)10-3)27(7)19(4)11-13-28(20(5)25(26)32)14-12-21(30)24(27)28/h8,19-20,22,24-25,32H,1,9-18H2,2-7H3/t19?,20-,22+,24-,25-,26+,27-,28-/m0/s1
FORMULA=C28H47NO4S
PUBMED=N/A
SUBMITUSER=BIOADREM
LIBRARYQUALITY=0
SPECTRUMID=CCMSLIB00000085378
SCANS=3417
ID=CCMSLIB00000085378
95.085526321 	 2.395
100.1120754225 	 2.31
101.0055614405 	 0.895
105.0698762568 	 6.47
107.085526321 	 6.63
109.0647908789 	 1.12
109.1011763852 	 3.54
119.0161261268 	 59.5
119.085526321 	 10.2
121.1011763852 	 8.105
123.0804409431 	 1.985
123.1168264494 	 0.995
131.085526321 	 4.31
133.1011763852 	 11.445
135.0804409431 	 2.66
135.1168264494 	 3.7
137.0960910073 	 0.98
143.085526321 	 2.935
145.1011763852 	 7.685
147.0804409431 	 2.005
147.1168264494 	 8.47
149.0960910073 	 9.52
149.1324765136 	 2.625
155.085526321 	 2.065
157.1011763852 	 4.715
159.1168264494 	 9.915
161.0960910073 	 3.035
161.1324765136 	 5.835
163.1117410715 	 21.3
169.1011763852 	 2.975
171.1168264494 	 4.925
173.1324765136 	 6.83
175.1117410715 	 5.545
175.1481265778 	 5.545
177.1273911357 	 6.645
183.1168264494 	 3.34
185.1324765136 	 4.46
187.1481265778 	 4.685
189.1273911357 	 2.605
191.1430411999 	 2.03
192.1052754851 	 100
197.1324765136 	 3.475
199.1481265778 	 2.62
201.163776642 	 2.735
203.1430411999 	 3.5
211.1481265778 	 2.785
213.163776642 	 0.965
215.1430411999 	 2.39
217.1586912641 	 1.145
225.163776642 	 1.795
227.1794267062 	 3.135
229.1586912641 	 1.775
229.1950767704 	 1.24
245.1899913925 	 2.895
267.2107268346 	 3.055
285.2212915209 	 3.805
494.3298556923 	 0.35
END IONS

BEGIN IONS
PEPMASS=353.1856
CHARGE=1
MSLEVEL=2
RT=0
SOURCE_INSTRUMENT=qTOF
FILENAME=CCMSLIB00000085380.ms
IONMODE=Positive
ORGANISM=Natural
NAME=MLS002153894-01!Ajmalicine hydrochloride4373-34-6
PI=GNPS
DATACOLLECTOR=GNPS
SMILES=C[C@H]1[C@H]2CN3CCc4c5ccccc5[nH]c4[C@@H]3C[C@@H]2C(=CO1)C(=O)OC
INCHI=InChI=1S/C21H24N2O3/c1-12-16-10-23-8-7-14-13-5-3-4-6-18(13)22-20(14)19(23)9-15(16)17(11-26-12)21(24)25-2/h3-6,11-12,15-16,19,22H,7-10H2,1-2H3/t12-,15-,16+,19-/m0/s1
FORMULA=C21H24N2O3
PUBMED=N/A
SUBMITUSER=BIOADREM
LIBRARYQUALITY=0
SPECTRUMID=CCMSLIB00000085380
SCANS=3418
ID=CCMSLIB00000085380
103.0542261926 	 0.83
115.0542261926 	 3.36
117.0698762568 	 5.65
127.0542261926 	 1.95
129.0698762568 	 0.94
130.0651252299 	 1.83
142.0651252299 	 0.79
143.072950262 	 10.75
144.0807752941 	 100
154.0651252299 	 1.1
156.0807752941 	 3.59
158.0964253583 	 2.14
167.072950262 	 2.33
168.0807752941 	 1.88
170.0964253583 	 7.09
180.0807752941 	 1.1
181.0886003262 	 1.17
182.0964253583 	 5
192.0807752941 	 0.59
194.0964253583 	 1.36
207.1042503904 	 0.83
208.1120754225 	 1.18
217.0886003262 	 0.55
218.0964253583 	 0.86
224.1069900446 	 0.7
234.0913399804 	 0.77
234.1277254867 	 0.74
235.0991650125 	 0.66
250.1226401088 	 0.93
252.1019046667 	 2.66
278.1175547309 	 1.57
293.1648392745 	 0.63
321.1597538966 	 1.42
353.1859686471 	 4.75
END IONS

BEGIN IONS
PEPMASS=188.0946
CHARGE=1
MSLEVEL=2
RT=0
SOURCE_INSTRUMENT=qTOF
FILENAME=CCMSLIB00000085382.ms
IONMODE=Positive
ORGANISM=Natural
NAME=MLS000766899-01!
PI=GNPS
DATACOLLECTOR=GNPS
SMILES=c1ccc(cc1)Nc1ncnc(=N)[nH]1
INCHI=InChI=1S/C9H9N5/c10-8-11-6-12-9(14-8)13-7-4-2-1-3-5-7/h1-6H,(H3,10,11,12,13,14)
FORMULA=C9H9N5
PUBMED=N/A
SUBMITUSER=BIOADREM
LIBRARYQUALITY=0
SPECTRUMID=CCMSLIB00000085382
SCANS=3420
ID=CCMSLIB00000085382
119.060374203 	 100
144.0556231761 	 92.88
146.0712732403 	 25.5
188.0930713149 	 14.87
END IONS

BEGIN IONS
PEPMASS=214.0966
CHARGE=1
MSLEVEL=2
RT=0
SOURCE_INSTRUMENT=qTOF
FILENAME=CCMSLIB00000085383.ms
IONMODE=Positive
ORGANISM=Natural
NAME=MLS000860049-01!SIB 1757
PI=GNPS
DATACOLLECTOR=GNPS
SMILES=Cc1ccc(c(n1)N=Nc1ccccc1)O
INCHI=InChI=1S/C12H11N3O/c1-9-7-8-11(16)12(13-9)15-14-10-5-3-2-4-6-10/h2-8,16H,1H3
FORMULA=C12H11N3O
PUBMED=N/A
SUBMITUSER=BIOADREM
LIBRARYQUALITY=0
SPECTRUMID=CCMSLIB00000085383
SCANS=3421
ID=CCMSLIB00000085383
66.0464011605 	 0.79
92.0494751657 	 1.81
93.0573001978 	 2.53
94.0287397236 	 4.21
96.0443897878 	 4.22
104.0494751657 	 1.49
108.0443897878 	 2.12
109.0522148199 	 1.49
110.060039852 	 100
115.0542261926 	 6.4
116.0620512247 	 0.72
118.0651252299 	 0.99
126.0464011605 	 2.25
139.0542261926 	 2.01
140.0494751657 	 4.8
141.0698762568 	 8.37
143.072950262 	 2.37
146.060039852 	 1.34
152.0494751657 	 2.61
153.0573001978 	 21.5
156.0807752941 	 1.94
166.0651252299 	 4.41
167.072950262 	 6.65
168.0807752941 	 5.51
169.0760242672 	 1.13
170.060039852 	 8.89
184.0756899162 	 1.79
186.0913399804 	 7.35
197.0709388893 	 4.03
198.0787639214 	 0.99
199.0740128945 	 0.8
214.0974879908 	 9.8
END IONS

BEGIN IONS
PEPMASS=266.1652
CHARGE=1
MSLEVEL=2
RT=0
SOURCE_INSTRUMENT=qTOF
FILENAME=CCMSLIB00000085385.ms
IONMODE=Positive
ORGANISM=Natural
NAME=MLS001165757-01!mirtazapine
PI=GNPS
DATACOLLECTOR=GNPS
SMILES=CN1CCN2[C@@H](C1)c1ccccc1Cc1cccnc21
INCHI=InChI=1S/C17H19N3/c1-19-9-10-20-16(12-19)15-7-3-2-5-13(15)11-14-6-4-8-18-17(14)20/h2-8,16H,9-12H2,1H3/t16-/m0/s1
FORMULA=C17H19N3
PUBMED=N/A
SUBMITUSER=BIOADREM
LIBRARYQUALITY=0
SPECTRUMID=CCMSLIB00000085385
SCANS=3422
ID=CCMSLIB00000085385
115.0542261926 	 2.08
117.0447241388 	 0.66
130.0651252299 	 1.15
141.0698762568 	 0.62
151.0542261926 	 0.7
154.0651252299 	 0.62
165.0698762568 	 0.55
167.072950262 	 3.23
168.0807752941 	 3.47
169.0760242672 	 0.56
178.0651252299 	 1.99
180.0807752941 	 3.64
182.0964253583 	 1.55
194.0838492993 	 25.02
195.0916743314 	 100
204.0807752941 	 0.4
209.1073243956 	 11.49
219.0916743314 	 2.54
221.1073243956 	 0.8
235.1229744598 	 2.1
266.1651736255 	 1.64
END IONS

BEGIN IONS
PEPMASS=435.172
CHARGE=1
MSLEVEL=2
RT=0
SOURCE_INSTRUMENT=qTOF
FILENAME=CCMSLIB00000085386.ms
IONMODE=Positive
ORGANISM=Natural
NAME=MLS001332581-01!cis-(Z)-Flupenthixol dihydrochloride2413-38-9
PI=GNPS
DATACOLLECTOR=GNPS
SMILES=c1ccc2c(c1)/C(=C/CCN1CCN(CC1)CCO)/c1cc(ccc1S2)C(F)(F)F
INCHI=InChI=1S/C23H25F3N2OS/c24-23(25,26)17-7-8-22-20(16-17)18(19-4-1-2-6-21(19)30-22)5-3-9-27-10-12-28(13-11-27)14-15-29/h1-2,4-8,16,29H,3,9-15H2/b18-5-
FORMULA=C23H25F3N2OS
PUBMED=N/A
SUBMITUSER=BIOADREM
LIBRARYQUALITY=0
SPECTRUMID=CCMSLIB00000085386
SCANS=3423
ID=CCMSLIB00000085386
96.0807752941 	 2.52
97.0760242672 	 12.8
98.0838492993 	 2.23
100.0756899162 	 18.24
111.0916743314 	 4.59
123.0916743314 	 1.92
124.0994993635 	 2.44
127.0865889535 	 2.22
128.0944139856 	 11.77
137.1073243956 	 1.72
139.1229744598 	 30.78
141.1022390177 	 3.24
142.1100640498 	 1.72
143.1178890819 	 4.78
152.1307994919 	 2.01
169.1335391461 	 10.33
202.0777012889 	 1.6
203.085526321 	 7.63
221.0419469468 	 40
227.0136814505 	 1.94
234.0497719789 	 7.05
236.0654220431 	 19.42
246.0650858568 	 1.59
252.0745076889 	 1.74
259.0387533468 	 1.79
265.0293315147 	 79.81
271.0729108889 	 3.07
272.080735921 	 37.6
279.0449815789 	 7.18
285.054403411 	 6.21
287.0700534752 	 1.77
289.0293315147 	 11.25
290.0371565468 	 38.69
291.0398159793 	 7.61
303.0449815789 	 8.06
305.0606316431 	 100
306.0632910756 	 19.75
307.0762817073 	 16.89
362.118480873 	 10.1
390.1372049424 	 24.39
395.1587882608 	 2.09
415.1650164929 	 2.17
435.171244725 	 64.95
END IONS

BEGIN IONS
PEPMASS=247.1246
CHARGE=1
MSLEVEL=2
RT=0
SOURCE_INSTRUMENT=qTOF
FILENAME=CCMSLIB00000085389.ms
IONMODE=Positive
ORGANISM=Natural
NAME=MLS001076505-01!ELLIPTICINE
PI=GNPS
DATACOLLECTOR=GNPS
SMILES=Cc1c2cnccc2c(C)c2c1c1ccccc1[nH]2
INCHI=InChI=1S/C17H14N2/c1-10-14-9-18-8-7-12(14)11(2)17-16(10)13-5-3-4-6-15(13)19-17/h3-9,19H,1-2H3
FORMULA=C17H14N2
PUBMED=N/A
SUBMITUSER=BIOADREM
LIBRARYQUALITY=0
SPECTRUMID=CCMSLIB00000085389
SCANS=3426
ID=CCMSLIB00000085389
176.0620512247 	 0.42
203.072950262 	 0.72
204.0807752941 	 11.25
205.0886003262 	 8.16
216.0681992351 	 0.62
217.0760242672 	 1.39
218.0964253583 	 0.77
229.0760242672 	 0.61
230.0838492993 	 1.57
231.0916743314 	 75.09
232.0994993635 	 100
245.1073243956 	 11.03
246.1151494277 	 14.76
247.1229744598 	 97.38
END IONS

BEGIN IONS
PEPMASS=371.161
CHARGE=1
MSLEVEL=2
RT=0
SOURCE_INSTRUMENT=qTOF
FILENAME=CCMSLIB00000085390.ms
IONMODE=Positive
ORGANISM=Natural
NAME=MLS001148599-01!
PI=GNPS
DATACOLLECTOR=GNPS
SMILES=CN1CCCCC1CCN1c2ccccc2Sc2ccc(cc12)SC
INCHI=InChI=1S/C21H26N2S2/c1-22-13-6-5-7-16(22)12-14-23-18-8-3-4-9-20(18)25-21-11-10-17(24-2)15-19(21)23/h3-4,8-11,15-16H,5-7,12-14H2,1-2H3
FORMULA=C21H26N2S2
PUBMED=N/A
SUBMITUSER=BIOADREM
LIBRARYQUALITY=0
SPECTRUMID=CCMSLIB00000085390
SCANS=3427
ID=CCMSLIB00000085390
96.0807752941 	 1.7
98.0964253583 	 94.38
111.1042503904 	 0.57
126.1277254867 	 100
166.0651252299 	 0.49
167.072950262 	 1.48
179.072950262 	 2.93
192.0807752941 	 0.34
198.0371959199 	 1.44
199.045020952 	 1.7
210.0371959199 	 3.07
211.045020952 	 15.5
224.0528459841 	 0.95
225.0606710162 	 3.9
226.0684960483 	 25.96
230.0092666099 	 1.72
242.0092666099 	 1.19
243.017091642 	 12.36
245.0327417062 	 5.39
250.0684960483 	 0.42
258.0405667383 	 35.49
260.1433755509 	 0.36
269.0327417062 	 0.48
284.0562168025 	 0.35
292.1154462409 	 0.34
340.1188170593 	 0.55
371.161016225 	 11.67
END IONS

BEGIN IONS
PEPMASS=318.2429
CHARGE=1
MSLEVEL=2
RT=0
SOURCE_INSTRUMENT=qTOF
FILENAME=CCMSLIB00000085395.ms
IONMODE=Positive
ORGANISM=Natural
NAME=MLS002222187-01!548-66-3
PI=GNPS
DATACOLLECTOR=GNPS
SMILES=CCN(CC)CCOC(=O)C(c1ccccc1)C1CCCCC1
INCHI=InChI=1S/C20H31NO2/c1-3-21(4-2)15-16-23-20(22)19(17-11-7-5-8-12-17)18-13-9-6-10-14-18/h5,7-8,11-12,18-19H,3-4,6,9-10,13-16H2,1-2H3
FORMULA=C20H31NO2
PUBMED=N/A
SUBMITUSER=BIOADREM
LIBRARYQUALITY=0
SPECTRUMID=CCMSLIB00000085395
SCANS=3430
ID=CCMSLIB00000085395
91.0542261926 	 43.25
95.085526321 	 4.37
103.0542261926 	 0.92
105.0698762568 	 17.52
115.0542261926 	 1.77
117.0698762568 	 7.26
119.0491408147 	 0.27
129.0698762568 	 0.4
131.085526321 	 2.66
163.0753555652 	 100
173.1324765136 	 13.56
245.1536058862 	 23.5
318.2427552445 	 5.14
END IONS

BEGIN IONS
PEPMASS=279.171
CHARGE=1
MSLEVEL=2
RT=0
SOURCE_INSTRUMENT=qTOF
FILENAME=CCMSLIB00000085396.ms
IONMODE=Positive
ORGANISM=Natural
NAME=MLS000859915-01!4-(3-Butoxy-4-methoxybenzyl)imidazolidin-2-one
PI=GNPS
DATACOLLECTOR=GNPS
SMILES=CCCCOc1cc(ccc1OC)CC1CN=C(N1)O
INCHI=InChI=1S/C15H22N2O3/c1-3-4-7-20-14-9-11(5-6-13(14)19-2)8-12-10-16-15(18)17-12/h5-6,9,12H,3-4,7-8,10H2,1-2H3,(H2,16,17,18)
FORMULA=C15H22N2O3
PUBMED=N/A
SUBMITUSER=BIOADREM
LIBRARYQUALITY=0
SPECTRUMID=CCMSLIB00000085396
SCANS=3431
ID=CCMSLIB00000085396
94.0413157826 	 3.06
103.0542261926 	 14.39
107.0491408147 	 2.22
109.0647908789 	 0.74
117.0334907505 	 0.89
118.0651252299 	 1.69
119.0491408147 	 0.53
120.0569658468 	 0.51
122.0362304047 	 13.81
123.0440554368 	 2.26
128.0494751657 	 0.88
131.0491408147 	 6.33
133.0647908789 	 0.6
135.0440554368 	 5.42
135.0804409431 	 1.09
137.059705501 	 100
146.0362304047 	 1.23
146.060039852 	 1.98
148.0518804689 	 0.73
149.059705501 	 7.93
156.0443897878 	 0.79
161.059705501 	 2.04
163.0753555652 	 7.36
174.0549544741 	 1.23
177.0546201231 	 15.59
178.0862546025 	 1.13
179.0702701873 	 1.41
206.0811692246 	 4.2
223.1077183261 	 2.79
279.1703185829 	 0
END IONS

BEGIN IONS
PEPMASS=260.2013
CHARGE=1
MSLEVEL=2
RT=0
SOURCE_INSTRUMENT=qTOF
FILENAME=CCMSLIB00000085398.ms
IONMODE=Positive
ORGANISM=Natural
NAME=MLS001201728-01!2-(4-Phenyl-piperidin-1-yl)-cyclohexanol
PI=GNPS
DATACOLLECTOR=GNPS
SMILES=c1ccc(cc1)C1CCN(CC1)C1CCCCC1O
INCHI=InChI=1S/C17H25NO/c19-17-9-5-4-8-16(17)18-12-10-15(11-13-18)14-6-2-1-3-7-14/h1-3,6-7,15-17,19H,4-5,8-13H2
FORMULA=C17H25NO
PUBMED=N/A
SUBMITUSER=BIOADREM
LIBRARYQUALITY=0
SPECTRUMID=CCMSLIB00000085398
SCANS=3432
ID=CCMSLIB00000085398
64.0307510963 	 0.26
91.0542261926 	 2.22
94.0651252299 	 0.54
103.0542261926 	 4.4
105.0698762568 	 1.86
108.0807752941 	 0.35
110.0964253583 	 0.71
112.1120754225 	 1.14
115.0542261926 	 2.92
116.0620512247 	 1.4
117.0698762568 	 5.95
128.0620512247 	 0.71
129.0698762568 	 2.13
130.0777012889 	 2
131.085526321 	 6.18
136.1120754225 	 0.58
138.1277254867 	 1.51
143.085526321 	 1.26
145.1011763852 	 2.21
158.0964253583 	 0.36
159.1042503904 	 0.31
162.1277254867 	 64.98
174.1277254867 	 10.77
242.1903257435 	 100
260.2008904298 	 36.08
END IONS

BEGIN IONS
PEPMASS=372.1794
CHARGE=1
MSLEVEL=2
RT=0
SOURCE_INSTRUMENT=qTOF
FILENAME=CCMSLIB00000085399.ms
IONMODE=Positive
ORGANISM=Natural
NAME=MLS001332501-01!DEMECOLCINE
PI=GNPS
DATACOLLECTOR=GNPS
SMILES=CN[C@H]1CCc2cc(c(c(c2c2ccc(c(=O)cc12)OC)OC)OC)OC
INCHI=InChI=1S/C21H25NO5/c1-22-15-8-6-12-10-18(25-3)20(26-4)21(27-5)19(12)13-7-9-17(24-2)16(23)11-14(13)15/h7,9-11,15,22H,6,8H2,1-5H3/t15-/m0/s1
FORMULA=C21H25NO5
PUBMED=N/A
SUBMITUSER=BIOADREM
LIBRARYQUALITY=0
SPECTRUMID=CCMSLIB00000085399
SCANS=3433
ID=CCMSLIB00000085399
211.0753555652 	 33.48
213.0910056294 	 27.3
223.0753555652 	 53.85
224.0831805973 	 44.85
227.0702701873 	 37.81
235.0753555652 	 43.55
236.0831805973 	 33.59
237.0910056294 	 27.09
239.1066556936 	 37.7
240.0780952194 	 47.02
241.0859202515 	 60.24
252.0780952194 	 75.73
253.0859202515 	 44.96
255.0651848094 	 34.13
255.1015703157 	 34.99
256.1093953478 	 61.21
263.0702701873 	 35.75
264.1019046667 	 70.42
265.0859202515 	 43.34
267.1015703157 	 93.93
268.0730098415 	 46.59
269.0808348736 	 49.51
271.0964849378 	 37.7
281.0808348736 	 29.47
282.112469353 	 98.92
283.0964849378 	 50.16
284.1043099699 	 59.59
285.0757494957 	 34.45
293.1046443209 	 48
295.0964849378 	 89.71
298.1073839751 	 36.62
299.0913995599 	 27.41
300.099224592 	 28.17
308.1281194172 	 32.18
312.1594195456 	 43.23
324.1230340393 	 49.19
325.1308590714 	 47.24
326.1148746562 	 43.01
340.1543341677 	 38.14
342.1335987256 	 52
372.1805489182 	 30.23
END IONS

BEGIN IONS
PEPMASS=204.1247
CHARGE=1
MSLEVEL=2
RT=0
SOURCE_INSTRUMENT=qTOF
FILENAME=CCMSLIB00000085400.ms
IONMODE=Positive
ORGANISM=Natural
NAME=MLS002153371-01!9-Cyclopentyladenine monomethanesulfonate
PI=GNPS
DATACOLLECTOR=GNPS
SMILES=C1CCC(C1)n1cnc2c(N)ncnc12
INCHI=InChI=1S/C10H13N5/c11-9-8-10(13-5-12-9)15(6-14-8)7-3-1-2-4-7/h5-7H,1-4H2,(H2,11,12,13)
FORMULA=C10H13N5
PUBMED=N/A
SUBMITUSER=BIOADREM
LIBRARYQUALITY=0
SPECTRUMID=CCMSLIB00000085400
SCANS=3434
ID=CCMSLIB00000085400
92.0243230477 	 1.13
109.0508721492 	 3.03
119.035222085 	 65.66
136.0617711865 	 100
204.1243714433 	 3.12
END IONS

BEGIN IONS
PEPMASS=161.1083
CHARGE=1
MSLEVEL=2
RT=0
SOURCE_INSTRUMENT=qTOF
FILENAME=CCMSLIB00000085402.ms
IONMODE=Positive
ORGANISM=Natural
NAME=MLS000559484-01!Priscoline
PI=GNPS
DATACOLLECTOR=GNPS
SMILES=c1ccc(cc1)CC1=NCCN1
INCHI=InChI=1S/C10H12N2/c1-2-4-9(5-3-1)8-10-11-6-7-12-10/h1-5H,6-8H2,(H,11,12)
FORMULA=C10H12N2
PUBMED=N/A
SUBMITUSER=BIOADREM
LIBRARYQUALITY=0
SPECTRUMID=CCMSLIB00000085402
SCANS=3436
ID=CCMSLIB00000085402
103.0542261926 	 27.96
115.0542261926 	 26.54
116.0494751657 	 20.38
117.0573001978 	 22.27
130.0651252299 	 19.91
132.0807752941 	 18.48
145.0760242672 	 19.43
161.1073243956 	 415.17
END IONS

BEGIN IONS
PEPMASS=315.1625
CHARGE=1
MSLEVEL=2
RT=0
SOURCE_INSTRUMENT=qTOF
FILENAME=CCMSLIB00000085403.ms
IONMODE=Positive
ORGANISM=Natural
NAME=MLS001074205-01!17321-77-6
PI=GNPS
DATACOLLECTOR=GNPS
SMILES=CN(C)CCCN1c2ccccc2CCc2ccc(cc12)Cl
INCHI=InChI=1S/C19H23ClN2/c1-21(2)12-5-13-22-18-7-4-3-6-15(18)8-9-16-10-11-17(20)14-19(16)22/h3-4,6-7,10-11,14H,5,8-9,12-13H2,1-2H3
FORMULA=C19H23ClN2
PUBMED=N/A
SUBMITUSER=BIOADREM
LIBRARYQUALITY=0
SPECTRUMID=CCMSLIB00000085403
SCANS=3437
ID=CCMSLIB00000085403
130.0651252299 	 0.82
165.0698762568 	 1.99
181.0886003262 	 0.62
191.072950262 	 1.48
192.0807752941 	 10.18
204.0807752941 	 0.98
206.0964253583 	 9.65
207.1042503904 	 19.54
214.041802972 	 1.48
220.1120754225 	 24.07
227.0496280041 	 100
234.1277254867 	 9.87
235.1355505188 	 12.58
240.0574530362 	 1.3
242.0731031004 	 89.39
270.1044032288 	 8.23
315.1622524587 	 1
END IONS

BEGIN IONS
PEPMASS=437.2336
CHARGE=1
MSLEVEL=2
RT=0
SOURCE_INSTRUMENT=qTOF
FILENAME=CCMSLIB00000085404.ms
IONMODE=Positive
ORGANISM=Natural
NAME=MLS001148136-01!
PI=GNPS
DATACOLLECTOR=GNPS
SMILES=CC1(C)O[C@@H]2C[C@H]3[C@@H]4C[C@@H](C5=CC(=O)CC[C@]5(C)[C@H]4[C@H](C[C@]3(C)[C@]2(C(=O)CO)O1)O)F
INCHI=InChI=1S/C24H33FO6/c1-21(2)30-19-9-14-13-8-16(25)15-7-12(27)5-6-22(15,3)20(13)17(28)10-23(14,4)24(19,31-21)18(29)11-26/h7,13-14,16-17,19-20,26,28H,5-6,8-11H2,1-4H3/t13-,14-,16-,17-,19+,20+,22-,23-,24+/m0/s1
FORMULA=C24H33FO6
PUBMED=N/A
SUBMITUSER=BIOADREM
LIBRARYQUALITY=0
SPECTRUMID=CCMSLIB00000085404
SCANS=3438
ID=CCMSLIB00000085404
105.0698762568 	 45.74
119.085526321 	 24.12
121.0647908789 	 36.9
128.0620512247 	 28.74
129.0698762568 	 24.43
131.085526321 	 35.95
133.0647908789 	 25.97
139.0542261926 	 52.13
141.0698762568 	 34.9
142.0777012889 	 20.85
143.085526321 	 62.96
145.0647908789 	 21.35
145.1011763852 	 59.11
147.0804409431 	 34.9
155.085526321 	 28.06
157.1011763852 	 35.95
159.0804409431 	 25.07
161.0960910073 	 28.83
169.1011763852 	 49.59
171.0804409431 	 26.65
171.1168264494 	 21.35
173.0960910073 	 34.86
179.085526321 	 17
180.0933513531 	 17.72
181.1011763852 	 100
183.1168264494 	 44.51
185.0960910073 	 17
193.1011763852 	 26.52
195.1168264494 	 25.75
197.0960910073 	 23.3
197.1324765136 	 19.63
199.1117410715 	 17.14
207.1168264494 	 44.2
209.0960910073 	 20.63
211.1117410715 	 20.76
219.1179693036 	 19.58
221.1336193678 	 37.22
223.1117410715 	 17
225.1273911357 	 47.55
227.1430411999 	 19.49
233.1336193678 	 22.67
235.1481265778 	 18.4
237.1273911357 	 25.88
239.1430411999 	 29.56
245.1336193678 	 17.63
247.149269432 	 45.47
263.1430411999 	 21.99
265.1586912641 	 28.65
285.1649194962 	 48.37
303.1754841825 	 27.56
315.1754841825 	 16.59
323.1641705725 	 27.92
343.1703988046 	 18.13
361.1809634909 	 20.22
437.2333929919 	 16.91
END IONS

BEGIN IONS
PEPMASS=502.2953
CHARGE=1
MSLEVEL=2
RT=0
SOURCE_INSTRUMENT=qTOF
FILENAME=CCMSLIB00000085405.ms
IONMODE=Positive
ORGANISM=Natural
NAME=MLS001165756-01!fexofenadine
PI=GNPS
DATACOLLECTOR=GNPS
SMILES=CC(C)(c1ccc(cc1)[C@@H](CCCN1CCC(CC1)C(c1ccccc1)(c1ccccc1)O)O)C(=O)O
INCHI=InChI=1S/C32H39NO4/c1-31(2,30(35)36)25-17-15-24(16-18-25)29(34)14-9-21-33-22-19-28(20-23-33)32(37,26-10-5-3-6-11-26)27-12-7-4-8-13-27/h3-8,10-13,15-18,28-29,34,37H,9,14,19-23H2,1-2H3,(H,35,36)/t29-/m1/s1
FORMULA=C32H39NO4
PUBMED=N/A
SUBMITUSER=BIOADREM
LIBRARYQUALITY=0
SPECTRUMID=CCMSLIB00000085405
SCANS=3439
ID=CCMSLIB00000085405
91.0542261926 	 4.11
105.0698762568 	 2.56
115.0542261926 	 3.21
116.0620512247 	 1.83
117.0698762568 	 4.49
128.0620512247 	 6.17
129.0698762568 	 21.2
131.085526321 	 37.81
141.0698762568 	 2.54
142.0777012889 	 1.19
143.085526321 	 16.51
145.1011763852 	 4.58
155.085526321 	 1.89
156.0933513531 	 2.35
157.1011763852 	 1.29
171.1168264494 	 100
189.1273911357 	 4.34
217.1223057578 	 1.96
246.1488548593 	 3.23
262.1590256151 	 22.97
272.1645049235 	 1.89
280.1695903014 	 2.18
298.1801549877 	 7.85
466.2740553729 	 98.54
467.281880405 	 62.71
484.2846200592 	 60.85
485.2924450913 	 25.08
502.2951847455 	 16.94
END IONS

BEGIN IONS
PEPMASS=294.1248
CHARGE=1
MSLEVEL=2
RT=0
SOURCE_INSTRUMENT=qTOF
FILENAME=CCMSLIB00000085408.ms
IONMODE=Positive
ORGANISM=Natural
NAME=MLS002153395-01!GYKI 52466 hydrochloride
PI=GNPS
DATACOLLECTOR=GNPS
SMILES=CC1=NN=C(c2ccc(cc2)N)c2cc3c(cc2C1)OCO3
INCHI=InChI=1S/C17H15N3O2/c1-10-6-12-7-15-16(22-9-21-15)8-14(12)17(20-19-10)11-2-4-13(18)5-3-11/h2-5,7-8H,6,9,18H2,1H3
FORMULA=C17H15N3O2
PUBMED=N/A
SUBMITUSER=BIOADREM
LIBRARYQUALITY=0
SPECTRUMID=CCMSLIB00000085408
SCANS=3441
ID=CCMSLIB00000085408
102.0338251015 	 2.47
104.0494751657 	 4.16
118.0651252299 	 3.29
128.0494751657 	 1.87
130.0287397236 	 5.34
132.0443897878 	 1.99
143.060374203 	 2.97
146.060039852 	 4.88
160.0393044099 	 100
168.0807752941 	 2.77
171.0552888251 	 2.08
178.0651252299 	 1.73
180.0807752941 	 3.22
195.0916743314 	 11.03
201.0658535114 	 2.6
205.0760242672 	 1.37
219.0916743314 	 7.18
223.0865889535 	 2.5
224.0944139856 	 1.71
236.0706045383 	 1.8
236.1182234329 	 4.58
237.0784295704 	 4.55
247.0865889535 	 2.12
249.1022390177 	 5.81
252.0893286077 	 9.27
253.0971536398 	 32.26
264.113138055 	 2.39
268.1080526771 	 1.87
277.0971536398 	 39.7
279.100227645 	 6.04
294.1237027413 	 48.78
END IONS

BEGIN IONS
PEPMASS=355.103
CHARGE=1
MSLEVEL=2
RT=0
SOURCE_INSTRUMENT=qTOF
FILENAME=CCMSLIB00000085409.ms
IONMODE=Positive
ORGANISM=Natural
NAME=MLS002153805-01!Chlorogenic acid hemihydrate6001-76-9
PI=GNPS
DATACOLLECTOR=GNPS
SMILES=c1cc(c(cc1/C=C/C(=O)O[C@@H]1C[C@@](C[C@H]([C@H]1O)O)(C(=O)O)O)O)O
INCHI=InChI=1S/C16H18O9/c17-9-3-1-8(5-10(9)18)2-4-13(20)25-12-7-16(24,15(22)23)6-11(19)14(12)21/h1-5,11-12,14,17-19,21,24H,6-7H2,(H,22,23)/b4-2+/t11-,12-,14-,16+/m1/s1
FORMULA=C16H18O9
PUBMED=N/A
SUBMITUSER=BIOADREM
LIBRARYQUALITY=0
SPECTRUMID=CCMSLIB00000085409
SCANS=3442
ID=CCMSLIB00000085409
89.0385761284 	 4.08
107.0491408147 	 7.21
117.0334907505 	 15.99
135.0440554368 	 43.92
145.0284053726 	 32.17
163.0389700589 	 100
355.1023581767 	 0
END IONS

BEGIN IONS
PEPMASS=318.135
CHARGE=1
MSLEVEL=2
RT=0
SOURCE_INSTRUMENT=qTOF
FILENAME=CCMSLIB00000085410.ms
IONMODE=Positive
ORGANISM=Natural
NAME=MLS002153903-01!Piperlongumine20069-09-4
PI=GNPS
DATACOLLECTOR=GNPS
SMILES=COc1cc(/C=C/C(=O)N2CCC=CC2=O)cc(c1OC)OC
INCHI=InChI=1S/C17H19NO5/c1-21-13-10-12(11-14(22-2)17(13)23-3)7-8-16(20)18-9-5-4-6-15(18)19/h4,6-8,10-11H,5,9H2,1-3H3/b8-7+
FORMULA=C17H19NO5
PUBMED=N/A
SUBMITUSER=BIOADREM
LIBRARYQUALITY=0
SPECTRUMID=CCMSLIB00000085410
SCANS=3443
ID=CCMSLIB00000085410
91.0542261926 	 1.45
102.0464011605 	 3.2
103.0542261926 	 2.24
104.0620512247 	 1.58
107.0491408147 	 3.04
117.0334907505 	 1.61
118.0413157826 	 2.77
119.0491408147 	 4.88
121.0647908789 	 1.63
122.072615911 	 1.23
130.0413157826 	 6.4
131.0491408147 	 4.58
132.0205803405 	 1.91
132.0569658468 	 5.14
133.0284053726 	 4.13
133.0647908789 	 2.42
134.0362304047 	 0.88
135.0440554368 	 8.06
145.0284053726 	 2.25
146.0362304047 	 2.09
147.0440554368 	 28.35
148.0518804689 	 4.13
149.059705501 	 7.68
150.0675305331 	 3.1
158.0362304047 	 1.44
159.0440554368 	 1.48
160.0518804689 	 7.18
161.0233199947 	 1.93
161.059705501 	 7.72
162.0675305331 	 21.61
163.0389700589 	 36.53
163.0753555652 	 7.23
165.0910056294 	 2.04
174.0311450268 	 3.69
175.0389700589 	 16.32
176.046795091 	 9.62
177.0546201231 	 5.79
178.0624451552 	 22.59
188.046795091 	 2.72
189.0546201231 	 3.18
190.0624451552 	 75.72
191.033884681 	 15.74
193.0859202515 	 37.55
205.0495347452 	 1.61
206.0573597773 	 19.19
221.0808348736 	 100
318.1335987256 	 0
END IONS

BEGIN IONS
PEPMASS=360.2544
CHARGE=1
MSLEVEL=2
RT=0
SOURCE_INSTRUMENT=qTOF
FILENAME=CCMSLIB00000085411.ms
IONMODE=Positive
ORGANISM=Natural
NAME=MLS002153959-01!Napelline5008-52-6
PI=GNPS
DATACOLLECTOR=GNPS
SMILES=CCN1C[C@]2(C)CC[C@@H]([C@]34[C@@H]2C[C@@H](C14)[C@@]12C[C@@H](C(=C)[C@H]2O)[C@H](C[C@@H]31)O)O
INCHI=InChI=1S/C22H33NO3/c1-4-23-10-20(3)6-5-17(25)22-15(20)7-13(18(22)23)21-9-12(11(2)19(21)26)14(24)8-16(21)22/h12-19,24-26H,2,4-10H2,1,3H3/t12-,13-,14-,15+,16+,17-,18?,19+,20-,21-,22-/m0/s1
FORMULA=C22H33NO3
PUBMED=N/A
SUBMITUSER=BIOADREM
LIBRARYQUALITY=0
SPECTRUMID=CCMSLIB00000085411
SCANS=3444
ID=CCMSLIB00000085411
91.0542261926 	 0.55
93.0698762568 	 0.51
105.0698762568 	 2.47
107.085526321 	 3.74
117.0698762568 	 2.25
119.085526321 	 1.28
128.0620512247 	 0.57
129.0698762568 	 0.94
131.085526321 	 1.73
133.1011763852 	 0.99
141.0698762568 	 0.7
143.085526321 	 1.74
145.1011763852 	 3.17
147.1168264494 	 2.89
155.085526321 	 1.4
157.1011763852 	 2.13
159.1168264494 	 2.08
167.085526321 	 0.81
169.1011763852 	 1.89
173.1324765136 	 0.64
179.085526321 	 0.65
180.0933513531 	 0.52
181.1011763852 	 1.04
183.1168264494 	 1.07
195.1168264494 	 1.55
206.1090014173 	 0.54
211.1481265778 	 0.65
221.1324765136 	 0.76
237.163776642 	 1.85
281.1899913925 	 0.66
324.2321905582 	 2.1
342.2427552445 	 100
360.2533199308 	 40.09
END IONS

BEGIN IONS
PEPMASS=274.064
CHARGE=1
MSLEVEL=2
RT=0
SOURCE_INSTRUMENT=qTOF
FILENAME=CCMSLIB00000085418.ms
IONMODE=Positive
ORGANISM=Natural
NAME=MLS001306441-01!
PI=GNPS
DATACOLLECTOR=GNPS
SMILES=CC(c1ccc2c3cc(ccc3[nH]c2c1)Cl)C(=O)O
INCHI=InChI=1S/C15H12ClNO2/c1-8(15(18)19)9-2-4-11-12-7-10(16)3-5-13(12)17-14(11)6-9/h2-8,17H,1H3,(H,18,19)
FORMULA=C15H12ClNO2
PUBMED=N/A
SUBMITUSER=BIOADREM
LIBRARYQUALITY=0
SPECTRUMID=CCMSLIB00000085418
SCANS=3449
ID=CCMSLIB00000085418
165.0698762568 	 1.29
167.072950262 	 4.44
177.0573001978 	 0.38
178.0651252299 	 0.43
191.072950262 	 2.56
192.0807752941 	 26.24
193.0886003262 	 100
201.0339779399 	 2.79
227.0496280041 	 1
228.0574530362 	 19.14
274.0629323446 	 0
END IONS

BEGIN IONS
PEPMASS=369.2398
CHARGE=1
MSLEVEL=2
RT=0
SOURCE_INSTRUMENT=qTOF
FILENAME=CCMSLIB00000085419.ms
IONMODE=Positive
ORGANISM=Natural
NAME=MLS002154153-01!Perindopril82834-16-0
PI=GNPS
DATACOLLECTOR=GNPS
SMILES=CCC[C@@H](C(=O)OCC)N[C@@H](C)C(=O)N1[C@H]2CCCC[C@H]2C[C@H]1C(=O)O
INCHI=InChI=1S/C19H32N2O5/c1-4-8-14(19(25)26-5-2)20-12(3)17(22)21-15-10-7-6-9-13(15)11-16(21)18(23)24/h12-16,20H,4-11H2,1-3H3,(H,23,24)/t12-,13-,14-,15-,16-/m0/s1
FORMULA=C19H32N2O5
PUBMED=N/A
SUBMITUSER=BIOADREM
LIBRARYQUALITY=0
SPECTRUMID=CCMSLIB00000085419
SCANS=3450
ID=CCMSLIB00000085419
97.1011763852 	 0.25
98.0964253583 	 45.69
107.085526321 	 0.23
124.1120754225 	 8.06
130.0862546025 	 1.55
135.0804409431 	 0.29
144.1019046667 	 4.77
152.1069900446 	 1.28
170.1175547309 	 26.1
172.1332047951 	 100
224.1645049235 	 0.94
369.2383981481 	 0.6
END IONS

BEGIN IONS
PEPMASS=206.14
CHARGE=1
MSLEVEL=2
RT=0
SOURCE_INSTRUMENT=qTOF
FILENAME=CCMSLIB00000085420.ms
IONMODE=Positive
ORGANISM=Natural
NAME=MLS002154228-01!PHENETHYLBIGUANIDE HYDROCHLORIDE
PI=GNPS
DATACOLLECTOR=GNPS
SMILES=c1ccc(cc1)CCNC(=N)NC(=N)N
INCHI=InChI=1S/C10H15N5/c11-9(12)15-10(13)14-7-6-8-4-2-1-3-5-8/h1-5H,6-7H2,(H6,11,12,13,14,15)
FORMULA=C10H15N5
PUBMED=N/A
SUBMITUSER=BIOADREM
LIBRARYQUALITY=0
SPECTRUMID=CCMSLIB00000085420
SCANS=3451
ID=CCMSLIB00000085420
103.0542261926 	 29.14
105.0698762568 	 100
130.0651252299 	 3.6
147.0916743314 	 2.15
164.1182234329 	 4.39
206.1400215075 	 0
END IONS

BEGIN IONS
PEPMASS=341.1415
CHARGE=1
MSLEVEL=2
RT=0
SOURCE_INSTRUMENT=qTOF
FILENAME=CCMSLIB00000085421.ms
IONMODE=Positive
ORGANISM=Natural
NAME=MLS000860079-01!L-741,626
PI=GNPS
DATACOLLECTOR=GNPS
SMILES=c1ccc2c(c1)c(c[nH]2)CN1CCC(CC1)(c1ccc(cc1)Cl)O
INCHI=InChI=1S/C20H21ClN2O/c21-17-7-5-16(6-8-17)20(24)9-11-23(12-10-20)14-15-13-22-19-4-2-1-3-18(15)19/h1-8,13,22,24H,9-12,14H2
FORMULA=C20H21ClN2O
PUBMED=N/A
SUBMITUSER=BIOADREM
LIBRARYQUALITY=0
SPECTRUMID=CCMSLIB00000085421
SCANS=3452
ID=CCMSLIB00000085421
102.0464011605 	 0.45
103.0542261926 	 2.39
125.0152538705 	 1.59
129.0698762568 	 0.36
130.0651252299 	 100
137.0152538705 	 0.48
139.0309039347 	 1.08
165.0465539989 	 1.52
167.0622040631 	 0.45
194.0731031004 	 22.3
212.0836677867 	 1.27
341.1415170166 	 0
END IONS

BEGIN IONS
PEPMASS=587.308
CHARGE=1
MSLEVEL=2
RT=0
SOURCE_INSTRUMENT=qTOF
FILENAME=CCMSLIB00000085422.ms
IONMODE=Positive
ORGANISM=Natural
NAME=MLS001148144-01!
PI=GNPS
DATACOLLECTOR=GNPS
SMILES=C[C@H]1[C@@H]([C@H]([C@H]([C@@H](O1)O[C@H]1C[C@H]([C@]2(CO)[C@@H]3C(CC[C@@]2(C1)O)[C@]1(CC[C@H](C2CC(=O)OC2)[C@@]1(C)C[C@H]3O)O)O)O)O)O
INCHI=InChI=1S/C29H46O12/c1-13-22(34)23(35)24(36)25(40-13)41-15-8-19(32)28(12-30)21-17(3-5-27(28,37)9-15)29(38)6-4-16(14-7-20(33)39-11-14)26(29,2)10-18(21)31/h13-19,21-25,30-32,34-38H,3-12H2,1-2H3/t13-,14?,15-,16+,17?,18+,19+,21+,22-,23+,24+,25-,26+,27-,28+,29-/m0/s1
FORMULA=C29H46O12
PUBMED=N/A
SUBMITUSER=BIOADREM
LIBRARYQUALITY=0
SPECTRUMID=CCMSLIB00000085422
SCANS=3453
ID=CCMSLIB00000085422
119.085526321 	 15.75
129.0698762568 	 25.79
131.085526321 	 14.37
141.0698762568 	 64.47
142.0777012889 	 10.14
143.085526321 	 36.22
144.0933513531 	 12.2
145.1011763852 	 34.55
147.0804409431 	 17.13
157.1011763852 	 100
159.0804409431 	 13.78
169.1011763852 	 20.18
183.1168264494 	 16.93
185.1324765136 	 9.94
187.1117410715 	 24.02
191.1066556936 	 12.6
229.1223057578 	 14.37
237.163776642 	 13.39
247.1481265778 	 17.22
263.1794267062 	 15.45
273.163776642 	 15.85
283.1692559504 	 21.95
293.1899913925 	 9.74
311.2005560788 	 12.11
321.1849060146 	 61.81
323.2005560788 	 31.99
325.1798206367 	 12.11
333.1849060146 	 14.86
339.1954707009 	 50
351.1954707009 	 33.56
357.2060353872 	 33.76
369.2060353872 	 31.89
387.2166000735 	 39.96
405.2271647598 	 12.6
587.3062029418 	 0
END IONS

BEGIN IONS
PEPMASS=401.3401
CHARGE=1
MSLEVEL=2
RT=0
SOURCE_INSTRUMENT=qTOF
FILENAME=CCMSLIB00000085423.ms
IONMODE=Positive
ORGANISM=Natural
NAME=MLS001333092-01!5-Cholesten-3beta-ol-7-one566-28-9
PI=GNPS
DATACOLLECTOR=GNPS
SMILES=CC(C)CCC[C@@H](C)[C@H]1CC[C@H]2[C@H]3[C@H](CC[C@]12C)[C@@]1(C)CC[C@@H](CC1=CC3=O)O
INCHI=InChI=1S/C27H44O2/c1-17(2)7-6-8-18(3)21-9-10-22-25-23(12-14-27(21,22)5)26(4)13-11-20(28)15-19(26)16-24(25)29/h16-18,20-23,25,28H,6-15H2,1-5H3/t18-,20+,21-,22+,23+,25+,26+,27-/m1/s1
FORMULA=C27H44O2
PUBMED=N/A
SUBMITUSER=BIOADREM
LIBRARYQUALITY=0
SPECTRUMID=CCMSLIB00000085423
SCANS=3454
ID=CCMSLIB00000085423
91.0542261926 	 21.55
95.085526321 	 42.36
105.0698762568 	 32.41
107.0491408147 	 17.31
107.085526321 	 38.37
109.1011763852 	 47.94
117.0698762568 	 12.46
119.085526321 	 32.11
121.0647908789 	 14.3
121.1011763852 	 20.44
123.1168264494 	 22.84
129.0698762568 	 22.9
131.085526321 	 50.28
133.1011763852 	 34.19
135.0804409431 	 16.45
135.1168264494 	 38.55
137.1324765136 	 13.75
143.085526321 	 17.07
145.1011763852 	 54.63
147.0804409431 	 16.08
147.1168264494 	 36.83
149.0960910073 	 14.55
149.1324765136 	 27.01
157.1011763852 	 72.5
159.1168264494 	 55.86
160.0882659752 	 15.29
161.0960910073 	 40.09
163.1117410715 	 35.42
163.1481265778 	 13.38
171.1168264494 	 30.82
173.0960910073 	 16.27
175.1117410715 	 85.82
177.1273911357 	 15.29
185.1324765136 	 15.84
187.1481265778 	 13.26
189.1273911357 	 22.59
197.1324765136 	 16.08
211.1481265778 	 19.89
213.163776642 	 15.16
247.242026963 	 13.75
253.1950767704 	 17.99
257.2263768988 	 12.09
271.2056414567 	 16.33
275.2369415851 	 12.83
303.2682417135 	 14.55
365.320277284 	 39.41
383.3308419703 	 100
401.3414066566 	 136.71
END IONS

BEGIN IONS
PEPMASS=513.2483
CHARGE=1
MSLEVEL=2
RT=0
SOURCE_INSTRUMENT=qTOF
FILENAME=CCMSLIB00000085424.ms
IONMODE=Positive
ORGANISM=Natural
NAME=MLS001333624-01!Bisphenol A glycerolate dimethacrylate1565-94-2
PI=GNPS
DATACOLLECTOR=GNPS
SMILES=C=C(C)C(=O)OCC(COc1ccc(cc1)C(C)(C)c1ccc(cc1)OCC(COC(=O)C(=C)C)O)O
INCHI=InChI=1S/C29H36O8/c1-19(2)27(32)36-17-23(30)15-34-25-11-7-21(8-12-25)29(5,6)22-9-13-26(14-10-22)35-16-24(31)18-37-28(33)20(3)4/h7-14,23-24,30-31H,1,3,15-18H2,2,4-6H3
FORMULA=C29H36O8
PUBMED=N/A
SUBMITUSER=BIOADREM
LIBRARYQUALITY=0
SPECTRUMID=CCMSLIB00000085424
SCANS=3455
ID=CCMSLIB00000085424
95.0491408147 	 1.04
107.0491408147 	 8.6
115.0542261926 	 0.78
117.0698762568 	 1.62
119.0491408147 	 0.56
130.0777012889 	 0.51
131.0491408147 	 0.49
131.085526321 	 0.48
132.0569658468 	 0.37
133.0647908789 	 0.83
135.0804409431 	 53.63
143.0702701873 	 100
145.0647908789 	 4.27
145.1011763852 	 1.48
147.0804409431 	 1.56
161.0960910073 	 3.75
173.0960910073 	 43.01
187.1117410715 	 0.53
191.1066556936 	 7.43
209.1172203799 	 14.98
233.1172203799 	 0.42
259.1328704441 	 0.93
513.2482941324 	 0
END IONS

BEGIN IONS
PEPMASS=399.1124
CHARGE=1
MSLEVEL=2
RT=0
SOURCE_INSTRUMENT=qTOF
FILENAME=CCMSLIB00000085426.ms
IONMODE=Positive
ORGANISM=Natural
NAME=MLS002153191-01!R-(+)-DIOA
PI=GNPS
DATACOLLECTOR=GNPS
SMILES=CCCC[C@]1(Cc2cc(c(c(c2C1=O)Cl)Cl)OCC(=O)O)C1CCCC1
INCHI=InChI=1S/C20H24Cl2O4/c1-2-3-8-20(13-6-4-5-7-13)10-12-9-14(26-11-15(23)24)17(21)18(22)16(12)19(20)25/h9,13H,2-8,10-11H2,1H3,(H,23,24)/t20-/m0/s1
FORMULA=C20H24Cl2O4
PUBMED=N/A
SUBMITUSER=BIOADREM
LIBRARYQUALITY=0
SPECTRUMID=CCMSLIB00000085426
SCANS=3457
ID=CCMSLIB00000085426
145.0647908789 	 13
150.0230789026 	 8.08
158.9762815484 	 7.34
162.0230789026 	 12.54
166.0179935247 	 16.87
172.9555461063 	 7.83
179.0258185568 	 59.47
180.0336435889 	 53.82
184.9919316126 	 7.95
195.0207331789 	 12.15
196.9919316126 	 19.71
200.9868462347 	 21.6
207.0207331789 	 8.56
211.9790212026 	 8.12
212.9868462347 	 49.61
215.0024962989 	 40.02
222.0805937815 	 12.71
224.9868462347 	 22.36
226.9872401652 	 12.27
228.9817608568 	 49.98
229.041468621 	 7.75
230.0492936531 	 15.39
230.9762815484 	 25.63
242.997410921 	 7.64
243.9688504468 	 9.12
244.0649437173 	 6.79
244.9919316126 	 6.63
245.9633711384 	 7.69
253.0262124873 	 100
258.9923255431 	 19.55
260.9868462347 	 10.85
265.0181463631 	 14.8
270.9923255431 	 19.87
272.9868462347 	 14.51
274.9872401652 	 11.23
279.0337964273 	 10.07
283.0287110494 	 7.52
285.0443611136 	 34.71
286.9872401652 	 11.83
296.080987712 	 15.89
331.049840422 	 77.3
333.0443611136 	 53.14
399.1124406788 	 2.36
END IONS

BEGIN IONS
PEPMASS=435.2177
CHARGE=1
MSLEVEL=2
RT=0
SOURCE_INSTRUMENT=qTOF
FILENAME=CCMSLIB00000085431.ms
IONMODE=Positive
ORGANISM=Natural
NAME=MLS001148106-01!DEXAMETHASONE 21-ACETATE
PI=GNPS
DATACOLLECTOR=GNPS
SMILES=C[C@@H]1C[C@H]2[C@@H]3CCC4=CC(=O)C=C[C@]4(C)[C@]3([C@H](C[C@]2(C)[C@]1(C(=O)COC(=O)C)O)O)F
INCHI=InChI=1S/C24H31FO6/c1-13-9-18-17-6-5-15-10-16(27)7-8-21(15,3)23(17,25)19(28)11-22(18,4)24(13,30)20(29)12-31-14(2)26/h7-8,10,13,17-19,28,30H,5-6,9,11-12H2,1-4H3/t13-,17+,18+,19+,21+,22+,23+,24+/m1/s1
FORMULA=C24H31FO6
PUBMED=N/A
SUBMITUSER=BIOADREM
LIBRARYQUALITY=0
SPECTRUMID=CCMSLIB00000085431
SCANS=3461
ID=CCMSLIB00000085431
105.0698762568 	 11.8
107.085526321 	 9.8
119.085526321 	 15.74
121.0647908789 	 46
131.085526321 	 12.79
135.0804409431 	 25.54
143.085526321 	 16.07
145.0647908789 	 17.78
147.0804409431 	 100
149.0960910073 	 14.29
158.072615911 	 9.86
159.0804409431 	 38.06
161.0960910073 	 23.54
171.0804409431 	 52.31
173.0960910073 	 31.68
179.085526321 	 11.76
183.0804409431 	 15.72
185.0960910073 	 33.52
196.0882659752 	 10.42
197.0960910073 	 22.83
199.1117410715 	 10
204.0933513531 	 15.35
208.0882659752 	 12.27
209.0960910073 	 23.16
210.1039160394 	 13.28
211.1117410715 	 26.26
213.1273911357 	 11.53
219.1168264494 	 11.7
221.0960910073 	 19.16
222.1039160394 	 49.2
223.1117410715 	 27.62
224.1195661036 	 13.06
225.1273911357 	 19.39
227.1430411999 	 31.72
234.1039160394 	 10.31
235.1117410715 	 29.58
236.1195661036 	 11.86
237.1273911357 	 63.43
239.1430411999 	 17.97
248.1195661036 	 12.48
249.1273911357 	 15.9
251.1430411999 	 10.68
253.1586912641 	 19.02
261.1273911357 	 18.34
262.1352161678 	 13.74
263.1430411999 	 29.76
276.150866232 	 16.05
277.1586912641 	 17.39
291.1743413283 	 19.02
301.1586912641 	 12.52
319.1692559504 	 11.49
435.2177429277 	 0
END IONS

BEGIN IONS
PEPMASS=154.051
CHARGE=1
MSLEVEL=2
RT=0
SOURCE_INSTRUMENT=qTOF
FILENAME=CCMSLIB00000085432.ms
IONMODE=Positive
ORGANISM=Natural
NAME=MLS001148121-01!
PI=GNPS
DATACOLLECTOR=GNPS
SMILES=c1cc(c(cc1N)O)C(=O)O
INCHI=InChI=1S/C7H7NO3/c8-4-1-2-5(7(10)11)6(9)3-4/h1-3,9H,8H2,(H,10,11)
FORMULA=C7H7NO3
PUBMED=N/A
SUBMITUSER=BIOADREM
LIBRARYQUALITY=0
SPECTRUMID=CCMSLIB00000085432
SCANS=3462
ID=CCMSLIB00000085432
107.0127553084 	 24.42
108.0443897878 	 22.67
119.0127553084 	 100
136.0393044099 	 66.86
154.0498690962 	 0
END IONS

BEGIN IONS
PEPMASS=342.2071
CHARGE=1
MSLEVEL=2
RT=0
SOURCE_INSTRUMENT=qTOF
FILENAME=CCMSLIB00000085433.ms
IONMODE=Positive
ORGANISM=Natural
NAME=MLS001148185-01!
PI=GNPS
DATACOLLECTOR=GNPS
SMILES=CCCNCC(COc1ccccc1C(=O)CCc1ccccc1)O
INCHI=InChI=1S/C21H27NO3/c1-2-14-22-15-18(23)16-25-21-11-7-6-10-19(21)20(24)13-12-17-8-4-3-5-9-17/h3-11,18,22-23H,2,12-16H2,1H3
FORMULA=C21H27NO3
PUBMED=N/A
SUBMITUSER=BIOADREM
LIBRARYQUALITY=0
SPECTRUMID=CCMSLIB00000085433
SCANS=3463
ID=CCMSLIB00000085433
91.0542261926 	 5.32
98.0964253583 	 14.47
103.0542261926 	 1.22
105.0698762568 	 3.39
115.0542261926 	 2.79
116.1069900446 	 100
117.0698762568 	 1.13
121.0284053726 	 0.78
128.0620512247 	 1.2
129.0698762568 	 1.06
131.0491408147 	 4.08
133.0647908789 	 2.26
145.0647908789 	 0.69
147.0440554368 	 1.11
157.0647908789 	 0.93
161.059705501 	 3.59
173.059705501 	 0.79
187.0753555652 	 0.72
205.1097296988 	 0.72
221.0960910073 	 1.16
247.1117410715 	 1.28
265.1223057578 	 5.95
324.1958050519 	 2
342.2063697382 	 11.05
END IONS

BEGIN IONS
PEPMASS=322.0299
CHARGE=1
MSLEVEL=2
RT=0
SOURCE_INSTRUMENT=qTOF
FILENAME=CCMSLIB00000085436.ms
IONMODE=Positive
ORGANISM=Natural
NAME=MLS000860069-01!(+/-)-DOI hydrochloride
PI=GNPS
DATACOLLECTOR=GNPS
SMILES=CC(Cc1cc(c(cc1OC)I)OC)N
INCHI=InChI=1S/C11H16INO2/c1-7(13)4-8-5-11(15-3)9(12)6-10(8)14-2/h5-7H,4,13H2,1-3H3
FORMULA=C11H16INO2
PUBMED=N/A
SUBMITUSER=BIOADREM
LIBRARYQUALITY=0
SPECTRUMID=CCMSLIB00000085436
SCANS=3465
ID=CCMSLIB00000085436
77.0385761284 	 1.25
89.0385761284 	 1.38
90.0464011605 	 7.6
90.0464011605 	 1.16
91.0542261926 	 18.06
102.0464011605 	 24.65
103.0542261926 	 30.5
105.0334907505 	 4.82
105.0334907505 	 2.87
105.0698762568 	 0.85
106.0413157826 	 3.19
107.0491408147 	 5.18
107.0491408147 	 31.88
115.0542261926 	 8.57
116.0620512247 	 9.84
117.0698762568 	 4.89
119.0491408147 	 2.29
120.0569658468 	 1.11
120.0569658468 	 3.35
121.0647908789 	 83
122.0362304047 	 1
122.072615911 	 3.22
122.072615911 	 12.46
131.0491408147 	 19
132.0569658468 	 9.28
133.0284053726 	 15.23
133.0647908789 	 1.27
135.0440554368 	 80.16
135.0804409431 	 2.18
137.059705501 	 62.74
145.0647908789 	 0.81
147.0440554368 	 5.5
147.0804409431 	 14.6
148.0518804689 	 8.92
148.0518804689 	 1.84
149.059705501 	 91.58
150.0675305331 	 1.25
150.0675305331 	 4.56
162.0675305331 	 1.74
163.0753555652 	 1.52
163.0753555652 	 100
177.0910056294 	 91.05
178.0988306615 	 85.77
178.0988306615 	 22.03
195.125379763 	 0
END IONS

BEGIN IONS
PEPMASS=450.3115
CHARGE=1
MSLEVEL=2
RT=0
SOURCE_INSTRUMENT=qTOF
FILENAME=CCMSLIB00000085438.ms
IONMODE=Positive
ORGANISM=Natural
NAME=MLS002153330-01!SNC80156727-74-1
PI=GNPS
DATACOLLECTOR=GNPS
SMILES=C=CCN1C[C@@H](C)N(C[C@@H]1C)C(c1ccc(cc1)C(=O)N(CC)CC)c1cccc(c1)OC
INCHI=InChI=1S/C28H39N3O2/c1-7-17-30-19-22(5)31(20-21(30)4)27(25-11-10-12-26(18-25)33-6)23-13-15-24(16-14-23)28(32)29(8-2)9-3/h7,10-16,18,21-22,27H,1,8-9,17,19-20H2,2-6H3/t21-,22+,27?/m0/s1
FORMULA=C28H39N3O2
PUBMED=N/A
SUBMITUSER=BIOADREM
LIBRARYQUALITY=0
SPECTRUMID=CCMSLIB00000085438
SCANS=3467
ID=CCMSLIB00000085438
117.0698762568 	 0.94
152.0620512247 	 3.07
153.0698762568 	 2.87
154.0777012889 	 3.04
159.0804409431 	 1.36
165.0698762568 	 13.59
166.0777012889 	 7.5
167.085526321 	 4.39
169.1011763852 	 5.2
171.0804409431 	 1.15
179.085526321 	 2.09
180.0569658468 	 1.42
180.0933513531 	 0.88
181.0647908789 	 5.65
182.072615911 	 16.6
195.0804409431 	 18.28
196.0882659752 	 20.66
197.0960910073 	 44.36
199.0753555652 	 10.62
208.0518804689 	 1.39
208.0882659752 	 1.22
210.1039160394 	 2.51
213.0910056294 	 3.45
223.0753555652 	 50.18
224.0831805973 	 37.88
225.1273911357 	 5.64
251.1066556936 	 1.9
252.138290173 	 2.68
253.1461152051 	 1.15
266.1175547309 	 0.89
268.1695903014 	 3.61
280.1332047951 	 2.29
281.1410298272 	 4.56
296.1645049235 	 100
450.3115035117 	 0
END IONS

BEGIN IONS
PEPMASS=222.1274
CHARGE=1
MSLEVEL=2
RT=0
SOURCE_INSTRUMENT=qTOF
FILENAME=CCMSLIB00000085439.ms
IONMODE=Positive
ORGANISM=Natural
NAME=MLS002153352-01!(-)-MK-801 hydrogen maleate77086-19-2
PI=GNPS
DATACOLLECTOR=GNPS
SMILES=C[C@@]12c3ccccc3C[C@@H](c3ccccc13)N2
INCHI=InChI=1S/C16H15N/c1-16-13-8-4-2-6-11(13)10-15(17-16)12-7-3-5-9-14(12)16/h2-9,15,17H,10H2,1H3/t15-,16+/m0/s1
FORMULA=C16H15N
PUBMED=N/A
SUBMITUSER=BIOADREM
LIBRARYQUALITY=0
SPECTRUMID=CCMSLIB00000085439
SCANS=3468
ID=CCMSLIB00000085439
91.0542261926 	 0.125
101.0385761284 	 0.26
103.0542261926 	 3.67
115.0542261926 	 0.22
117.0698762568 	 0.1
126.0464011605 	 1.45
127.0542261926 	 11.44
128.0620512247 	 5.98
130.0651252299 	 2.045
139.0542261926 	 0.195
144.0807752941 	 0.105
150.0464011605 	 0.165
151.0542261926 	 0.82
152.0620512247 	 1.035
153.0698762568 	 0.55
164.0620512247 	 0.165
165.0698762568 	 17.355
176.0620512247 	 2.985
177.0698762568 	 3.38
178.0777012889 	 36.615
179.085526321 	 5.385
189.0698762568 	 27.61
190.0777012889 	 34.38
193.1011763852 	 2.045
202.0777012889 	 11.305
203.085526321 	 55.32
204.0933513531 	 49.02
205.1011763852 	 100
207.1042503904 	 3.075
220.1120754225 	 0.16
222.1277254867 	 1.935
END IONS

BEGIN IONS
PEPMASS=435.2188
CHARGE=1
MSLEVEL=2
RT=0
SOURCE_INSTRUMENT=qTOF
FILENAME=CCMSLIB00000085440.ms
IONMODE=Positive
ORGANISM=Natural
NAME=MLS002153357-01!p-MPPF dihydrochloride
PI=GNPS
DATACOLLECTOR=GNPS
SMILES=COc1ccccc1N1CCN(CC1)CCN(c1ccccn1)C(=O)c1ccc(cc1)F
INCHI=InChI=1S/C25H27FN4O2/c1-32-23-7-3-2-6-22(23)29-17-14-28(15-18-29)16-19-30(24-8-4-5-13-27-24)25(31)20-9-11-21(26)12-10-20/h2-13H,14-19H2,1H3
FORMULA=C25H27FN4O2
PUBMED=N/A
SUBMITUSER=BIOADREM
LIBRARYQUALITY=0
SPECTRUMID=CCMSLIB00000085440
SCANS=3469
ID=CCMSLIB00000085440
95.0291542963 	 4.46
96.032956583 	 0.39
99.0240689184 	 0.43
106.0662680841 	 0.24
113.0397189826 	 0.52
119.060374203 	 1.6
121.0771671214 	 2.45
122.0400533336 	 0.7
124.0307510963 	 13.18
132.045532642 	 0.27
134.0611827062 	 0.74
148.0557033978 	 3.72
149.0583628303 	 0.51
150.0924828346 	 0.26
159.0928171856 	 0.26
160.0894088294 	 0.29
162.0924828346 	 0.96
175.0877318077 	 1.15
189.1033818719 	 0.45
190.111206904 	 11.32
204.1268569682 	 0.26
219.1503320645 	 3.3
244.0954766181 	 35.38
435.2190803317 	 1.48
END IONS

BEGIN IONS
PEPMASS=250.1433
CHARGE=1
MSLEVEL=2
RT=0
SOURCE_INSTRUMENT=qTOF
FILENAME=CCMSLIB00000085441.ms
IONMODE=Positive
ORGANISM=Natural
NAME=MLS002153393-01!(+/-)-PD 128,907 hydrochloride123594-64-9
PI=GNPS
DATACOLLECTOR=GNPS
SMILES=CCCN1CCO[C@@H]2c3cc(ccc3OC[C@@H]12)O
INCHI=InChI=1S/C14H19NO3/c1-2-5-15-6-7-17-14-11-8-10(16)3-4-13(11)18-9-12(14)15/h3-4,8,12,14,16H,2,5-7,9H2,1H3/t12-,14-/m1/s1
FORMULA=C14H19NO3
PUBMED=N/A
SUBMITUSER=BIOADREM
LIBRARYQUALITY=0
SPECTRUMID=CCMSLIB00000085441
SCANS=3470
ID=CCMSLIB00000085441
91.0542261926 	 3.27
93.0698762568 	 2.8
103.0542261926 	 3.27
107.0491408147 	 3.62
115.0542261926 	 1.87
119.0491408147 	 8.46
121.0647908789 	 6.71
123.0440554368 	 4.11
134.060039852 	 2.31
135.0440554368 	 2.9
135.0678648841 	 1.87
147.0440554368 	 100
149.059705501 	 9.52
161.059705501 	 1.8
162.0549544741 	 13.11
163.0627795062 	 14.61
164.0706045383 	 3.12
188.0706045383 	 1.75
190.0862546025 	 6.25
206.0811692246 	 5.9
207.0889942567 	 8.63
208.0968192888 	 4.99
222.1488548593 	 2.71
250.1437694814 	 21.91
END IONS

BEGIN IONS
PEPMASS=312.1236
CHARGE=1
MSLEVEL=2
RT=0
SOURCE_INSTRUMENT=qTOF
FILENAME=CCMSLIB00000085442.ms
IONMODE=Positive
ORGANISM=Natural
NAME=MLS002153404-01!IC 261
PI=GNPS
DATACOLLECTOR=GNPS
SMILES=COc1cc(c(/C=C\2/c3ccccc3N=C2O)c(c1)OC)OC
INCHI=InChI=1S/C18H17NO4/c1-21-11-8-16(22-2)14(17(9-11)23-3)10-13-12-6-4-5-7-15(12)19-18(13)20/h4-10H,1-3H3,(H,19,20)/b13-10-
FORMULA=C18H17NO4
PUBMED=N/A
SUBMITUSER=BIOADREM
LIBRARYQUALITY=0
SPECTRUMID=CCMSLIB00000085442
SCANS=3471
ID=CCMSLIB00000085442
130.0651252299 	 3.26
154.0651252299 	 3.07
155.072950262 	 2.23
158.060039852 	 4.18
166.0651252299 	 8.03
167.072950262 	 4.47
170.060039852 	 6.31
180.0807752941 	 5.24
183.0678648841 	 15.68
184.0756899162 	 4.83
194.060039852 	 16.54
198.0549544741 	 4.24
206.060039852 	 3.91
207.0678648841 	 5.84
208.0756899162 	 7.81
210.0913399804 	 4.98
211.0627795062 	 27.58
220.0756899162 	 4.67
221.047129442 	 3.92
222.0549544741 	 45.78
223.0627795062 	 10.42
226.0862546025 	 13.33
235.0627795062 	 4.77
236.0706045383 	 22.62
237.0784295704 	 5.57
238.0862546025 	 4.47
239.0576941283 	 10.65
250.0498690962 	 17.55
250.0862546025 	 12.01
251.0576941283 	 25.05
254.0811692246 	 24.82
264.0655191604 	 19.18
265.0733441925 	 11.44
266.0811692246 	 30.28
267.0526087504 	 29.3
269.1046443209 	 9.06
278.0811692246 	 2.53
279.0889942567 	 4.4
280.0968192888 	 28.15
282.0760838467 	 100
296.0917339109 	 7.91
297.099558943 	 19.95
312.1230340393 	 2.77
END IONS

BEGIN IONS
PEPMASS=336.1967
CHARGE=1
MSLEVEL=2
RT=0
SOURCE_INSTRUMENT=qTOF
FILENAME=CCMSLIB00000085445.ms
IONMODE=Positive
ORGANISM=Natural
NAME=MLS000860061-01!SKF-89976A
PI=GNPS
DATACOLLECTOR=GNPS
SMILES=c1ccc(cc1)C(=CCCN1CCCC(C1)C(=O)O)c1ccccc1
INCHI=InChI=1S/C22H25NO2/c24-22(25)20-13-7-15-23(17-20)16-8-14-21(18-9-3-1-4-10-18)19-11-5-2-6-12-19/h1-6,9-12,14,20H,7-8,13,15-17H2,(H,24,25)
FORMULA=C22H25NO2
PUBMED=N/A
SUBMITUSER=BIOADREM
LIBRARYQUALITY=0
SPECTRUMID=CCMSLIB00000085445
SCANS=3472
ID=CCMSLIB00000085445
91.0542261926 	 14.72
96.0807752941 	 0.44
102.0464011605 	 0.73
103.0542261926 	 6.5
105.0698762568 	 0.58
108.0807752941 	 0.41
115.0542261926 	 1.2
122.0964253583 	 0.9
123.1042503904 	 0.47
126.0464011605 	 1.86
127.0542261926 	 10.8
128.0620512247 	 68.47
129.0698762568 	 100
141.0698762568 	 0.26
142.0862546025 	 5.55
145.0647908789 	 2.97
150.0913399804 	 0.4
152.0620512247 	 0.67
153.0698762568 	 0.55
165.0698762568 	 4.63
166.0777012889 	 6.87
167.085526321 	 3.61
168.1019046667 	 6.65
179.085526321 	 3.39
181.1011763852 	 4.88
191.085526321 	 0.58
192.0933513531 	 1.72
198.1277254867 	 0.25
207.1168264494 	 1.95
258.1488548593 	 0.58
318.1852403656 	 1.54
336.1958050519 	 21.44
END IONS

BEGIN IONS
PEPMASS=374.0743
CHARGE=1
MSLEVEL=2
RT=0
SOURCE_INSTRUMENT=qTOF
FILENAME=CCMSLIB00000085446.ms
IONMODE=Positive
ORGANISM=Natural
NAME=MLS000862194-01!R(+)-6-Bromo-APB hydrobromide
PI=GNPS
DATACOLLECTOR=GNPS
SMILES=C=CCN1CCc2c(cc(c(c2Br)O)O)[C@H](C1)c1ccccc1
INCHI=InChI=1S/C19H20BrNO2/c1-2-9-21-10-8-14-15(11-17(22)19(23)18(14)20)16(12-21)13-6-4-3-5-7-13/h2-7,11,16,22-23H,1,8-10,12H2/t16-/m1/s1
FORMULA=C19H20BrNO2
PUBMED=N/A
SUBMITUSER=BIOADREM
LIBRARYQUALITY=0
SPECTRUMID=CCMSLIB00000085446
SCANS=3473
ID=CCMSLIB00000085446
91.0542261926 	 3.61
105.0698762568 	 5.09
118.0413157826 	 3.05
119.072950262 	 2.83
136.0518804689 	 100
147.0440554368 	 7.89
148.0518804689 	 5.68
160.0518804689 	 9.55
160.1120754225 	 29.97
161.059705501 	 6.21
165.0698762568 	 6.92
166.0777012889 	 3.71
178.0777012889 	 3.65
179.085526321 	 6.36
191.085526321 	 4.17
192.0933513531 	 9.39
193.0647908789 	 2.99
194.072615911 	 6.23
195.0804409431 	 4.78
207.0804409431 	 7.65
210.0675305331 	 11.52
211.0753555652 	 10.05
212.0831805973 	 5.72
214.9702180689 	 46.52
219.0804409431 	 3.73
220.0882659752 	 5.78
221.0960910073 	 4.41
223.0753555652 	 10.6
224.0831805973 	 9.96
225.0910056294 	 17.05
226.0988306615 	 8.78
236.0831805973 	 12.91
237.0910056294 	 6.8
238.0988306615 	 20.86
239.965467042 	 16.02
252.1019046667 	 3.95
253.1097296988 	 6.61
253.9811171062 	 2.99
254.1175547309 	 12.1
332.0280672988 	 31.09
374.0750174914 	 33.01
END IONS

BEGIN IONS
PEPMASS=275.0944
CHARGE=1
MSLEVEL=2
RT=0
SOURCE_INSTRUMENT=qTOF
FILENAME=CCMSLIB00000085447.ms
IONMODE=Positive
ORGANISM=Natural
NAME=MLS001032114-01!
PI=GNPS
DATACOLLECTOR=GNPS
SMILES=c1ccc(cc1)P(=O)(CC(=NN)O)c1ccccc1
INCHI=InChI=1S/C14H15N2O2P/c15-16-14(17)11-19(18,12-7-3-1-4-8-12)13-9-5-2-6-10-13/h1-10H,11,15H2,(H,16,17)
FORMULA=C14H15N2O2P
PUBMED=N/A
SUBMITUSER=BIOADREM
LIBRARYQUALITY=0
SPECTRUMID=CCMSLIB00000085447
SCANS=3474
ID=CCMSLIB00000085447
95.0045126063 	 1.25
109.0201626705 	 0.68
122.9994272284 	 2.13
128.0620512247 	 2.99
141.0099919147 	 0.35
154.0777012889 	 2.04
165.0099919147 	 1.5
171.0358127347 	 4.46
173.0514627989 	 13.75
183.0358127347 	 8.48
199.0307273568 	 1.3
201.046377421 	 100
219.0569421073 	 22.65
243.0569421073 	 3.11
275.0943902461 	 0.14
END IONS

BEGIN IONS
PEPMASS=393.1224
CHARGE=1
MSLEVEL=2
RT=0
SOURCE_INSTRUMENT=qTOF
FILENAME=CCMSLIB00000085449.ms
IONMODE=Positive
ORGANISM=Natural
NAME=MLS002153336-01!1,3-Dipropyl-8-(p-sulfophenyl)xanthine
PI=GNPS
DATACOLLECTOR=GNPS
SMILES=CCCn1c2c(c(=O)n(CCC)c1=O)[nH]c(c1ccc(cc1)S(=O)(=O)O)n2
INCHI=InChI=1S/C17H20N4O5S/c1-3-9-20-15-13(16(22)21(10-4-2)17(20)23)18-14(19-15)11-5-7-12(8-6-11)27(24,25)26/h5-8H,3-4,9-10H2,1-2H3,(H,18,19)(H,24,25,26)
FORMULA=C17H20N4O5S
PUBMED=N/A
SUBMITUSER=BIOADREM
LIBRARYQUALITY=0
SPECTRUMID=CCMSLIB00000085449
SCANS=3475
ID=CCMSLIB00000085449
103.0416501336 	 0.84
104.0494751657 	 1
157.0634482082 	 1.59
173.034553383 	 0.7
182.0362304047 	 1.1
183.0460835845 	 1.3
184.006289722 	 5.9
185.0583628303 	 13.83
201.0480949572 	 0.93
202.0168544083 	 1.55
202.0611024845 	 0.72
210.0311450268 	 1.44
211.0376273882 	 4.43
212.0038844188 	 1.6
213.0043158871 	 0.81
217.0481920745 	 0.86
228.0641764897 	 2.18
229.0481920745 	 1.78
230.0586971813 	 0.76
238.0009075309 	 0.84
239.0359128287 	 1.14
248.9991333919 	 1.6
251.008732563 	 1.08
259.0825662081 	 0.66
266.0230024187 	 100
267.0274566324 	 11.86
268.0240482762 	 4.55
269.0226680677 	 1.1
280.0750379892 	 3.16
284.033567105 	 5.86
290.059387925 	 5.14
292.0022669766 	 22.34
293.0100920087 	 3.25
308.0699526113 	 11.84
309.0288160781 	 64.93
310.0155117376 	 33.62
351.0757662707 	 38.62
352.0802204844 	 7.05
393.1227164633 	 12.08
END IONS

BEGIN IONS
PEPMASS=372.1376
CHARGE=1
MSLEVEL=2
RT=0
SOURCE_INSTRUMENT=qTOF
FILENAME=CCMSLIB00000085450.ms
IONMODE=Positive
ORGANISM=Natural
NAME=MLS002153475-01!SU 6656
PI=GNPS
DATACOLLECTOR=GNPS
SMILES=CN(C)S(=O)(=O)c1ccc2c(c1)/C(=C/c1cc3CCCCc3[nH]1)/C(=N2)O
INCHI=InChI=1S/C19H21N3O3S/c1-22(2)26(24,25)14-7-8-18-15(11-14)16(19(23)21-18)10-13-9-12-5-3-4-6-17(12)20-13/h7-11,20H,3-6H2,1-2H3,(H,21,23)/b16-10-
FORMULA=C19H21N3O3S
PUBMED=N/A
SUBMITUSER=BIOADREM
LIBRARYQUALITY=0
SPECTRUMID=CCMSLIB00000085450
SCANS=3476
ID=CCMSLIB00000085450
118.0651252299 	 3.09
119.072950262 	 2.24
130.0651252299 	 1.75
132.0807752941 	 3.7
165.0698762568 	 1.88
167.0763210804 	 1.88
168.0807752941 	 2.62
180.0807752941 	 9.16
182.060039852 	 4.17
191.0815035756 	 1.94
192.0807752941 	 5.35
206.0872201177 	 2.9
207.0916743314 	 8.92
209.1073243956 	 1.86
211.0865889535 	 2.57
218.0964253583 	 7.59
221.0709388893 	 12.05
222.0787639214 	 6.72
223.0865889535 	 5.29
233.1073243956 	 3.02
234.0787639214 	 10.78
235.0865889535 	 87.18
236.0944139856 	 50.9
239.1178890819 	 3.46
245.1073243956 	 2.76
246.0913399804 	 3.24
247.0865889535 	 5.95
248.0944139856 	 3.71
249.1022390177 	 2.71
254.0685931656 	 3.64
261.1022390177 	 39.81
262.1100640498 	 28.23
263.1178890819 	 100
267.0764181977 	 17.59
267.112803704 	 42.09
268.0842432298 	 4.03
277.0971536398 	 2.45
278.1049786719 	 2.16
279.0889942567 	 1.83
279.1076212088 	 1.87
295.1077183261 	 32.84
296.1155433582 	 12.29
297.1181858951 	 1.93
330.0906880534 	 2.29
372.137638246 	 8.41
END IONS

BEGIN IONS
PEPMASS=310.2
CHARGE=1
MSLEVEL=2
RT=0
SOURCE_INSTRUMENT=qTOF
FILENAME=CCMSLIB00000085451.ms
IONMODE=Positive
ORGANISM=Natural
NAME=MLS002154017-01!
PI=GNPS
DATACOLLECTOR=GNPS
SMILES=CC(C)(C)NCC(COc1cccc2CC(C(Cc12)O)O)O
INCHI=InChI=1S/C17H27NO4/c1-17(2,3)18-9-12(19)10-22-16-6-4-5-11-7-14(20)15(21)8-13(11)16/h4-6,12,14-15,18-21H,7-10H2,1-3H3
FORMULA=C17H27NO4
PUBMED=N/A
SUBMITUSER=BIOADREM
LIBRARYQUALITY=0
SPECTRUMID=CCMSLIB00000085451
SCANS=3477
ID=CCMSLIB00000085451
91.0542261926 	 4.2
103.0542261926 	 3.28
105.0698762568 	 3.98
107.0491408147 	 5.82
115.0542261926 	 10.64
116.0620512247 	 3.97
117.0698762568 	 18.81
119.085526321 	 3.94
127.0542261926 	 4.33
128.0620512247 	 15.24
129.0698762568 	 12.92
131.0491408147 	 7.41
131.085526321 	 5.35
132.0569658468 	 5.57
133.0647908789 	 9.36
135.0804409431 	 2.14
141.0698762568 	 5.3
143.085526321 	 18.69
144.0569658468 	 5.59
145.0647908789 	 65.69
147.0804409431 	 40.2
153.0698762568 	 9.23
155.085526321 	 23.24
157.0647908789 	 19.43
159.0804409431 	 41.03
160.0518804689 	 3.5
161.059705501 	 3.14
161.0960910073 	 3.05
163.0753555652 	 4.38
165.0698762568 	 6.46
168.0569658468 	 3.3
171.0804409431 	 61.69
173.0960910073 	 9.5
175.0753555652 	 9.46
183.0804409431 	 56.01
189.0910056294 	 2.66
201.0910056294 	 100
219.1015703157 	 2.59
236.1281194172 	 43.35
254.1386841035 	 34.8
310.2012843603 	 2.11
END IONS

BEGIN IONS
PEPMASS=354.0294
CHARGE=1
MSLEVEL=2
RT=0
SOURCE_INSTRUMENT=qTOF
FILENAME=CCMSLIB00000085455.ms
IONMODE=Positive
ORGANISM=Natural
NAME=MLS001304028-01!
PI=GNPS
DATACOLLECTOR=GNPS
SMILES=c1ccc(c(c1)CC(=O)OCC(=O)O)Nc1c(cccc1Cl)Cl
INCHI=InChI=1S/C16H13Cl2NO4/c17-11-5-3-6-12(18)16(11)19-13-7-2-1-4-10(13)8-15(22)23-9-14(20)21/h1-7,19H,8-9H2,(H,20,21)
FORMULA=C16H13Cl2NO4
PUBMED=N/A
SUBMITUSER=BIOADREM
LIBRARYQUALITY=0
SPECTRUMID=CCMSLIB00000085455
SCANS=3479
ID=CCMSLIB00000085455
179.072950262 	 0.97
180.0807752941 	 3.07
214.041802972 	 100
215.0496280041 	 55.53
250.0184807141 	 1.69
354.0294393309 	 0
END IONS

BEGIN IONS
PEPMASS=199.1246
CHARGE=1
MSLEVEL=2
RT=0
SOURCE_INSTRUMENT=qTOF
FILENAME=CCMSLIB00000085457.ms
IONMODE=Positive
ORGANISM=Natural
NAME=MLS001401372-01!9-AMINO-1,2,3,4-TETRAHYDROACRIDINE HYDROCHLORIDE
PI=GNPS
DATACOLLECTOR=GNPS
SMILES=c1ccc2c(c1)c(=N)c1CCCCc1[nH]2
INCHI=InChI=1S/C13H14N2/c14-13-9-5-1-3-7-11(9)15-12-8-4-2-6-10(12)13/h1,3,5,7H,2,4,6,8H2,(H2,14,15)
FORMULA=C13H14N2
PUBMED=N/A
SUBMITUSER=BIOADREM
LIBRARYQUALITY=0
SPECTRUMID=CCMSLIB00000085457
SCANS=3481
ID=CCMSLIB00000085457
103.0542261926 	 1.80026794685721
104.0494751657 	 0.410293625097689
115.0542261926 	 0.530311488221503
116.0494751657 	 2.58736183990175
117.0698762568 	 0.901529529976555
118.0651252299 	 1.10807189907335
127.0542261926 	 0.756391648989617
128.0494751657 	 0.655911577537122
130.0651252299 	 3.67589594730379
131.072950262 	 0.37959138104276
140.0494751657 	 1.21134308362175
144.0807752941 	 41.0768114323992
154.0651252299 	 1.00759182762086
155.060374203 	 1.50161884559562
156.0681992351 	 1.70816121469242
157.0760242672 	 5.18030590599531
158.0838492993 	 7.02244054929106
166.0651252299 	 0.519147035837892
167.072950262 	 1.21692530981355
169.0760242672 	 0.641956012057609
171.0916743314 	 55.8222619180529
180.0807752941 	 1.35648096460869
181.0760242672 	 1.69978787540471
182.0838492993 	 5.92274198950542
183.0916743314 	 14.7482415987496
197.1073243956 	 12.5711733839455
199.1229744598 	 100
END IONS

BEGIN IONS
PEPMASS=310.2165
CHARGE=1
MSLEVEL=2
RT=0
SOURCE_INSTRUMENT=qTOF
FILENAME=CCMSLIB00000085459.ms
IONMODE=Positive
ORGANISM=Natural
NAME=MLS002222273-01!
PI=GNPS
DATACOLLECTOR=GNPS
SMILES=c1ccc(cc1)C(CCCN1CCCCC1)(c1ccccc1)O
INCHI=InChI=1S/C21H27NO/c23-21(19-11-4-1-5-12-19,20-13-6-2-7-14-20)15-10-18-22-16-8-3-9-17-22/h1-2,4-7,11-14,23H,3,8-10,15-18H2
FORMULA=C21H27NO
PUBMED=N/A
SUBMITUSER=BIOADREM
LIBRARYQUALITY=0
SPECTRUMID=CCMSLIB00000085459
SCANS=3483
ID=CCMSLIB00000085459
91.0542261926 	 15.58
96.0807752941 	 0.48
98.0964253583 	 3.96
102.0464011605 	 0.98
103.0542261926 	 6.91
115.0542261926 	 0.88
117.0698762568 	 0.46
124.1120754225 	 7.08
126.0464011605 	 0.92
127.0542261926 	 7.93
128.0620512247 	 53.05
129.0698762568 	 100
141.0698762568 	 0.51
145.0647908789 	 3.12
165.0698762568 	 5.59
166.0777012889 	 6.51
181.1011763852 	 5.11
192.0933513531 	 2.59
207.1168264494 	 2.13
292.2059758077 	 44.59
310.216540494 	 0
END IONS

BEGIN IONS
PEPMASS=285.1849
CHARGE=1
MSLEVEL=2
RT=0
SOURCE_INSTRUMENT=qTOF
FILENAME=CCMSLIB00000085462.ms
IONMODE=Positive
ORGANISM=Natural
NAME=MLS001076149-01!
PI=GNPS
DATACOLLECTOR=GNPS
SMILES=C[C@]12CC[C@@H]3c4ccc(cc4CC[C@H]3[C@@H]1CCC2=O)OC
INCHI=InChI=1S/C19H24O2/c1-19-10-9-15-14-6-4-13(21-2)11-12(14)3-5-16(15)17(19)7-8-18(19)20/h4,6,11,15-17H,3,5,7-10H2,1-2H3/t15-,16-,17+,19+/m1/s1
FORMULA=C19H24O2
PUBMED=N/A
SUBMITUSER=BIOADREM
LIBRARYQUALITY=0
SPECTRUMID=CCMSLIB00000085462
SCANS=3484
ID=CCMSLIB00000085462
91.0542261926 	 7.47
105.0698762568 	 4.43
107.0491408147 	 5.32
115.0542261926 	 23.87
117.0698762568 	 6.59
119.085526321 	 6.57
121.0647908789 	 12.01
128.0620512247 	 25.99
129.0698762568 	 9.11
130.0777012889 	 4.95
131.0491408147 	 7.45
132.0569658468 	 6.61
135.0804409431 	 7.06
141.0698762568 	 9.28
143.085526321 	 6.4
144.0569658468 	 3.49
145.0647908789 	 9.98
147.0804409431 	 78.72
154.0777012889 	 3.92
156.0569658468 	 4.74
157.0647908789 	 3.55
158.072615911 	 53.9
161.0960910073 	 4.66
165.0698762568 	 2.94
170.072615911 	 4.8
171.0804409431 	 91.34
173.0960910073 	 100
179.085526321 	 9.26
180.0933513531 	 3.65
181.0647908789 	 4
184.0882659752 	 3.59
185.0960910073 	 13.16
187.1117410715 	 6.01
196.0882659752 	 8.09
197.0960910073 	 13.69
199.1117410715 	 9.38
208.0882659752 	 3.41
211.1117410715 	 22.56
223.1117410715 	 3
225.1273911357 	 9.3
227.1430411999 	 11
267.1743413283 	 8.6
285.1849060146 	 0
END IONS

BEGIN IONS
PEPMASS=340.1553
CHARGE=1
MSLEVEL=2
RT=0
SOURCE_INSTRUMENT=qTOF
FILENAME=CCMSLIB00000085463.ms
IONMODE=Positive
ORGANISM=Natural
NAME=MLS001148655-01!
PI=GNPS
DATACOLLECTOR=GNPS
SMILES=COc1ccc(Cc2c3cc(c(cc3ccn2)OC)OC)cc1OC
INCHI=InChI=1S/C20H21NO4/c1-22-17-6-5-13(10-18(17)23-2)9-16-15-12-20(25-4)19(24-3)11-14(15)7-8-21-16/h5-8,10-12H,9H2,1-4H3
FORMULA=C20H21NO4
PUBMED=N/A
SUBMITUSER=BIOADREM
LIBRARYQUALITY=0
SPECTRUMID=CCMSLIB00000085463
SCANS=3485
ID=CCMSLIB00000085463
115.0542261926 	 2.15
123.0440554368 	 2.68
128.0494751657 	 2.67
140.0494751657 	 0.98
142.0651252299 	 1.64
144.0443897878 	 0.99
156.0443897878 	 5.41
158.060039852 	 6.05
159.0678648841 	 3.79
170.060039852 	 2.7
171.0678648841 	 41.17
175.0753555652 	 2.79
186.0549544741 	 6.18
187.0627795062 	 8.15
188.0706045383 	 2.92
189.0784295704 	 0.95
202.0862546025 	 81.24
204.0655191604 	 1.24
238.0862546025 	 0.91
240.1019046667 	 1.76
250.0862546025 	 1.09
251.0940796346 	 0.96
252.1019046667 	 3.96
254.1175547309 	 1.16
263.0940796346 	 0.96
264.1019046667 	 2.81
266.0811692246 	 1.04
266.1175547309 	 3.38
267.0889942567 	 1
278.1175547309 	 1.61
279.0889942567 	 1.04
280.0968192888 	 13.62
281.1046443209 	 3.32
282.112469353 	 4.48
292.0968192888 	 1.27
294.0760838467 	 1.37
294.112469353 	 4.36
295.0839088788 	 1.21
296.1281194172 	 16.75
308.0917339109 	 14.16
309.099558943 	 7.06
310.1073839751 	 5.41
324.1230340393 	 100
325.1308590714 	 25.7
340.1543341677 	 51.01
END IONS

BEGIN IONS
PEPMASS=305.0809
CHARGE=1
MSLEVEL=2
RT=0
SOURCE_INSTRUMENT=qTOF
FILENAME=CCMSLIB00000085466.ms
IONMODE=Positive
ORGANISM=Natural
NAME=MLS002153368-01!MELPHALAN
PI=GNPS
DATACOLLECTOR=GNPS
SMILES=c1cc(ccc1C[C@@H](C(=O)O)N)N(CCCl)CCCl
INCHI=InChI=1S/C13H18Cl2N2O2/c14-5-7-17(8-6-15)11-3-1-10(2-4-11)9-12(16)13(18)19/h1-4,12H,5-9,16H2,(H,18,19)/t12-/m0/s1
FORMULA=C13H18Cl2N2O2
PUBMED=N/A
SUBMITUSER=BIOADREM
LIBRARYQUALITY=0
SPECTRUMID=CCMSLIB00000085466
SCANS=3487
ID=CCMSLIB00000085466
103.0542261926 	 2.74
105.0698762568 	 2.51
106.0651252299 	 17.81
117.0573001978 	 5.31
118.0651252299 	 11.85
119.072950262 	 16.18
120.0807752941 	 6.77
130.0651252299 	 17.56
131.072950262 	 9.67
132.0807752941 	 37.12
134.060039852 	 22.99
143.072950262 	 6.22
144.0807752941 	 7.13
146.0964253583 	 5.96
155.0496280041 	 5.81
158.0964253583 	 8.76
162.0913399804 	 13.01
168.0574530362 	 52.94
179.0496280041 	 4.28
181.0652780683 	 8.59
182.0731031004 	 6.73
194.0731031004 	 100
197.0601926904 	 4.45
218.0497808425 	 3.37
230.0497808425 	 7.19
242.0497808425 	 3.4
246.0446954646 	 90.27
270.0446954646 	 4.31
288.0552601509 	 10.28
305.0818092524 	 0.4
END IONS

BEGIN IONS
PEPMASS=410.1741
CHARGE=1
MSLEVEL=2
RT=0
SOURCE_INSTRUMENT=qTOF
FILENAME=CCMSLIB00000085467.ms
IONMODE=Positive
ORGANISM=Natural
NAME=MLS002153425-01!Trifluperidol hydrochloride2062-77-3
PI=GNPS
DATACOLLECTOR=GNPS
SMILES=c1cc(cc(c1)C(F)(F)F)C1(CCN(CCCC(=O)c2ccc(cc2)F)CC1)O
INCHI=InChI=1S/C22H23F4NO2/c23-19-8-6-16(7-9-19)20(28)5-2-12-27-13-10-21(29,11-14-27)17-3-1-4-18(15-17)22(24,25)26/h1,3-4,6-9,15,29H,2,5,10-14H2
FORMULA=C22H23F4NO2
PUBMED=N/A
SUBMITUSER=BIOADREM
LIBRARYQUALITY=0
SPECTRUMID=CCMSLIB00000085467
SCANS=3488
ID=CCMSLIB00000085467
95.0302971505 	 4.59
109.0459472147 	 1.06
123.0252117726 	 53.03
135.0615972789 	 0.44
147.0615972789 	 0.67
163.056511901 	 0.8
165.0721619652 	 100
194.0987110667 	 0.86
392.1632031014 	 13.11
410.1737677877 	 9.87
END IONS

BEGIN IONS
PEPMASS=468.2974
CHARGE=1
MSLEVEL=2
RT=0
SOURCE_INSTRUMENT=qTOF
FILENAME=CCMSLIB00000085468.ms
IONMODE=Positive
ORGANISM=Natural
NAME=MLS002153949-01!Delsoline509-18-2
PI=GNPS
DATACOLLECTOR=GNPS
SMILES=CCN1C[C@@]2(CC[C@@H]([C@@]34[C@@H]5C[C@@H]6[C@H](C[C@@]([C@H]5[C@H]6OC)([C@@]([C@H]([C@H]23)OC)(C14)O)O)OC)O)COC
INCHI=InChI=1S/C25H41NO7/c1-6-26-11-22(12-30-2)8-7-16(27)24-14-9-13-15(31-3)10-23(28,17(14)18(13)32-4)25(29,21(24)26)20(33-5)19(22)24/h13-21,27-29H,6-12H2,1-5H3/t13-,14-,15+,16+,17-,18+,19-,20+,21?,22+,23-,24+,25-/m1/s1
FORMULA=C25H41NO7
PUBMED=N/A
SUBMITUSER=BIOADREM
LIBRARYQUALITY=0
SPECTRUMID=CCMSLIB00000085468
SCANS=3489
ID=CCMSLIB00000085468
98.0964253583 	 3.8
108.0807752941 	 37.51
109.0886003262 	 3.49
121.0886003262 	 4.57
122.0964253583 	 20.02
124.1120754225 	 8.46
128.1069900446 	 3.64
129.0698762568 	 3.22
140.1069900446 	 24.95
141.0698762568 	 3.35
152.1069900446 	 19.2
154.1226401088 	 27.47
155.085526321 	 5.66
159.0804409431 	 3.97
167.085526321 	 4.03
171.0804409431 	 3.75
173.0960910073 	 3.29
181.1011763852 	 4.72
190.1226401088 	 4.41
193.1011763852 	 3.78
195.1168264494 	 3.27
205.1011763852 	 4.49
207.1168264494 	 4.64
209.0960910073 	 4.53
221.1324765136 	 3.29
223.1117410715 	 3.9
235.1117410715 	 3.21
249.1273911357 	 3.82
326.2114551161 	 8.65
336.1958050519 	 4.45
340.2271051803 	 6.67
354.2063697382 	 16.56
358.2376698666 	 29.77
368.2220198024 	 8.28
372.2533199308 	 11.33
376.2482345529 	 6.14
386.2325844887 	 52.46
390.2638846171 	 24.12
400.2482345529 	 14.9
404.243149175 	 3.63
418.2587992392 	 100
432.2744493034 	 5.26
436.2693639255 	 22.71
450.2850139897 	 30.83
468.295578676 	 270.59
END IONS

BEGIN IONS
PEPMASS=317.2468
CHARGE=1
MSLEVEL=2
RT=0
SOURCE_INSTRUMENT=qTOF
FILENAME=CCMSLIB00000085469.ms
IONMODE=Positive
ORGANISM=Natural
NAME=MLS000028860-01!4-PREGNEN-20ALPHA-OL-3-ONE
PI=GNPS
DATACOLLECTOR=GNPS
SMILES=C[C@@H]([C@H]1CC[C@H]2[C@@H]3CCC4=CC(=O)CC[C@]4(C)[C@H]3CC[C@]12C)O
INCHI=InChI=1S/C21H32O2/c1-13(22)17-6-7-18-16-5-4-14-12-15(23)8-10-20(14,2)19(16)9-11-21(17,18)3/h12-13,16-19,22H,4-11H2,1-3H3/t13-,16-,17+,18-,19-,20-,21+/m0/s1
FORMULA=C21H32O2
PUBMED=N/A
SUBMITUSER=BIOADREM
LIBRARYQUALITY=0
SPECTRUMID=CCMSLIB00000085469
SCANS=3490
ID=CCMSLIB00000085469
91.0542261926 	 3.2
93.0698762568 	 2.75
95.085526321 	 3.2
97.0647908789 	 46.32
105.0698762568 	 12.56
107.0491408147 	 2.05
107.085526321 	 6.88
109.0647908789 	 100
117.0698762568 	 3.63
119.085526321 	 9.84
121.0647908789 	 5.47
121.1011763852 	 7.72
123.0804409431 	 23.83
129.0698762568 	 2.78
131.085526321 	 6.38
133.1011763852 	 10.92
135.1168264494 	 4.21
137.0960910073 	 2.05
142.0777012889 	 2.28
143.085526321 	 2.26
145.1011763852 	 10.07
147.1168264494 	 9.17
149.0960910073 	 3.93
149.1324765136 	 3.96
157.1011763852 	 3.52
159.1168264494 	 6.27
161.1324765136 	 3.36
163.1117410715 	 3.23
163.1481265778 	 2.72
171.1168264494 	 4.35
173.1324765136 	 7.1
175.1481265778 	 4.6
183.1168264494 	 2.37
185.1324765136 	 2.96
187.1481265778 	 3.33
189.1273911357 	 1.97
189.163776642 	 3.71
191.1794267062 	 1.67
199.1481265778 	 3.93
211.1481265778 	 2.08
213.163776642 	 2.09
215.1794267062 	 1.97
225.163776642 	 1.61
241.1950767704 	 1.65
255.2107268346 	 2.3
273.2212915209 	 1.81
281.2263768988 	 5.92
299.2369415851 	 4.39
317.2475062714 	 1.71
END IONS

BEGIN IONS
PEPMASS=278.2855
CHARGE=1
MSLEVEL=2
RT=0
SOURCE_INSTRUMENT=qTOF
FILENAME=CCMSLIB00000085472.ms
IONMODE=Positive
ORGANISM=Natural
NAME=MLS001077289-01!2-(2,2-DICYCLOHEXYLETHYL)PIPERIDINE 2-BUTENEDIOATE
PI=GNPS
DATACOLLECTOR=GNPS
SMILES=C1CCC(CC1)C(CC1CCCCN1)C1CCCCC1
INCHI=InChI=1S/C19H35N/c1-3-9-16(10-4-1)19(17-11-5-2-6-12-17)15-18-13-7-8-14-20-18/h16-20H,1-15H2
FORMULA=C19H35N
PUBMED=N/A
SUBMITUSER=BIOADREM
LIBRARYQUALITY=0
SPECTRUMID=CCMSLIB00000085472
SCANS=3491
ID=CCMSLIB00000085472
91.0542261926 	 0.758882373232149
93.0698762568 	 1.35843230013634
95.085526321 	 19.164243827921
97.1011763852 	 4.0982933359615
100.1120754225 	 0.307166674879679
107.085526321 	 1.47669968297771
109.1011763852 	 20.85119663595
111.1168264494 	 1.11368452175627
114.1277254867 	 0.131408203157082
121.1011763852 	 1.51612214392483
123.1168264494 	 7.85821054879351
135.1168264494 	 1.48655529821449
137.1324765136 	 2.40312751523514
149.1324765136 	 0.809803051955518
151.1481265778 	 0.864008935757815
154.1590256151 	 0.315379687576997
163.1481265778 	 0.453358300891933
165.163776642 	 1.49148310583288
168.1746756793 	 2.34892163143284
177.163776642 	 0.381083789155538
179.1794267062 	 0.965850293204554
182.1903257435 	 27.942311798814
193.1950767704 	 0.129765600617619
194.1903257435 	 0.39586721201071
196.2059758077 	 32.8520507892705
210.2216258719 	 0.737528540219123
261.2576770272 	 0.0837727295126398
278.2842261287 	 100
END IONS

BEGIN IONS
PEPMASS=325.1704
CHARGE=1
MSLEVEL=2
RT=0
SOURCE_INSTRUMENT=qTOF
FILENAME=CCMSLIB00000085473.ms
IONMODE=Positive
ORGANISM=Natural
NAME=MLS001165696-01!citalopram
PI=GNPS
DATACOLLECTOR=GNPS
SMILES=CN(C)CCC[C@@]1(c2ccc(cc2)F)c2ccc(cc2CO1)C#N
INCHI=InChI=1S/C20H21FN2O/c1-23(2)11-3-10-20(17-5-7-18(21)8-6-17)19-9-4-15(13-22)12-16(19)14-24-20/h4-9,12H,3,10-11,14H2,1-2H3/t20-/m1/s1
FORMULA=C20H21FN2O
PUBMED=N/A
SUBMITUSER=BIOADREM
LIBRARYQUALITY=0
SPECTRUMID=CCMSLIB00000085473
SCANS=3492
ID=CCMSLIB00000085473
109.0448043605 	 100
115.0553690468 	 1.91
116.0506180199 	 25.71
121.0448043605 	 2.33
123.0240689184 	 1.74
129.0698762568 	 3.88
130.0651252299 	 1.98
133.0448043605 	 2.37
139.0553690468 	 1.54
140.0506180199 	 9.38
142.0662680841 	 3.04
156.0807752941 	 5.88
159.0604544247 	 2.46
166.0662680841 	 33.04
190.0651252299 	 2.96
203.0740931162 	 2.33
207.0604544247 	 3.27
214.0662680841 	 1.96
215.085526321 	 7.08
218.060039852 	 5.81
221.0635284299 	 24.07
222.071353462 	 14.49
227.072950262 	 34.53
232.0557033978 	 1.82
234.071353462 	 59.09
235.0791784941 	 12.65
236.0870035262 	 4.33
238.0662680841 	 8.55
240.0819181483 	 6.09
241.0886003262 	 7.16
242.0964253583 	 12.79
246.071353462 	 23.37
247.0791784941 	 61.75
261.0948285583 	 6.17
262.1026535904 	 55.32
307.1605028203 	 3.64
325.1710675066 	 9.08
END IONS

BEGIN IONS
PEPMASS=296.1645
CHARGE=1
MSLEVEL=2
RT=0
SOURCE_INSTRUMENT=qTOF
FILENAME=CCMSLIB00000085474.ms
IONMODE=Positive
ORGANISM=Natural
NAME=MLS002153340-01!N-Allyl-(+/-)-SKF-38393 hydrobromide104422-04-0
PI=GNPS
DATACOLLECTOR=GNPS
SMILES=C=CCN1CCc2cc(c(cc2C(C1)c1ccccc1)O)O
INCHI=InChI=1S/C19H21NO2/c1-2-9-20-10-8-15-11-18(21)19(22)12-16(15)17(13-20)14-6-4-3-5-7-14/h2-7,11-12,17,21-22H,1,8-10,13H2
FORMULA=C19H21NO2
PUBMED=N/A
SUBMITUSER=BIOADREM
LIBRARYQUALITY=0
SPECTRUMID=CCMSLIB00000085474
SCANS=3493
ID=CCMSLIB00000085474
91.0542261926 	 28.14
103.0542261926 	 11.9
105.0698762568 	 20.96
115.0542261926 	 30.29
118.0651252299 	 23.62
119.0491408147 	 40.62
123.0440554368 	 16.72
128.0620512247 	 16.85
129.0698762568 	 16.93
130.0651252299 	 8.16
131.085526321 	 6.72
132.0807752941 	 6.94
137.059705501 	 100
141.0698762568 	 5.96
143.0491408147 	 11.84
146.060039852 	 28.31
150.0549544741 	 13.16
152.0620512247 	 11.32
153.0698762568 	 7.93
160.1120754225 	 47
161.059705501 	 16.34
164.0706045383 	 50.72
165.0698762568 	 34.32
166.0777012889 	 34.98
167.085526321 	 49.06
176.0706045383 	 10.3
178.0777012889 	 32.89
179.085526321 	 15.36
181.1011763852 	 10.36
191.085526321 	 19.83
193.1011763852 	 12.68
194.072615911 	 12.51
195.0804409431 	 23.31
207.0804409431 	 11.6
209.0960910073 	 9.04
210.0675305331 	 6.75
211.0753555652 	 19.85
213.0910056294 	 35.84
225.0910056294 	 10.94
254.1175547309 	 50.09
296.1645049235 	 44.61
END IONS

BEGIN IONS
PEPMASS=334.2168
CHARGE=1
MSLEVEL=2
RT=0
SOURCE_INSTRUMENT=qTOF
FILENAME=CCMSLIB00000085475.ms
IONMODE=Positive
ORGANISM=Natural
NAME=MLS002154101-01!Deptropine citrate2169-75-7
PI=GNPS
DATACOLLECTOR=GNPS
SMILES=CN1[C@H]2CC[C@@H]1CC(C2)OC1c2ccccc2CCc2ccccc12
INCHI=InChI=1S/C23H27NO/c1-24-18-12-13-19(24)15-20(14-18)25-23-21-8-4-2-6-16(21)10-11-17-7-3-5-9-22(17)23/h2-9,18-20,23H,10-15H2,1H3/t18-,19+,20?
FORMULA=C23H27NO
PUBMED=N/A
SUBMITUSER=BIOADREM
LIBRARYQUALITY=0
SPECTRUMID=CCMSLIB00000085475
SCANS=3494
ID=CCMSLIB00000085475
91.0542261926 	 0.65
93.0698762568 	 0.35
95.0491408147 	 0.51
96.0807752941 	 0.39
98.0964253583 	 8.6
108.0807752941 	 0.34
109.0647908789 	 0.36
111.0804409431 	 0.34
115.0542261926 	 15.85
122.0964253583 	 0.96
124.1120754225 	 1.28
126.0913399804 	 3.02
140.1069900446 	 54.55
142.1226401088 	 50.95
152.0620512247 	 0.31
165.0698762568 	 2.44
178.0777012889 	 25.85
193.1011763852 	 100
334.216540494 	 62.58
END IONS

BEGIN IONS
PEPMASS=195.1016
CHARGE=1
MSLEVEL=2
RT=0
SOURCE_INSTRUMENT=qTOF
FILENAME=CCMSLIB00000085476.ms
IONMODE=Positive
ORGANISM=Natural
NAME=MLS002207117-01!2-Hydroxy-3-isopropyl-6-methylbenzoic acid548-51-6
PI=GNPS
DATACOLLECTOR=GNPS
SMILES=CC(C)c1ccc(C)c(c1O)C(=O)O
INCHI=InChI=1S/C11H14O3/c1-6(2)8-5-4-7(3)9(10(8)12)11(13)14/h4-6,12H,1-3H3,(H,13,14)
FORMULA=C11H14O3
PUBMED=N/A
SUBMITUSER=BIOADREM
LIBRARYQUALITY=0
SPECTRUMID=CCMSLIB00000085476
SCANS=3495
ID=CCMSLIB00000085476
91.0542261926 	 19.4
95.0491408147 	 17.48
105.0698762568 	 58.21
106.0777012889 	 10.23
115.0542261926 	 8.96
116.0620512247 	 24.31
121.0284053726 	 23.45
121.1011763852 	 5.97
131.0491408147 	 8.96
134.072615911 	 10.45
149.059705501 	 10.66
161.059705501 	 14.93
177.0910056294 	 100
195.1015703157 	 0
END IONS

BEGIN IONS
PEPMASS=220.1698
CHARGE=1
MSLEVEL=2
RT=0
SOURCE_INSTRUMENT=qTOF
FILENAME=CCMSLIB00000085477.ms
IONMODE=Positive
ORGANISM=Natural
NAME=MLS002153168-01!(S)-()-3-(3-Hydroxyphenyl)-N-propylpiperidine hydrochloride
PI=GNPS
DATACOLLECTOR=GNPS
SMILES=CCCN1CCC[C@H](C1)c1cccc(c1)O
INCHI=InChI=1S/C14H21NO/c1-2-8-15-9-4-6-13(11-15)12-5-3-7-14(16)10-12/h3,5,7,10,13,16H,2,4,6,8-9,11H2,1H3/t13-/m1/s1
FORMULA=C14H21NO
PUBMED=N/A
SUBMITUSER=BIOADREM
LIBRARYQUALITY=0
SPECTRUMID=CCMSLIB00000085477
SCANS=3496
ID=CCMSLIB00000085477
91.0542261926 	 1.43
93.0698762568 	 1.09
102.0464011605 	 0.62
103.0542261926 	 4.24
105.0698762568 	 13.8
107.0491408147 	 100
112.1120754225 	 15.38
115.0542261926 	 3.64
116.0620512247 	 0.87
117.0698762568 	 1.69
118.0777012889 	 0.67
121.0647908789 	 2.59
127.0542261926 	 0.59
128.0620512247 	 3.64
131.0491408147 	 7.35
132.0569658468 	 3.61
133.0647908789 	 19.39
143.085526321 	 1.13
144.0569658468 	 1.14
145.0647908789 	 5.9
146.072615911 	 10.62
148.0756899162 	 0.74
159.0804409431 	 0.62
161.0960910073 	 11.89
179.1304651409 	 0.68
220.1695903014 	 40.48
END IONS

BEGIN IONS
PEPMASS=403.1751
CHARGE=1
MSLEVEL=2
RT=0
SOURCE_INSTRUMENT=qTOF
FILENAME=CCMSLIB00000085479.ms
IONMODE=Positive
ORGANISM=Natural
NAME=MLS002172459-01!L-165,04179558-09-1
PI=GNPS
DATACOLLECTOR=GNPS
SMILES=CCCc1c(ccc(C(=O)C)c1O)OCCCOc1ccc(cc1)OCC(=O)O
INCHI=InChI=1S/C22H26O7/c1-3-5-19-20(11-10-18(15(2)23)22(19)26)28-13-4-12-27-16-6-8-17(9-7-16)29-14-21(24)25/h6-11,26H,3-5,12-14H2,1-2H3,(H,24,25)
FORMULA=C22H26O7
PUBMED=N/A
SUBMITUSER=BIOADREM
LIBRARYQUALITY=0
SPECTRUMID=CCMSLIB00000085479
SCANS=3497
ID=CCMSLIB00000085479
91.0542261926 	 3.14
95.0491408147 	 10.14
103.0542261926 	 4.86
105.0334907505 	 6.02
105.0698762568 	 20.69
107.0491408147 	 40.36
109.0284053726 	 28.58
111.0440554368 	 3.17
115.0542261926 	 2.63
117.0698762568 	 3.46
121.0284053726 	 4.08
121.0647908789 	 3.95
122.0362304047 	 3.16
123.0440554368 	 43.06
131.0491408147 	 2.09
133.0647908789 	 15.51
135.0440554368 	 25.14
135.0804409431 	 37.98
137.059705501 	 16.44
145.0647908789 	 1.89
147.0440554368 	 14.51
149.059705501 	 16.1
150.0675305331 	 27.25
151.0753555652 	 29.21
153.0546201231 	 12.85
163.0753555652 	 100
165.0546201231 	 14.12
165.0910056294 	 22.44
175.0753555652 	 5.76
177.0910056294 	 28.64
179.0702701873 	 9.72
189.0910056294 	 5.25
191.1066556936 	 4.71
193.0859202515 	 9.36
195.1015703157 	 63.81
207.1015703157 	 24.14
235.1328704441 	 3.84
357.1696498809 	 2.34
403.1751291893 	 1.1
END IONS

BEGIN IONS
PEPMASS=327.207
CHARGE=1
MSLEVEL=2
RT=0
SOURCE_INSTRUMENT=qTOF
FILENAME=CCMSLIB00000085480.ms
IONMODE=Positive
ORGANISM=Natural
NAME=MLS002207162-01!Hydroquinidine hydrochloride1476-98-8
PI=GNPS
DATACOLLECTOR=GNPS
SMILES=CC[C@H]1CN2CCC1C[C@@H]2[C@H](c1ccnc2ccc(cc12)OC)O
INCHI=InChI=1S/C20H26N2O2/c1-3-13-12-22-9-7-14(13)10-19(22)20(23)16-6-8-21-18-5-4-15(24-2)11-17(16)18/h4-6,8,11,13-14,19-20,23H,3,7,9-10,12H2,1-2H3/t13-,14?,19+,20-/m0/s1
FORMULA=C20H26N2O2
PUBMED=N/A
SUBMITUSER=BIOADREM
LIBRARYQUALITY=0
SPECTRUMID=CCMSLIB00000085480
SCANS=3498
ID=CCMSLIB00000085480
110.0964253583 	 20.46
117.0573001978 	 10.41
122.0964253583 	 4.27
136.1120754225 	 8.39
138.1277254867 	 8.36
145.0522148199 	 13.13
154.0651252299 	 10.3
157.0522148199 	 4.52
158.060039852 	 8.76
160.0756899162 	 78.08
167.072950262 	 7.47
168.138290173 	 15.58
169.0522148199 	 5.05
170.060039852 	 6.48
172.0756899162 	 42.35
174.0913399804 	 8.2
184.0756899162 	 31.43
186.0913399804 	 45.47
198.0913399804 	 21.72
200.1069900446 	 6.65
210.0913399804 	 17.09
213.1022390177 	 8.06
225.1022390177 	 6.48
226.1226401088 	 12.83
227.1178890819 	 20.74
238.1226401088 	 5.5
253.1335391461 	 18.61
265.1335391461 	 6.06
266.1539402372 	 9.65
292.1695903014 	 6.26
309.1961394029 	 100
327.2067040892 	 179.03
END IONS

BEGIN IONS
PEPMASS=495.2189
CHARGE=1
MSLEVEL=2
RT=0
SOURCE_INSTRUMENT=qTOF
FILENAME=CCMSLIB00000085482.ms
IONMODE=Positive
ORGANISM=Natural
NAME=MLS001076548-01!
PI=GNPS
DATACOLLECTOR=GNPS
SMILES=C[C@H]1C[C@H]2[C@@H]3C[C@@H](C4=CC(=O)C=C[C@]4(C)[C@]3([C@H](C[C@]2(C)[C@]1(C(=O)COC(=O)C)OC(=O)C)O)F)F
INCHI=InChI=1S/C26H32F2O7/c1-13-8-17-18-10-20(27)19-9-16(31)6-7-23(19,4)25(18,28)21(32)11-24(17,5)26(13,35-15(3)30)22(33)12-34-14(2)29/h6-7,9,13,17-18,20-21,32H,8,10-12H2,1-5H3/t13-,17-,18-,20-,21-,23-,24-,25-,26-/m0/s1
FORMULA=C26H32F2O7
PUBMED=N/A
SUBMITUSER=BIOADREM
LIBRARYQUALITY=0
SPECTRUMID=CCMSLIB00000085482
SCANS=3500
ID=CCMSLIB00000085482
107.085526321 	 11.23
119.0866691752 	 10.99
121.0659337331 	 100
128.0620512247 	 12.79
135.0804409431 	 54.47
139.0553690468 	 11.73
143.085526321 	 15.03
145.0659337331 	 16.27
147.0815837973 	 21.96
151.056511901 	 11.23
155.0866691752 	 10.57
159.0815837973 	 39.28
165.0721619652 	 21.41
169.0659337331 	 16.29
171.0804409431 	 45.85
173.0972338615 	 10.78
175.0928974073 	 17.74
177.0698762568 	 11.31
183.0815837973 	 19.14
185.0960910073 	 11.05
187.0764984194 	 13.95
193.1034620936 	 16.24
195.0804409431 	 11.57
197.0960910073 	 13.16
203.0878120294 	 22.78
209.0972338615 	 16.16
211.1117410715 	 13.66
221.0983767157 	 22.46
223.1117410715 	 14.05
229.1011763852 	 11.55
233.1324765136 	 10.33
235.1117410715 	 20.2
237.1273911357 	 11.39
245.0972338615 	 17.82
246.1039160394 	 22.75
247.1117410715 	 23.17
249.1273911357 	 12.02
251.1430411999 	 11.31
256.1246514815 	 11.28
259.1117410715 	 30.11
260.1195661036 	 35.88
261.1285339899 	 43.08
262.1352161678 	 27.79
274.1352161678 	 30.4
275.1430411999 	 26.42
277.1586912641 	 27.76
279.1390986762 	 22.7
284.1195661036 	 17.72
289.1586912641 	 23.83
299.1453269083 	 15.53
302.1301307899 	 12.55
317.1536058862 	 14.24
335.1641705725 	 12.6
495.2188857819 	 0
END IONS

BEGIN IONS
PEPMASS=337.1309
CHARGE=1
MSLEVEL=2
RT=0
SOURCE_INSTRUMENT=qTOF
FILENAME=CCMSLIB00000085483.ms
IONMODE=Positive
ORGANISM=Natural
NAME=MLS002153890-01!Berberine chloride633-65-8
PI=GNPS
DATACOLLECTOR=GNPS
SMILES=COc1ccc2cc3c4cc5c(cc4CC[n+]3cc2c1OC)OCO5
INCHI=InChI=1S/C20H18NO4/c1-22-17-4-3-12-7-16-14-9-19-18(24-11-25-19)8-13(14)5-6-21(16)10-15(12)20(17)23-2/h3-4,7-10H,5-6,11H2,1-2H3/q+1
FORMULA=C20H18NO4
PUBMED=N/A
SUBMITUSER=BIOADREM
LIBRARYQUALITY=0
SPECTRUMID=CCMSLIB00000085483
SCANS=3501
ID=CCMSLIB00000085483
220.0756899162 	 0.84
222.0913399804 	 0.25
233.0835149483 	 0.44
234.0913399804 	 0.89
235.0627795062 	 0.27
235.0991650125 	 0.36
246.0913399804 	 0.63
248.0706045383 	 1.04
250.0862546025 	 0.98
260.0706045383 	 0.46
261.0784295704 	 0.52
262.0862546025 	 1.69
263.0576941283 	 1.92
263.0940796346 	 4.16
264.0655191604 	 0.44
264.1019046667 	 1.79
274.0862546025 	 0.83
275.0940796346 	 4.15
277.0733441925 	 2.68
278.0811692246 	 67.3
288.0655191604 	 0.32
289.0733441925 	 0.68
290.0811692246 	 2.49
291.0889942567 	 4.57
292.0968192888 	 67.14
303.0889942567 	 0.21
304.0968192888 	 30.21
306.0760838467 	 36.34
320.0917339109 	 100
321.099558943 	 54.43
336.1230340393 	 24.69
337.1308590714 	 4.19
END IONS

BEGIN IONS
PEPMASS=193.1331
CHARGE=1
MSLEVEL=2
RT=0
SOURCE_INSTRUMENT=qTOF
FILENAME=CCMSLIB00000085484.ms
IONMODE=Positive
ORGANISM=Natural
NAME=MLS001056761-01!
PI=GNPS
DATACOLLECTOR=GNPS
SMILES=COc1ccccc1N1CCNCC1
INCHI=InChI=1S/C11H16N2O/c1-14-11-5-3-2-4-10(11)13-8-6-12-7-9-13/h2-5,12H,6-9H2,1H3
FORMULA=C11H16N2O
PUBMED=N/A
SUBMITUSER=BIOADREM
LIBRARYQUALITY=0
SPECTRUMID=CCMSLIB00000085484
SCANS=3502
ID=CCMSLIB00000085484
91.0542261926 	 2.63
93.0334907505 	 0.81
93.0573001978 	 1.29
94.0413157826 	 0.71
94.0651252299 	 1.34
104.0494751657 	 2.43
106.0651252299 	 0.81
108.0443897878 	 3.66
116.0494751657 	 1.19
117.0573001978 	 3.54
118.0651252299 	 15.34
119.072950262 	 3.74
120.0443897878 	 100
121.0522148199 	 18.95
132.0443897878 	 1.5
132.0807752941 	 0.89
133.0522148199 	 2.82
134.060039852 	 6.37
135.0678648841 	 4.19
136.0756899162 	 5.99
148.0756899162 	 1.5
150.0913399804 	 18.15
193.1335391461 	 3.23
END IONS

BEGIN IONS
PEPMASS=361.1992
CHARGE=1
MSLEVEL=2
RT=0
SOURCE_INSTRUMENT=qTOF
FILENAME=CCMSLIB00000085485.ms
IONMODE=Positive
ORGANISM=Natural
NAME=MLS001076142-01!
PI=GNPS
DATACOLLECTOR=GNPS
SMILES=C[C@]12CCC(=O)C=C1CC[C@H]1[C@@H]3CC[C@](C(=O)CO)([C@@]3(C)CC(=O)[C@H]21)O
INCHI=InChI=1S/C21H28O5/c1-19-7-5-13(23)9-12(19)3-4-14-15-6-8-21(26,17(25)11-22)20(15,2)10-16(24)18(14)19/h9,14-15,18,22,26H,3-8,10-11H2,1-2H3/t14-,15-,18+,19-,20-,21-/m0/s1
FORMULA=C21H28O5
PUBMED=N/A
SUBMITUSER=BIOADREM
LIBRARYQUALITY=0
SPECTRUMID=CCMSLIB00000085485
SCANS=3503
ID=CCMSLIB00000085485
91.0542261926 	 5.12
97.0647908789 	 8.16
103.0542261926 	 5.92
105.0698762568 	 28.12
107.085526321 	 11.32
117.0698762568 	 12.05
119.085526321 	 13.16
121.0647908789 	 24.93
121.1011763852 	 7.7
123.0804409431 	 9.63
128.0620512247 	 5.46
129.0698762568 	 6.16
133.1011763852 	 8.1
135.0804409431 	 7.51
135.1168264494 	 10.33
142.0777012889 	 4.91
143.085526321 	 16.41
145.1011763852 	 27.11
147.0804409431 	 10.98
148.0882659752 	 9.94
157.1011763852 	 7.79
159.0804409431 	 11.65
161.0960910073 	 15.95
163.1117410715 	 100
169.1011763852 	 6.5
173.0960910073 	 4.97
175.1117410715 	 5.03
181.1011763852 	 8.71
183.1168264494 	 14.57
185.0960910073 	 5.15
197.1324765136 	 6.69
209.1324765136 	 8.59
221.1324765136 	 5
225.1273911357 	 5.31
226.1352161678 	 5.55
227.1430411999 	 6.29
239.1430411999 	 9.51
241.1586912641 	 7.27
243.137955822 	 10.27
258.1614309183 	 18.12
269.1536058862 	 6.99
284.1770809825 	 11.38
301.1798206367 	 6.19
361.2009500093 	 10.7
END IONS

BEGIN IONS
PEPMASS=166.0863
CHARGE=1
MSLEVEL=2
RT=0
SOURCE_INSTRUMENT=qTOF
FILENAME=CCMSLIB00000085486.ms
IONMODE=Positive
ORGANISM=Natural
NAME=MLS001331704-01!BENZOCAINE94-09-7
PI=GNPS
DATACOLLECTOR=GNPS
SMILES=CCOC(=O)c1ccc(cc1)N
INCHI=InChI=1S/C9H11NO2/c1-2-12-9(11)7-3-5-8(10)6-4-7/h3-6H,2,10H2,1H3
FORMULA=C9H11NO2
PUBMED=N/A
SUBMITUSER=BIOADREM
LIBRARYQUALITY=0
SPECTRUMID=CCMSLIB00000085486
SCANS=3504
ID=CCMSLIB00000085486
92.0494751657 	 3.94
93.0573001978 	 14.02
94.0651252299 	 16.22
103.0178406863 	 1.89
120.0443897878 	 20.38
121.0284053726 	 12.39
138.0549544741 	 100
166.0862546025 	 0
END IONS

BEGIN IONS
PEPMASS=411.2095
CHARGE=1
MSLEVEL=2
RT=0
SOURCE_INSTRUMENT=qTOF
FILENAME=CCMSLIB00000085487.ms
IONMODE=Positive
ORGANISM=Natural
NAME=MLS002154124-01!Piperacetazine3819-00-9
PI=GNPS
DATACOLLECTOR=GNPS
SMILES=CC(=O)c1ccc2c(c1)N(CCCN1CCC(CC1)CCO)c1ccccc1S2
INCHI=InChI=1S/C24H30N2O2S/c1-18(28)20-7-8-24-22(17-20)26(21-5-2-3-6-23(21)29-24)13-4-12-25-14-9-19(10-15-25)11-16-27/h2-3,5-8,17,19,27H,4,9-16H2,1H3
FORMULA=C24H30N2O2S
PUBMED=N/A
SUBMITUSER=BIOADREM
LIBRARYQUALITY=0
SPECTRUMID=CCMSLIB00000085487
SCANS=3505
ID=CCMSLIB00000085487
94.0651252299 	 0.24
96.0807752941 	 3
98.0964253583 	 1.01
109.0886003262 	 0.65
110.0964253583 	 0.36
111.0804409431 	 0.31
112.1120754225 	 6.71
124.1120754225 	 7.62
128.1069900446 	 3.42
142.1226401088 	 100
170.1539402372 	 91.11
180.0807752941 	 0.3
206.0964253583 	 1.45
212.0528459841 	 3.77
222.0913399804 	 16.81
234.0913399804 	 0.34
236.0528459841 	 2.28
238.0684960483 	 0.87
254.0634106704 	 26.41
282.0947107988 	 2.87
411.2100749076 	 13.84
END IONS

BEGIN IONS
PEPMASS=285.1121
CHARGE=1
MSLEVEL=2
RT=0
SOURCE_INSTRUMENT=qTOF
FILENAME=CCMSLIB00000085490.ms
IONMODE=Positive
ORGANISM=Natural
NAME=MLS000859889-01!Caffeic acid phenethyl ester
PI=GNPS
DATACOLLECTOR=GNPS
SMILES=c1ccc(cc1)CCOC(=O)/C=C/c1ccc(c(c1)O)O
INCHI=InChI=1S/C17H16O4/c18-15-8-6-14(12-16(15)19)7-9-17(20)21-11-10-13-4-2-1-3-5-13/h1-9,12,18-19H,10-11H2/b9-7+
FORMULA=C17H16O4
PUBMED=N/A
SUBMITUSER=BIOADREM
LIBRARYQUALITY=0
SPECTRUMID=CCMSLIB00000085490
SCANS=3508
ID=CCMSLIB00000085490
77.0385761284 	 1.25
103.0542261926 	 20.5
105.0698762568 	 100
161.059705501 	 1.1
285.112135002 	 0
END IONS

BEGIN IONS
PEPMASS=258.0865
CHARGE=1
MSLEVEL=2
RT=0
SOURCE_INSTRUMENT=qTOF
FILENAME=CCMSLIB00000085492.ms
IONMODE=Positive
ORGANISM=Natural
NAME=MLS000860013-01!5-(N,N-Dimethyl)amiloride hydrochloride
PI=GNPS
DATACOLLECTOR=GNPS
SMILES=CN(C)c1c(Cl)nc(c(N)n1)C(=NC(=N)N)O
INCHI=InChI=1S/C8H12ClN7O/c1-16(2)6-4(9)13-3(5(10)14-6)7(17)15-8(11)12/h1-2H3,(H2,10,14)(H4,11,12,15,17)
FORMULA=C8H12ClN7O
PUBMED=N/A
SUBMITUSER=BIOADREM
LIBRARYQUALITY=0
SPECTRUMID=CCMSLIB00000085492
SCANS=3510
ID=CCMSLIB00000085492
93.0447241388 	 0.66
99.9948527794 	 0.53
100.9901017525 	 0.65
108.0556231761 	 0.88
113.9979267846 	 39.41
121.0508721492 	 0.69
129.0214018809 	 100
132.0210675299 	 1.79
135.0665222134 	 1.68
136.0743472455 	 2.68
158.0367175941 	 0.25
171.0431999555 	 4.68
189.0524219711 	 2.85
199.0381145776 	 52.26
217.0473365932 	 7.36
258.0864617537 	 0
END IONS

BEGIN IONS
PEPMASS=465.1353
CHARGE=1
MSLEVEL=2
RT=0
SOURCE_INSTRUMENT=qTOF
FILENAME=CCMSLIB00000085493.ms
IONMODE=Positive
ORGANISM=Natural
NAME=MLS002153186-01!ICI 204,448 hydrochloride121264-04-8
PI=GNPS
DATACOLLECTOR=GNPS
SMILES=CN(C(CN1CCCC1)c1cccc(c1)OCC(=O)O)C(=O)Cc1ccc(c(c1)Cl)Cl
INCHI=InChI=1S/C23H26Cl2N2O4/c1-26(22(28)12-16-7-8-19(24)20(25)11-16)21(14-27-9-2-3-10-27)17-5-4-6-18(13-17)31-15-23(29)30/h4-8,11,13,21H,2-3,9-10,12,14-15H2,1H3,(H,29,30)
FORMULA=C23H26Cl2N2O4
PUBMED=N/A
SUBMITUSER=BIOADREM
LIBRARYQUALITY=0
SPECTRUMID=CCMSLIB00000085493
SCANS=3511
ID=CCMSLIB00000085493
91.0542261926 	 0.59
103.0542261926 	 1.09
105.0698762568 	 0.6
108.0569658468 	 1.94
117.0573001978 	 0.83
118.0413157826 	 0.65
119.0491408147 	 4.16
120.0569658468 	 0.77
120.0807752941 	 1.39
121.0647908789 	 3.15
122.9996038063 	 0.89
131.0491408147 	 4.16
132.0807752941 	 1.59
133.0647908789 	 1.12
133.0886003262 	 0.78
134.0964253583 	 2.31
144.0807752941 	 0.64
146.060039852 	 0.59
147.0678648841 	 1.81
148.0756899162 	 1.74
149.0835149483 	 12.69
150.0913399804 	 4.9
158.9762815484 	 45.7
160.0756899162 	 6.04
160.1120754225 	 1.46
161.1199004546 	 0.71
162.0913399804 	 15.01
162.9711961705 	 1.99
177.0546201231 	 3.39
180.1019046667 	 0.53
188.1069900446 	 1.23
189.1148150767 	 8.71
190.0862546025 	 2.86
190.1226401088 	 2.69
193.0733441925 	 0.48
200.0028306499 	 2.68
208.0968192888 	 100
218.0133953362 	 2.51
248.1281194172 	 16.25
335.0474351188 	 1.78
336.0467068373 	 0.5
337.0419558104 	 1.06
394.0607394593 	 45.86
396.0552601509 	 28.44
397.063085183 	 4.3
465.1342387534 	 0.08
END IONS

BEGIN IONS
PEPMASS=330.1711
CHARGE=1
MSLEVEL=2
RT=0
SOURCE_INSTRUMENT=qTOF
FILENAME=CCMSLIB00000085494.ms
IONMODE=Positive
ORGANISM=Natural
NAME=MLS002207021-01!Sinomenine115-53-7
PI=GNPS
DATACOLLECTOR=GNPS
SMILES=CN1CC[C@@]23CC(=O)C(=C[C@@H]2[C@@H]1Cc1ccc(c(c31)O)OC)OC
INCHI=InChI=1S/C19H23NO4/c1-20-7-6-19-10-14(21)16(24-3)9-12(19)13(20)8-11-4-5-15(23-2)18(22)17(11)19/h4-5,9,12-13,22H,6-8,10H2,1-3H3/t12-,13+,19-/m1/s1
FORMULA=C19H23NO4
PUBMED=N/A
SUBMITUSER=BIOADREM
LIBRARYQUALITY=0
SPECTRUMID=CCMSLIB00000085494
SCANS=3512
ID=CCMSLIB00000085494
123.0804409431 	 7.33
137.059705501 	 18.53
151.0753555652 	 6.63
152.0620512247 	 22.61
153.0698762568 	 62.75
161.059705501 	 5.36
165.0698762568 	 13.49
166.0777012889 	 7.81
167.085526321 	 7.65
168.0569658468 	 24.94
169.0647908789 	 7.31
177.0698762568 	 5.59
179.085526321 	 14.33
180.0569658468 	 16.02
181.0647908789 	 100
183.0440554368 	 4.91
183.0804409431 	 9.28
187.0753555652 	 11.04
193.0647908789 	 14.51
195.0804409431 	 35.37
196.0518804689 	 11.65
197.059705501 	 6.81
198.0675305331 	 15.23
199.0753555652 	 8.13
207.0440554368 	 90.68
209.059705501 	 36.7
211.0753555652 	 28.11
212.0831805973 	 10.46
213.0910056294 	 32.81
223.0753555652 	 50.96
224.046795091 	 7.31
226.0624451552 	 7.36
227.0702701873 	 8.06
230.0937452836 	 5.57
239.0702701873 	 65.74
241.0859202515 	 28.42
242.0937452836 	 8.89
245.1172203799 	 8.22
255.1015703157 	 11.41
271.0964849378 	 5.25
273.112135002 	 4.84
330.1699842319 	 120.55
END IONS

BEGIN IONS
PEPMASS=391.2479
CHARGE=1
MSLEVEL=2
RT=0
SOURCE_INSTRUMENT=qTOF
FILENAME=CCMSLIB00000085497.ms
IONMODE=Positive
ORGANISM=Natural
NAME=MLS002154050-01!Digoxigenin1672-46-4
PI=GNPS
DATACOLLECTOR=GNPS
SMILES=C[C@]12CC[C@@H](C[C@H]1CC[C@@H]1[C@@H]2C[C@H]([C@]2(C)[C@H](CC[C@]12O)C1=CC(=O)OC1)O)O
INCHI=InChI=1S/C23H34O5/c1-21-7-5-15(24)10-14(21)3-4-17-18(21)11-19(25)22(2)16(6-8-23(17,22)27)13-9-20(26)28-12-13/h9,14-19,24-25,27H,3-8,10-12H2,1-2H3/t14-,15+,16-,17-,18+,19-,21+,22+,23+/m1/s1
FORMULA=C23H34O5
PUBMED=N/A
SUBMITUSER=BIOADREM
LIBRARYQUALITY=0
SPECTRUMID=CCMSLIB00000085497
SCANS=3515
ID=CCMSLIB00000085497
91.0542261926 	 20.16
93.0698762568 	 14.32
105.0698762568 	 61.5
107.085526321 	 22.54
109.0647908789 	 13.05
115.0542261926 	 14.51
117.0698762568 	 20.07
119.085526321 	 55.66
125.059705501 	 25.82
128.0620512247 	 36.68
129.0698762568 	 40.51
131.085526321 	 27.83
133.1011763852 	 45.99
142.0777012889 	 12.41
143.085526321 	 57.21
145.0647908789 	 15.42
145.1011763852 	 49.91
147.1168264494 	 64.05
157.1011763852 	 46.17
159.1168264494 	 38.96
161.1324765136 	 88.96
163.0753555652 	 27.37
165.0698762568 	 14.6
167.085526321 	 20.99
169.1011763852 	 31.75
171.1168264494 	 22.99
177.0910056294 	 21.35
181.1011763852 	 12.68
183.1168264494 	 33.3
185.1324765136 	 21.81
187.0753555652 	 13.14
187.1481265778 	 17.61
189.0910056294 	 34.58
195.1168264494 	 12.68
196.1246514815 	 12.5
197.1324765136 	 23.72
199.1481265778 	 13.87
203.1066556936 	 13.59
209.1324765136 	 20.44
211.1481265778 	 13.23
229.1223057578 	 31.11
237.1273911357 	 13.05
255.137955822 	 17.88
337.216206143 	 100
355.2267708293 	 43.98
391.2479002019 	 0
END IONS

BEGIN IONS
PEPMASS=264.1754
CHARGE=1
MSLEVEL=2
RT=0
SOURCE_INSTRUMENT=qTOF
FILENAME=CCMSLIB00000085499.ms
IONMODE=Positive
ORGANISM=Natural
NAME=MLS001074210-01!
PI=GNPS
DATACOLLECTOR=GNPS
SMILES=CNCCCC1c2ccccc2C=Cc2ccccc12
INCHI=InChI=1S/C19H21N/c1-20-14-6-11-19-17-9-4-2-7-15(17)12-13-16-8-3-5-10-18(16)19/h2-5,7-10,12-13,19-20H,6,11,14H2,1H3
FORMULA=C19H21N
PUBMED=N/A
SUBMITUSER=BIOADREM
LIBRARYQUALITY=0
SPECTRUMID=CCMSLIB00000085499
SCANS=3516
ID=CCMSLIB00000085499
91.0542261926 	 1.83
103.0542261926 	 1
115.0542261926 	 4.95
117.0698762568 	 7.12
126.0464011605 	 0.23
127.0542261926 	 1.31
128.0620512247 	 2.37
129.0698762568 	 5.29
141.0698762568 	 1.98
151.0542261926 	 0.22
152.0620512247 	 1.75
153.0698762568 	 4.52
154.0777012889 	 2.84
155.085526321 	 24.35
165.0698762568 	 7.72
177.0698762568 	 0.24
178.0777012889 	 17
189.0698762568 	 6.19
190.0777012889 	 8.26
191.085526321 	 100
202.0777012889 	 3.43
203.085526321 	 10.46
204.0933513531 	 7.59
205.1011763852 	 10.09
216.0933513531 	 1.85
217.1011763852 	 4.55
218.1090014173 	 7.64
231.1168264494 	 1.97
233.1324765136 	 3.3
264.1746756793 	 1.45
END IONS

BEGIN IONS
PEPMASS=331.228
CHARGE=1
MSLEVEL=2
RT=0
SOURCE_INSTRUMENT=qTOF
FILENAME=CCMSLIB00000085500.ms
IONMODE=Positive
ORGANISM=Natural
NAME=MLS001076300-01!17ALPHA-HYDROXYPROGESTERONE
PI=GNPS
DATACOLLECTOR=GNPS
SMILES=CC(=O)[C@]1(CC[C@H]2[C@@H]3CCC4=CC(=O)CC[C@]4(C)[C@H]3CC[C@]12C)O
INCHI=InChI=1S/C21H30O3/c1-13(22)21(24)11-8-18-16-5-4-14-12-15(23)6-9-19(14,2)17(16)7-10-20(18,21)3/h12,16-18,24H,4-11H2,1-3H3/t16-,17+,18+,19+,20+,21+/m1/s1
FORMULA=C21H30O3
PUBMED=N/A
SUBMITUSER=BIOADREM
LIBRARYQUALITY=0
SPECTRUMID=CCMSLIB00000085500
SCANS=3517
ID=CCMSLIB00000085500
91.0542261926 	 6.88
93.0698762568 	 3.29
95.085526321 	 4.66
97.0647908789 	 47.43
103.0542261926 	 3.05
105.0698762568 	 13.55
107.085526321 	 6.41
109.0647908789 	 100
117.0698762568 	 4.2
119.085526321 	 15.58
121.0647908789 	 3.41
123.0804409431 	 19.43
129.0698762568 	 3.54
131.085526321 	 10.91
133.1011763852 	 6.67
135.0804409431 	 5.72
137.0960910073 	 6.58
141.0698762568 	 3.41
142.0777012889 	 2.91
143.085526321 	 10.75
145.1011763852 	 16.58
147.0804409431 	 3.27
147.1168264494 	 11.52
149.0960910073 	 4.66
155.085526321 	 4.87
157.1011763852 	 5.02
159.1168264494 	 16.53
161.1324765136 	 6.72
163.1117410715 	 8.74
169.1011763852 	 10.19
171.1168264494 	 11.33
173.1324765136 	 6
175.1117410715 	 3.71
177.1273911357 	 4.66
183.1168264494 	 7.65
185.1324765136 	 5.08
187.1481265778 	 7.51
199.1481265778 	 7.7
205.1586912641 	 4.36
211.1481265778 	 3.52
237.163776642 	 3.26
253.1950767704 	 9.96
255.1743413283 	 5.23
269.1899913925 	 3.17
271.2056414567 	 8.72
277.1950767704 	 3.33
295.2056414567 	 4.62
313.216206143 	 4.1
331.2267708293 	 1.75
END IONS

BEGIN IONS
PEPMASS=430.2589
CHARGE=1
MSLEVEL=2
RT=0
SOURCE_INSTRUMENT=qTOF
FILENAME=CCMSLIB00000085502.ms
IONMODE=Positive
ORGANISM=Natural
NAME=MLS001148590-01!
PI=GNPS
DATACOLLECTOR=GNPS
SMILES=CCN(CCCCOC(=O)c1ccc(c(c1)OC)OC)C(C)Cc1ccc(cc1)OC
INCHI=InChI=1S/C25H35NO5/c1-6-26(19(2)17-20-9-12-22(28-3)13-10-20)15-7-8-16-31-25(27)21-11-14-23(29-4)24(18-21)30-5/h9-14,18-19H,6-8,15-17H2,1-5H3
FORMULA=C25H35NO5
PUBMED=N/A
SUBMITUSER=BIOADREM
LIBRARYQUALITY=0
SPECTRUMID=CCMSLIB00000085502
SCANS=3519
ID=CCMSLIB00000085502
80.0256657184 	 0.22
91.0542261926 	 6.7
93.0698762568 	 1.29
94.0413157826 	 0.56
103.0542261926 	 0.3
105.0698762568 	 0.23
106.0413157826 	 0.67
108.0569658468 	 1.66
109.0647908789 	 3.5
115.0542261926 	 1.41
116.0620512247 	 0.3
117.0698762568 	 2.1
119.0491408147 	 0.94
121.0647908789 	 94.33
133.0647908789 	 0.44
134.072615911 	 4.28
149.0960910073 	 100
430.2587992392 	 1.88
END IONS

BEGIN IONS
PEPMASS=302.2459
CHARGE=1
MSLEVEL=2
RT=0
SOURCE_INSTRUMENT=qTOF
FILENAME=CCMSLIB00000085503.ms
IONMODE=Positive
ORGANISM=Natural
NAME=MLS001148658-01!
PI=GNPS
DATACOLLECTOR=GNPS
SMILES=c1ccc(cc1)C(CCN1CCCCC1)(C1CCCCC1)O
INCHI=InChI=1S/C20H31NO/c22-20(18-10-4-1-5-11-18,19-12-6-2-7-13-19)14-17-21-15-8-3-9-16-21/h1,4-5,10-11,19,22H,2-3,6-9,12-17H2
FORMULA=C20H31NO
PUBMED=N/A
SUBMITUSER=BIOADREM
LIBRARYQUALITY=0
SPECTRUMID=CCMSLIB00000085503
SCANS=3520
ID=CCMSLIB00000085503
86.0151010321 	 0.23
91.0542261926 	 1.58
93.0698762568 	 0.36
95.085526321 	 0.58
96.0807752941 	 1.39
98.0964253583 	 100
105.0698762568 	 1.22
112.1120754225 	 0.33
115.0542261926 	 1.14
117.0698762568 	 3.65
119.085526321 	 0.28
128.0620512247 	 0.72
129.0698762568 	 2.27
131.085526321 	 0.86
143.085526321 	 0.76
157.1011763852 	 0.37
199.1481265778 	 0.41
284.2372759361 	 4.27
302.2478406224 	 2.25
END IONS

BEGIN IONS
PEPMASS=369.1492
CHARGE=1
MSLEVEL=2
RT=0
SOURCE_INSTRUMENT=qTOF
FILENAME=CCMSLIB00000085504.ms
IONMODE=Positive
ORGANISM=Natural
NAME=MLS002153312-01!(-)-cis-(1S,2R)-U-50488 tartrate
PI=GNPS
DATACOLLECTOR=GNPS
SMILES=CN([C@H]1CCCC[C@H]1N1CCCC1)C(=O)Cc1ccc(c(c1)Cl)Cl
INCHI=InChI=1S/C19H26Cl2N2O/c1-22(19(24)13-14-8-9-15(20)16(21)12-14)17-6-2-3-7-18(17)23-10-4-5-11-23/h8-9,12,17-18H,2-7,10-11,13H2,1H3/t17-,18+/m0/s1
FORMULA=C19H26Cl2N2O
PUBMED=N/A
SUBMITUSER=BIOADREM
LIBRARYQUALITY=0
SPECTRUMID=CCMSLIB00000085504
SCANS=3521
ID=CCMSLIB00000085504
96.0807752941 	 0.32
98.0964253583 	 0.22
110.0964253583 	 3.25
111.1042503904 	 0.42
112.1120754225 	 100
122.0964253583 	 0.26
122.9996038063 	 1.05
123.1168264494 	 0.23
124.0074288384 	 0.27
124.1120754225 	 0.34
150.1277254867 	 5.31
152.1433755509 	 71.83
158.9762815484 	 38.76
162.9711961705 	 0.85
183.1855747166 	 17.65
200.0028306499 	 0.42
218.0133953362 	 3.64
298.075995593 	 8.63
369.1494948871 	 20.47
END IONS

BEGIN IONS
PEPMASS=248.2003
CHARGE=1
MSLEVEL=2
RT=0
SOURCE_INSTRUMENT=qTOF
FILENAME=CCMSLIB00000085507.ms
IONMODE=Positive
ORGANISM=Natural
NAME=MLS000859968-01!(+/-)-8-Hydroxy-2-(dipropylamino)tetralin hydrobromide
PI=GNPS
DATACOLLECTOR=GNPS
SMILES=CCCN(CCC)C1CCc2cccc(c2C1)O
INCHI=InChI=1S/C16H25NO/c1-3-10-17(11-4-2)14-9-8-13-6-5-7-16(18)15(13)12-14/h5-7,14,18H,3-4,8-12H2,1-2H3
FORMULA=C16H25NO
PUBMED=N/A
SUBMITUSER=BIOADREM
LIBRARYQUALITY=0
SPECTRUMID=CCMSLIB00000085507
SCANS=3523
ID=CCMSLIB00000085507
91.0542261926 	 10.65
102.0464011605 	 0.42
103.0542261926 	 3.17
104.0620512247 	 1.82
105.0334907505 	 0.33
107.0491408147 	 46.45
117.0698762568 	 6.15
119.085526321 	 24.73
127.0542261926 	 2.95
128.0620512247 	 9.2
129.0698762568 	 5.3
131.0491408147 	 15.17
132.0569658468 	 42.85
145.0647908789 	 6.68
147.0804409431 	 100
248.2008904298 	 1.19
END IONS

BEGIN IONS
PEPMASS=646.0312
CHARGE=1
MSLEVEL=2
RT=0
SOURCE_INSTRUMENT=qTOF
FILENAME=CCMSLIB00000085508.ms
IONMODE=Positive
ORGANISM=Natural
NAME=MLS001076313-01!19774-82-4
PI=GNPS
DATACOLLECTOR=GNPS
SMILES=CCCCc1c(c2ccccc2o1)C(=O)c1cc(c(c(c1)I)OCCN(CC)CC)I
INCHI=InChI=1S/C25H29I2NO3/c1-4-7-11-22-23(18-10-8-9-12-21(18)31-22)24(29)17-15-19(26)25(20(27)16-17)30-14-13-28(5-2)6-3/h8-10,12,15-16H,4-7,11,13-14H2,1-3H3
FORMULA=C25H29I2NO3
PUBMED=N/A
SUBMITUSER=BIOADREM
LIBRARYQUALITY=0
SPECTRUMID=CCMSLIB00000085508
SCANS=3524
ID=CCMSLIB00000085508
119.0127553084 	 9.44
119.0491408147 	 30.1
131.0491408147 	 8.44
145.0284053726 	 3.12
146.0362304047 	 93.41
159.0440554368 	 3.53
171.0440554368 	 13.28
192.138290173 	 9.08
193.0647908789 	 8.04
201.0910056294 	 7.5
205.0647908789 	 3.61
207.0440554368 	 6.12
220.0518804689 	 15.72
220.0518804689 	 6.33
221.059705501 	 7.42
221.059705501 	 3.22
233.059705501 	 2.7
233.059705501 	 2.65
234.0675305331 	 3.89
235.0753555652 	 4.89
246.0675305331 	 11.24
247.0753555652 	 6.77
248.046795091 	 20.2
248.0831805973 	 56.1
249.0546201231 	 33.68
249.0546201231 	 2.63
249.0910056294 	 14.68
259.0753555652 	 2.91
260.0831805973 	 12.62
261.0910056294 	 15.66
262.0624451552 	 7.52
262.0988306615 	 5.03
263.0702701873 	 12.79
263.1066556936 	 4.51
263.1066556936 	 7.56
264.1144807257 	 7.44
275.0702701873 	 4.83
276.0780952194 	 10.53
276.0780952194 	 6.1
277.0859202515 	 8.01
289.0859202515 	 2.64
290.0937452836 	 2.92
290.0937452836 	 4.95
291.1015703157 	 7.27
291.137955822 	 3.61
318.125045412 	 15.52
319.1328704441 	 5.53
319.1328704441 	 27.75
320.1406954762 	 5.41
349.1672445777 	 16.45
350.1750696098 	 5.63
392.2220198024 	 379.43
END IONS

BEGIN IONS
PEPMASS=532.1878
CHARGE=1
MSLEVEL=2
RT=0
SOURCE_INSTRUMENT=qTOF
FILENAME=CCMSLIB00000085509.ms
IONMODE=Positive
ORGANISM=Natural
NAME=MLS002153844-01!Terconazole67915-31-5
PI=GNPS
DATACOLLECTOR=GNPS
SMILES=CC(C)N1CCN(CC1)c1ccc(cc1)OC[C@H]1CO[C@](Cn2cncn2)(c2ccc(cc2Cl)Cl)O1
INCHI=InChI=1S/C26H31Cl2N5O3/c1-19(2)31-9-11-32(12-10-31)21-4-6-22(7-5-21)34-14-23-15-35-26(36-23,16-33-18-29-17-30-33)24-8-3-20(27)13-25(24)28/h3-8,13,17-19,23H,9-12,14-16H2,1-2H3/t23-,26-/m0/s1
FORMULA=C26H31Cl2N5O3
PUBMED=N/A
SUBMITUSER=BIOADREM
LIBRARYQUALITY=0
SPECTRUMID=CCMSLIB00000085509
SCANS=3525
ID=CCMSLIB00000085509
108.0569658468 	 3.84
111.0916743314 	 12.27
118.0651252299 	 2.36
120.0807752941 	 5.21
125.1073243956 	 5.98
126.1151494277 	 5.66
132.0807752941 	 2.23
134.060039852 	 3.29
135.0678648841 	 2.32
136.0756899162 	 3.94
144.0807752941 	 3.51
146.0964253583 	 2.82
148.0756899162 	 10.63
158.9762815484 	 7.22
162.0913399804 	 5.06
162.1151494277 	 2.13
163.1229744598 	 6.2
164.0706045383 	 2.6
172.0756899162 	 2.17
174.0913399804 	 8.95
177.1022390177 	 32.92
179.1178890819 	 2.66
186.9711961705 	 3.61
188.1307994919 	 2.32
189.138624524 	 4.43
192.1019046667 	 54.18
205.1335391461 	 11.26
205.1699246524 	 5.28
217.1335391461 	 5.7
218.1175547309 	 3.35
219.1491892103 	 100
231.1491892103 	 5.86
234.1362788003 	 13.16
235.1441038324 	 32.36
246.1726643066 	 3.53
247.1804893387 	 5.63
256.0052359531 	 21.15
259.1804893387 	 2.13
277.191054025 	 33.66
312.0301080329 	 5.28
447.0985219491 	 16.04
459.0985219491 	 2.1
460.1063469812 	 2.61
461.1015959543 	 2.58
487.1172460185 	 3.49
490.1407211148 	 5.69
532.1876713074 	 65.9
END IONS

BEGIN IONS
PEPMASS=436.0591
CHARGE=1
MSLEVEL=2
RT=0
SOURCE_INSTRUMENT=qTOF
FILENAME=CCMSLIB00000085510.ms
IONMODE=Positive
ORGANISM=Natural
NAME=MLS002154230-01!Aztreonam78110-38-0
PI=GNPS
DATACOLLECTOR=GNPS
SMILES=C[C@H]1[C@@H](C(=O)N1S(=O)(=O)O)NC(=O)C(=NOC(C)(C)C(=O)O)c1csc(=N)[nH]1
INCHI=InChI=1S/C13H17N5O8S2/c1-5-7(10(20)18(5)28(23,24)25)16-9(19)8(6-4-27-12(14)15-6)17-26-13(2,3)11(21)22/h4-5,7H,1-3H3,(H2,14,15)(H,16,19)(H,21,22)(H,23,24,25)/t5-,7-/m0/s1
FORMULA=C13H17N5O8S2
PUBMED=N/A
SUBMITUSER=BIOADREM
LIBRARYQUALITY=0
SPECTRUMID=CCMSLIB00000085510
SCANS=3526
ID=CCMSLIB00000085510
95.0273595151 	 3.93
111.0036471851 	 2.8
113.0192972493 	 3.3
114.0133864726 	 2.56
114.9960593867 	 2.91
124.0114722172 	 4.49
124.0505377982 	 3.72
124.9804093225 	 3.03
125.0055614405 	 9.99
126.0133864726 	 100
127.0212115047 	 26.44
128.0137804031 	 3.66
128.0290365368 	 6.19
129.0182346168 	 2.26
138.0133864726 	 4.76
138.9960593867 	 3.57
139.0212115047 	 2.89
142.006958424 	 23.11
144.0239511589 	 2.68
152.0290365368 	 6.19
153.0294680051 	 3.9
155.0161261268 	 5.62
155.0372554994 	 2.59
156.0239511589 	 6.01
164.0290365368 	 2.47
165.0770868997 	 2.38
166.032110542 	 21.36
168.0251109087 	 2.5
170.0018730461 	 2.11
171.0348501962 	 4.05
181.019200132 	 4.79
182.0243450894 	 9.28
183.0348501962 	 29.18
191.0399355741 	 3.06
196.0175231103 	 2.26
199.0297648183 	 4.64
208.0638046009 	 2.26
209.0141147541 	 29.42
209.0505002604 	 6.87
210.0192597115 	 42.24
227.0246794404 	 10.32
228.0199284135 	 4.22
269.071629633 	 7.05
270.0754319197 	 2.68
285.0652015844 	 5
287.0696182603 	 2.05
313.0601162065 	 21.03
356.1023153722 	 2.38
436.0591299285 	 0
END IONS

BEGIN IONS
PEPMASS=278.0459
CHARGE=1
MSLEVEL=2
RT=0
SOURCE_INSTRUMENT=qTOF
FILENAME=CCMSLIB00000085512.ms
IONMODE=Positive
ORGANISM=Natural
NAME=MLS002153480-01!Ro 41-0960
PI=GNPS
DATACOLLECTOR=GNPS
SMILES=c1ccc(c(c1)C(=O)c1cc(c(c(c1)O)O)N(=O)=O)F
INCHI=InChI=1S/C13H8FNO5/c14-9-4-2-1-3-8(9)12(17)7-5-10(15(19)20)13(18)11(16)6-7/h1-6,16,18H
FORMULA=C13H8FNO5
PUBMED=N/A
SUBMITUSER=BIOADREM
LIBRARYQUALITY=0
SPECTRUMID=CCMSLIB00000085512
SCANS=3528
ID=CCMSLIB00000085512
73.0158293136 	 7.89
95.0291542963 	 24.19
123.0240689184 	 100
133.0448043605 	 5.83
135.0103500052 	 6.35
137.0233199947 	 10.98
138.0311450268 	 6.35
148.0240482762 	 8.23
151.0052646273 	 28.47
152.0056792 	 9.61
173.0397189826 	 5.66
181.0158293136 	 6.52
214.0424586368 	 5.15
227.0576941283 	 7.55
278.0459265725 	 0
END IONS

BEGIN IONS
PEPMASS=254.0255
CHARGE=1
MSLEVEL=2
RT=0
SOURCE_INSTRUMENT=qTOF
FILENAME=CCMSLIB00000085513.ms
IONMODE=Positive
ORGANISM=Natural
NAME=MLS001076686-01!Tizanidine hydrochloride64461-82-1
PI=GNPS
DATACOLLECTOR=GNPS
SMILES=c1cc2c(c(c1Cl)NC1=NCCN1)nsn2
INCHI=InChI=1S/C9H8ClN5S/c10-5-1-2-6-8(15-16-14-6)7(5)13-9-11-3-4-12-9/h1-2H,3-4H2,(H2,11,12,13)
FORMULA=C9H8ClN5S
PUBMED=N/A
SUBMITUSER=BIOADREM
LIBRARYQUALITY=0
SPECTRUMID=CCMSLIB00000085513
SCANS=3529
ID=CCMSLIB00000085513
91.045020952 	 21
124.9901017525 	 21
141.9512734052 	 25.5
148.0074288384 	 24.5
151.019868834 	 29
156.9621724425 	 47.5
168.9621724425 	 40.5
176.0135768488 	 20.5
182.9778225067 	 22.5
185.9853507256 	 39.5
187.9917955492 	 24.5
195.9730714798 	 42.5
199.9792194902 	 24
209.988721544 	 100
236.9996205813 	 46
254.0261696828 	 676
END IONS

BEGIN IONS
PEPMASS=654.2297
CHARGE=1
MSLEVEL=2
RT=0
SOURCE_INSTRUMENT=qTOF
FILENAME=CCMSLIB00000085514.ms
IONMODE=Positive
ORGANISM=Natural
NAME=MLS000069543-01!BROMOCRIPTINE MESYLATE
PI=GNPS
DATACOLLECTOR=GNPS
SMILES=CC(C)C[C@H]1C(=O)N2CCC[C@H]2[C@]2(N1C(=O)[C@](C(C)C)(N=C([C@@H]1C=C3c4cccc5c4c(CC3N(C)C1)c(Br)[nH]5)O)O2)O
INCHI=InChI=1S/C32H40BrN5O5/c1-16(2)12-24-29(40)37-11-7-10-25(37)32(42)38(24)30(41)31(43-32,17(3)4)35-28(39)18-13-20-19-8-6-9-22-26(19)21(27(33)34-22)14-23(20)36(5)15-18/h6,8-9,13,16-18,23-25,34,42H,7,10-12,14-15H2,1-5H3,(H,35,39)/t18-,23?,24+,25+,31-,32+/m1/s1
FORMULA=C32H40BrN5O5
PUBMED=N/A
SUBMITUSER=BIOADREM
LIBRARYQUALITY=0
SPECTRUMID=CCMSLIB00000085514
SCANS=3530
ID=CCMSLIB00000085514
153.138624524 	 4.74
180.0807752941 	 5.14
181.1335391461 	 7.77
205.0760242672 	 5.42
206.060039852 	 30.82
207.0678648841 	 97.37
208.0716671708 	 15.21
211.1441038324 	 27.96
221.1073243956 	 26.6
222.1151494277 	 32.34
223.0865889535 	 17.01
224.0944139856 	 20.59
225.0982162723 	 4.86
257.991287862 	 18.36
259.9903391218 	 11.35
267.1366131513 	 5.02
275.0178369635 	 13.98
277.0168882233 	 13.98
285.9862024841 	 32.14
286.9926848455 	 7.77
287.9852537439 	 48.43
299.0138142181 	 11.63
301.0334870277 	 96.73
302.0372893144 	 17.01
303.0239849739 	 88.85
304.0291299313 	 14.77
305.0118028454 	 49.74
329.0284016498 	 7.37
331.0274529096 	 7.17
346.0549507513 	 68.06
346.1509801243 	 5.89
348.0553446818 	 100
349.0532737296 	 14.22
356.0478540007 	 6.61
357.0431029738 	 10.08
383.0349435907 	 11.95
384.0427686228 	 6.69
385.0380175959 	 14.89
398.0822281343 	 5.1
426.0771427564 	 9.28
636.2179933342 	 5.1
654.2285580205 	 6.29
END IONS

BEGIN IONS
PEPMASS=180.1747
CHARGE=1
MSLEVEL=2
RT=0
SOURCE_INSTRUMENT=qTOF
FILENAME=CCMSLIB00000085515.ms
IONMODE=Positive
ORGANISM=Natural
NAME=MLS001074335-01!(3,5-dimethyl-1-adamantyl)amine nitrate
PI=GNPS
DATACOLLECTOR=GNPS
SMILES=CC12CC3CC(C)(C1)CC(C3)(C2)N
INCHI=InChI=1S/C12H21N/c1-10-3-9-4-11(2,6-10)8-12(13,5-9)7-10/h9H,3-8,13H2,1-2H3
FORMULA=C12H21N
PUBMED=N/A
SUBMITUSER=BIOADREM
LIBRARYQUALITY=0
SPECTRUMID=CCMSLIB00000085515
SCANS=3531
ID=CCMSLIB00000085515
50.0151010321 	 0.57
91.0542261926 	 19.65
93.0698762568 	 4.69
95.085526321 	 2.01
103.0542261926 	 2.47
105.0698762568 	 28.03
107.085526321 	 100
119.085526321 	 1.98
120.0933513531 	 0.75
121.1011763852 	 12.06
135.1168264494 	 5.88
163.1481265778 	 67.7
180.1746756793 	 0
END IONS

BEGIN IONS
PEPMASS=242.0932
CHARGE=1
MSLEVEL=2
RT=0
SOURCE_INSTRUMENT=qTOF
FILENAME=CCMSLIB00000085516.ms
IONMODE=Positive
ORGANISM=Natural
NAME=MLS001074893-01!SU 9516
PI=GNPS
DATACOLLECTOR=GNPS
SMILES=COc1ccc2c(c1)/C(=C/c1cnc[nH]1)/C(=N2)O
INCHI=InChI=1S/C13H11N3O2/c1-18-9-2-3-12-10(5-9)11(13(17)16-12)4-8-6-14-7-15-8/h2-7H,1H3,(H,14,15)(H,16,17)/b11-4-
FORMULA=C13H11N3O2
PUBMED=N/A
SUBMITUSER=BIOADREM
LIBRARYQUALITY=0
SPECTRUMID=CCMSLIB00000085516
SCANS=3532
ID=CCMSLIB00000085516
102.0464011605 	 1.31
104.0494751657 	 1.83
117.0573001978 	 4.28
130.0651252299 	 2.06
131.060374203 	 1.75
143.060374203 	 9.45
144.0681992351 	 16.73
145.0522148199 	 3.01
154.0525491709 	 1.99
155.060374203 	 5
158.060039852 	 13.43
160.0393044099 	 4.88
160.0756899162 	 2.22
170.0712732403 	 50.8
171.0790982724 	 56.19
172.0631138572 	 11.67
181.0634482082 	 4.74
183.0552888251 	 2.53
185.0709388893 	 19.97
188.0706045383 	 1.24
198.0661878624 	 11.39
199.0740128945 	 100
209.0583628303 	 3.3
214.0974879908 	 10.86
224.0818379266 	 6.58
226.0611024845 	 46.01
227.0689275166 	 91.48
242.0924026129 	 43.66
END IONS

BEGIN IONS
PEPMASS=194.0978
CHARGE=1
MSLEVEL=2
RT=0
SOURCE_INSTRUMENT=qTOF
FILENAME=CCMSLIB00000085519.ms
IONMODE=Positive
ORGANISM=Natural
NAME=MLS002153163-01!6-Methyl-2-(phenylethynyl)pyridine
PI=GNPS
DATACOLLECTOR=GNPS
SMILES=Cc1cccc(C#Cc2ccccc2)n1
INCHI=InChI=1S/C14H11N/c1-12-6-5-9-14(15-12)11-10-13-7-3-2-4-8-13/h2-9H,1H3
FORMULA=C14H11N
PUBMED=N/A
SUBMITUSER=BIOADREM
LIBRARYQUALITY=0
SPECTRUMID=CCMSLIB00000085519
SCANS=3535
ID=CCMSLIB00000085519
101.0385761284 	 0.5
113.0385761284 	 0.58
114.0338251015 	 0.57
115.0542261926 	 4.94
116.0494751657 	 3.23
117.0573001978 	 1.97
125.0385761284 	 1.18
126.0464011605 	 3.51
127.0542261926 	 7.2
139.0542261926 	 8.29
141.0698762568 	 2.62
142.0651252299 	 0.87
149.0385761284 	 0.49
150.0464011605 	 6.55
151.0542261926 	 22.1
152.0620512247 	 100
165.0698762568 	 45.74
167.072950262 	 15.44
168.0807752941 	 3.58
176.0620512247 	 8
177.0573001978 	 5.34
178.0651252299 	 23.71
179.072950262 	 30.66
192.0807752941 	 34.86
193.0886003262 	 54.53
194.0964253583 	 184.67
END IONS

BEGIN IONS
PEPMASS=327.2076
CHARGE=1
MSLEVEL=2
RT=0
SOURCE_INSTRUMENT=qTOF
FILENAME=CCMSLIB00000085520.ms
IONMODE=Positive
ORGANISM=Natural
NAME=MLS002153901-01!Ajmaline4360-12-7
PI=GNPS
DATACOLLECTOR=GNPS
SMILES=CC[C@H]1C2C[C@H]3[C@H]4C5(C[C@H](C2[C@H]5O)N3[C@@H]1O)c1ccccc1N4C
INCHI=InChI=1S/C20H26N2O2/c1-3-10-11-8-14-17-20(12-6-4-5-7-13(12)21(17)2)9-15(16(11)18(20)23)22(14)19(10)24/h4-7,10-11,14-19,23-24H,3,8-9H2,1-2H3/t10-,11?,14-,15+,16?,17-,18+,19+,20?/m0/s1
FORMULA=C20H26N2O2
PUBMED=N/A
SUBMITUSER=BIOADREM
LIBRARYQUALITY=0
SPECTRUMID=CCMSLIB00000085520
SCANS=3536
ID=CCMSLIB00000085520
106.0651252299 	 5.58
108.0807752941 	 6.56
110.0964253583 	 11.48
117.0573001978 	 4.72
118.0651252299 	 5.74
120.0807752941 	 7.73
130.0651252299 	 9.03
131.072950262 	 10.12
132.0807752941 	 10.66
134.0964253583 	 5.51
138.0913399804 	 11.18
143.072950262 	 12.74
144.0807752941 	 92.45
146.0964253583 	 12.8
156.0807752941 	 4.72
157.0886003262 	 18.51
158.0964253583 	 100
162.0913399804 	 7.92
167.072950262 	 11.55
168.0807752941 	 8.43
169.0886003262 	 9.83
170.0964253583 	 20.33
172.0756899162 	 10.15
172.1120754225 	 10.33
174.0913399804 	 8.62
181.0886003262 	 11.73
182.0964253583 	 39.13
184.1120754225 	 21.9
194.0964253583 	 29.9
195.1042503904 	 15.42
196.1120754225 	 17.43
200.1069900446 	 5.06
208.1120754225 	 14.15
210.1277254867 	 43.03
212.1069900446 	 19.17
220.1120754225 	 16.86
226.1226401088 	 10.37
238.1226401088 	 14.49
239.1542745882 	 20.16
264.1746756793 	 6.01
291.1855747166 	 6.72
292.1695903014 	 6.36
309.1961394029 	 13.5
327.2067040892 	 383.6
END IONS

BEGIN IONS
PEPMASS=293.1397
CHARGE=1
MSLEVEL=2
RT=0
SOURCE_INSTRUMENT=qTOF
FILENAME=CCMSLIB00000085521.ms
IONMODE=Positive
ORGANISM=Natural
NAME=MLS002172469-01!SB-206553 hydrochloride158942-04-2
PI=GNPS
DATACOLLECTOR=GNPS
SMILES=Cn1ccc2cc3c(CCN3C(=Nc3cccnc3)O)cc12
INCHI=InChI=1S/C17H16N4O/c1-20-7-4-12-10-16-13(9-15(12)20)5-8-21(16)17(22)19-14-3-2-6-18-11-14/h2-4,6-7,9-11H,5,8H2,1H3,(H,19,22)
FORMULA=C17H16N4O
PUBMED=N/A
SUBMITUSER=BIOADREM
LIBRARYQUALITY=0
SPECTRUMID=CCMSLIB00000085521
SCANS=3537
ID=CCMSLIB00000085521
93.0447241388 	 0.9
94.0287397236 	 0.54
103.0542261926 	 0.36
115.0542261926 	 0.68
117.0573001978 	 1
118.0651252299 	 0.53
121.0396387609 	 100
130.0651252299 	 2.28
131.072950262 	 2.62
132.0807752941 	 4.29
142.0651252299 	 0.3
144.0807752941 	 4.21
156.0681992351 	 10.32
157.0760242672 	 11.54
158.0838492993 	 49.02
171.0916743314 	 12.42
173.1073243956 	 68.65
293.1396871565 	 0
END IONS

BEGIN IONS
PEPMASS=346.0987
CHARGE=1
MSLEVEL=2
RT=0
SOURCE_INSTRUMENT=qTOF
FILENAME=CCMSLIB00000085525.ms
IONMODE=Positive
ORGANISM=Natural
NAME=MLS001201776-01!4-Chloro-N-(2,6-dimethyl-piperidin-1-yl)-3-sulfamoyl-benzamide
PI=GNPS
DATACOLLECTOR=GNPS
SMILES=CC1CCCC(C)N1N=C(c1ccc(c(c1)S(=O)(=O)N)Cl)O
INCHI=InChI=1S/C14H20ClN3O3S/c1-9-4-3-5-10(2)18(9)17-14(19)11-6-7-12(15)13(8-11)22(16,20)21/h6-10H,3-5H2,1-2H3,(H,17,19)(H2,16,20,21)
FORMULA=C14H20ClN3O3S
PUBMED=N/A
SUBMITUSER=BIOADREM
LIBRARYQUALITY=0
SPECTRUMID=CCMSLIB00000085525
SCANS=3539
ID=CCMSLIB00000085525
90.0311450268 	 1.73
98.0964253583 	 15.37
98.9996038063 	 18.23
100.9981678767 	 5.02
105.0447241388 	 3.55
109.9917787742 	 4.52
110.9996038063 	 4.7
112.1120754225 	 11.83
114.0105028436 	 6.45
117.0573001978 	 3.75
123.9948527794 	 8.07
126.0100156542 	 11.75
128.009066914 	 3.89
131.0491408147 	 3.05
134.047463793 	 2.54
136.9788683642 	 2.26
137.9866933963 	 14.36
138.9960593867 	 3.82
141.0214018809 	 9.11
142.0054174657 	 1.88
142.9894330505 	 2.35
143.0161261268 	 2.9
150.0093637272 	 1.96
151.0057518167 	 7.64
151.9897674015 	 17.96
152.9975924336 	 2.55
153.9871717221 	 5.39
154.0049302763 	 5.54
154.9894330505 	 2.9
156.0028217863 	 2.88
168.0084914709 	 1.93
169.016316503 	 76.46
169.9765226405 	 20.13
170.0184718505 	 5.32
171.0137208236 	 18.66
171.9744141505 	 4.98
174.9615037405 	 18.32
177.0202627645 	 2.24
179.0132424978 	 2.44
181.9877560288 	 2.6
191.988052842 	 4.77
195.0319665672 	 1.78
216.9833018151 	 7.19
217.9673173999 	 33.65
218.9717716136 	 4.67
219.9670205867 	 11.39
231.9942008524 	 2.59
232.9782164372 	 7.38
234.9727371288 	 4.03
250.0047655387 	 100
251.0040372572 	 8.38
276.0204156029 	 8.82
290.0326948487 	 2.32
346.0986659239 	 30.51
END IONS

BEGIN IONS
PEPMASS=357.0958
CHARGE=1
MSLEVEL=2
RT=0
SOURCE_INSTRUMENT=qTOF
FILENAME=CCMSLIB00000085526.ms
IONMODE=Positive
ORGANISM=Natural
NAME=MLS001304027-01!32004-68-5
PI=GNPS
DATACOLLECTOR=GNPS
SMILES=CC1=C(CC(=O)O)c2cc(ccc2/C/1=C/c1ccc(cc1)S(=O)C)F
INCHI=InChI=1S/C20H17FO3S/c1-12-17(9-13-3-6-15(7-4-13)25(2)24)16-8-5-14(21)10-19(16)18(12)11-20(22)23/h3-10H,11H2,1-2H3,(H,22,23)/b17-9+
FORMULA=C20H17FO3S
PUBMED=N/A
SUBMITUSER=BIOADREM
LIBRARYQUALITY=0
SPECTRUMID=CCMSLIB00000085526
SCANS=3540
ID=CCMSLIB00000085526
147.0604544247 	 0.59
153.0698762568 	 0.52
173.0761044889 	 4.96
220.0682794568 	 1.13
221.0761044889 	 0.6
233.0761044889 	 100
246.083929521 	 4.54
247.0917545531 	 22.08
248.0995795852 	 63.24
265.0481751789 	 4
279.0638252431 	 2.68
280.0716502752 	 5.03
282.0509148331 	 1.85
295.0951253715 	 9.42
297.0743899294 	 2.99
340.0927796478 	 8.36
342.0720442057 	 3.4
357.095519302 	 2.55
END IONS

BEGIN IONS
PEPMASS=441.1391
CHARGE=1
MSLEVEL=2
RT=0
SOURCE_INSTRUMENT=qTOF
FILENAME=CCMSLIB00000085528.ms
IONMODE=Positive
ORGANISM=Natural
NAME=MLS002695932-01!
PI=GNPS
DATACOLLECTOR=GNPS
SMILES=C[C@@H]1C(=O)O[C@H]2[C@@H]([C@@]34[C@H]5[C@H]([C@@H](C(C)(C)C)C63[C@H](C(=O)OC6O[C@@]4(C(=O)O5)[C@@]12O)O)O)O
INCHI=InChI=1S/C20H24O11/c1-5-12(24)28-11-8(22)18-10-6(21)7(16(2,3)4)17(18)9(23)13(25)30-15(17)31-20(18,14(26)29-10)19(5,11)27/h5-11,15,21-23,27H,1-4H3/t5-,6+,7+,8+,9+,10-,11+,15?,17?,18-,19-,20-/m1/s1
FORMULA=C20H24O11
PUBMED=N/A
SUBMITUSER=BIOADREM
LIBRARYQUALITY=0
SPECTRUMID=CCMSLIB00000085528
SCANS=3541
ID=CCMSLIB00000085528
121.0284053726 	 12.63
135.0440554368 	 9.73
149.0233199947 	 11.26
163.0389700589 	 14.16
175.0753555652 	 20.14
177.0546201231 	 100
189.0546201231 	 13.65
191.033884681 	 18.94
191.0702701873 	 18.43
195.0287993031 	 45.73
201.0546201231 	 13.82
203.0702701873 	 20.48
205.0495347452 	 54.1
217.0495347452 	 16.21
219.0287993031 	 24.06
233.0444493673 	 41.47
237.0393639894 	 26.11
247.0600994315 	 18.6
251.0550140536 	 46.42
261.0393639894 	 22.01
265.0706641178 	 12.97
279.0499286757 	 12.12
307.0448432978 	 40.1
325.0554079841 	 74.4
441.1391376135 	 0
END IONS

BEGIN IONS
PEPMASS=397.2373
CHARGE=1
MSLEVEL=2
RT=0
SOURCE_INSTRUMENT=qTOF
FILENAME=CCMSLIB00000085529.ms
IONMODE=Positive
ORGANISM=Natural
NAME=MLS001332590-01!Melengestrol acetate2919-66-6
PI=GNPS
DATACOLLECTOR=GNPS
SMILES=CC1=C[C@@H]2[C@H](CC[C@@]3(C)[C@H]2CC(=C)[C@@]3(C(=O)C)OC(=O)C)[C@@]2(C)CCC(=O)C=C12
INCHI=InChI=1S/C25H32O4/c1-14-11-19-20(23(5)9-7-18(28)13-21(14)23)8-10-24(6)22(19)12-15(2)25(24,16(3)26)29-17(4)27/h11,13,19-20,22H,2,7-10,12H2,1,3-6H3/t19-,20+,22+,23-,24+,25+/m1/s1
FORMULA=C25H32O4
PUBMED=N/A
SUBMITUSER=BIOADREM
LIBRARYQUALITY=0
SPECTRUMID=CCMSLIB00000085529
SCANS=3542
ID=CCMSLIB00000085529
105.0698762568 	 4.26
119.085526321 	 5.05
131.085526321 	 4.19
142.0777012889 	 4.04
143.085526321 	 4.79
145.1011763852 	 14.85
155.085526321 	 4.24
157.1011763852 	 8.56
159.1168264494 	 7.93
160.0882659752 	 4.81
161.0960910073 	 4.7
169.1011763852 	 10.61
173.0960910073 	 5.76
175.1117410715 	 25.93
179.085526321 	 4.69
181.1011763852 	 7.39
183.1168264494 	 5.75
185.1324765136 	 5.36
187.1117410715 	 30.02
193.1011763852 	 8.24
194.1090014173 	 4.32
195.1168264494 	 12.98
197.1324765136 	 5.72
206.1090014173 	 10.47
207.1168264494 	 14.51
209.1324765136 	 17.28
211.1481265778 	 5.14
219.1168264494 	 4.64
220.1246514815 	 5.89
221.1324765136 	 98.43
222.1403015457 	 25.12
223.1481265778 	 63.87
231.1168264494 	 4.35
235.1481265778 	 15.04
236.1559516099 	 74.47
237.163776642 	 66.35
246.1403015457 	 7.58
247.1481265778 	 5.89
253.1586912641 	 4.78
261.163776642 	 17.9
263.1430411999 	 6.27
264.150866232 	 5.92
265.1586912641 	 8.45
278.1665162962 	 4.22
279.1743413283 	 100
293.1899913925 	 11.11
294.1978164246 	 18.88
337.216206143 	 7.83
397.2373355156 	 0.08
END IONS

BEGIN IONS
PEPMASS=206.1409
CHARGE=1
MSLEVEL=2
RT=0
SOURCE_INSTRUMENT=qTOF
FILENAME=CCMSLIB00000085531.ms
IONMODE=Positive
ORGANISM=Natural
NAME=MLS000881142-01!Rocornal
PI=GNPS
DATACOLLECTOR=GNPS
SMILES=CCN(CC)c1cc(C)nc2ncnn12
INCHI=InChI=1S/C10H15N5/c1-4-14(5-2)9-6-8(3)13-10-11-7-12-15(9)10/h6-7H,4-5H2,1-3H3
FORMULA=C10H15N5
PUBMED=N/A
SUBMITUSER=BIOADREM
LIBRARYQUALITY=0
SPECTRUMID=CCMSLIB00000085531
SCANS=3544
ID=CCMSLIB00000085531
92.0243230477 	 0.88
96.0556231761 	 1.02
108.0556231761 	 32.66
109.0508721492 	 87.66
120.0556231761 	 1.76
124.0869233045 	 0.57
133.0508721492 	 3.73
134.0586971813 	 5.75
135.0665222134 	 4.25
137.0821722776 	 13.93
150.0774212507 	 77.21
162.0774212507 	 100
176.0930713149 	 7.03
178.1087213791 	 77.25
206.1400215075 	 64.63
END IONS

BEGIN IONS
PEPMASS=316.0916
CHARGE=1
MSLEVEL=2
RT=0
SOURCE_INSTRUMENT=qTOF
FILENAME=CCMSLIB00000085532.ms
IONMODE=Positive
ORGANISM=Natural
NAME=MLS001076082-01!Chlorprothixene hydrochloride
PI=GNPS
DATACOLLECTOR=GNPS
SMILES=CN(C)CC/C=C\1/c2ccccc2Sc2ccc(cc12)Cl
INCHI=InChI=1S/C18H18ClNS/c1-20(2)11-5-7-14-15-6-3-4-8-17(15)21-18-10-9-13(19)12-16(14)18/h3-4,6-10,12H,5,11H2,1-2H3/b14-7-
FORMULA=C18H18ClNS
PUBMED=N/A
SUBMITUSER=BIOADREM
LIBRARYQUALITY=0
SPECTRUMID=CCMSLIB00000085532
SCANS=3545
ID=CCMSLIB00000085532
115.0542261926 	 1.2
152.0620512247 	 1.05
159.0262968826 	 0.56
162.0230789026 	 1.58
165.0698762568 	 2.63
178.0777012889 	 1.2
191.085526321 	 0.51
192.9873245605 	 0.68
195.0262968826 	 2.48
196.0341219147 	 3.59
199.0309039347 	 2.06
202.0777012889 	 6.81
203.085526321 	 16.81
208.0341219147 	 0.99
209.0419469468 	 2.28
210.0497719789 	 26.18
212.0387289668 	 3.67
221.0419469468 	 84.15
231.0029746247 	 100
234.0497719789 	 27.44
235.057597011 	 56.55
236.0654220431 	 41.9
238.054379031 	 21.56
245.0186246889 	 13.25
255.0029746247 	 7.17
256.0107996568 	 6.68
269.0186246889 	 1.33
271.0342747531 	 31.74
316.092123983 	 5.12
END IONS

BEGIN IONS
PEPMASS=373.0904
CHARGE=1
MSLEVEL=2
RT=0
SOURCE_INSTRUMENT=qTOF
FILENAME=CCMSLIB00000085535.ms
IONMODE=Positive
ORGANISM=Natural
NAME=MLS002153171-01!Sulindac sulfone59864-04-9
PI=GNPS
DATACOLLECTOR=GNPS
SMILES=CC1=C(CC(=O)O)c2cc(ccc2/C/1=C/c1ccc(cc1)S(=O)(=O)C)F
INCHI=InChI=1S/C20H17FO4S/c1-12-17(9-13-3-6-15(7-4-13)26(2,24)25)16-8-5-14(21)10-19(16)18(12)11-20(22)23/h3-10H,11H2,1-2H3,(H,22,23)/b17-9+
FORMULA=C20H17FO4S
PUBMED=N/A
SUBMITUSER=BIOADREM
LIBRARYQUALITY=0
SPECTRUMID=CCMSLIB00000085535
SCANS=3547
ID=CCMSLIB00000085535
222.083929521 	 1.08
233.0761044889 	 100
234.083929521 	 57.97
248.0995795852 	 20.34
280.0894088294 	 1.76
311.0536544873 	 2.17
312.0614795194 	 0.95
327.0849546157 	 3.05
373.0904339241 	 0
END IONS

BEGIN IONS
PEPMASS=789.8614
CHARGE=1
MSLEVEL=2
RT=0
SOURCE_INSTRUMENT=qTOF
FILENAME=CCMSLIB00000085537.ms
IONMODE=Positive
ORGANISM=Natural
NAME=MLS002153823-01!Metrizamide31112-62-6
PI=GNPS
DATACOLLECTOR=GNPS
SMILES=CC(=Nc1c(c(c(c(c1I)N(C)C(=O)C)I)C(=N[C@@H]1[C@H]([C@@H]([C@@H](CO)OC1O)O)O)O)I)O
INCHI=InChI=1S/C18H22I3N3O8/c1-5(26)22-12-9(19)8(10(20)14(11(12)21)24(3)6(2)27)17(30)23-13-16(29)15(28)7(4-25)32-18(13)31/h7,13,15-16,18,25,28-29,31H,4H2,1-3H3,(H,22,26)(H,23,30)/t7-,13-,15-,16-,18?/m1/s1
FORMULA=C18H22I3N3O8
PUBMED=N/A
SUBMITUSER=BIOADREM
LIBRARYQUALITY=0
SPECTRUMID=CCMSLIB00000085537
SCANS=3548
ID=CCMSLIB00000085537
136.0393044099 	 1.29
160.0631138572 	 9.41
161.0444493673 	 4.09
163.0502034472 	 2.06
190.0777012889 	 1.43
201.0658535114 	 6.57
201.0658535114 	 1.31
202.0736785435 	 1.23
202.0736785435 	 3.23
202.0736785435 	 1.8
203.0788235009 	 1.15
203.0788235009 	 1.37
203.0788235009 	 1.69
204.0767525487 	 1.21
205.0607681335 	 2.04
229.0607681335 	 3.89
230.0685931656 	 100
230.0685931656 	 14.48
230.0685931656 	 1.55
231.073738123 	 4.32
233.0556827556 	 3.72
234.0635077877 	 1.57
234.0635077877 	 1.54
234.0635077877 	 1.63
245.0556827556 	 6.31
257.0682588146 	 2.72
289.1057069534 	 2.04
298.0822318571 	 18.25
310.0822318571 	 2.96
311.0900568892 	 7.26
313.139412385 	 2.29
323.0900568892 	 17.49
324.0978819213 	 1.8
324.0978819213 	 1.86
324.0978819213 	 9.22
325.1057069534 	 1.77
325.1057069534 	 1.14
325.1057069534 	 2.7
391.1374010123 	 1.24
409.1479656986 	 2.64
END IONS

BEGIN IONS
PEPMASS=368.1124
CHARGE=1
MSLEVEL=2
RT=0
SOURCE_INSTRUMENT=qTOF
FILENAME=CCMSLIB00000085538.ms
IONMODE=Positive
ORGANISM=Natural
NAME=MLS002153892-01!Bicuculline (+)485-49-4
PI=GNPS
DATACOLLECTOR=GNPS
SMILES=CN1CCc2cc3c(cc2[C@H]1[C@H]1c2ccc4c(c2C(=O)O1)OCO4)OCO3
INCHI=InChI=1S/C20H17NO6/c1-21-5-4-10-6-14-15(25-8-24-14)7-12(10)17(21)18-11-2-3-13-19(26-9-23-13)16(11)20(22)27-18/h2-3,6-7,17-18H,4-5,8-9H2,1H3/t17-,18+/m0/s1
FORMULA=C20H17NO6
PUBMED=N/A
SUBMITUSER=BIOADREM
LIBRARYQUALITY=0
SPECTRUMID=CCMSLIB00000085538
SCANS=3549
ID=CCMSLIB00000085538
149.059705501 	 2.47
159.0440554368 	 2.01
160.0756899162 	 1.45
163.0542261926 	 5.31
165.0698762568 	 8.87
176.0706045383 	 10.42
181.0647908789 	 1.67
191.0491408147 	 8.76
191.0940796346 	 1.74
193.0647908789 	 7.44
205.0647908789 	 4.83
209.059705501 	 1.27
219.0440554368 	 9.41
221.059705501 	 18.13
223.0753555652 	 6.07
233.059705501 	 9.51
235.0753555652 	 2.45
237.0546201231 	 2.12
247.0389700589 	 4.81
249.0546201231 	 100
251.0702701873 	 7.27
261.0546201231 	 18.9
263.0702701873 	 2.04
267.0651848094 	 5.5
277.0495347452 	 96.84
279.0651848094 	 31.21
289.0495347452 	 9.79
291.0651848094 	 3.62
295.0600994315 	 2.6
307.0600994315 	 81.67
319.0600994315 	 8.12
325.0706641178 	 2.39
335.0788235009 	 1.56
368.1128632835 	 2.92
END IONS

BEGIN IONS
PEPMASS=269.0437
CHARGE=1
MSLEVEL=2
RT=0
SOURCE_INSTRUMENT=qTOF
FILENAME=CCMSLIB00000085539.ms
IONMODE=Positive
ORGANISM=Natural
NAME=MLS000069446-01!COUMESTROL
PI=GNPS
DATACOLLECTOR=GNPS
SMILES=c1cc2c(cc1O)oc1c3ccc(cc3oc(=O)c21)O
INCHI=InChI=1S/C15H8O5/c16-7-1-3-9-11(5-7)19-14-10-4-2-8(17)6-12(10)20-15(18)13(9)14/h1-6,16-17H
FORMULA=C15H8O5
PUBMED=N/A
SUBMITUSER=BIOADREM
LIBRARYQUALITY=0
SPECTRUMID=CCMSLIB00000085539
SCANS=3550
ID=CCMSLIB00000085539
103.0542261926 	 4.21
115.0542261926 	 22.53
121.0284053726 	 5.26
128.0620512247 	 16.33
129.0698762568 	 9.08
131.0491408147 	 5.93
139.0542261926 	 7.78
140.0620512247 	 2.95
141.0698762568 	 23.21
143.0491408147 	 4.07
147.0440554368 	 1.66
151.0542261926 	 4.22
157.0647908789 	 58.6
167.0491408147 	 2
168.0569658468 	 13.14
169.0647908789 	 14.67
171.0440554368 	 8.54
185.059705501 	 4.48
195.0440554368 	 1.08
197.059705501 	 74.16
213.0546201231 	 100
225.0546201231 	 11.61
241.0495347452 	 26.86
269.0444493673 	 16.87
END IONS

BEGIN IONS
PEPMASS=300.1334
CHARGE=1
MSLEVEL=2
RT=0
SOURCE_INSTRUMENT=qTOF
FILENAME=CCMSLIB00000085540.ms
IONMODE=Positive
ORGANISM=Natural
NAME=MLS000860017-01!5-(N-Ethyl-N-isopropyl)amiloride
PI=GNPS
DATACOLLECTOR=GNPS
SMILES=CCN(C(C)C)c1c(Cl)nc(c(N)n1)C(=NC(=N)N)O
INCHI=InChI=1S/C11H18ClN7O/c1-4-19(5(2)3)9-7(12)16-6(8(13)17-9)10(20)18-11(14)15/h5H,4H2,1-3H3,(H2,13,17)(H4,14,15,18,20)
FORMULA=C11H18ClN7O
PUBMED=N/A
SUBMITUSER=BIOADREM
LIBRARYQUALITY=0
SPECTRUMID=CCMSLIB00000085540
SCANS=3551
ID=CCMSLIB00000085540
93.0447241388 	 0.48
100.9901017525 	 35.62
102.0105028436 	 3.51
108.0556231761 	 1.97
116.0010007898 	 6.91
118.0399731119 	 0.72
121.0508721492 	 3.12
128.0010007898 	 1.11
129.0214018809 	 100
135.0665222134 	 7.61
136.0743472455 	 8.46
143.0118998271 	 4.55
144.0323009182 	 5.08
154.016650854 	 0.63
163.0614368355 	 0.72
171.0431999555 	 16.58
199.0381145776 	 54.74
241.0837220995 	 74.52
259.0942867858 	 12.43
300.1334119463 	 0.57
END IONS

BEGIN IONS
PEPMASS=576.318
CHARGE=1
MSLEVEL=2
RT=0
SOURCE_INSTRUMENT=qTOF
FILENAME=CCMSLIB00000085541.ms
IONMODE=Positive
ORGANISM=Natural
NAME=MLS002153977-01!Ergocryptine-alpha511-09-1
PI=GNPS
DATACOLLECTOR=GNPS
SMILES=CC(C)C[C@H]1C(=O)N2CCC[C@H]2[C@]2(N1C(=O)[C@](C(C)C)(N=C([C@@H]1C=C3c4cccc5c4c(C[C@H]3N(C)C1)c[nH]5)O)O2)O
INCHI=InChI=1S/C32H41N5O5/c1-17(2)12-25-29(39)36-11-7-10-26(36)32(41)37(25)30(40)31(42-32,18(3)4)34-28(38)20-13-22-21-8-6-9-23-27(21)19(15-33-23)14-24(22)35(5)16-20/h6,8-9,13,15,17-18,20,24-26,33,41H,7,10-12,14,16H2,1-5H3,(H,34,38)/t20-,24-,25+,26+,31-,32+/m1/s1
FORMULA=C32H41N5O5
PUBMED=N/A
SUBMITUSER=BIOADREM
LIBRARYQUALITY=0
SPECTRUMID=CCMSLIB00000085541
SCANS=3552
ID=CCMSLIB00000085541
153.138624524 	 3.84
154.0651252299 	 1.43
156.0807752941 	 0.81
165.0698762568 	 1.01
167.072950262 	 3.16
168.0807752941 	 3.56
178.0651252299 	 1.01
180.0807752941 	 8.87
181.0859202515 	 2.64
181.1335391461 	 12.18
182.0964253583 	 2.61
191.072950262 	 7.48
192.0807752941 	 22.14
193.0845775808 	 2.81
194.0964253583 	 5.1
195.100227645 	 0.89
197.1073243956 	 1.17
205.0760242672 	 0.96
207.0916743314 	 2.92
208.0756899162 	 38.91
209.0808348736 	 8.13
209.1284537682 	 5.45
220.0994993635 	 1.53
221.1073243956 	 27.96
222.1111266823 	 5.79
223.1229744598 	 100
224.1267767465 	 25.13
225.1022390177 	 4.42
249.138624524 	 2.78
251.1178890819 	 4.1
259.1229744598 	 1.67
261.138624524 	 6.87
268.1444381834 	 9.33
277.1335391461 	 19.79
278.1373414328 	 4.25
291.1689759122 	 19.11
305.1284537682 	 44.74
306.1322560549 	 9.12
320.1757383118 	 2.56
321.1795405985 	 0.79
348.1706529339 	 9.33
349.1744552206 	 2.62
530.3125661442 	 1.05
558.3074807663 	 3.48
576.3180454526 	 0
END IONS

BEGIN IONS
PEPMASS=196.0892
CHARGE=1
MSLEVEL=2
RT=0
SOURCE_INSTRUMENT=qTOF
FILENAME=CCMSLIB00000085542.ms
IONMODE=Positive
ORGANISM=Natural
NAME=MLS002172470-01!SKF-86466 hydrochloride
PI=GNPS
DATACOLLECTOR=GNPS
SMILES=CN1CCc2cccc(c2CC1)Cl
INCHI=InChI=1S/C11H14ClN/c1-13-7-5-9-3-2-4-11(12)10(9)6-8-13/h2-4H,5-8H2,1H3
FORMULA=C11H14ClN
PUBMED=N/A
SUBMITUSER=BIOADREM
LIBRARYQUALITY=0
SPECTRUMID=CCMSLIB00000085542
SCANS=3553
ID=CCMSLIB00000085542
91.0542261926 	 2.16
98.9996038063 	 3.45
101.0385761284 	 1.44
102.0464011605 	 2.39
103.0542261926 	 15.87
105.0698762568 	 3.04
115.0542261926 	 69.75
117.0698762568 	 26.29
119.085526321 	 3.59
125.0152538705 	 67.25
127.0542261926 	 7.72
128.0620512247 	 52.64
129.0698762568 	 100
130.0777012889 	 73.99
131.072950262 	 12.14
132.0807752941 	 9.5
139.0309039347 	 15.16
144.0807752941 	 5.48
145.0886003262 	 5.45
146.0964253583 	 9.93
149.0152538705 	 1.63
150.0230789026 	 3.91
152.0261529078 	 2.12
160.1120754225 	 8.18
161.1199004546 	 13.24
165.0465539989 	 16.21
166.041802972 	 9.01
167.0496280041 	 15.25
196.0887531646 	 155.11
END IONS

BEGIN IONS
PEPMASS=215.0703
CHARGE=1
MSLEVEL=2
RT=0
SOURCE_INSTRUMENT=qTOF
FILENAME=CCMSLIB00000085547.ms
IONMODE=Positive
ORGANISM=Natural
NAME=MLS001201787-01!Giparmen
PI=GNPS
DATACOLLECTOR=GNPS
SMILES=C#CCOc1ccc2c(C)cc(=O)oc2c1
INCHI=InChI=1S/C13H10O3/c1-3-6-15-10-4-5-11-9(2)7-13(14)16-12(11)8-10/h1,4-5,7-8H,6H2,2H3
FORMULA=C13H10O3
PUBMED=N/A
SUBMITUSER=BIOADREM
LIBRARYQUALITY=0
SPECTRUMID=CCMSLIB00000085547
SCANS=3556
ID=CCMSLIB00000085547
91.0542261926 	 7.12
92.0620512247 	 1.85
102.0464011605 	 0.97
103.0542261926 	 3.63
105.0334907505 	 4.13
115.0542261926 	 9.95
116.0620512247 	 2.27
117.0698762568 	 1.41
119.0491408147 	 3.95
120.0569658468 	 8.8
127.0542261926 	 2.34
128.0620512247 	 4.35
129.0698762568 	 1.15
131.0491408147 	 3.1
141.0698762568 	 3.52
142.0777012889 	 1.7
144.0569658468 	 3.01
145.0647908789 	 1.74
146.072615911 	 0.89
148.0518804689 	 100
152.0620512247 	 0.88
159.0440554368 	 0.59
159.0804409431 	 1.63
161.059705501 	 2.81
170.072615911 	 0.89
174.0675305331 	 1.33
185.059705501 	 1.09
187.0753555652 	 2.3
215.0702701873 	 0
END IONS

BEGIN IONS
PEPMASS=263.058
CHARGE=1
MSLEVEL=2
RT=0
SOURCE_INSTRUMENT=qTOF
FILENAME=CCMSLIB00000085548.ms
IONMODE=Positive
ORGANISM=Natural
NAME=MLS001240214-01!2-(3-Chloro-2-methyl-phenylamino)-nicotinic acid
PI=GNPS
DATACOLLECTOR=GNPS
SMILES=Cc1c(cccc1Nc1c(cccn1)C(=O)O)Cl
INCHI=InChI=1S/C13H11ClN2O2/c1-8-10(14)5-2-6-11(8)16-12-9(13(17)18)4-3-7-15-12/h2-7H,1H3,(H,15,16)(H,17,18)
FORMULA=C13H11ClN2O2
PUBMED=N/A
SUBMITUSER=BIOADREM
LIBRARYQUALITY=0
SPECTRUMID=CCMSLIB00000085548
SCANS=3557
ID=CCMSLIB00000085548
89.0385761284 	 0.69
98.9996038063 	 2.28
106.0651252299 	 0.53
125.0152538705 	 12.17
127.0542261926 	 0.59
140.0494751657 	 1.11
141.0339779399 	 1.08
154.0651252299 	 3.39
166.0525491709 	 0.52
167.060374203 	 1.94
179.060374203 	 1.12
180.0681992351 	 3.01
181.0760242672 	 48.08
182.0838492993 	 15.92
184.0631138572 	 1.55
192.0681992351 	 1.87
195.0552888251 	 0.89
197.0709388893 	 0.84
200.0261529078 	 1.51
202.029226913 	 8.31
209.0709388893 	 44.86
210.0787639214 	 100
215.0370519451 	 0.68
218.0367175941 	 0.7
227.0815035756 	 0.82
230.0241415351 	 26.88
245.0476166314 	 71.16
263.0581813177 	 3.09
END IONS

BEGIN IONS
PEPMASS=222.1117
CHARGE=1
MSLEVEL=2
RT=0
SOURCE_INSTRUMENT=qTOF
FILENAME=CCMSLIB00000085550.ms
IONMODE=Positive
ORGANISM=Natural
NAME=MLS002153904-01!Hydrocotarnine hydrobromide5985-00-2
PI=GNPS
DATACOLLECTOR=GNPS
SMILES=CN1CCc2cc3c(c(c2C1)OC)OCO3
INCHI=InChI=1S/C12H15NO3/c1-13-4-3-8-5-10-12(16-7-15-10)11(14-2)9(8)6-13/h5H,3-4,6-7H2,1-2H3
FORMULA=C12H15NO3
PUBMED=N/A
SUBMITUSER=BIOADREM
LIBRARYQUALITY=0
SPECTRUMID=CCMSLIB00000085550
SCANS=3558
ID=CCMSLIB00000085550
91.0542261926 	 8.77
93.0698762568 	 2.45
103.0542261926 	 2.49
105.0334907505 	 2.59
105.0698762568 	 7.8
106.0651252299 	 4.26
107.0491408147 	 6.79
108.0569658468 	 3.52
115.0542261926 	 3.09
117.0573001978 	 6.01
118.0413157826 	 5.39
119.0491408147 	 4.69
120.0569658468 	 4.8
120.0807752941 	 2.18
121.0647908789 	 14.08
123.0440554368 	 2.78
123.0804409431 	 2.47
132.0807752941 	 6.83
133.0284053726 	 3.54
133.0647908789 	 12.41
134.060039852 	 10.43
135.0804409431 	 18.56
136.0518804689 	 6.3
146.060039852 	 2.76
147.0440554368 	 3.27
148.0518804689 	 5.99
148.0756899162 	 4.9
149.059705501 	 9.94
149.0835149483 	 10.04
151.0389700589 	 6.52
151.0753555652 	 8.62
160.0756899162 	 5.19
161.059705501 	 4.47
161.0835149483 	 4.16
163.0389700589 	 4.9
163.0753555652 	 8.97
164.046795091 	 15.29
164.1069900446 	 11.28
165.0546201231 	 15.97
176.0706045383 	 3.89
177.0784295704 	 4.45
178.0624451552 	 9.53
179.0702701873 	 100
191.0702701873 	 3.66
191.0940796346 	 8.15
192.0655191604 	 4.16
192.1019046667 	 7.59
193.0859202515 	 37.39
206.0811692246 	 3.17
207.0889942567 	 8.46
222.112469353 	 20.62
END IONS

BEGIN IONS
PEPMASS=262.1812
CHARGE=1
MSLEVEL=2
RT=0
SOURCE_INSTRUMENT=qTOF
FILENAME=CCMSLIB00000085551.ms
IONMODE=Positive
ORGANISM=Natural
NAME=MLS002154000-01!Hexylcaine hydrochloride532-76-3
PI=GNPS
DATACOLLECTOR=GNPS
SMILES=CC(CNC1CCCCC1)OC(=O)c1ccccc1
INCHI=InChI=1S/C16H23NO2/c1-13(12-17-15-10-6-3-7-11-15)19-16(18)14-8-4-2-5-9-14/h2,4-5,8-9,13,15,17H,3,6-7,10-12H2,1H3
FORMULA=C16H23NO2
PUBMED=N/A
SUBMITUSER=BIOADREM
LIBRARYQUALITY=0
SPECTRUMID=CCMSLIB00000085551
SCANS=3559
ID=CCMSLIB00000085551
105.0334907505 	 100
135.0440554368 	 0.61
140.1433755509 	 20.09
163.0753555652 	 19.13
262.1801549877 	 0.46
END IONS

BEGIN IONS
PEPMASS=355.2024
CHARGE=1
MSLEVEL=2
RT=0
SOURCE_INSTRUMENT=qTOF
FILENAME=CCMSLIB00000085553.ms
IONMODE=Positive
ORGANISM=Natural
NAME=MLS001306433-01!
PI=GNPS
DATACOLLECTOR=GNPS
SMILES=COC(=O)[C@H]1[C@H]2C[C@H]3c4c(CCN3C[C@H]2CC[C@@H]1O)c1ccccc1[nH]4
INCHI=InChI=1S/C21H26N2O3/c1-26-21(25)19-15-10-17-20-14(13-4-2-3-5-16(13)22-20)8-9-23(17)11-12(15)6-7-18(19)24/h2-5,12,15,17-19,22,24H,6-11H2,1H3/t12-,15+,17+,18+,19+/m1/s1
FORMULA=C21H26N2O3
PUBMED=N/A
SUBMITUSER=BIOADREM
LIBRARYQUALITY=0
SPECTRUMID=CCMSLIB00000085553
SCANS=3561
ID=CCMSLIB00000085553
91.0542261926 	 0.65
94.0651252299 	 1.18
103.0542261926 	 1.15
105.0698762568 	 0.75
106.0651252299 	 0.94
108.0807752941 	 2.35
115.0542261926 	 3.5
117.0698762568 	 6.54
127.0542261926 	 1.24
130.0651252299 	 2.67
131.072950262 	 1.27
132.0807752941 	 1.07
134.0964253583 	 5.12
142.0651252299 	 0.95
143.072950262 	 10.03
144.0807752941 	 100
156.0807752941 	 1.1
158.0964253583 	 2.72
162.0913399804 	 3.05
164.1069900446 	 0.99
167.072950262 	 0.72
168.0807752941 	 1.04
170.0964253583 	 0.84
174.0913399804 	 0.89
180.1019046667 	 3.22
182.0964253583 	 1.08
192.1019046667 	 5.9
193.1011763852 	 0.88
194.1175547309 	 9.93
196.1120754225 	 0.65
207.1015703157 	 0.8
208.1120754225 	 2.22
220.1120754225 	 1.48
222.1277254867 	 0.82
224.1281194172 	 12.33
232.1120754225 	 0.75
234.1277254867 	 0.67
248.1433755509 	 1.04
294.1488548593 	 0.85
320.1645049235 	 0.7
323.1754039608 	 1.15
337.191054025 	 3.5
355.2016187113 	 25.22
END IONS

BEGIN IONS
PEPMASS=292.1907
CHARGE=1
MSLEVEL=2
RT=0
SOURCE_INSTRUMENT=qTOF
FILENAME=CCMSLIB00000085554.ms
IONMODE=Positive
ORGANISM=Natural
NAME=MLS001332539-01!CYCLOPENTOLATE HYDROCHLORIDE
PI=GNPS
DATACOLLECTOR=GNPS
SMILES=CN(C)CCOC(=O)C(c1ccccc1)C1(CCCC1)O
INCHI=InChI=1S/C17H25NO3/c1-18(2)12-13-21-16(19)15(14-8-4-3-5-9-14)17(20)10-6-7-11-17/h3-5,8-9,15,20H,6-7,10-13H2,1-2H3
FORMULA=C17H25NO3
PUBMED=N/A
SUBMITUSER=BIOADREM
LIBRARYQUALITY=0
SPECTRUMID=CCMSLIB00000085554
SCANS=3562
ID=CCMSLIB00000085554
91.0542261926 	 24.11
103.0542261926 	 0.78
105.0334907505 	 0.91
105.0698762568 	 0.5
107.0491408147 	 5.62
115.0542261926 	 19.06
116.0620512247 	 4.95
117.0698762568 	 1.2
119.0491408147 	 1.23
127.0542261926 	 1.49
128.0620512247 	 15.66
129.0698762568 	 100
135.0440554368 	 1.64
141.0698762568 	 1.91
142.0777012889 	 11.4
145.0647908789 	 0.51
152.0620512247 	 0.48
155.085526321 	 1.28
157.1011763852 	 63.96
163.0753555652 	 17.76
167.085526321 	 0.82
185.0960910073 	 2.58
229.1223057578 	 10.92
274.1801549877 	 1.9
292.190719674 	 0
END IONS

BEGIN IONS
PEPMASS=169.0163
CHARGE=1
MSLEVEL=2
RT=0
SOURCE_INSTRUMENT=qTOF
FILENAME=CCMSLIB00000085555.ms
IONMODE=Positive
ORGANISM=Natural
NAME=MLS002153778-01!Zoxazolamine61-80-3
PI=GNPS
DATACOLLECTOR=GNPS
SMILES=c1cc2c(cc1Cl)[nH]c(=N)o2
INCHI=InChI=1S/C7H5ClN2O/c8-4-1-2-6-5(3-4)10-7(9)11-6/h1-3H,(H2,9,10)
FORMULA=C7H5ClN2O
PUBMED=N/A
SUBMITUSER=BIOADREM
LIBRARYQUALITY=0
SPECTRUMID=CCMSLIB00000085555
SCANS=3563
ID=CCMSLIB00000085555
91.0416501336 	 1.1
96.9839537421 	 0.8
98.9996038063 	 100
105.0447241388 	 3.2
106.0287397236 	 2.4
106.0525491709 	 1.71
114.0105028436 	 39.06
123.9948527794 	 4.15
126.0105028436 	 1.78
126.9945184284 	 52.86
134.047463793 	 50.62
141.0214018809 	 2.26
142.0054174657 	 4.39
169.016316503 	 74.5
END IONS

BEGIN IONS
PEPMASS=398.2074
CHARGE=1
MSLEVEL=2
RT=0
SOURCE_INSTRUMENT=qTOF
FILENAME=CCMSLIB00000085556.ms
IONMODE=Positive
ORGANISM=Natural
NAME=MLS002154257-01!Diperodon hydrochloride537-12-2
PI=GNPS
DATACOLLECTOR=GNPS
SMILES=c1ccc(cc1)N=C(O)OCC(CN1CCCCC1)OC(=Nc1ccccc1)O
INCHI=InChI=1S/C22H27N3O4/c26-21(23-18-10-4-1-5-11-18)28-17-20(16-25-14-8-3-9-15-25)29-22(27)24-19-12-6-2-7-13-19/h1-2,4-7,10-13,20H,3,8-9,14-17H2,(H,23,26)(H,24,27)
FORMULA=C22H27N3O4
PUBMED=N/A
SUBMITUSER=BIOADREM
LIBRARYQUALITY=0
SPECTRUMID=CCMSLIB00000085556
SCANS=3564
ID=CCMSLIB00000085556
92.0494751657 	 0.69
94.0651252299 	 6.31
96.0807752941 	 7.55
98.0964253583 	 24.41
104.0494751657 	 0.39
105.0698762568 	 0.51
106.0651252299 	 0.89
107.085526321 	 0.24
108.0807752941 	 0.78
109.0886003262 	 1.24
112.1120754225 	 0.63
117.0573001978 	 0.37
120.0443897878 	 7.44
122.0964253583 	 2.96
124.1120754225 	 100
132.0807752941 	 1.56
138.0549544741 	 3.86
140.1069900446 	 0.33
142.1226401088 	 30.4
160.0756899162 	 0.65
168.1019046667 	 0.26
178.0862546025 	 2.2
186.112469353 	 0.67
261.1597538966 	 12.96
279.1703185829 	 5.66
398.2074323707 	 1.04
END IONS

BEGIN IONS
PEPMASS=251.1278
CHARGE=1
MSLEVEL=2
RT=0
SOURCE_INSTRUMENT=qTOF
FILENAME=CCMSLIB00000085558.ms
IONMODE=Positive
ORGANISM=Natural
NAME=MLS002153860-01!Trolox53188-07-1
PI=GNPS
DATACOLLECTOR=GNPS
SMILES=Cc1c(C)c2c(CCC(C)(C(=O)O)O2)c(C)c1O
INCHI=InChI=1S/C14H18O4/c1-7-8(2)12-10(9(3)11(7)15)5-6-14(4,18-12)13(16)17/h15H,5-6H2,1-4H3,(H,16,17)
FORMULA=C14H18O4
PUBMED=N/A
SUBMITUSER=BIOADREM
LIBRARYQUALITY=0
SPECTRUMID=CCMSLIB00000085558
SCANS=3566
ID=CCMSLIB00000085558
100.0307510963 	 4.7
107.085526321 	 15.38
121.1011763852 	 11.95
162.125045412 	 4.94
251.1277850662 	 0
END IONS

BEGIN IONS
PEPMASS=187.1238
CHARGE=1
MSLEVEL=2
RT=0
SOURCE_INSTRUMENT=qTOF
FILENAME=CCMSLIB00000085561.ms
IONMODE=Positive
ORGANISM=Natural
NAME=MLS002153346-01!Metrazoline
PI=GNPS
DATACOLLECTOR=GNPS
SMILES=Cc1ccccc1/C=C/C1=NCCN1
INCHI=InChI=1S/C12H14N2/c1-10-4-2-3-5-11(10)6-7-12-13-8-9-14-12/h2-7H,8-9H2,1H3,(H,13,14)/b7-6+
FORMULA=C12H14N2
PUBMED=N/A
SUBMITUSER=BIOADREM
LIBRARYQUALITY=0
SPECTRUMID=CCMSLIB00000085561
SCANS=3568
ID=CCMSLIB00000085561
89.0385761284 	 0.58
91.0542261926 	 12.27
102.0464011605 	 2.15
103.0542261926 	 10.17
105.0698762568 	 2.47
115.0542261926 	 90.29
117.0698762568 	 51.87
118.0651252299 	 22.94
127.0542261926 	 10.37
129.0698762568 	 10.3
130.0651252299 	 8.71
131.072950262 	 7.96
132.0807752941 	 8.8
140.0494751657 	 2.29
141.0573001978 	 1.47
142.0651252299 	 9.86
143.072950262 	 28.03
144.0807752941 	 30.24
146.0964253583 	 14.01
154.0651252299 	 1.72
155.060374203 	 6.43
156.0807752941 	 1.18
157.0760242672 	 4.09
159.0916743314 	 1.99
171.0916743314 	 100
187.1229744598 	 135.02
END IONS

BEGIN IONS
PEPMASS=372.1674
CHARGE=1
MSLEVEL=2
RT=0
SOURCE_INSTRUMENT=qTOF
FILENAME=CCMSLIB00000085562.ms
IONMODE=Positive
ORGANISM=Natural
NAME=MLS002153479-01!N6-(2-Phenylethyl)adenosine
PI=GNPS
DATACOLLECTOR=GNPS
SMILES=c1ccc(cc1)CCNc1c2c(ncn1)n(cn2)C1C(C(C(CO)O1)O)O
INCHI=InChI=1S/C18H21N5O4/c24-8-12-14(25)15(26)18(27-12)23-10-22-13-16(20-9-21-17(13)23)19-7-6-11-4-2-1-3-5-11/h1-5,9-10,12,14-15,18,24-26H,6-8H2,(H,19,20,21)
FORMULA=C18H21N5O4
PUBMED=N/A
SUBMITUSER=BIOADREM
LIBRARYQUALITY=0
SPECTRUMID=CCMSLIB00000085562
SCANS=3569
ID=CCMSLIB00000085562
103.0542261926 	 8.31
105.0698762568 	 65.54
109.0508721492 	 0.31
119.035222085 	 0.8
120.0430471171 	 0.37
121.0522148199 	 0.34
136.0617711865 	 14.37
148.0631138572 	 4.62
150.0675305331 	 0.21
162.0774212507 	 0.26
223.0964849378 	 0.6
240.1243714433 	 100
242.1287881192 	 1.3
282.1322560549 	 0.34
372.1666301885 	 0.29
END IONS

BEGIN IONS
PEPMASS=245.0808
CHARGE=1
MSLEVEL=2
RT=0
SOURCE_INSTRUMENT=qTOF
FILENAME=CCMSLIB00000085563.ms
IONMODE=Positive
ORGANISM=Natural
NAME=MLS002154056-01!Dioxybenzone131-53-3
PI=GNPS
DATACOLLECTOR=GNPS
SMILES=COc1ccc(c(c1)O)C(=O)c1ccccc1O
INCHI=InChI=1S/C14H12O4/c1-18-9-6-7-11(13(16)8-9)14(17)10-4-2-3-5-12(10)15/h2-8,15-16H,1H3
FORMULA=C14H12O4
PUBMED=N/A
SUBMITUSER=BIOADREM
LIBRARYQUALITY=0
SPECTRUMID=CCMSLIB00000085563
SCANS=3570
ID=CCMSLIB00000085563
93.0334907505 	 6.36
95.0491408147 	 10.21
108.0205803405 	 12.81
121.0284053726 	 100
123.0440554368 	 4.71
128.0620512247 	 5.17
136.0154949626 	 3.68
151.0389700589 	 86.78
184.0518804689 	 2.36
245.0808348736 	 0
END IONS

BEGIN IONS
PEPMASS=453.1755
CHARGE=1
MSLEVEL=2
RT=0
SOURCE_INSTRUMENT=qTOF
FILENAME=CCMSLIB00000085564.ms
IONMODE=Positive
ORGANISM=Natural
NAME=MLS002172448-01!LY-367,265
PI=GNPS
DATACOLLECTOR=GNPS
SMILES=c1cc2CCCN3c2c(c1)N(CCN1CC=C(CC1)c1c[nH]c2cc(ccc12)F)S3(=O)=O
INCHI=InChI=1S/C24H25FN4O2S/c25-19-6-7-20-21(16-26-22(20)15-19)17-8-11-27(12-9-17)13-14-28-23-5-1-3-18-4-2-10-29(24(18)23)32(28,30)31/h1,3,5-8,15-16,26H,2,4,9-14H2
FORMULA=C24H25FN4O2S
PUBMED=N/A
SUBMITUSER=BIOADREM
LIBRARYQUALITY=0
SPECTRUMID=CCMSLIB00000085564
SCANS=3571
ID=CCMSLIB00000085564
104.0494751657 	 0.24
117.0573001978 	 0.47
118.0651252299 	 0.38
119.060374203 	 0.21
121.0760242672 	 0.82
130.0651252299 	 2.24
131.060374203 	 9.3
132.0681992351 	 1.11
145.0760242672 	 7.17
146.0759867294 	 1.25
147.0916743314 	 3.29
148.0552512873 	 0.28
157.0760242672 	 0.85
158.0964253583 	 1.12
159.0916743314 	 100
171.0916743314 	 1.78
173.1073243956 	 5.88
174.1025733687 	 2.78
185.0630763194 	 3.17
185.1073243956 	 1.17
200.0865514157 	 14.13
202.1338734971 	 67.97
266.0957734313 	 11.45
453.1755009575 	 0
END IONS

BEGIN IONS
PEPMASS=340.1866
CHARGE=1
MSLEVEL=2
RT=0
SOURCE_INSTRUMENT=qTOF
FILENAME=CCMSLIB00000085566.ms
IONMODE=Positive
ORGANISM=Natural
NAME=MLS002154064-01!Xamoterol hemifumarate73210-73-8
PI=GNPS
DATACOLLECTOR=GNPS
SMILES=c1cc(ccc1[O-])OCC(CNCCN=C(N1CCOCC1)[O-])O
INCHI=InChI=1S/C16H25N3O5/c20-13-1-3-15(4-2-13)24-12-14(21)11-17-5-6-18-16(22)19-7-9-23-10-8-19/h1-4,14,17,20-21H,5-12H2,(H,18,22)/p-2
FORMULA=C16H25N3O5
PUBMED=N/A
SUBMITUSER=BIOADREM
LIBRARYQUALITY=0
SPECTRUMID=CCMSLIB00000085566
SCANS=3573
ID=CCMSLIB00000085566
95.0491408147 	 0.6
99.0552888251 	 11.08
103.0542261926 	 0.82
113.0709388893 	 3.3
114.0549544741 	 13.11
121.0647908789 	 1.94
123.0440554368 	 2.49
125.0709388893 	 3.46
143.0815035756 	 5.95
149.059705501 	 3.99
157.0971536398 	 100
184.0968192888 	 0.29
210.112469353 	 0.57
235.1077183261 	 0.52
253.1182830124 	 6.34
340.1866969286 	 0.28
END IONS

BEGIN IONS
PEPMASS=298.071
CHARGE=1
MSLEVEL=2
RT=0
SOURCE_INSTRUMENT=qTOF
FILENAME=CCMSLIB00000085567.ms
IONMODE=Positive
ORGANISM=Natural
NAME=MLS002153408-01!TYRPHOSTIN AG 538
PI=GNPS
DATACOLLECTOR=GNPS
SMILES=c1cc(c(cc1/C=C(\C#N)/C(=O)c1ccc(c(c1)O)O)O)O
INCHI=InChI=1S/C16H11NO5/c17-8-11(5-9-1-3-12(18)14(20)6-9)16(22)10-2-4-13(19)15(21)7-10/h1-7,18-21H/b11-5+
FORMULA=C16H11NO5
PUBMED=N/A
SUBMITUSER=BIOADREM
LIBRARYQUALITY=0
SPECTRUMID=CCMSLIB00000085567
SCANS=3574
ID=CCMSLIB00000085567
104.0494751657 	 35.23
114.0338251015 	 100
117.0334907505 	 9.7
132.0443897878 	 55.49
133.0284053726 	 37.53
136.0393044099 	 22.72
137.0260000694 	 90.98
142.0287397236 	 72.17
160.0393044099 	 58.64
161.0233199947 	 26.21
162.0549544741 	 26.81
167.072950262 	 7.91
170.0236543457 	 40.51
188.034219032 	 45.19
270.0760838467 	 10.98
298.0709984688 	 0
END IONS

BEGIN IONS
PEPMASS=310.216
CHARGE=1
MSLEVEL=2
RT=0
SOURCE_INSTRUMENT=qTOF
FILENAME=CCMSLIB00000085568.ms
IONMODE=Positive
ORGANISM=Natural
NAME=MLS000860001-01!(+/-)-PPHT hydrochloride
PI=GNPS
DATACOLLECTOR=GNPS
SMILES=CCCN(CCc1ccccc1)C1CCc2c(cccc2O)C1
INCHI=InChI=1S/C21H27NO/c1-2-14-22(15-13-17-7-4-3-5-8-17)19-11-12-20-18(16-19)9-6-10-21(20)23/h3-10,19,23H,2,11-16H2,1H3
FORMULA=C21H27NO
PUBMED=N/A
SUBMITUSER=BIOADREM
LIBRARYQUALITY=0
SPECTRUMID=CCMSLIB00000085568
SCANS=3575
ID=CCMSLIB00000085568
91.0542261926 	 8.02
93.0698762568 	 0.21
102.0464011605 	 0.26
103.0542261926 	 5.26
104.0620512247 	 1.11
105.0698762568 	 31.06
107.0491408147 	 27.58
115.0542261926 	 0.89
117.0698762568 	 4.89
119.085526321 	 23.13
121.0647908789 	 0.21
127.0542261926 	 0.53
128.0620512247 	 4.28
129.0698762568 	 4.62
131.0491408147 	 6.39
132.0569658468 	 24.93
145.0647908789 	 3.56
147.0804409431 	 100
310.216540494 	 2.87
END IONS

BEGIN IONS
PEPMASS=311.1568
CHARGE=1
MSLEVEL=2
RT=0
SOURCE_INSTRUMENT=qTOF
FILENAME=CCMSLIB00000085572.ms
IONMODE=Positive
ORGANISM=Natural
NAME=MLS001213113-01!10-(1-Methyl-piperidin-3-ylmethyl)-10H-phenothiazine
PI=GNPS
DATACOLLECTOR=GNPS
SMILES=CN1CCCC(C1)CN1c2ccccc2Sc2ccccc12
INCHI=InChI=1S/C19H22N2S/c1-20-12-6-7-15(13-20)14-21-16-8-2-4-10-18(16)22-19-11-5-3-9-17(19)21/h2-5,8-11,15H,6-7,12-14H2,1H3
FORMULA=C19H22N2S
PUBMED=N/A
SUBMITUSER=BIOADREM
LIBRARYQUALITY=0
SPECTRUMID=CCMSLIB00000085572
SCANS=3578
ID=CCMSLIB00000085572
109.0106468184 	 0.49
136.0215458557 	 0.93
151.0542261926 	 0.98
152.0620512247 	 2.18
166.0651252299 	 0.91
167.072950262 	 4.85
168.0807752941 	 1.88
171.0262968826 	 0.8
178.0651252299 	 5.19
179.072950262 	 25.02
180.0807752941 	 100
184.0341219147 	 1.26
185.0419469468 	 1.83
198.0371959199 	 1.65
199.045020952 	 17.7
204.0807752941 	 4.57
205.0886003262 	 2.61
206.0964253583 	 1.3
211.045020952 	 2.37
212.0528459841 	 95.15
217.0886003262 	 0.74
218.0964253583 	 3.01
220.1120754225 	 0.51
223.045020952 	 13.86
224.0528459841 	 8.01
236.0528459841 	 35.86
237.0606710162 	 28.73
246.1277254867 	 0.78
248.1433755509 	 1.74
250.0684960483 	 2.63
251.0763210804 	 2.94
252.0841461125 	 1.46
265.0919711446 	 0.65
280.1154462409 	 9.36
296.1341703103 	 0.79
311.1576454066 	 5.01
END IONS

BEGIN IONS
PEPMASS=480.2744
CHARGE=1
MSLEVEL=2
RT=0
SOURCE_INSTRUMENT=qTOF
FILENAME=CCMSLIB00000085575.ms
IONMODE=Positive
ORGANISM=Natural
NAME=MLS001148651-01!CYTOCHALASIN B
PI=GNPS
DATACOLLECTOR=GNPS
SMILES=C[C@@H]1CCC[C@H](C=CC(=O)O[C@]23[C@@H](C=CC1)[C@@H](C(=C)[C@@H](C)[C@H]2[C@H](Cc1ccccc1)N=C3O)O)O
INCHI=InChI=1S/C29H37NO5/c1-18-9-7-13-22(31)15-16-25(32)35-29-23(14-8-10-18)27(33)20(3)19(2)26(29)24(30-28(29)34)17-21-11-5-4-6-12-21/h4-6,8,11-12,14-16,18-19,22-24,26-27,31,33H,3,7,9-10,13,17H2,1-2H3,(H,30,34)/t18-,19-,22-,23+,24+,26+,27-,29-/m1/s1
FORMULA=C29H37NO5
PUBMED=N/A
SUBMITUSER=BIOADREM
LIBRARYQUALITY=0
SPECTRUMID=CCMSLIB00000085575
SCANS=3580
ID=CCMSLIB00000085575
91.0542261926 	 62.4
105.0698762568 	 75.98
107.085526321 	 39.84
115.0542261926 	 29.45
117.0698762568 	 48.47
119.085526321 	 37.31
120.0807752941 	 53.03
129.0698762568 	 47.16
131.085526321 	 52.21
133.1011763852 	 28.87
135.0804409431 	 22.03
141.0698762568 	 29.02
143.085526321 	 55.9
144.0807752941 	 27.32
145.1011763852 	 50.66
146.060039852 	 39.98
155.085526321 	 31.39
157.1011763852 	 53.76
161.0960910073 	 37.51
167.085526321 	 27.46
169.1011763852 	 44.1
171.1168264494 	 26.39
172.0756899162 	 100
173.0835149483 	 41.34
174.0913399804 	 30.23
179.085526321 	 39.79
183.1168264494 	 19.36
184.0756899162 	 29.35
185.0835149483 	 23.63
186.0913399804 	 56.38
192.0933513531 	 24.94
195.1168264494 	 18.68
197.1324765136 	 23.24
198.0913399804 	 56.91
199.0991650125 	 24.6
200.1069900446 	 37.17
207.1168264494 	 19.7
210.0913399804 	 20.23
212.1069900446 	 21.74
226.1226401088 	 25.08
236.1069900446 	 31.64
240.138290173 	 27.12
252.138290173 	 44.59
416.2584053087 	 20.14
480.2744493034 	 3.74
END IONS

BEGIN IONS
PEPMASS=379.9095
CHARGE=1
MSLEVEL=2
RT=0
SOURCE_INSTRUMENT=qTOF
FILENAME=CCMSLIB00000085576.ms
IONMODE=Positive
ORGANISM=Natural
NAME=MLS001076545-01!TRICHLOROMETHIAZIDE
PI=GNPS
DATACOLLECTOR=GNPS
SMILES=c1c(c(cc2c1NC(C(Cl)Cl)NS2(=O)=O)S(=O)(=O)N)Cl
INCHI=InChI=1S/C8H8Cl3N3O4S2/c9-3-1-4-6(2-5(3)19(12,15)16)20(17,18)14-8(13-4)7(10)11/h1-2,7-8,13-14H,(H2,12,15,16)
FORMULA=C8H8Cl3N3O4S2
PUBMED=N/A
SUBMITUSER=BIOADREM
LIBRARYQUALITY=0
SPECTRUMID=CCMSLIB00000085576
SCANS=3581
ID=CCMSLIB00000085576
103.0212115047 	 8.14
107.9902457273 	 10.85
111.9710433321 	 21.58
113.9741173373 	 28.81
117.0447241388 	 10.21
123.9948527794 	 10.47
125.0026778115 	 39.15
127.0025845526 	 16.93
131.9902457273 	 7.49
139.9897674015 	 69.38
141.9512734052 	 7.36
141.9905425405 	 29.07
142.9590984373 	 7.49
147.9715305215 	 14.6
155.9846820236 	 20.41
156.9606314842 	 10.85
157.016316503 	 12.4
159.9618380915 	 7.36
165.0187218062 	 9.17
182.9637054894 	 9.56
183.9715305215 	 35.4
184.9766754789 	 12.14
185.9633711384 	 13.82
199.9664451436 	 11.89
199.9902545909 	 8.79
203.9516673357 	 18.35
204.9781193199 	 14.73
206.9545002488 	 7.24
215.972593154 	 34.37
216.9804181861 	 7.75
217.9770098299 	 7.49
218.9377031568 	 19.77
219.9324649405 	 15.5
220.9366484357 	 14.47
220.9782164372 	 10.21
231.9652089099 	 10.08
233.971924452 	 11.37
247.9642522583 	 100
248.9679485641 	 16.67
249.9668390741 	 10.85
263.9492708961 	 32.82
314.9159218572 	 19.51
316.9077624741 	 13.95
379.9094562708 	 0
END IONS

BEGIN IONS
PEPMASS=267.124
CHARGE=1
MSLEVEL=2
RT=0
SOURCE_INSTRUMENT=qTOF
FILENAME=CCMSLIB00000085578.ms
IONMODE=Positive
ORGANISM=Natural
NAME=MLS000862183-01!SB-200646 hydrochloride
PI=GNPS
DATACOLLECTOR=GNPS
SMILES=Cn1ccc2cc(ccc12)NC(=Nc1cccnc1)O
INCHI=InChI=1S/C15H14N4O/c1-19-8-6-11-9-12(4-5-14(11)19)17-15(20)18-13-3-2-7-16-10-13/h2-10H,1H3,(H2,17,18,20)
FORMULA=C15H14N4O
PUBMED=N/A
SUBMITUSER=BIOADREM
LIBRARYQUALITY=0
SPECTRUMID=CCMSLIB00000085578
SCANS=3583
ID=CCMSLIB00000085578
93.0447241388 	 1.52
94.0287397236 	 1.42
95.060374203 	 18.74
103.0542261926 	 1.03
104.0494751657 	 0.51
105.0573001978 	 0.58
116.0494751657 	 0.37
118.0651252299 	 0.73
120.0807752941 	 0.77
121.0396387609 	 100
128.0494751657 	 0.32
130.0651252299 	 2.5
132.0681992351 	 28.94
145.0760242672 	 2.81
147.0916743314 	 30.94
173.0709388893 	 0.39
267.1240370923 	 0
END IONS

BEGIN IONS
PEPMASS=215.1179
CHARGE=1
MSLEVEL=2
RT=0
SOURCE_INSTRUMENT=qTOF
FILENAME=CCMSLIB00000085583.ms
IONMODE=Positive
ORGANISM=Natural
NAME=MLS002153817-01!Hydroxytacrine maleate (R,S)118909-22-1
PI=GNPS
DATACOLLECTOR=GNPS
SMILES=c1ccc2c(c1)c(=N)c1c(CCCC1O)[nH]2
INCHI=InChI=1S/C13H14N2O/c14-13-8-4-1-2-5-9(8)15-10-6-3-7-11(16)12(10)13/h1-2,4-5,11,16H,3,6-7H2,(H2,14,15)
FORMULA=C13H14N2O
PUBMED=N/A
SUBMITUSER=BIOADREM
LIBRARYQUALITY=0
SPECTRUMID=CCMSLIB00000085583
SCANS=3586
ID=CCMSLIB00000085583
104.0494751657 	 0.44
116.0494751657 	 0.42
117.0447241388 	 0.78
127.0542261926 	 0.56
128.0620512247 	 0.9
130.0651252299 	 1.13
132.0681992351 	 0.43
151.0542261926 	 0.41
153.0698762568 	 0.75
154.0651252299 	 1.89
155.072950262 	 1.92
165.0573001978 	 1.08
166.0651252299 	 0.46
169.0760242672 	 2.84
170.0964253583 	 0.84
171.0916743314 	 0.45
178.0651252299 	 1.88
180.0807752941 	 16.17
181.0760242672 	 57.05
182.0838492993 	 100
195.0916743314 	 59.34
197.1073243956 	 98.33
215.1178890819 	 0
END IONS

BEGIN IONS
PEPMASS=166.0709
CHARGE=1
MSLEVEL=2
RT=0
SOURCE_INSTRUMENT=qTOF
FILENAME=CCMSLIB00000085584.ms
IONMODE=Positive
ORGANISM=Natural
NAME=MLS001074870-01!6-O-Methylguanine
PI=GNPS
DATACOLLECTOR=GNPS
SMILES=COc1c2c([nH]cn2)[nH]c(=N)n1
INCHI=InChI=1S/C6H7N5O/c1-12-5-3-4(9-2-8-3)10-6(7)11-5/h2H,1H3,(H3,7,8,9,10,11)
FORMULA=C6H7N5O
PUBMED=N/A
SUBMITUSER=BIOADREM
LIBRARYQUALITY=0
SPECTRUMID=CCMSLIB00000085584
SCANS=3587
ID=CCMSLIB00000085584
92.0243230477 	 5.76
107.035222085 	 25
110.034887734 	 18.33
121.0508721492 	 24.85
134.0461211223 	 52.88
149.0457867713 	 100
151.0488607765 	 19.09
166.0723358728 	 35.45
END IONS

BEGIN IONS
PEPMASS=321.1445
CHARGE=1
MSLEVEL=2
RT=0
SOURCE_INSTRUMENT=qTOF
FILENAME=CCMSLIB00000085585.ms
IONMODE=Positive
ORGANISM=Natural
NAME=MLS001074303-01!Eterobarb
PI=GNPS
DATACOLLECTOR=GNPS
SMILES=CCC1(c2ccccc2)C(=O)N(COC)C(=O)N(COC)C1=O
INCHI=InChI=1S/C16H20N2O5/c1-4-16(12-8-6-5-7-9-12)13(19)17(10-22-2)15(21)18(11-23-3)14(16)20/h5-9H,4,10-11H2,1-3H3
FORMULA=C16H20N2O5
PUBMED=N/A
SUBMITUSER=BIOADREM
LIBRARYQUALITY=0
SPECTRUMID=CCMSLIB00000085585
SCANS=3588
ID=CCMSLIB00000085585
91.0542261926 	 27.19
103.0542261926 	 7.02
104.0494751657 	 5.73
105.0334907505 	 17.85
115.0542261926 	 39.95
117.0698762568 	 100
121.0647908789 	 39.05
128.0620512247 	 7.54
129.0698762568 	 14.88
130.0651252299 	 8.44
131.0491408147 	 8.83
131.085526321 	 41.43
132.0443897878 	 87.24
142.0651252299 	 26.93
144.0807752941 	 6.57
145.0647908789 	 28.54
146.0964253583 	 21.13
147.0804409431 	 4.57
156.0807752941 	 13.79
158.0964253583 	 40.79
160.0756899162 	 38.34
172.0756899162 	 8.63
174.0913399804 	 13.72
186.0913399804 	 7.8
204.1019046667 	 4.51
321.1444977629 	 0
END IONS

BEGIN IONS
PEPMASS=154.0499
CHARGE=1
MSLEVEL=2
RT=0
SOURCE_INSTRUMENT=qTOF
FILENAME=CCMSLIB00000085586.ms
IONMODE=Positive
ORGANISM=Natural
NAME=MLS001066415-01!3-Hydroxyanthranilic acid
PI=GNPS
DATACOLLECTOR=GNPS
SMILES=c1cc(c(c(c1)O)N)C(=O)O
INCHI=InChI=1S/C7H7NO3/c8-6-4(7(10)11)2-1-3-5(6)9/h1-3,9H,8H2,(H,10,11)
FORMULA=C7H7NO3
PUBMED=N/A
SUBMITUSER=BIOADREM
LIBRARYQUALITY=0
SPECTRUMID=CCMSLIB00000085586
SCANS=3589
ID=CCMSLIB00000085586
108.0443897878 	 55.15
136.0393044099 	 100
154.0498690962 	 0
END IONS

BEGIN IONS
PEPMASS=268.1342
CHARGE=1
MSLEVEL=2
RT=0
SOURCE_INSTRUMENT=qTOF
FILENAME=CCMSLIB00000085588.ms
IONMODE=Positive
ORGANISM=Natural
NAME=MLS000028867-01!S(+)-10,11-DIHYDROXYAPORPHINE HYDROCHLORIDE
PI=GNPS
DATACOLLECTOR=GNPS
SMILES=CN1CCc2cccc3c2[C@@H]1Cc1ccc(c(c31)O)O
INCHI=InChI=1S/C17H17NO2/c1-18-8-7-10-3-2-4-12-15(10)13(18)9-11-5-6-14(19)17(20)16(11)12/h2-6,13,19-20H,7-9H2,1H3/t13-/m0/s1
FORMULA=C17H17NO2
PUBMED=N/A
SUBMITUSER=BIOADREM
LIBRARYQUALITY=0
SPECTRUMID=CCMSLIB00000085588
SCANS=3590
ID=CCMSLIB00000085588
165.0698762568 	 3.48
176.0620512247 	 0.56
179.085526321 	 1.43
189.0698762568 	 18.46
190.0777012889 	 33.52
191.085526321 	 100
201.0698762568 	 3.33
207.0804409431 	 1.14
219.0804409431 	 28.44
237.0910056294 	 16.48
268.1332047951 	 0.4
END IONS

BEGIN IONS
PEPMASS=327.1526
CHARGE=1
MSLEVEL=2
RT=0
SOURCE_INSTRUMENT=qTOF
FILENAME=CCMSLIB00000085592.ms
IONMODE=Positive
ORGANISM=Natural
NAME=MLS002153883-01!Acetopromazine maleate salt3598-37-6
PI=GNPS
DATACOLLECTOR=GNPS
SMILES=CC(=O)c1ccc2c(c1)N(CCCN(C)C)c1ccccc1S2
INCHI=InChI=1S/C19H22N2OS/c1-14(22)15-9-10-19-17(13-15)21(12-6-11-20(2)3)16-7-4-5-8-18(16)23-19/h4-5,7-10,13H,6,11-12H2,1-3H3
FORMULA=C19H22N2OS
PUBMED=N/A
SUBMITUSER=BIOADREM
LIBRARYQUALITY=0
SPECTRUMID=CCMSLIB00000085592
SCANS=3593
ID=CCMSLIB00000085592
117.0698762568 	 2.18
130.0651252299 	 0.93
154.0651252299 	 1.55
165.0698762568 	 0.84
167.072950262 	 1.91
178.0651252299 	 2.93
179.072950262 	 4.92
180.0807752941 	 6.81
192.0807752941 	 0.98
193.0886003262 	 0.89
198.0371959199 	 5.96
204.0807752941 	 2.72
205.0886003262 	 1.22
206.060039852 	 5.65
206.0964253583 	 10.62
210.0371959199 	 2.61
211.045020952 	 13.83
212.0528459841 	 26
214.044686601 	 1.47
220.0756899162 	 1.17
221.0835149483 	 1.01
222.0913399804 	 100
224.0528459841 	 6.86
226.032110542 	 5.64
234.0913399804 	 1.6
236.0528459841 	 8.99
238.0684960483 	 7.66
239.0763210804 	 37.17
241.0555856383 	 14.23
249.1148150767 	 1.87
254.0634106704 	 69.03
264.0841461125 	 1.19
282.0947107988 	 7.39
327.1525600287 	 2.42
END IONS

BEGIN IONS
PEPMASS=340.2377
CHARGE=1
MSLEVEL=2
RT=0
SOURCE_INSTRUMENT=qTOF
FILENAME=CCMSLIB00000085595.ms
IONMODE=Positive
ORGANISM=Natural
NAME=MLS002153442-01!U-101958 maleate salt
PI=GNPS
DATACOLLECTOR=GNPS
SMILES=CC(C)Oc1cccnc1N(C)C1CCN(CC1)Cc1ccccc1
INCHI=InChI=1S/C21H29N3O/c1-17(2)25-20-10-7-13-22-21(20)23(3)19-11-14-24(15-12-19)16-18-8-5-4-6-9-18/h4-10,13,17,19H,11-12,14-16H2,1-3H3
FORMULA=C21H29N3O
PUBMED=N/A
SUBMITUSER=BIOADREM
LIBRARYQUALITY=0
SPECTRUMID=CCMSLIB00000085595
SCANS=3595
ID=CCMSLIB00000085595
91.0542261926 	 32.88
143.085526321 	 1.55
174.1277254867 	 100
298.191388376 	 6.26
340.2383385686 	 0.81
END IONS

BEGIN IONS
PEPMASS=168.1019
CHARGE=1
MSLEVEL=2
RT=0
SOURCE_INSTRUMENT=qTOF
FILENAME=CCMSLIB00000085596.ms
IONMODE=Positive
ORGANISM=Natural
NAME=MLS002154008-01!Pyrithyldione77-04-3
PI=GNPS
DATACOLLECTOR=GNPS
SMILES=CCC1(CC)C(=O)C=CN=C1O
INCHI=InChI=1S/C9H13NO2/c1-3-9(4-2)7(11)5-6-10-8(9)12/h5-6H,3-4H2,1-2H3,(H,10,12)
FORMULA=C9H13NO2
PUBMED=N/A
SUBMITUSER=BIOADREM
LIBRARYQUALITY=0
SPECTRUMID=CCMSLIB00000085596
SCANS=3596
ID=CCMSLIB00000085596
93.0698762568 	 2.6
94.0651252299 	 6.46
95.0491408147 	 4.33
96.0443897878 	 6.16
97.0522148199 	 3.56
104.0494751657 	 29.62
112.0756899162 	 2.8
120.0443897878 	 4.68
122.060039852 	 100
124.0393044099 	 11.86
125.047129442 	 19.08
138.0549544741 	 14.15
139.0627795062 	 3.77
140.0706045383 	 70.13
168.1019046667 	 0
END IONS

BEGIN IONS
PEPMASS=231.1488
CHARGE=1
MSLEVEL=2
RT=0
SOURCE_INSTRUMENT=qTOF
FILENAME=CCMSLIB00000085597.ms
IONMODE=Positive
ORGANISM=Natural
NAME=MLS002153462-01!BRL 54443 maleate salt
PI=GNPS
DATACOLLECTOR=GNPS
SMILES=CN1CCC(CC1)c1c[nH]c2ccc(cc12)[O-]
INCHI=InChI=1S/C14H18N2O/c1-16-6-4-10(5-7-16)13-9-15-14-3-2-11(17)8-12(13)14/h2-3,8-10,15,17H,4-7H2,1H3/p-1
FORMULA=C14H18N2O
PUBMED=N/A
SUBMITUSER=BIOADREM
LIBRARYQUALITY=0
SPECTRUMID=CCMSLIB00000085597
SCANS=3597
ID=CCMSLIB00000085597
96.0807752941 	 15.99
98.0964253583 	 100
103.0542261926 	 10.97
122.060039852 	 29.78
142.0651252299 	 10.66
146.060039852 	 16.61
160.0756899162 	 16.3
172.0756899162 	 15.67
174.1277254867 	 10.66
184.0756899162 	 10.97
200.1069900446 	 24.14
231.1491892103 	 24.14
END IONS

BEGIN IONS
PEPMASS=397.1556
CHARGE=1
MSLEVEL=2
RT=0
SOURCE_INSTRUMENT=qTOF
FILENAME=CCMSLIB00000085598.ms
IONMODE=Positive
ORGANISM=Natural
NAME=MLS000862187-01!SB 218795
PI=GNPS
DATACOLLECTOR=GNPS
SMILES=COC(=O)[C@@H](c1ccccc1)N=C(c1cc(c2ccccc2)nc2ccccc12)O
INCHI=InChI=1S/C25H20N2O3/c1-30-25(29)23(18-12-6-3-7-13-18)27-24(28)20-16-22(17-10-4-2-5-11-17)26-21-15-9-8-14-19(20)21/h2-16,23H,1H3,(H,27,28)/t23-/m1/s1
FORMULA=C25H20N2O3
PUBMED=N/A
SUBMITUSER=BIOADREM
LIBRARYQUALITY=0
SPECTRUMID=CCMSLIB00000085598
SCANS=3598
ID=CCMSLIB00000085598
104.0494751657 	 1.36
128.0494751657 	 2.21
179.085526321 	 0.68
180.0807752941 	 0.5
181.0886003262 	 1.49
204.0807752941 	 25.76
205.0886003262 	 64.66
206.0964253583 	 57.97
209.0835149483 	 10.15
216.0807752941 	 0.67
222.0913399804 	 1.28
231.0916743314 	 3.62
233.0835149483 	 0.99
234.0913399804 	 15.23
237.0784295704 	 69.64
249.1022390177 	 2.35
260.0944139856 	 1.91
294.1277254867 	 3.96
308.1307994919 	 2.67
309.138624524 	 29.09
318.1151494277 	 0.87
320.1155433582 	 0.47
336.125714114 	 0.96
337.1335391461 	 100
347.1178890819 	 0.76
365.1284537682 	 1.13
397.1546685187 	 53.83
END IONS

BEGIN IONS
PEPMASS=223.1193
CHARGE=1
MSLEVEL=2
RT=0
SOURCE_INSTRUMENT=qTOF
FILENAME=CCMSLIB00000085599.ms
IONMODE=Positive
ORGANISM=Natural
NAME=MLS001056732-01!3-Isobutyl-1-methylxanthine
PI=GNPS
DATACOLLECTOR=GNPS
SMILES=CC(C)Cn1c2c(c(=O)n(C)c1=O)nc[nH]2
INCHI=InChI=1S/C10H14N4O2/c1-6(2)4-14-8-7(11-5-12-8)9(15)13(3)10(14)16/h5-6H,4H2,1-3H3,(H,11,12)
FORMULA=C10H14N4O2
PUBMED=N/A
SUBMITUSER=BIOADREM
LIBRARYQUALITY=0
SPECTRUMID=CCMSLIB00000085599
SCANS=3599
ID=CCMSLIB00000085599
71.085526321 	 1.43
110.034887734 	 100
136.0141522919 	 3.4
167.0563514576 	 51.94
223.1189517144 	 1.67
END IONS

BEGIN IONS
PEPMASS=243.1125
CHARGE=1
MSLEVEL=2
RT=0
SOURCE_INSTRUMENT=qTOF
FILENAME=CCMSLIB00000085600.ms
IONMODE=Positive
ORGANISM=Natural
NAME=MLS001240196-01!2-(2,3-Dimethyl-phenylamino)-nicotinic acid
PI=GNPS
DATACOLLECTOR=GNPS
SMILES=Cc1cccc(c1C)Nc1c(cccn1)C(=O)O
INCHI=InChI=1S/C14H14N2O2/c1-9-5-3-7-12(10(9)2)16-13-11(14(17)18)6-4-8-15-13/h3-8H,1-2H3,(H,15,16)(H,17,18)
FORMULA=C14H14N2O2
PUBMED=N/A
SUBMITUSER=BIOADREM
LIBRARYQUALITY=0
SPECTRUMID=CCMSLIB00000085600
SCANS=3600
ID=CCMSLIB00000085600
105.0698762568 	 5.49
106.0651252299 	 2.51
121.0886003262 	 1.9
154.0651252299 	 1.33
168.0681992351 	 0.46
170.0964253583 	 0.66
181.0760242672 	 43.51
182.0838492993 	 20.6
184.0631138572 	 2.5
192.0681992351 	 0.86
194.0838492993 	 0.41
195.0552888251 	 0.99
195.0916743314 	 2.49
197.0709388893 	 2.17
197.1073243956 	 2.38
205.0760242672 	 0.96
207.0916743314 	 1.26
208.0631138572 	 0.76
209.0709388893 	 40.22
210.0787639214 	 100
223.0865889535 	 4.67
225.1022390177 	 84.84
227.0815035756 	 0.57
243.112803704 	 3.01
END IONS

BEGIN IONS
PEPMASS=395.2131
CHARGE=1
MSLEVEL=2
RT=0
SOURCE_INSTRUMENT=qTOF
FILENAME=CCMSLIB00000085602.ms
IONMODE=Positive
ORGANISM=Natural
NAME=MLS002153165-01!LY-310,762 hydrochloride
PI=GNPS
DATACOLLECTOR=GNPS
SMILES=CC1(C)c2ccccc2N(CCN2CCC(CC2)C(=O)c2ccc(cc2)F)C1=O
INCHI=InChI=1S/C24H27FN2O2/c1-24(2)20-5-3-4-6-21(20)27(23(24)29)16-15-26-13-11-18(12-14-26)22(28)17-7-9-19(25)10-8-17/h3-10,18H,11-16H2,1-2H3
FORMULA=C24H27FN2O2
PUBMED=N/A
SUBMITUSER=BIOADREM
LIBRARYQUALITY=0
SPECTRUMID=CCMSLIB00000085602
SCANS=3602
ID=CCMSLIB00000085602
91.0542261926 	 0.49
103.0542261926 	 0.22
104.0494751657 	 0.33
106.0651252299 	 1.4
109.0448043605 	 0.45
115.0542261926 	 0.25
117.0573001978 	 0.83
118.0651252299 	 12.12
128.0620512247 	 1.16
130.0651252299 	 10.04
131.072950262 	 8.41
132.0807752941 	 6.15
135.0604544247 	 0.5
143.085526321 	 2.19
144.0807752941 	 12.81
145.0886003262 	 28.15
158.0964253583 	 2.01
160.1120754225 	 77.17
163.0917545531 	 0.23
172.0756899162 	 0.69
173.0835149483 	 14.37
188.1069900446 	 100
191.0866691752 	 1.27
208.1132182767 	 0.23
216.1183036546 	 0.21
234.1288683409 	 9.34
377.202367635 	 0.37
395.2129323213 	 34.14
END IONS

BEGIN IONS
PEPMASS=278.0951
CHARGE=1
MSLEVEL=2
RT=0
SOURCE_INSTRUMENT=qTOF
FILENAME=CCMSLIB00000085603.ms
IONMODE=Positive
ORGANISM=Natural
NAME=MLS002172453-01!HA-10084468-24-6
PI=GNPS
DATACOLLECTOR=GNPS
SMILES=c1cc2cnccc2c(c1)S(=O)(=O)N1CCNCC1
INCHI=InChI=1S/C13H15N3O2S/c17-19(18,16-8-6-14-7-9-16)13-3-1-2-11-10-15-5-4-12(11)13/h1-5,10,14H,6-9H2
FORMULA=C13H15N3O2S
PUBMED=N/A
SUBMITUSER=BIOADREM
LIBRARYQUALITY=0
SPECTRUMID=CCMSLIB00000085603
SCANS=3603
ID=CCMSLIB00000085603
102.0464011605 	 6.91
103.0542261926 	 9.88
105.0573001978 	 17.52
117.0573001978 	 8.32
118.0651252299 	 6.37
128.0494751657 	 20.54
129.0573001978 	 78.73
130.0651252299 	 53.04
132.0443897878 	 14.21
144.0443897878 	 2.77
145.0522148199 	 18.54
146.060039852 	 100
161.047129442 	 18.05
194.0270251641 	 27.98
278.0957734313 	 14.21
END IONS

BEGIN IONS
PEPMASS=357.2518
CHARGE=1
MSLEVEL=2
RT=0
SOURCE_INSTRUMENT=qTOF
FILENAME=CCMSLIB00000085604.ms
IONMODE=Positive
ORGANISM=Natural
NAME=MLS001056778-01!
PI=GNPS
DATACOLLECTOR=GNPS
SMILES=CN([C@@H]1CC[C@]2(CCCO2)C[C@H]1N1CCCC1)C(=O)Cc1ccccc1
INCHI=InChI=1S/C22H32N2O2/c1-23(21(25)16-18-8-3-2-4-9-18)19-10-12-22(11-7-15-26-22)17-20(19)24-13-5-6-14-24/h2-4,8-9,19-20H,5-7,10-17H2,1H3/t19-,20-,22-/m1/s1
FORMULA=C22H32N2O2
PUBMED=N/A
SUBMITUSER=BIOADREM
LIBRARYQUALITY=0
SPECTRUMID=CCMSLIB00000085604
SCANS=3604
ID=CCMSLIB00000085604
91.0542261926 	 8.82
93.0698762568 	 1.69
95.0491408147 	 2.55
95.085526321 	 1.38
96.0807752941 	 0.66
97.0647908789 	 1.28
105.0698762568 	 0.34
108.0807752941 	 1.45
109.0647908789 	 0.8
111.0804409431 	 0.53
117.0698762568 	 0.88
119.085526321 	 3.72
122.0964253583 	 2.84
132.0807752941 	 0.6
135.1042503904 	 0.43
137.0960910073 	 38.2
140.1069900446 	 1.24
148.1120754225 	 0.28
150.0913399804 	 12.62
150.1277254867 	 4.05
168.138290173 	 100
202.1226401088 	 0.21
258.1852403656 	 0.26
286.1801549877 	 89.72
357.2536542818 	 0.25
END IONS

BEGIN IONS
PEPMASS=245.1283
CHARGE=1
MSLEVEL=2
RT=0
SOURCE_INSTRUMENT=qTOF
FILENAME=CCMSLIB00000085606.ms
IONMODE=Positive
ORGANISM=Natural
NAME=MLS002153380-01!Imiloxan hydrochloride81167-16-0
PI=GNPS
DATACOLLECTOR=GNPS
SMILES=CCn1ccnc1CC1COc2ccccc2O1
INCHI=InChI=1S/C14H16N2O2/c1-2-16-8-7-15-14(16)9-11-10-17-12-5-3-4-6-13(12)18-11/h3-8,11H,2,9-10H2,1H3
FORMULA=C14H16N2O2
PUBMED=N/A
SUBMITUSER=BIOADREM
LIBRARYQUALITY=0
SPECTRUMID=CCMSLIB00000085606
SCANS=3605
ID=CCMSLIB00000085606
95.060374203 	 0.55
96.0681992351 	 0.43
97.0760242672 	 0.39
103.0542261926 	 0.23
106.0525491709 	 0.45
107.060374203 	 6.37
108.0681992351 	 3.11
109.0760242672 	 43.63
110.0838492993 	 5.66
120.0681992351 	 0.73
121.0760242672 	 5.65
122.0838492993 	 2.96
123.0916743314 	 1.07
135.0916743314 	 25.3
136.0994993635 	 4.19
137.1073243956 	 100
139.0865889535 	 0.79
151.0865889535 	 0.35
168.0893286077 	 0.63
245.1284537682 	 20.91
END IONS

BEGIN IONS
PEPMASS=254.1171
CHARGE=1
MSLEVEL=2
RT=0
SOURCE_INSTRUMENT=qTOF
FILENAME=CCMSLIB00000085607.ms
IONMODE=Positive
ORGANISM=Natural
NAME=MLS002154090-01!Proguanil hydrochloride637-32-1
PI=GNPS
DATACOLLECTOR=GNPS
SMILES=CC(C)NC(=N)NC(=N)Nc1ccc(cc1)Cl
INCHI=InChI=1S/C11H16ClN5/c1-7(2)15-10(13)17-11(14)16-9-5-3-8(12)4-6-9/h3-7H,1-2H3,(H5,13,14,15,16,17)
FORMULA=C11H16ClN5
PUBMED=N/A
SUBMITUSER=BIOADREM
LIBRARYQUALITY=0
SPECTRUMID=CCMSLIB00000085607
SCANS=3606
ID=CCMSLIB00000085607
93.0573001978 	 5.68
98.9996038063 	 1.67
110.9996038063 	 6.99
118.0525491709 	 10.73
126.0105028436 	 16.43
128.0261529078 	 26.38
134.0712732403 	 0.27
139.0057518167 	 4.44
151.0057518167 	 1.57
153.0214018809 	 100
170.0479509824 	 62.64
178.016650854 	 6.97
195.0431999555 	 4.86
237.0901501481 	 0.48
254.1166992496 	 0.38
END IONS

BEGIN IONS
PEPMASS=576.0094
CHARGE=1
MSLEVEL=2
RT=0
SOURCE_INSTRUMENT=qTOF
FILENAME=CCMSLIB00000085609.ms
IONMODE=Positive
ORGANISM=Natural
NAME=MLS002153829-01!Cefotetan69712-56-7
PI=GNPS
DATACOLLECTOR=GNPS
SMILES=Cn1c(nnn1)SCC1=C(C(=O)O)N2C(=O)[C@]([C@H]2SC1)(N=C(C1SC(=C(C(=O)N)C(=O)O)S1)O)OC
INCHI=InChI=1S/C17H17N7O8S4/c1-23-16(20-21-22-23)34-4-5-3-33-15-17(32-2,14(31)24(15)7(5)11(29)30)19-9(26)13-35-12(36-13)6(8(18)25)10(27)28/h13,15H,3-4H2,1-2H3,(H2,18,25)(H,19,26)(H,27,28)(H,29,30)/t13?,15-,17+/m1/s1
FORMULA=C17H17N7O8S4
PUBMED=N/A
SUBMITUSER=BIOADREM
LIBRARYQUALITY=0
SPECTRUMID=CCMSLIB00000085609
SCANS=3608
ID=CCMSLIB00000085609
102.9670674442 	 68.13
104.9640905563 	 13.38
110.0058957915 	 15.12
110.060039852 	 6.41
112.0215458557 	 11.52
112.0393044099 	 7.76
114.0371959199 	 6.52
128.9640905563 	 4.5
128.9879000036 	 5.12
137.0141147541 	 6.07
137.0709388893 	 9.05
138.0787639214 	 17.14
139.0086354457 	 9.72
139.0349473135 	 9.22
140.0137804031 	 4.38
144.0113750999 	 5.23
145.006624073 	 6.63
145.9728811036 	 33.67
146.9568966884 	 4.38
147.9647217205 	 9.11
154.019534483 	 12.31
156.0113750999 	 5.34
156.9412466242 	 5.68
157.019200132 	 5.45
158.0270251641 	 4.89
165.0090293762 	 5.73
166.0009075309 	 9.44
167.0298619356 	 4.67
169.0430095793 	 25.41
171.0586596435 	 49.35
171.9521456615 	 6.97
180.9861854441 	 4.89
182.0243450894 	 4.5
183.0222741372 	 7.53
189.9627103478 	 100
190.9644844868 	 9.78
197.0379242014 	 36.82
199.9470602836 	 8.99
209.0352441267 	 7.53
210.9967501304 	 4.89
215.0484888877 	 76
217.0403295046 	 5.73
224.0097576577 	 4.95
225.0150802693 	 5.56
241.0151773866 	 5.56
255.0407234351 	 5.79
283.005303444 	 4.55
289.018548205 	 5
327.0011835813 	 4.61
371.9988378576 	 5.45
576.0094193189 	 0
END IONS

BEGIN IONS
PEPMASS=349.2611
CHARGE=1
MSLEVEL=2
RT=0
SOURCE_INSTRUMENT=qTOF
FILENAME=CCMSLIB00000085610.ms
IONMODE=Positive
ORGANISM=Natural
NAME=MLS001076268-01!
PI=GNPS
DATACOLLECTOR=GNPS
SMILES=CC[N+](C)(CC)CCOC(=O)C(c1ccccc1)(C1CCCCC1)O
INCHI=InChI=1S/C21H34NO3/c1-4-22(3,5-2)16-17-25-20(23)21(24,18-12-8-6-9-13-18)19-14-10-7-11-15-19/h6,8-9,12-13,19,24H,4-5,7,10-11,14-17H2,1-3H3/q+1
FORMULA=C21H34NO3
PUBMED=N/A
SUBMITUSER=BIOADREM
LIBRARYQUALITY=0
SPECTRUMID=CCMSLIB00000085610
SCANS=3609
ID=CCMSLIB00000085610
88.1120754225 	 0.29
91.0542261926 	 3.31
102.0913399804 	 1.85
103.0542261926 	 0.76
104.1069900446 	 2.79
105.0334907505 	 34.93
107.0491408147 	 17.2
114.1277254867 	 0.38
117.0698762568 	 1.4
121.0647908789 	 1.11
128.0620512247 	 0.72
129.0698762568 	 8.45
132.138290173 	 100
133.0284053726 	 0.68
143.085526321 	 2.53
149.059705501 	 12.9
155.085526321 	 0.4
157.0647908789 	 1.78
171.1168264494 	 7.63
175.0753555652 	 0.49
181.1011763852 	 0.83
189.1273911357 	 21.65
199.1117410715 	 7.31
243.137955822 	 0.86
261.1485205083 	 0.98
348.2533199308 	 26.02
349.2611449629 	 0
END IONS

BEGIN IONS
PEPMASS=346.1647
CHARGE=1
MSLEVEL=2
RT=0
SOURCE_INSTRUMENT=qTOF
FILENAME=CCMSLIB00000085611.ms
IONMODE=Positive
ORGANISM=Natural
NAME=MLS000859914-01!WB-4101 hydrochloride
PI=GNPS
DATACOLLECTOR=GNPS
SMILES=COc1cccc(c1OCCNCC1COc2ccccc2O1)OC
INCHI=InChI=1S/C19H23NO5/c1-21-17-8-5-9-18(22-2)19(17)23-11-10-20-12-14-13-24-15-6-3-4-7-16(15)25-14/h3-9,14,20H,10-13H2,1-2H3
FORMULA=C19H23NO5
PUBMED=N/A
SUBMITUSER=BIOADREM
LIBRARYQUALITY=0
SPECTRUMID=CCMSLIB00000085611
SCANS=3610
ID=CCMSLIB00000085611
91.0542261926 	 5.06
93.0698762568 	 0.43
95.0491408147 	 6.09
103.0542261926 	 6.25
105.0334907505 	 0.57
105.0698762568 	 1.07
107.0491408147 	 9.3
108.0205803405 	 0.52
109.0284053726 	 17.88
110.0362304047 	 2.69
117.0698762568 	 0.62
118.0413157826 	 0.66
119.0491408147 	 16.45
121.0284053726 	 32.4
121.0647908789 	 8.2
123.0440554368 	 5.13
125.059705501 	 1.33
131.0491408147 	 2.25
134.0362304047 	 1.99
135.0440554368 	 3.22
135.0804409431 	 0.86
136.0518804689 	 4.18
147.0440554368 	 4.78
148.0518804689 	 3.55
149.059705501 	 27.24
151.0389700589 	 0.89
151.0753555652 	 0.75
164.1069900446 	 0.5
166.0624451552 	 0.7
192.1019046667 	 100
210.112469353 	 0.4
346.164898854 	 1.72
END IONS

BEGIN IONS
PEPMASS=564.1909
CHARGE=1
MSLEVEL=2
RT=0
SOURCE_INSTRUMENT=qTOF
FILENAME=CCMSLIB00000085612.ms
IONMODE=Positive
ORGANISM=Natural
NAME=MLS002153865-01!Thiocolchicoside602-41-5
PI=GNPS
DATACOLLECTOR=GNPS
SMILES=CC(=NC1CCc2cc(c(c(c2c2ccc(c(=O)cc12)SC)OC)OC)O[C@H]1[C@@H]([C@H]([C@@H]([C@@H](CO)O1)O)O)O)O
INCHI=InChI=1S/C27H33NO10S/c1-12(30)28-16-7-5-13-9-18(37-27-24(34)23(33)22(32)19(11-29)38-27)25(35-2)26(36-3)21(13)14-6-8-20(39-4)17(31)10-15(14)16/h6,8-10,16,19,22-24,27,29,32-34H,5,7,11H2,1-4H3,(H,28,30)/t16?,19-,22-,23+,24-,27-/m1/s1
FORMULA=C27H33NO10S
PUBMED=N/A
SUBMITUSER=BIOADREM
LIBRARYQUALITY=0
SPECTRUMID=CCMSLIB00000085612
SCANS=3611
ID=CCMSLIB00000085612
208.0882659752 	 5.57
209.0960910073 	 7.05
235.0753555652 	 9.55
236.0831805973 	 11.86
252.0780952194 	 5.38
253.0859202515 	 16.39
263.0702701873 	 6.38
264.0780952194 	 8.92
265.0767150109 	 6.55
267.1015703157 	 14.34
268.1093953478 	 24.96
269.1172203799 	 9.38
280.0916367936 	 7.99
281.0808348736 	 16.63
283.0787263836 	 11.21
284.0865514157 	 6.09
284.1281194172 	 12.01
285.0579909415 	 6.62
287.0736410057 	 12.82
294.112469353 	 12.34
295.1025358309 	 11.32
296.1043099699 	 40.24
297.1029297614 	 10.42
298.1022014799 	 9.23
300.0814660378 	 9.79
301.0767150109 	 7.46
311.0736410057 	 7.7
312.0814660378 	 11.66
312.1230340393 	 23.29
313.0529055636 	 7.07
313.1308590714 	 17.58
314.1335016083 	 7.55
315.1049411341 	 26.83
322.1073839751 	 5.48
327.0923650751 	 8.6
328.0763806599 	 10.23
329.1019642462 	 4.81
330.0794546651 	 9.16
332.0951047293 	 6.46
343.0998557562 	 26.03
345.1029297614 	 10.99
354.1335987256 	 18.72
360.1264048577 	 100
361.1281789967 	 24.31
384.1264048577 	 16.47
402.136969544 	 92.64
564.1897929755 	 3.46
END IONS

BEGIN IONS
PEPMASS=197.0808
CHARGE=1
MSLEVEL=2
RT=0
SOURCE_INSTRUMENT=qTOF
FILENAME=CCMSLIB00000085613.ms
IONMODE=Positive
ORGANISM=Natural
NAME=MLS002207182-01!2'-Hydroxy-4',6'-dimethoxyacetophenone90-24-4
PI=GNPS
DATACOLLECTOR=GNPS
SMILES=CC(=O)c1c(cc(cc1OC)OC)O
INCHI=InChI=1S/C10H12O4/c1-6(11)10-8(12)4-7(13-2)5-9(10)14-3/h4-5,12H,1-3H3
FORMULA=C10H12O4
PUBMED=N/A
SUBMITUSER=BIOADREM
LIBRARYQUALITY=0
SPECTRUMID=CCMSLIB00000085613
SCANS=3612
ID=CCMSLIB00000085613
89.0385761284 	 9.7
90.0464011605 	 12.01
91.0542261926 	 28.95
92.0256657184 	 7.24
95.0491408147 	 20.23
96.0205803405 	 5.59
103.0542261926 	 31.66
106.0413157826 	 7.73
107.0491408147 	 19.41
108.0205803405 	 15.71
108.0569658468 	 29.93
109.0284053726 	 7.65
109.0647908789 	 14.23
111.0440554368 	 7.24
118.0413157826 	 43.17
121.0284053726 	 38.9
121.0647908789 	 17.02
123.0440554368 	 10.36
123.0804409431 	 16.37
133.0647908789 	 50
135.0440554368 	 15.79
136.0518804689 	 16.37
140.046795091 	 11.51
147.0440554368 	 16.28
148.0518804689 	 11.76
149.0233199947 	 78.21
151.0753555652 	 66.45
155.0702701873 	 29.36
164.046795091 	 45.72
165.0546201231 	 6.58
167.033884681 	 100
179.0702701873 	 41.69
197.0808348736 	 0
END IONS

BEGIN IONS
PEPMASS=212.0917
CHARGE=1
MSLEVEL=2
RT=0
SOURCE_INSTRUMENT=qTOF
FILENAME=CCMSLIB00000085614.ms
IONMODE=Positive
ORGANISM=Natural
NAME=MLS000028644-01!3-(3,4-DIHYDROXYPHENYL)-2-METHYL-L-ALANINE
PI=GNPS
DATACOLLECTOR=GNPS
SMILES=C[C@](Cc1ccc(c(c1)O)O)(C(=O)O)N
INCHI=InChI=1S/C10H13NO4/c1-10(11,9(14)15)5-6-2-3-7(12)8(13)4-6/h2-4,12-13H,5,11H2,1H3,(H,14,15)/t10-/m0/s1
FORMULA=C10H13NO4
PUBMED=N/A
SUBMITUSER=BIOADREM
LIBRARYQUALITY=0
SPECTRUMID=CCMSLIB00000085614
SCANS=3613
ID=CCMSLIB00000085614
93.0334907505 	 9.68
103.0542261926 	 73.02
105.0573001978 	 9.97
107.0491408147 	 13.2
111.0440554368 	 34.31
123.0440554368 	 100
139.0389700589 	 78.3
149.059705501 	 27.57
151.0627795062 	 40.18
166.0862546025 	 77.13
212.0917339109 	 0
END IONS

BEGIN IONS
PEPMASS=404.0369
CHARGE=1
MSLEVEL=2
RT=0
SOURCE_INSTRUMENT=qTOF
FILENAME=CCMSLIB00000085619.ms
IONMODE=Positive
ORGANISM=Natural
NAME=MLS002154042-01!Phthalylsulfathiazole85-73-4
PI=GNPS
DATACOLLECTOR=GNPS
SMILES=c1ccc(c(c1)C(=O)Nc1ccc(cc1)S(=O)(=O)Nc1nccs1)C(=O)O
INCHI=InChI=1S/C17H13N3O5S2/c21-15(13-3-1-2-4-14(13)16(22)23)19-11-5-7-12(8-6-11)27(24,25)20-17-18-9-10-26-17/h1-10H,(H,18,20)(H,19,21)(H,22,23)
FORMULA=C17H13N3O5S2
PUBMED=N/A
SUBMITUSER=BIOADREM
LIBRARYQUALITY=0
SPECTRUMID=CCMSLIB00000085619
SCANS=3617
ID=CCMSLIB00000085619
92.0494751657 	 2.62
100.0089697967 	 1.55
108.0443897878 	 19.39
121.0284053726 	 6.87
139.0542261926 	 1.38
140.0164604778 	 1.91
140.0494751657 	 1.21
149.0233199947 	 100
150.0246198609 	 8.01
156.0113750999 	 26.7
157.0158293136 	 2.07
166.0651252299 	 6.43
167.0689275166 	 2.83
173.0141147541 	 0.81
194.060039852 	 5.72
195.0678648841 	 3.16
196.0716671708 	 0.96
222.0549544741 	 28.72
223.0587567608 	 15.21
224.0665817929 	 3.13
238.0498690962 	 2.45
239.0511689624 	 0.92
240.0655191604 	 10.66
241.0693214471 	 1.85
255.0526087504 	 18.1
256.018865781 	 2.37
256.0539086166 	 2.39
286.0168544083 	 1.78
304.0274190946 	 1.99
386.0263732371 	 3.63
404.0369379234 	 0
END IONS

BEGIN IONS
PEPMASS=330.2216
CHARGE=1
MSLEVEL=2
RT=0
SOURCE_INSTRUMENT=qTOF
FILENAME=CCMSLIB00000085621.ms
IONMODE=Positive
ORGANISM=Natural
NAME=MLS002153874-01!Prenylamine lactate69-43-2
PI=GNPS
DATACOLLECTOR=GNPS
SMILES=CC(Cc1ccccc1)NCCC(c1ccccc1)c1ccccc1
INCHI=InChI=1S/C24H27N/c1-20(19-21-11-5-2-6-12-21)25-18-17-24(22-13-7-3-8-14-22)23-15-9-4-10-16-23/h2-16,20,24-25H,17-19H2,1H3
FORMULA=C24H27N
PUBMED=N/A
SUBMITUSER=BIOADREM
LIBRARYQUALITY=0
SPECTRUMID=CCMSLIB00000085621
SCANS=3618
ID=CCMSLIB00000085621
91.0542261926 	 100
103.0542261926 	 0.84
106.0777012889 	 0.58
115.0542261926 	 11.16
117.0698762568 	 21.66
119.085526321 	 16.05
141.0698762568 	 0.8
151.0542261926 	 0.98
152.0620512247 	 9.58
165.0698762568 	 12.64
167.085526321 	 61.63
195.1168264494 	 4.14
212.1433755509 	 7.2
330.2216258719 	 8.52
END IONS

BEGIN IONS
PEPMASS=835.5524
CHARGE=1
MSLEVEL=2
RT=0
SOURCE_INSTRUMENT=qTOF
FILENAME=CCMSLIB00000085622.ms
IONMODE=Positive
ORGANISM=Natural
NAME=MLS001074061-01!DIRITHROMYCIN
PI=GNPS
DATACOLLECTOR=GNPS
SMILES=CC[C@@H]1[C@](C)([C@H]2[C@@H](C)[C@H]([C@H](C)C[C@](C)([C@@H]([C@@H](C)[C@@H]([C@@H](C)C(=O)O1)O[C@H]1C[C@](C)([C@H]([C@H](C)O1)O)OC)O[C@H]1[C@@H]([C@H](C[C@@H](C)O1)N(C)C)O)O)N[C@@H](COCCOC)O2)O
INCHI=InChI=1S/C42H78N2O14/c1-15-29-42(10,49)37-24(4)32(43-30(56-37)21-52-17-16-50-13)22(2)19-40(8,48)36(58-39-33(45)28(44(11)12)18-23(3)53-39)25(5)34(26(6)38(47)55-29)57-31-20-41(9,51-14)35(46)27(7)54-31/h22-37,39,43,45-46,48-49H,15-21H2,1-14H3/t22-,23-,24+,25+,26-,27+,28+,29-,30-,31+,32+,33-,34+,35+,36-,37-,39+,40-,41-,42-/m1/s1
FORMULA=C42H78N2O14
PUBMED=N/A
SUBMITUSER=BIOADREM
LIBRARYQUALITY=0
SPECTRUMID=CCMSLIB00000085622
SCANS=3619
ID=CCMSLIB00000085622
98.0964253583 	 1.20750178768771
113.059705501 	 1.18312422804394
114.0675305331 	 0.321783787297666
114.0913399804 	 0.685822011311188
115.0753555652 	 0.412793343301047
116.0706045383 	 2.81154521224729
116.1069900446 	 4.19456542937008
128.1069900446 	 0.339660664369759
145.1097296988 	 0.357537541441851
158.1175547309 	 16.2517064291751
223.1355505188 	 0.53468114151986
241.1461152051 	 0.328284469869336
259.1481265778 	 2.08184359357733
300.2196144992 	 1.06611194175388
342.2301791855 	 0.419294025872717
360.2506398561 	 0.583436260807385
376.2271051803 	 2.48163557173503
385.2889771556 	 0.357537541441851
388.2567878665 	 0.949099655463824
397.3101065282 	 1.28225963726191
400.2998761929 	 1.43177533641032
416.2642785476 	 1.79906390170968
426.2876940644 	 1.91445101735682
459.3105004587 	 0.999479945394267
467.2877536439 	 0.364038224013521
471.3495660397 	 1.41552362998115
472.3506882517 	 1.36514334005071
473.3009984049 	 0.932847949034649
475.3013923354 	 0.999479945394267
484.3143027454 	 0.461548462588572
484.3506882517 	 1.1327439381135
485.3162545386 	 0.357537541441851
502.3248674317 	 0.601313137879477
502.3401235654 	 1.58129103555873
503.3479485975 	 0.866215952675031
504.347220316 	 1.08236364818306
515.3241391502 	 1.19937593447312
520.348008177 	 1.41389845933823
520.3506882517 	 4.77962686082039
521.3499599702 	 1.36351816940779
529.3397892144 	 0.866215952675031
533.3432571501 	 2.94805954625236
534.3425288686 	 1.26600793083274
535.3656100344 	 1.39927192355197
545.3710893428 	 1.49840733276994
557.4227309828 	 1.83156731456803
558.3452089433 	 0.357537541441851
562.3526996244 	 0.882467659104206
583.3952927206 	 0.419294025872717
585.4176456049 	 0.932847949034649
591.3639925922 	 1.61541961906
597.4473282911 	 2.08184359357733
598.4439199349 	 1.23187934733147
599.3969101628 	 0.866215952675031
603.4282102912 	 0.983228238965091
615.4578929774 	 3.47949034648638
616.4544846212 	 2.13059871286485
617.4074748491 	 1.29851134369109
619.4164220932 	 1.09861535461223
620.413013737 	 1.24813105376064
641.4371575353 	 0.546057336020282
659.4477222216 	 2.55639342130924
659.4544250417 	 4.41233829552103
660.4496740148 	 0.996229604108432
660.4555472537 	 2.04771501007606
661.4521388975 	 0.52167977637652
677.4582869079 	 8.48176558538647
677.464989728 	 16.2517064291751
678.4602387011 	 4.09705519079503
678.46611194 	 9.15783657284015
679.4627035838 	 0.674445816810765
703.4865130311 	 0.430670220373139
835.5525812236 	 100
END IONS

BEGIN IONS
PEPMASS=837.5308
CHARGE=1
MSLEVEL=2
RT=0
SOURCE_INSTRUMENT=qTOF
FILENAME=CCMSLIB00000085629.ms
IONMODE=Positive
ORGANISM=Natural
NAME=MLS002154033-01!Roxithromycin80214-83-1
PI=GNPS
DATACOLLECTOR=GNPS
SMILES=CCC1[C@](C)(C(C(C)C(=NOCOCCOC)C(C)C[C@](C)(C(C(C)C(C(C)C(=O)O1)OC1C[C@](C)(C(C(C)O1)O)OC)O[C@H]1C(C(CC(C)O1)N(C)C)O)O)O)O
INCHI=InChI=1S/C41H76N2O15/c1-15-29-41(10,49)34(45)24(4)31(42-53-21-52-17-16-50-13)22(2)19-39(8,48)36(58-38-32(44)28(43(11)12)18-23(3)54-38)25(5)33(26(6)37(47)56-29)57-30-20-40(9,51-14)35(46)27(7)55-30/h22-30,32-36,38,44-46,48-49H,15-21H2,1-14H3/t22?,23?,24?,25?,26?,27?,28?,29?,30?,32?,33?,34?,35?,36?,38-,39+,40+,41+/m0/s1
FORMULA=C41H76N2O15
PUBMED=N/A
SUBMITUSER=BIOADREM
LIBRARYQUALITY=0
SPECTRUMID=CCMSLIB00000085629
SCANS=3625
ID=CCMSLIB00000085629
98.0964253583 	 1.76020940422223
99.0804409431 	 0.0815614271352971
100.0756899162 	 0.221922952903018
109.0647908789 	 0.0853549818857761
113.059705501 	 0.933214468617818
114.0913399804 	 0.358490923920259
115.0753555652 	 0.466607234308909
116.0706045383 	 3.35160562204814
116.1069900446 	 4.65469167883765
123.0804409431 	 0.089148536636255
127.0753555652 	 0.532994442442291
140.1069900446 	 0.089148536636255
142.1226401088 	 0.111909865139129
154.1226401088 	 1.24618273553233
158.1175547309 	 18.9677737523947
189.112135002 	 2.23819730278257
193.1223057578 	 0.151742190019157
211.1328704441 	 0.0701807628838603
217.1070496241 	 1.65398987120882
221.1172203799 	 0.0910453140114945
239.1277850662 	 0.0796646497600577
269.1747352588 	 2.37097171904933
272.1492487898 	 2.65738510271049
274.164898854 	 1.30118927941427
303.2166000735 	 1.46620891106011
315.1914479555 	 1.2784279509114
329.1958646314 	 2.24957796703401
369.2747836544 	 10.1572428444074
370.2713752982 	 1.61036399157831
380.243149175 	 0.350903814419302
382.2925046708 	 1.70899641509076
387.2853483407 	 2.38235238330077
398.2537138613 	 0.46471045693367
399.321733847 	 1.70899641509076
400.2819399845 	 1.61036399157831
401.2533795103 	 1.11340831926557
410.2537138613 	 0.170709963771552
416.2642785476 	 0.189677737523947
428.2642785476 	 0.0777678723848182
431.2751775849 	 16.5190341609605
432.2717692287 	 5.07198270139034
433.2432087545 	 2.44873959143415
433.2795942608 	 1.21393752015326
434.2510337866 	 1.45482824680867
444.2928986013 	 6.49456573281994
446.2748432339 	 0.138464748392481
461.2857422712 	 1.15703419889608
476.2854079202 	 1.4225830314296
487.3112883197 	 1.03753722425599
490.3374434907 	 2.16232620777299
491.3452685228 	 1.11340831926557
516.3140279739 	 4.52191726257089
517.321853006 	 1.98592591187572
530.3323581128 	 1.20255685590182
555.3639925922 	 0.237097171904934
557.3769625817 	 5.39253807780581
558.3609781665 	 4.11411012689441
559.3562271396 	 2.31596517516739
573.3745572785 	 0.10621953301341
574.3585728633 	 1.58760266307543
575.387527268 	 17.512945505586
589.3694719006 	 5.53669315832401
590.3660635444 	 2.19457142315206
661.4157533912 	 1.5667381119478
661.4269867795 	 0.337626372792625
679.4263180775 	 2.72377231084388
679.4375514658 	 2.17560364939967
680.4453764979 	 3.71578687809412
688.4504618758 	 1.77538362322414
731.4576182059 	 1.77538362322414
732.4766766263 	 1.34481515904478
733.4818215837 	 18.9677737523947
734.4810933022 	 9.00969253238747
735.4889183343 	 2.42597826293128
837.5318457815 	 100
END IONS

BEGIN IONS
PEPMASS=468.3221
CHARGE=1
MSLEVEL=2
RT=0
SOURCE_INSTRUMENT=qTOF
FILENAME=CCMSLIB00000085630.ms
IONMODE=Positive
ORGANISM=Natural
NAME=MLS002154188-01!Oxethazaine126-27-2
PI=GNPS
DATACOLLECTOR=GNPS
SMILES=CC(C)(Cc1ccccc1)N(C)C(=O)CN(CCO)CC(=O)N(C)C(C)(C)Cc1ccccc1
INCHI=InChI=1S/C28H41N3O3/c1-27(2,19-23-13-9-7-10-14-23)29(5)25(33)21-31(17-18-32)22-26(34)30(6)28(3,4)20-24-15-11-8-12-16-24/h7-16,32H,17-22H2,1-6H3
FORMULA=C28H41N3O3
PUBMED=N/A
SUBMITUSER=BIOADREM
LIBRARYQUALITY=0
SPECTRUMID=CCMSLIB00000085630
SCANS=3626
ID=CCMSLIB00000085630
86.060039852 	 0.37
91.0542261926 	 5.6
101.0709388893 	 1.05
105.0698762568 	 1.5
115.0865889535 	 6.8
117.1022390177 	 0.24
127.0865889535 	 0.59
133.1011763852 	 5.98
143.0815035756 	 1.32
145.0971536398 	 100
164.1433755509 	 1.65
173.0920682619 	 0.3
186.1237027413 	 1.93
204.1342674276 	 24.44
336.2281678128 	 0.51
468.322068198 	 0.12
END IONS

BEGIN IONS
PEPMASS=581.1865
CHARGE=1
MSLEVEL=2
RT=0
SOURCE_INSTRUMENT=qTOF
FILENAME=CCMSLIB00000085635.ms
IONMODE=Positive
ORGANISM=Natural
NAME=MLS000069459-01!NARINGIN
PI=GNPS
DATACOLLECTOR=GNPS
SMILES=C[C@H]1[C@@H]([C@H]([C@H]([C@@H](O1)O[C@@H]1[C@H]([C@@H]([C@@H](CO)O[C@H]1Oc1cc(c2C(=O)C[C@@H](c3ccc(cc3)O)Oc2c1)O)O)O)O)O)O
INCHI=InChI=1S/C27H32O14/c1-10-20(32)22(34)24(36)26(37-10)41-25-23(35)21(33)18(9-28)40-27(25)38-13-6-14(30)19-15(31)8-16(39-17(19)7-13)11-2-4-12(29)5-3-11/h2-7,10,16,18,20-30,32-36H,8-9H2,1H3/t10-,16-,18+,20-,21+,22+,23-,24+,25+,26-,27+/m0/s1
FORMULA=C27H32O14
PUBMED=N/A
SUBMITUSER=BIOADREM
LIBRARYQUALITY=0
SPECTRUMID=CCMSLIB00000085635
SCANS=3630
ID=CCMSLIB00000085635
111.0076699305 	 1.59
119.0491408147 	 1.82
135.0440554368 	 1.8
147.0440554368 	 22.11
151.0389700589 	 1.86
153.0182346168 	 61.89
165.0182346168 	 1.32
167.033884681 	 2.42
171.0287993031 	 2.74
195.0287993031 	 11.87
219.0287993031 	 3.8
245.0444493673 	 2.26
273.0757494957 	 100
581.1864817366 	 0
END IONS

BEGIN IONS
PEPMASS=262.159
CHARGE=1
MSLEVEL=2
RT=0
SOURCE_INSTRUMENT=qTOF
FILENAME=CCMSLIB00000085637.ms
IONMODE=Positive
ORGANISM=Natural
NAME=MLS002153855-01!Norcyclobenzaprine303-50-4
PI=GNPS
DATACOLLECTOR=GNPS
SMILES=CNCCC=C1c2ccccc2C=Cc2ccccc12
INCHI=InChI=1S/C19H19N/c1-20-14-6-11-19-17-9-4-2-7-15(17)12-13-16-8-3-5-10-18(16)19/h2-5,7-13,20H,6,14H2,1H3
FORMULA=C19H19N
PUBMED=N/A
SUBMITUSER=BIOADREM
LIBRARYQUALITY=0
SPECTRUMID=CCMSLIB00000085637
SCANS=3632
ID=CCMSLIB00000085637
91.0542261926 	 0.22
103.0542261926 	 1.65
117.0698762568 	 0.21
127.0542261926 	 0.8
129.0698762568 	 0.64
151.0542261926 	 0.41
152.0620512247 	 4.49
153.0698762568 	 9.98
165.0698762568 	 4.02
176.0620512247 	 0.3
177.0698762568 	 0.31
178.0777012889 	 7.45
179.085526321 	 2.51
189.0698762568 	 5.41
190.0777012889 	 7.27
191.085526321 	 22.4
203.085526321 	 13.99
204.0933513531 	 9.93
205.1011763852 	 10.06
215.085526321 	 100
216.0933513531 	 68.74
231.1168264494 	 7.28
262.1590256151 	 0
END IONS

BEGIN IONS
PEPMASS=371.2581
CHARGE=1
MSLEVEL=2
RT=0
SOURCE_INSTRUMENT=qTOF
FILENAME=CCMSLIB00000085638.ms
IONMODE=Positive
ORGANISM=Natural
NAME=MLS002154105-01!Rimexolone49697-38-3
PI=GNPS
DATACOLLECTOR=GNPS
SMILES=CCC(=O)[C@@]1(C)[C@H](C)C[C@H]2[C@@H]3CCC4=CC(=O)C=C[C@]4(C)[C@H]3[C@H](C[C@]12C)O
INCHI=InChI=1S/C24H34O3/c1-6-20(27)24(5)14(2)11-18-17-8-7-15-12-16(25)9-10-22(15,3)21(17)19(26)13-23(18,24)4/h9-10,12,14,17-19,21,26H,6-8,11,13H2,1-5H3/t14-,17+,18+,19+,21-,22+,23+,24-/m1/s1
FORMULA=C24H34O3
PUBMED=N/A
SUBMITUSER=BIOADREM
LIBRARYQUALITY=0
SPECTRUMID=CCMSLIB00000085638
SCANS=3633
ID=CCMSLIB00000085638
103.0542261926 	 5.22
105.0698762568 	 17.64
107.085526321 	 12.84
109.1011763852 	 15.19
117.0698762568 	 6.42
119.085526321 	 12.3
121.0647908789 	 100
121.1011763852 	 23.81
128.0620512247 	 3.8
129.0698762568 	 4.85
130.0777012889 	 4.48
131.0491408147 	 3.48
132.0569658468 	 4.75
133.0647908789 	 7.42
133.1011763852 	 11.98
135.0804409431 	 19.77
135.1168264494 	 7.91
137.1324765136 	 3.16
143.085526321 	 3.58
145.0647908789 	 6.37
145.1011763852 	 8.28
147.0804409431 	 46.13
155.085526321 	 12.1
157.1011763852 	 4.12
158.072615911 	 10.75
159.0804409431 	 12.44
159.1168264494 	 4.02
161.0960910073 	 21.02
161.1324765136 	 4.68
163.1481265778 	 8.5
171.0804409431 	 41.01
173.0960910073 	 55.41
185.0960910073 	 4.48
187.1117410715 	 6.86
197.0960910073 	 3.23
199.1117410715 	 3.82
213.1273911357 	 4.9
225.1273911357 	 4.34
297.2212915209 	 4.58
371.2580709577 	 0
END IONS

BEGIN IONS
PEPMASS=609.296
CHARGE=1
MSLEVEL=2
RT=0
SOURCE_INSTRUMENT=qTOF
FILENAME=CCMSLIB00000085642.ms
IONMODE=Positive
ORGANISM=Natural
NAME=MLS002153875-01!Tubocurarine chloride pentahydrate (+)6989-98-6
PI=GNPS
DATACOLLECTOR=GNPS
SMILES=CN1CCc2cc(c3cc2[C@@H]1Cc1cccc(c1)Oc1c2c(CC[N+](C)(C)[C@@H]2Cc2ccc(c(c2)O3)O)cc(c1[O-])OC)OC
INCHI=InChI=1S/C37H40N2O6/c1-38-13-11-24-19-32(42-4)33-21-27(24)28(38)16-22-7-6-8-26(15-22)44-37-35-25(20-34(43-5)36(37)41)12-14-39(2,3)29(35)17-23-9-10-30(40)31(18-23)45-33/h6-10,15,18-21,28-29H,11-14,16-17H2,1-5H3,(H-,40,41)/t28-,29+/m0/s1
FORMULA=C37H40N2O6
PUBMED=N/A
SUBMITUSER=BIOADREM
LIBRARYQUALITY=0
SPECTRUMID=CCMSLIB00000085642
SCANS=3635
ID=CCMSLIB00000085642
162.0913399804 	 3.95
174.0913399804 	 37.7
175.0964849378 	 8.37
176.1043099699 	 9.3
177.0757494957 	 5.28
190.0835745278 	 5.01
192.1019046667 	 9.73
252.099224592 	 4.15
255.1015703157 	 3.65
266.1175547309 	 11.26
268.1093953478 	 4.25
269.1172203799 	 3.99
279.1015703157 	 5.11
282.112469353 	 8.27
284.1281194172 	 21.49
285.1332643746 	 6.68
295.1176143104 	 10.59
296.1254393425 	 17.7
297.1359444493 	 36.53
308.1281194172 	 9.03
310.1410894067 	 19.76
311.1430411999 	 7.64
329.1257736935 	 14.98
385.1586912641 	 4.35
386.1750696098 	 44.97
387.1802145672 	 16.64
413.1985447061 	 3.62
458.1598134761 	 7.54
458.1961989824 	 7.71
459.1914479555 	 4.28
460.1880395993 	 4.78
473.1832885724 	 3.95
503.2580709577 	 4.88
519.1802145672 	 4.25
522.1911136045 	 4.65
532.2118490466 	 5.68
533.1958646314 	 11.82
534.2036896635 	 7.77
535.2115146956 	 5.35
536.2067636687 	 4.45
548.2067636687 	 12.02
562.2224137329 	 3.55
564.2380637971 	 100
565.2458888292 	 37.76
566.2537138613 	 30.09
567.2489628344 	 13.48
568.2567878665 	 4.05
577.2696982765 	 4.02
578.2537138613 	 4.28
609.295913027 	 201.2
END IONS

BEGIN IONS
PEPMASS=359.1462
CHARGE=1
MSLEVEL=2
RT=0
SOURCE_INSTRUMENT=qTOF
FILENAME=CCMSLIB00000085643.ms
IONMODE=Positive
ORGANISM=Natural
NAME=MLS000860041-01!2-Phenylaminoadenosine
PI=GNPS
DATACOLLECTOR=GNPS
SMILES=c1ccc(cc1)N=c1[nH]c(c2c(n1)n(cn2)[C@H]1[C@@H]([C@@H]([C@@H](CO)O1)O)O)N
INCHI=InChI=1S/C16H18N6O4/c17-13-10-14(21-16(20-13)19-8-4-2-1-3-5-8)22(7-18-10)15-12(25)11(24)9(6-23)26-15/h1-5,7,9,11-12,15,23-25H,6H2,(H3,17,19,20,21)/t9-,11-,12-,15-/m1/s1
FORMULA=C16H18N6O4
PUBMED=N/A
SUBMITUSER=BIOADREM
LIBRARYQUALITY=0
SPECTRUMID=CCMSLIB00000085643
SCANS=3636
ID=CCMSLIB00000085643
104.0494751657 	 2.27
107.0365647557 	 1.24
129.0447241388 	 0.55
134.047463793 	 0.51
183.0665222134 	 0.72
197.0907255912 	 0.49
210.0774212507 	 70.15
212.0804952559 	 0.94
225.0856402133 	 0.53
227.1039703522 	 100
359.1462290974 	 1.54
END IONS

BEGIN IONS
PEPMASS=471.347
CHARGE=1
MSLEVEL=2
RT=0
SOURCE_INSTRUMENT=qTOF
FILENAME=CCMSLIB00000085646.ms
IONMODE=Positive
ORGANISM=Natural
NAME=MLS001146949-01!18-BETA-GLYCYRRHETINIC ACID471-53-4
PI=GNPS
DATACOLLECTOR=GNPS
SMILES=CC1(C)[C@@H]2CC[C@]3(C)[C@H](C(=O)C=C4[C@@H]5C[C@](C)(CC[C@]5(C)CC[C@@]34C)C(=O)O)[C@@]2(C)CC[C@@H]1O
INCHI=InChI=1S/C30H46O4/c1-25(2)21-8-11-30(7)23(28(21,5)10-9-22(25)32)20(31)16-18-19-17-27(4,24(33)34)13-12-26(19,3)14-15-29(18,30)6/h16,19,21-23,32H,8-15,17H2,1-7H3,(H,33,34)/t19-,21-,22-,23+,26+,27-,28-,29+,30+/m0/s1
FORMULA=C30H46O4
PUBMED=N/A
SUBMITUSER=BIOADREM
LIBRARYQUALITY=0
SPECTRUMID=CCMSLIB00000085646
SCANS=3639
ID=CCMSLIB00000085646
95.085526321 	 26.4
105.0698762568 	 37.01
107.085526321 	 49.35
109.1011763852 	 34.85
119.085526321 	 52.69
121.1011763852 	 86.21
123.1168264494 	 32
133.1011763852 	 46.11
135.0804409431 	 84.76
135.1168264494 	 43.55
139.1117410715 	 10.54
145.1011763852 	 23.01
147.1168264494 	 34.97
149.0960910073 	 41.1
149.1324765136 	 41.27
157.1011763852 	 11.27
159.1168264494 	 27.59
161.0960910073 	 21.26
161.1324765136 	 42.67
163.1481265778 	 13.69
171.1168264494 	 11.27
173.1324765136 	 41.16
175.1117410715 	 19.07
175.1481265778 	 67.16
177.163776642 	 100
185.1324765136 	 11.87
187.1481265778 	 16.98
189.1273911357 	 16.56
189.163776642 	 33.54
197.1324765136 	 9.75
199.1481265778 	 23.29
201.163776642 	 9.18
203.1430411999 	 11.42
215.1794267062 	 10.57
217.1586912641 	 14.3
221.1536058862 	 32.26
227.1794267062 	 15.88
229.1950767704 	 9.97
235.1692559504 	 24.02
241.1950767704 	 19.87
245.1536058862 	 11.42
257.1899913925 	 29.81
267.2107268346 	 10.18
271.2056414567 	 14.14
273.1849060146 	 23.61
285.2212915209 	 17.5
287.2005560788 	 14.45
299.2005560788 	 10.06
317.2111207651 	 10.87
407.3308419703 	 14.58
425.3414066566 	 60.62
435.3257565924 	 13.19
453.3363212787 	 18.33
471.346885965 	 575.69
END IONS

BEGIN IONS
PEPMASS=285.1401
CHARGE=1
MSLEVEL=2
RT=0
SOURCE_INSTRUMENT=qTOF
FILENAME=CCMSLIB00000085647.ms
IONMODE=Positive
ORGANISM=Natural
NAME=MLS001148436-01!
PI=GNPS
DATACOLLECTOR=GNPS
SMILES=CN(C)CCCN1c2ccccc2Sc2ccccc12
INCHI=InChI=1S/C17H20N2S/c1-18(2)12-7-13-19-14-8-3-5-10-16(14)20-17-11-6-4-9-15(17)19/h3-6,8-11H,7,12-13H2,1-2H3
FORMULA=C17H20N2S
PUBMED=N/A
SUBMITUSER=BIOADREM
LIBRARYQUALITY=0
SPECTRUMID=CCMSLIB00000085647
SCANS=3640
ID=CCMSLIB00000085647
115.0542261926 	 1.58
117.0698762568 	 2.05
130.0651252299 	 1.55
141.0698762568 	 0.7
151.0542261926 	 1.47
152.0620512247 	 2.51
166.0651252299 	 4.48
167.072950262 	 14.23
178.0651252299 	 4.83
179.072950262 	 23.46
180.0807752941 	 100
184.0341219147 	 1.91
193.0886003262 	 0.43
198.0371959199 	 3.83
199.045020952 	 41.9
206.0964253583 	 8.69
207.1042503904 	 5.86
211.045020952 	 2.58
212.0528459841 	 64.17
224.0528459841 	 1.2
225.0606710162 	 1.68
239.0763210804 	 0.65
240.0841461125 	 9.31
285.1419953424 	 1.16
END IONS

BEGIN IONS
PEPMASS=341.1985
CHARGE=1
MSLEVEL=2
RT=0
SOURCE_INSTRUMENT=qTOF
FILENAME=CCMSLIB00000085648.ms
IONMODE=Positive
ORGANISM=Natural
NAME=MLS001076678-01!Cantil
PI=GNPS
DATACOLLECTOR=GNPS
SMILES=C[N+]1(C)CCCC(C1)OC(=O)C(c1ccccc1)(c1ccccc1)O
INCHI=InChI=1S/C21H26NO3/c1-22(2)15-9-14-19(16-22)25-20(23)21(24,17-10-5-3-6-11-17)18-12-7-4-8-13-18/h3-8,10-13,19,24H,9,14-16H2,1-2H3/q+1
FORMULA=C21H26NO3
PUBMED=N/A
SUBMITUSER=BIOADREM
LIBRARYQUALITY=0
SPECTRUMID=CCMSLIB00000085648
SCANS=3641
ID=CCMSLIB00000085648
96.0807752941 	 0.66
97.0886003262 	 0.78
105.0334907505 	 15.42
110.0964253583 	 0.26
112.1120754225 	 3.98
114.0913399804 	 0.43
114.1277254867 	 0.76
115.0991650125 	 0.7
128.1069900446 	 0.74
130.1226401088 	 100
152.0620512247 	 0.22
158.1175547309 	 1.56
165.0698762568 	 1.11
166.0777012889 	 0.82
183.0804409431 	 5.66
194.072615911 	 0.27
340.190719674 	 29.38
341.1985447061 	 0
END IONS

BEGIN IONS
PEPMASS=394.1786
CHARGE=1
MSLEVEL=2
RT=0
SOURCE_INSTRUMENT=qTOF
FILENAME=CCMSLIB00000085650.ms
IONMODE=Positive
ORGANISM=Natural
NAME=MLS000862181-01!GR 113808
PI=GNPS
DATACOLLECTOR=GNPS
SMILES=Cn1cc(c2ccccc12)C(=O)OCC1CCN(CC1)CCNS(=O)(=O)C
INCHI=InChI=1S/C19H27N3O4S/c1-21-13-17(16-5-3-4-6-18(16)21)19(23)26-14-15-7-10-22(11-8-15)12-9-20-27(2,24)25/h3-6,13,15,20H,7-12,14H2,1-2H3
FORMULA=C19H27N3O4S
PUBMED=N/A
SUBMITUSER=BIOADREM
LIBRARYQUALITY=0
SPECTRUMID=CCMSLIB00000085650
SCANS=3643
ID=CCMSLIB00000085650
98.0964253583 	 15.54
103.0542261926 	 2.22
110.0964253583 	 8.93
122.0270251641 	 17.73
124.0215458557 	 1.07
124.1120754225 	 1.44
128.0494751657 	 0.7
130.0651252299 	 9.56
132.0807752941 	 0.49
136.0426752283 	 0.35
139.1229744598 	 1.82
140.1307994919 	 0.6
146.060039852 	 0.3
151.0535742656 	 2.32
158.060039852 	 100
160.0664846756 	 0.69
165.0692243298 	 3.12
167.0637450214 	 0.22
176.0706045383 	 0.28
177.0692243298 	 0.23
191.084874394 	 0.23
219.1161745224 	 82.14
221.110695214 	 4.14
299.1754039608 	 0.74
394.1795030607 	 2
END IONS

BEGIN IONS
PEPMASS=524.3344
CHARGE=1
MSLEVEL=2
RT=0
SOURCE_INSTRUMENT=qTOF
FILENAME=CCMSLIB00000085651.ms
IONMODE=Positive
ORGANISM=Natural
NAME=MLS001074892-01!PD 173074
PI=GNPS
DATACOLLECTOR=GNPS
SMILES=CCN(CC)CCCCN=c1ncc2cc(c3cc(cc(c3)OC)OC)c(nc2[nH]1)N=C(NC(C)(C)C)O
INCHI=InChI=1S/C28H41N7O3/c1-8-35(9-2)13-11-10-12-29-26-30-18-20-16-23(19-14-21(37-6)17-22(15-19)38-7)25(31-24(20)32-26)33-27(36)34-28(3,4)5/h14-18H,8-13H2,1-7H3,(H3,29,30,31,32,33,34,36)
FORMULA=C28H41N7O3
PUBMED=N/A
SUBMITUSER=BIOADREM
LIBRARYQUALITY=0
SPECTRUMID=CCMSLIB00000085651
SCANS=3644
ID=CCMSLIB00000085651
98.0964253583 	 0.446533490011751
128.1433755509 	 7.89659224441833
199.2056414567 	 8.80532706619663
241.1070443574 	 5.63258911084998
258.2427552445 	 7.39522130826479
282.1097840116 	 4.75518997258128
283.1189517144 	 0.399529964747356
287.085526321 	 8.80532706619663
292.1192860654 	 0.18018018018018
294.1349361296 	 2.86721504112808
295.1355505188 	 0.650215432824128
298.1298507517 	 0.665883274578927
299.1304651409 	 0.250685468076772
306.1349361296 	 0.188014101057579
308.1505861938 	 0.219349784567176
309.1584112259 	 0.767724245985116
310.1298507517 	 4.5515080297689
311.1304651409 	 0.893066980023502
312.138290173 	 0.164512338425382
320.1142006875 	 0.188014101057579
322.1298507517 	 1.29259694477086
326.1611508801 	 0.227183705444575
330.1937936792 	 4.92753623188406
332.2094437434 	 7.74774774774775
334.2403499413 	 5.98511555033294
336.1091153096 	 0.54054054054054
336.1455008159 	 0.564042303172738
337.153325848 	 4.40266353309832
338.1539402372 	 1.19858989424207
344.2894253989 	 7.74774774774775
352.1695903014 	 6.86251468860165
352.1768009443 	 78.3392087739914
353.1634966038 	 8.45280062671367
353.1774153335 	 15.8715236976107
363.1325904059 	 0.195848021934978
369.0321480798 	 7.39522130826479
369.1907739868 	 7.04269486878183
369.2536542818 	 6.69016842929886
375.087651586 	 6.69016842929886
378.1560655022 	 4.10497453975715
400.2131864506 	 5.81276929103016
416.1955250137 	 4.92753623188406
418.0247169782 	 8.27262044653349
423.2179374775 	 6.69016842929886
425.2672929733 	 86.4081472777125
427.2690243078 	 6.69016842929886
428.2656159516 	 7.74774774774775
430.1424268107 	 8.10027418723071
451.2452148605 	 60.6110458284371
451.3179858731 	 9.68272620446533
452.244486579 	 30.4582843713278
453.2482888657 	 11.6177046611829
524.3343642188 	 100
END IONS

BEGIN IONS
PEPMASS=498.2502
CHARGE=1
MSLEVEL=2
RT=0
SOURCE_INSTRUMENT=qTOF
FILENAME=CCMSLIB00000085653.ms
IONMODE=Positive
ORGANISM=Natural
NAME=MLS002153332-01!GR 127935 hydrochloride hydrate
PI=GNPS
DATACOLLECTOR=GNPS
SMILES=Cc1cc(ccc1c1ccc(cc1)C(=O)Nc1ccc(c(c1)N1CCN(C)CC1)OC)c1nc(C)on1
INCHI=InChI=1S/C29H31N5O3/c1-19-17-23(28-30-20(2)37-32-28)9-11-25(19)21-5-7-22(8-6-21)29(35)31-24-10-12-27(36-4)26(18-24)34-15-13-33(3)14-16-34/h5-12,17-18H,13-16H2,1-4H3,(H,31,35)
FORMULA=C29H31N5O3
PUBMED=N/A
SUBMITUSER=BIOADREM
LIBRARYQUALITY=0
SPECTRUMID=CCMSLIB00000085653
SCANS=3645
ID=CCMSLIB00000085653
208.0994993635 	 1.14
236.0944139856 	 7.83
277.1011763852 	 100
278.1049786719 	 32.69
279.1042503904 	 3.91
369.1359444493 	 12.52
370.1424268107 	 4.23
371.1502518428 	 2.88
379.1553372207 	 0.94
383.1502518428 	 3.65
384.1594195456 	 4.03
385.165901907 	 2.28
397.165901907 	 1.07
399.1815519712 	 14.53
410.1750696098 	 2.59
411.1451664649 	 3.61
412.152991497 	 3.2
413.1608165291 	 2.41
421.165901907 	 2.12
423.1815519712 	 1.99
425.1608165291 	 22.34
426.1686415612 	 11.24
439.1764665933 	 7.39
440.1842916254 	 5.4
441.1921166575 	 59.4
453.1921166575 	 1.4
455.2077667217 	 0.98
456.2394012011 	 2.73
466.1873656306 	 2.22
468.2030156948 	 1.62
481.2108407269 	 4.16
496.2343158232 	 3.38
498.2499658874 	 76.65
END IONS

BEGIN IONS
PEPMASS=299.157
CHARGE=1
MSLEVEL=2
RT=0
SOURCE_INSTRUMENT=qTOF
FILENAME=CCMSLIB00000085654.ms
IONMODE=Positive
ORGANISM=Natural
NAME=MLS002154028-01!Trimeprazine tartrate4330-99-8
PI=GNPS
DATACOLLECTOR=GNPS
SMILES=CC(CN(C)C)CN1c2ccccc2Sc2ccccc12
INCHI=InChI=1S/C18H22N2S/c1-14(12-19(2)3)13-20-15-8-4-6-10-17(15)21-18-11-7-5-9-16(18)20/h4-11,14H,12-13H2,1-3H3
FORMULA=C18H22N2S
PUBMED=N/A
SUBMITUSER=BIOADREM
LIBRARYQUALITY=0
SPECTRUMID=CCMSLIB00000085654
SCANS=3646
ID=CCMSLIB00000085654
100.1120754225 	 33.47
124.0215458557 	 0.38
129.0698762568 	 0.75
131.085526321 	 1.04
136.0181750373 	 0.65
144.0807752941 	 0.62
148.0215458557 	 0.9
151.0542261926 	 0.97
152.0620512247 	 1.77
153.0698762568 	 0.54
154.0651252299 	 0.36
166.0651252299 	 0.66
167.072950262 	 4.14
168.0807752941 	 0.91
171.0262968826 	 0.9
178.0651252299 	 4.67
179.072950262 	 16.21
180.0807752941 	 100
182.0872201177 	 1.2
184.0341219147 	 0.84
193.0886003262 	 0.5
198.0371959199 	 3.44
199.045020952 	 14.79
205.0886003262 	 0.58
206.0964253583 	 3.38
210.0371959199 	 0.44
211.045020952 	 1.39
212.0528459841 	 84.81
220.1120754225 	 3.05
223.045020952 	 0.38
224.0528459841 	 1.86
225.0606710162 	 1.63
238.0684960483 	 2.32
239.0763210804 	 0.81
253.0919711446 	 0.39
254.0997961767 	 4.72
299.1576454066 	 2.22
END IONS

BEGIN IONS
PEPMASS=254.0884
CHARGE=1
MSLEVEL=2
RT=0
SOURCE_INSTRUMENT=qTOF
FILENAME=CCMSLIB00000085655.ms
IONMODE=Positive
ORGANISM=Natural
NAME=MLS000069767-01!3'-AZIDO-2',3'-DIDEOXYURIDINE
PI=GNPS
DATACOLLECTOR=GNPS
SMILES=c1cn([C@H]2C[C@H]([C@@H](CO)O2)N=[N+]=[NH-])c(=O)nc1O
INCHI=InChI=1S/C9H11N5O4/c10-13-12-5-3-8(18-6(5)4-15)14-2-1-7(16)11-9(14)17/h1-2,5-6,8,15H,3-4H2,(H,11,16,17)/t5-,6-,8-/m1/s1
FORMULA=C9H11N5O4
PUBMED=N/A
SUBMITUSER=BIOADREM
LIBRARYQUALITY=0
SPECTRUMID=CCMSLIB00000085655
SCANS=3647
ID=CCMSLIB00000085655
96.0080042815 	 28.9
101.0260000694 	 13.1
113.034553383 	 100
142.0611024845 	 8.94
254.0883798675 	 0
END IONS

BEGIN IONS
PEPMASS=359.1853
CHARGE=1
MSLEVEL=2
RT=0
SOURCE_INSTRUMENT=qTOF
FILENAME=CCMSLIB00000085657.ms
IONMODE=Positive
ORGANISM=Natural
NAME=MLS001066406-01!Prednisone
PI=GNPS
DATACOLLECTOR=GNPS
SMILES=CC12C=CC(=O)C=C1CCC1C3CCC(C(=O)CO)([C@@]3(C)CC(=O)C21)O
INCHI=InChI=1S/C21H26O5/c1-19-7-5-13(23)9-12(19)3-4-14-15-6-8-21(26,17(25)11-22)20(15,2)10-16(24)18(14)19/h5,7,9,14-15,18,22,26H,3-4,6,8,10-11H2,1-2H3/t14?,15?,18?,19?,20-,21?/m0/s1
FORMULA=C21H26O5
PUBMED=N/A
SUBMITUSER=BIOADREM
LIBRARYQUALITY=0
SPECTRUMID=CCMSLIB00000085657
SCANS=3649
ID=CCMSLIB00000085657
105.0698762568 	 10.04
107.085526321 	 12.89
117.0698762568 	 12.5
119.085526321 	 13.36
121.0647908789 	 24.84
129.0698762568 	 12.07
131.085526321 	 15.82
132.0569658468 	 10.2
141.0698762568 	 14.49
143.085526321 	 9.88
144.0569658468 	 9.53
145.0647908789 	 28.16
146.072615911 	 14.41
147.0804409431 	 100
158.072615911 	 17.46
159.0804409431 	 49.8
161.0960910073 	 12.77
171.0804409431 	 77.07
173.0960910073 	 37.3
179.085526321 	 15.78
181.0647908789 	 9.57
184.0882659752 	 9.69
185.0960910073 	 11.99
187.1117410715 	 10.66
193.1011763852 	 9.73
196.0882659752 	 14.41
197.0960910073 	 38.05
199.1117410715 	 14.02
207.0804409431 	 12.58
208.0882659752 	 26.56
209.0960910073 	 38.44
211.1117410715 	 19.45
221.0960910073 	 14.18
222.1039160394 	 34.3
223.1117410715 	 23.63
225.1273911357 	 10.43
234.1039160394 	 9.57
237.1273911357 	 28.24
239.1430411999 	 19.61
247.1117410715 	 9.57
248.1195661036 	 18.52
249.1273911357 	 23.4
250.1352161678 	 9.53
251.1430411999 	 16.33
253.1223057578 	 9.96
263.1430411999 	 14.88
265.1586912641 	 15.55
359.1852999451 	 0
END IONS

BEGIN IONS
PEPMASS=326.3051
CHARGE=1
MSLEVEL=2
RT=0
SOURCE_INSTRUMENT=qTOF
FILENAME=CCMSLIB00000085658.ms
IONMODE=Positive
ORGANISM=Natural
NAME=MLS002153155-01!N-Oleoylethanolamine111-58-0
PI=GNPS
DATACOLLECTOR=GNPS
SMILES=CCCCCCCC/C=C\CCCCCCCC(=NCCO)O
INCHI=InChI=1S/C20H39NO2/c1-2-3-4-5-6-7-8-9-10-11-12-13-14-15-16-17-20(23)21-18-19-22/h9-10,22H,2-8,11-19H2,1H3,(H,21,23)/b10-9-
FORMULA=C20H39NO2
PUBMED=N/A
SUBMITUSER=BIOADREM
LIBRARYQUALITY=0
SPECTRUMID=CCMSLIB00000085658
SCANS=3650
ID=CCMSLIB00000085658
91.0542261926 	 19.43
93.0698762568 	 37.14
95.085526321 	 37.7
97.1011763852 	 10.86
105.0698762568 	 6.39
107.085526321 	 47.84
109.1011763852 	 39.62
111.1168264494 	 6.24
117.0698762568 	 3.75
119.085526321 	 4.11
121.1011763852 	 44.19
123.1168264494 	 17.15
133.1011763852 	 3.2
135.1168264494 	 44.6
137.1324765136 	 6.34
149.1324765136 	 20.35
151.1481265778 	 4.31
177.163776642 	 4.92
308.294790815 	 100
309.2788063998 	 48.15
326.3053555013 	 5.02
END IONS

BEGIN IONS
PEPMASS=454.0486
CHARGE=1
MSLEVEL=2
RT=0
SOURCE_INSTRUMENT=qTOF
FILENAME=CCMSLIB00000085662.ms
IONMODE=Positive
ORGANISM=Natural
NAME=MLS002222332-01!79350-37-1
PI=GNPS
DATACOLLECTOR=GNPS
SMILES=C=CC1=C(C(=O)O)N2C(=O)[C@H]([C@H]2SC1)N=C(/C(=N\OCC(=O)O)/c1csc(=N)[nH]1)O
INCHI=InChI=1S/C16H15N5O7S2/c1-2-6-4-29-14-10(13(25)21(14)11(6)15(26)27)19-12(24)9(20-28-3-8(22)23)7-5-30-16(17)18-7/h2,5,10,14H,1,3-4H2,(H2,17,18)(H,19,24)(H,22,23)(H,26,27)/b20-9-/t10-,14-/m1/s1
FORMULA=C16H15N5O7S2
PUBMED=N/A
SUBMITUSER=BIOADREM
LIBRARYQUALITY=0
SPECTRUMID=CCMSLIB00000085662
SCANS=3652
ID=CCMSLIB00000085662
97.0106468184 	 2.32
99.9851603494 	 3.87
119.060374203 	 4.91
120.0443897878 	 2.65
124.0154949626 	 4.92
125.0055614405 	 37.82
126.0133864726 	 100
127.0178406863 	 18.82
127.9800749715 	 2.04
136.018865781 	 7.01
138.0100156542 	 7.11
138.0371959199 	 2.86
140.0290365368 	 3.15
142.0083010947 	 17.76
147.0552888251 	 4.15
152.0164604778 	 35.54
153.0209146915 	 5.64
154.0083010947 	 3.21
155.0127553084 	 4.76
164.0137804031 	 2.8
165.0216054352 	 1.99
166.032110542 	 26.27
168.0239511589 	 4.43
170.0270251641 	 4.43
172.018865781 	 8.06
179.0273595151 	 3.11
181.0158293136 	 3.25
182.0243450894 	 18.7
193.0165200573 	 3.95
209.0107439357 	 8.62
210.0192597115 	 16.51
225.9964157794 	 8.62
227.0069208862 	 13.44
253.9913304015 	 3.26
274.0076491677 	 2.24
285.0254452597 	 3.32
454.0485652422 	 0
END IONS

BEGIN IONS
PEPMASS=325.1904
CHARGE=1
MSLEVEL=2
RT=0
SOURCE_INSTRUMENT=qTOF
FILENAME=CCMSLIB00000085665.ms
IONMODE=Positive
ORGANISM=Natural
NAME=MLS002153489-01!Quinidine sulfate salt dihydrate6591-63-5
PI=GNPS
DATACOLLECTOR=GNPS
SMILES=C=C[C@@H]1CN2CCC1C[C@@H]2[C@H](c1ccnc2ccc(cc12)OC)O
INCHI=InChI=1S/C20H24N2O2/c1-3-13-12-22-9-7-14(13)10-19(22)20(23)16-6-8-21-18-5-4-15(24-2)11-17(16)18/h3-6,8,11,13-14,19-20,23H,1,7,9-10,12H2,2H3/t13-,14?,19-,20+/m1/s1
FORMULA=C20H24N2O2
PUBMED=N/A
SUBMITUSER=BIOADREM
LIBRARYQUALITY=0
SPECTRUMID=CCMSLIB00000085665
SCANS=3654
ID=CCMSLIB00000085665
105.0698762568 	 3.045
108.0807752941 	 8.74
117.0573001978 	 4.275
131.072950262 	 2.77
134.0964253583 	 5.415
136.1120754225 	 10.16
138.1277254867 	 3.01
143.072950262 	 3.825
144.0807752941 	 3.21
145.0522148199 	 11.14
154.0651252299 	 9.21
155.072950262 	 10.715
158.060039852 	 19.775
159.0678648841 	 8.99
160.0756899162 	 100
166.1226401088 	 16.545
167.072950262 	 7.92
168.0807752941 	 3.575
169.0522148199 	 10.505
169.0886003262 	 2.82
170.060039852 	 6.59
172.0756899162 	 70.1
173.0835149483 	 12.645
174.0549544741 	 8.33
174.0913399804 	 6.515
182.060039852 	 13.13
183.0678648841 	 13.545
184.0756899162 	 34.385
185.0835149483 	 7.12
186.0913399804 	 28.65
188.0706045383 	 4.365
189.0784295704 	 18.36
196.0756899162 	 8.28
197.0835149483 	 6.14
198.0913399804 	 16.985
210.0913399804 	 15.395
212.1069900446 	 4.55
214.0862546025 	 3.9
220.1120754225 	 3.32
224.1069900446 	 10.655
226.1226401088 	 3.685
227.1178890819 	 7.505
236.1069900446 	 5.585
237.1022390177 	 3.91
248.1069900446 	 5.515
250.1226401088 	 3.015
251.1178890819 	 8.005
253.1335391461 	 17.265
264.138290173 	 4.02
265.1335391461 	 3.575
278.1539402372 	 6.525
279.1491892103 	 2.905
307.1804893387 	 55.415
325.191054025 	 85.33
END IONS

BEGIN IONS
PEPMASS=352.0769
CHARGE=1
MSLEVEL=2
RT=0
SOURCE_INSTRUMENT=qTOF
FILENAME=CCMSLIB00000085668.ms
IONMODE=Positive
ORGANISM=Natural
NAME=MLS001076075-01!402-71-1
PI=GNPS
DATACOLLECTOR=GNPS
SMILES=Cc1ccc(cc1)S(=O)(=O)N[C@@H](Cc1ccccc1)C(=O)CCl
INCHI=InChI=1S/C17H18ClNO3S/c1-13-7-9-15(10-8-13)23(21,22)19-16(17(20)12-18)11-14-5-3-2-4-6-14/h2-10,16,19H,11-12H2,1H3/t16-/m0/s1
FORMULA=C17H18ClNO3S
PUBMED=N/A
SUBMITUSER=BIOADREM
LIBRARYQUALITY=0
SPECTRUMID=CCMSLIB00000085668
SCANS=3655
ID=CCMSLIB00000085668
85.9792027152 	 11.7
91.0542261926 	 100
103.0542261926 	 12.77
115.0542261926 	 36.7
116.0620512247 	 13.83
117.0698762568 	 73.67
118.0684960483 	 22.87
120.0780952194 	 31.12
127.0542261926 	 20.74
128.0620512247 	 32.71
130.0651252299 	 65.96
131.072950262 	 44.41
132.0569658468 	 13.56
132.0807752941 	 15.69
139.0212115047 	 13.56
142.0651252299 	 17.02
143.072950262 	 47.61
144.0569658468 	 15.69
144.0807752941 	 68.09
145.0859202515 	 47.07
155.0161261268 	 38.56
156.0239511589 	 18.09
162.0913399804 	 58.78
178.041802972 	 12.77
180.0547729615 	 33.51
226.0532399146 	 19.15
227.0469479294 	 12.5
352.0768678493 	 0
END IONS

BEGIN IONS
PEPMASS=319.1778
CHARGE=1
MSLEVEL=2
RT=0
SOURCE_INSTRUMENT=qTOF
FILENAME=CCMSLIB00000085669.ms
IONMODE=Positive
ORGANISM=Natural
NAME=MLS001333214-01!(-)Scopolamine methyl nitrate6106-46-3
PI=GNPS
DATACOLLECTOR=GNPS
SMILES=C[N+]1(C)C2CC(CC1C1C2O1)OC(=O)[C@H](CO)c1ccccc1
INCHI=InChI=1S/C18H24NO4/c1-19(2)14-8-12(9-15(19)17-16(14)23-17)22-18(21)13(10-20)11-6-4-3-5-7-11/h3-7,12-17,20H,8-10H2,1-2H3/q+1/t12?,13-,14?,15?,16?,17?/m1/s1
FORMULA=C18H24NO4
PUBMED=N/A
SUBMITUSER=BIOADREM
LIBRARYQUALITY=0
SPECTRUMID=CCMSLIB00000085669
SCANS=3656
ID=CCMSLIB00000085669
91.0542261926 	 1.12
93.0698762568 	 1
94.0651252299 	 2.61
96.0807752941 	 0.45
103.0542261926 	 1.57
107.072950262 	 0.89
108.0807752941 	 1.33
109.0647908789 	 0.59
109.0886003262 	 0.78
121.0647908789 	 1.25
122.0964253583 	 3.84
124.1120754225 	 1.92
134.0964253583 	 0.54
136.0756899162 	 0.78
137.0835149483 	 0.69
152.1069900446 	 100
319.177809264 	 0
END IONS

BEGIN IONS
PEPMASS=341.2347
CHARGE=1
MSLEVEL=2
RT=0
SOURCE_INSTRUMENT=qTOF
FILENAME=CCMSLIB00000085671.ms
IONMODE=Positive
ORGANISM=Natural
NAME=MLS000069833-01!TRANS-DIHYDROLISURIDE
PI=GNPS
DATACOLLECTOR=GNPS
SMILES=CCN(CC)C(=N[C@H]1C[C@@H]2c3cccc4c3c(C[C@H]2N(C)C1)c[nH]4)O
INCHI=InChI=1S/C20H28N4O/c1-4-24(5-2)20(25)22-14-10-16-15-7-6-8-17-19(15)13(11-21-17)9-18(16)23(3)12-14/h6-8,11,14,16,18,21H,4-5,9-10,12H2,1-3H3,(H,22,25)/t14-,16+,18+/m0/s1
FORMULA=C20H28N4O
PUBMED=N/A
SUBMITUSER=BIOADREM
LIBRARYQUALITY=0
SPECTRUMID=CCMSLIB00000085671
SCANS=3658
ID=CCMSLIB00000085671
128.0620512247 	 2.62
129.0698762568 	 9.9
141.0698762568 	 1.18
144.0807752941 	 4.51
154.0651252299 	 8.88
156.0807752941 	 53.82
165.0698762568 	 6.86
168.0807752941 	 43.83
170.0964253583 	 29.07
179.072950262 	 0.67
182.0964253583 	 6.31
192.0807752941 	 4.87
194.0964253583 	 54.07
197.1073243956 	 7.91
208.0994993635 	 1.67
209.1073243956 	 4.02
223.1229744598 	 6.91
225.138624524 	 55.61
237.1022390177 	 2.01
240.1495235613 	 0.67
268.1444381834 	 100
341.2335875417 	 4.89
END IONS

BEGIN IONS
PEPMASS=325.1897
CHARGE=1
MSLEVEL=2
RT=0
SOURCE_INSTRUMENT=qTOF
FILENAME=CCMSLIB00000085673.ms
IONMODE=Positive
ORGANISM=Natural
NAME=MLS001304041-01!
PI=GNPS
DATACOLLECTOR=GNPS
SMILES=C=C[C@H]1CN2CCC1C[C@H]2[C@@H](c1ccnc2ccc(cc12)OC)O
INCHI=InChI=1S/C20H24N2O2/c1-3-13-12-22-9-7-14(13)10-19(22)20(23)16-6-8-21-18-5-4-15(24-2)11-17(16)18/h3-6,8,11,13-14,19-20,23H,1,7,9-10,12H2,2H3/t13-,14?,19-,20+/m0/s1
FORMULA=C20H24N2O2
PUBMED=N/A
SUBMITUSER=BIOADREM
LIBRARYQUALITY=0
SPECTRUMID=CCMSLIB00000085673
SCANS=3660
ID=CCMSLIB00000085673
117.0573001978 	 6.21
134.0964253583 	 7.74
143.072950262 	 10.15
145.0522148199 	 9.61
154.0651252299 	 5.36
155.072950262 	 7.03
158.060039852 	 12.02
159.0678648841 	 5.5
160.0756899162 	 100
162.0913399804 	 4.85
167.072950262 	 6.72
169.0522148199 	 6.61
170.060039852 	 5.76
172.0756899162 	 50.48
173.0835149483 	 24.13
174.0549544741 	 8.88
174.0913399804 	 11.57
183.0678648841 	 9.61
184.0756899162 	 33.44
186.0913399804 	 28.3
188.0706045383 	 10.86
189.0784295704 	 19.23
196.0756899162 	 5.96
198.0913399804 	 20.16
210.0913399804 	 13.05
214.0862546025 	 9.42
222.0913399804 	 5.19
224.1069900446 	 8.45
236.1069900446 	 5.33
238.1226401088 	 6.86
250.1226401088 	 6.13
264.138290173 	 9.42
279.1491892103 	 9.7
282.1488548593 	 5.42
307.1804893387 	 57.15
325.191054025 	 127.68
END IONS

BEGIN IONS
PEPMASS=333.0945
CHARGE=1
MSLEVEL=2
RT=0
SOURCE_INSTRUMENT=qTOF
FILENAME=CCMSLIB00000085676.ms
IONMODE=Positive
ORGANISM=Natural
NAME=MLS002207223-01!Picrotin
PI=GNPS
DATACOLLECTOR=GNPS
SMILES=CC(C)(C1C2C(=O)OC1C1C3(C)C2(CC2C3(C(=O)O1)O2)O)O
INCHI=InChI=1S/C15H18O7/c1-12(2,18)6-7-10(16)20-8(6)9-13(3)14(7,19)4-5-15(13,22-5)11(17)21-9/h5-9,18-19H,4H2,1-3H3
FORMULA=C15H18O7
PUBMED=N/A
SUBMITUSER=BIOADREM
LIBRARYQUALITY=0
SPECTRUMID=CCMSLIB00000085676
SCANS=3662
ID=CCMSLIB00000085676
67.0542261926 	 4.43
81.0698762568 	 5.15
163.1117410715 	 27.42
178.1352161678 	 21.24
311.1125289325 	 0
END IONS

BEGIN IONS
PEPMASS=406.1915
CHARGE=1
MSLEVEL=2
RT=0
SOURCE_INSTRUMENT=qTOF
FILENAME=CCMSLIB00000085678.ms
IONMODE=Positive
ORGANISM=Natural
NAME=MLS001306432-01!TOREMIFENE CITRATE
PI=GNPS
DATACOLLECTOR=GNPS
SMILES=CN(C)CCOc1ccc(cc1)/C(=C(/CCCl)\c1ccccc1)/c1ccccc1
INCHI=InChI=1S/C26H28ClNO/c1-28(2)19-20-29-24-15-13-23(14-16-24)26(22-11-7-4-8-12-22)25(17-18-27)21-9-5-3-6-10-21/h3-16H,17-20H2,1-2H3/b26-25-
FORMULA=C26H28ClNO
PUBMED=N/A
SUBMITUSER=BIOADREM
LIBRARYQUALITY=0
SPECTRUMID=CCMSLIB00000085678
SCANS=3663
ID=CCMSLIB00000085678
128.0620512247 	 14.92
167.085526321 	 8.02
178.0777012889 	 13.35
179.085526321 	 10.13
189.0698762568 	 6.61
190.0777012889 	 27.59
191.085526321 	 35.35
192.0933513531 	 12.9
202.0777012889 	 15.98
203.085526321 	 37.22
204.0933513531 	 36.49
205.1011763852 	 100
207.0804409431 	 26.85
208.0882659752 	 7.24
215.085526321 	 8.25
217.1011763852 	 6.44
219.0804409431 	 7.69
220.0882659752 	 7.59
221.0960910073 	 8.99
228.0933513531 	 12.32
229.1011763852 	 8.22
232.0882659752 	 7.71
234.1039160394 	 9.59
239.085526321 	 10.89
240.0933513531 	 11.34
241.1011763852 	 24.54
242.1090014173 	 28.54
243.1168264494 	 7.8
247.1117410715 	 13
252.0933513531 	 9.14
253.1011763852 	 53.75
254.1090014173 	 62.57
255.1168264494 	 16.84
265.1011763852 	 20.86
266.1090014173 	 8.71
267.1168264494 	 13.55
269.0960910073 	 9.26
269.1324765136 	 10.92
270.1039160394 	 32.28
279.1168264494 	 12.26
280.1246514815 	 5.84
281.0960910073 	 12.51
282.1039160394 	 13.27
283.1117410715 	 22.08
285.1273911357 	 19.02
297.1273911357 	 12.15
298.1352161678 	 22.22
334.1118939099 	 5.52
361.1353690062 	 10.5
406.1932182361 	 99.42
END IONS

BEGIN IONS
PEPMASS=257.1774
CHARGE=1
MSLEVEL=2
RT=0
SOURCE_INSTRUMENT=qTOF
FILENAME=CCMSLIB00000085679.ms
IONMODE=Positive
ORGANISM=Natural
NAME=MLS002154067-01!Bephenium hydroxynaphthoate3818-50-6
PI=GNPS
DATACOLLECTOR=GNPS
SMILES=C[N+](C)(CCOc1ccccc1)Cc1ccccc1
INCHI=InChI=1S/C17H22NO/c1-18(2,15-16-9-5-3-6-10-16)13-14-19-17-11-7-4-8-12-17/h3-12H,13-15H2,1-2H3/q+1
FORMULA=C17H22NO
PUBMED=N/A
SUBMITUSER=BIOADREM
LIBRARYQUALITY=0
SPECTRUMID=CCMSLIB00000085679
SCANS=3664
ID=CCMSLIB00000085679
91.0542261926 	 100
93.0698762568 	 2.48
103.0542261926 	 5.17
119.0491408147 	 1.45
121.0647908789 	 21.26
164.1069900446 	 63.61
257.1774153335 	 0
END IONS

BEGIN IONS
PEPMASS=221.1105
CHARGE=1
MSLEVEL=2
RT=0
SOURCE_INSTRUMENT=qTOF
FILENAME=CCMSLIB00000085680.ms
IONMODE=Positive
ORGANISM=Natural
NAME=MLS000881122-01!Xylazine
PI=GNPS
DATACOLLECTOR=GNPS
SMILES=Cc1cccc(C)c1NC1=NCCCS1
INCHI=InChI=1S/C12H16N2S/c1-9-5-3-6-10(2)11(9)14-12-13-7-4-8-15-12/h3,5-6H,4,7-8H2,1-2H3,(H,13,14)
FORMULA=C12H16N2S
PUBMED=N/A
SUBMITUSER=BIOADREM
LIBRARYQUALITY=0
SPECTRUMID=CCMSLIB00000085680
SCANS=3665
ID=CCMSLIB00000085680
103.0542261926 	 13.94
105.0698762568 	 30.39
106.0651252299 	 13.68
118.0651252299 	 2.27
120.0807752941 	 28.56
121.0886003262 	 17.23
130.0651252299 	 13
131.072950262 	 12.46
137.0419469468 	 5.55
145.0760242672 	 1.82
147.0916743314 	 29.68
149.0293708878 	 4.97
164.0528459841 	 100
177.0480949572 	 1.27
221.110695214 	 71.84
END IONS

BEGIN IONS
PEPMASS=437.9814
CHARGE=1
MSLEVEL=2
RT=0
SOURCE_INSTRUMENT=qTOF
FILENAME=CCMSLIB00000085683.ms
IONMODE=Positive
ORGANISM=Natural
NAME=MLS002153417-01!I-OMe-Tyrphostin AG 538
PI=GNPS
DATACOLLECTOR=GNPS
SMILES=COc1cc(/C=C(\C#N)/C(=O)c2ccc(c(c2)O)O)cc(c1O)I
INCHI=InChI=1S/C17H12INO5/c1-24-15-6-9(5-12(18)17(15)23)4-11(8-19)16(22)10-2-3-13(20)14(21)7-10/h2-7,20-21,23H,1H3/b11-4+
FORMULA=C17H12INO5
PUBMED=N/A
SUBMITUSER=BIOADREM
LIBRARYQUALITY=0
SPECTRUMID=CCMSLIB00000085683
SCANS=3668
ID=CCMSLIB00000085683
104.0494751657 	 1.64
109.0284053726 	 6.4
113.0260000694 	 17.38
127.0416501336 	 2.51
132.0443897878 	 3.21
133.0284053726 	 20.65
136.0393044099 	 44.44
137.0233199947 	 3.93
141.0209146915 	 2.2
142.0287397236 	 39.03
143.0365647557 	 9.94
155.0365647557 	 4.19
158.0236543457 	 14.27
160.0393044099 	 2.91
161.0233199947 	 16.29
169.0158293136 	 74.31
169.0158293136 	 20.83
183.0314793778 	 100
186.0185689678 	 6.6
188.034219032 	 5.59
201.0420440641 	 1.74
201.0420440641 	 1.79
279.0526087504 	 5.31
283.0839088788 	 3.69
295.0475233725 	 4.41
310.0709984688 	 3.75
311.0788235009 	 1.36
END IONS

BEGIN IONS
PEPMASS=358.156
CHARGE=1
MSLEVEL=2
RT=0
SOURCE_INSTRUMENT=qTOF
FILENAME=CCMSLIB00000085684.ms
IONMODE=Positive
ORGANISM=Natural
NAME=MLS002153428-01!4-Diphenylacetoxy-N-(2-chloroethyl)piperidine hydrochloride
PI=GNPS
DATACOLLECTOR=GNPS
SMILES=c1ccc(cc1)C(c1ccccc1)C(=O)OC1CCN(CC1)CCCl
INCHI=InChI=1S/C21H24ClNO2/c22-13-16-23-14-11-19(12-15-23)25-21(24)20(17-7-3-1-4-8-17)18-9-5-2-6-10-18/h1-10,19-20H,11-16H2
FORMULA=C21H24ClNO2
PUBMED=N/A
SUBMITUSER=BIOADREM
LIBRARYQUALITY=0
SPECTRUMID=CCMSLIB00000085684
SCANS=3669
ID=CCMSLIB00000085684
92.0261529078 	 32
97.0886003262 	 1.29
98.0964253583 	 2.47
112.1120754225 	 3.41
118.041802972 	 5.97
127.0542261926 	 1.11
128.0620512247 	 0.58
141.0698762568 	 1.21
146.0731031004 	 85.79
151.0542261926 	 2.06
152.0620512247 	 22.13
164.0836677867 	 12.11
165.0698762568 	 32.69
166.0777012889 	 12.75
167.085526321 	 100
322.1801549877 	 0.6
358.1568327298 	 62.39
END IONS

BEGIN IONS
PEPMASS=623.3097
CHARGE=1
MSLEVEL=2
RT=0
SOURCE_INSTRUMENT=qTOF
FILENAME=CCMSLIB00000085685.ms
IONMODE=Positive
ORGANISM=Natural
NAME=MLS002153946-01!Tetrandrine
PI=GNPS
DATACOLLECTOR=GNPS
SMILES=CN1CCc2cc(c3cc2[C@@H]1Cc1ccc(cc1)Oc1cc(ccc1OC)C[C@H]1c2c(CCN1C)cc(c(c2O3)OC)OC)OC
INCHI=InChI=1S/C38H42N2O6/c1-39-15-13-25-20-32(42-4)34-22-28(25)29(39)17-23-7-10-27(11-8-23)45-33-19-24(9-12-31(33)41-3)18-30-36-26(14-16-40(30)2)21-35(43-5)37(44-6)38(36)46-34/h7-12,19-22,29-30H,13-18H2,1-6H3/t29-,30-/m0/s1
FORMULA=C38H42N2O6
PUBMED=N/A
SUBMITUSER=BIOADREM
LIBRARYQUALITY=0
SPECTRUMID=CCMSLIB00000085685
SCANS=3670
ID=CCMSLIB00000085685
137.059705501 	 2.96
146.0964253583 	 12
162.0913399804 	 7.91
174.0913399804 	 39.69
176.1069900446 	 13.7
190.0862546025 	 6.85
191.0940796346 	 17.81
192.1019046667 	 11.52
204.1019046667 	 4.65
206.1175547309 	 4.76
218.1175547309 	 3.2
227.1066556936 	 3.76
235.0753555652 	 2.64
250.0988306615 	 2.58
281.1172203799 	 3.91
282.1362788003 	 3.73
299.1277850662 	 2.6
310.1199600341 	 3.27
338.1386841035 	 5.4
354.1699842319 	 2.54
363.1703185829 	 5.09
365.1774153335 	 3.53
366.1574081729 	 3.36
381.1808832692 	 100
382.1801549877 	 27.43
383.1879800198 	 5.56
396.2043583655 	 4.74
400.190719674 	 5.8
401.1899913925 	 3.44
546.2149230518 	 4.11
549.2271647598 	 2.71
550.2224137329 	 4.02
560.243149175 	 6.89
561.2383981481 	 4.18
562.2224137329 	 3.05
576.2506398561 	 4.13
577.2458888292 	 5.27
580.2693639255 	 15.87
581.2646128986 	 10.72
592.2693639255 	 15.81
607.2802629628 	 3.09
608.2880879949 	 3.2
623.3115630912 	 79.04
END IONS

BEGIN IONS
PEPMASS=209.1074
CHARGE=1
MSLEVEL=2
RT=0
SOURCE_INSTRUMENT=qTOF
FILENAME=CCMSLIB00000085688.ms
IONMODE=Positive
ORGANISM=Natural
NAME=MLS001212883-01!2-Benzyl-1H-benzoimidazole
PI=GNPS
DATACOLLECTOR=GNPS
SMILES=c1ccc(cc1)Cc1nc2ccccc2[nH]1
INCHI=InChI=1S/C14H12N2/c1-2-6-11(7-3-1)10-14-15-12-8-4-5-9-13(12)16-14/h1-9H,10H2,(H,15,16)
FORMULA=C14H12N2
PUBMED=N/A
SUBMITUSER=BIOADREM
LIBRARYQUALITY=0
SPECTRUMID=CCMSLIB00000085688
SCANS=3672
ID=CCMSLIB00000085688
91.0542261926 	 13.98
102.0338251015 	 0.33
104.0494751657 	 30.01
117.0573001978 	 0.39
131.060374203 	 100
165.0698762568 	 0.57
194.0838492993 	 0.34
209.1073243956 	 60.38
END IONS

BEGIN IONS
PEPMASS=332.1193
CHARGE=1
MSLEVEL=2
RT=0
SOURCE_INSTRUMENT=qTOF
FILENAME=CCMSLIB00000085690.ms
IONMODE=Positive
ORGANISM=Natural
NAME=MLS002153419-01!SB 202190152121-30-7
PI=GNPS
DATACOLLECTOR=GNPS
SMILES=c1cc(ccc1c1c(c2ccncc2)nc(c2ccc(cc2)O)[nH]1)F
INCHI=InChI=1S/C20H14FN3O/c21-16-5-1-13(2-6-16)18-19(14-9-11-22-12-10-14)24-20(23-18)15-3-7-17(25)8-4-15/h1-12,25H,(H,23,24)
FORMULA=C20H14FN3O
PUBMED=N/A
SUBMITUSER=BIOADREM
LIBRARYQUALITY=0
SPECTRUMID=CCMSLIB00000085690
SCANS=3674
ID=CCMSLIB00000085690
105.0447241388 	 1.37
107.0291542963 	 0.69
109.0448043605 	 0.91
117.0447241388 	 4.58
118.0525491709 	 2.91
120.0443897878 	 1.9
129.0698762568 	 0.92
133.0448043605 	 0.99
135.0478783657 	 2.42
139.0542261926 	 1.13
154.0651252299 	 0.77
156.0807752941 	 4.68
157.0448043605 	 0.65
159.0604544247 	 4.67
160.0631138572 	 0.55
166.0651252299 	 5.52
167.072950262 	 4.14
171.0478783657 	 0.68
172.0557033978 	 0.88
182.0838492993 	 3.38
183.0916743314 	 10.67
184.0756899162 	 12.5
185.0635284299 	 23.71
186.071353462 	 21.78
192.0681992351 	 2.79
193.0760242672 	 2.89
196.0557033978 	 1.1
197.0635284299 	 0.75
200.0618514082 	 0.69
201.071019111 	 1.21
210.0787639214 	 2.99
211.0865889535 	 100
212.0870035262 	 8.87
213.0822524993 	 60.68
228.0819181483 	 0.97
302.1088016008 	 0.53
304.124451665 	 1.71
315.0928171856 	 0.76
330.1037162229 	 1.6
332.1193662871 	 134.24
END IONS

BEGIN IONS
PEPMASS=323.1601
CHARGE=1
MSLEVEL=2
RT=0
SOURCE_INSTRUMENT=qTOF
FILENAME=CCMSLIB00000085691.ms
IONMODE=Positive
ORGANISM=Natural
NAME=MLS002153849-01!Etifenin63245-28-3
PI=GNPS
DATACOLLECTOR=GNPS
SMILES=CCc1cccc(CC)c1N=C(CN(CC(=O)O)CC(=O)O)O
INCHI=InChI=1S/C16H22N2O5/c1-3-11-6-5-7-12(4-2)16(11)17-13(19)8-18(9-14(20)21)10-15(22)23/h5-7H,3-4,8-10H2,1-2H3,(H,17,19)(H,20,21)(H,22,23)
FORMULA=C16H22N2O5
PUBMED=N/A
SUBMITUSER=BIOADREM
LIBRARYQUALITY=0
SPECTRUMID=CCMSLIB00000085691
SCANS=3675
ID=CCMSLIB00000085691
88.0393044099 	 3.46
100.0393044099 	 2.2
102.0549544741 	 11.32
103.0542261926 	 3.38
105.0698762568 	 7.35
106.0651252299 	 8.04
118.0498690962 	 7.66
119.072950262 	 6.79
120.0807752941 	 7.73
121.0886003262 	 2.15
122.0964253583 	 2.56
131.072950262 	 3.74
132.0807752941 	 27.07
133.0522148199 	 7.4
133.0859202515 	 4.17
134.060039852 	 13.09
134.0964253583 	 11.81
145.0859202515 	 2.25
146.0447837183 	 31.34
146.0964253583 	 4.81
147.1042503904 	 52.16
148.1093953478 	 24.64
150.1277254867 	 19.26
158.0937452836 	 4.43
160.1120754225 	 4.84
161.0808348736 	 5.3
162.1277254867 	 100
172.1120754225 	 7.27
175.0991650125 	 3.23
176.1043099699 	 3.92
188.1069900446 	 2.07
190.1226401088 	 3.28
219.1491892103 	 13.01
231.1465091356 	 3.18
277.1546685187 	 2.43
323.1601478271 	 0
END IONS

BEGIN IONS
PEPMASS=328.1806
CHARGE=1
MSLEVEL=2
RT=0
SOURCE_INSTRUMENT=qTOF
FILENAME=CCMSLIB00000085692.ms
IONMODE=Positive
ORGANISM=Natural
NAME=MLS002154163-01!Azaperone1649-18-9
PI=GNPS
DATACOLLECTOR=GNPS
SMILES=c1ccnc(c1)N1CCN(CCCC(=O)c2ccc(cc2)F)CC1
INCHI=InChI=1S/C19H22FN3O/c20-17-8-6-16(7-9-17)18(24)4-3-11-22-12-14-23(15-13-22)19-5-1-2-10-21-19/h1-2,5-10H,3-4,11-15H2
FORMULA=C19H22FN3O
PUBMED=N/A
SUBMITUSER=BIOADREM
LIBRARYQUALITY=0
SPECTRUMID=CCMSLIB00000085692
SCANS=3676
ID=CCMSLIB00000085692
94.0651252299 	 0.82
95.0291542963 	 2.45
95.060374203 	 0.76
104.0494751657 	 0.57
121.0760242672 	 39.51
123.0240689184 	 100
132.0681992351 	 1.06
147.0916743314 	 14.72
164.1182234329 	 0.36
165.071019111 	 55.52
208.1132182767 	 0.29
328.1819665439 	 0.97
END IONS

BEGIN IONS
PEPMASS=405.1544
CHARGE=1
MSLEVEL=2
RT=0
SOURCE_INSTRUMENT=qTOF
FILENAME=CCMSLIB00000085693.ms
IONMODE=Positive
ORGANISM=Natural
NAME=MLS002207168-01!Deoxyrhapontin from rhubarb root30197-14-9
PI=GNPS
DATACOLLECTOR=GNPS
SMILES=COc1ccc(/C=C/c2cc(cc(c2)OC2C(C(C(C(CO)O2)O)O)O)O)cc1
INCHI=InChI=1S/C21H24O8/c1-27-15-6-4-12(5-7-15)2-3-13-8-14(23)10-16(9-13)28-21-20(26)19(25)18(24)17(11-22)29-21/h2-10,17-26H,11H2,1H3/b3-2+
FORMULA=C21H24O8
PUBMED=N/A
SUBMITUSER=BIOADREM
LIBRARYQUALITY=0
SPECTRUMID=CCMSLIB00000085693
SCANS=3677
ID=CCMSLIB00000085693
105.0698762568 	 4.86
107.0491408147 	 37.02
121.0647908789 	 10.39
123.0440554368 	 5.5
135.0440554368 	 31.3
141.0698762568 	 5.98
149.059705501 	 10.32
165.0698762568 	 10.49
167.085526321 	 2.96
168.0569658468 	 1.9
182.072615911 	 5.44
183.0804409431 	 9.23
197.0960910073 	 4.86
210.0675305331 	 8.49
211.0753555652 	 10.65
225.0910056294 	 7.11
227.0702701873 	 2.41
228.0780952194 	 8.72
243.1015703157 	 100
405.1543937472 	 0
END IONS

BEGIN IONS
PEPMASS=338.2112
CHARGE=1
MSLEVEL=2
RT=0
SOURCE_INSTRUMENT=qTOF
FILENAME=CCMSLIB00000085695.ms
IONMODE=Positive
ORGANISM=Natural
NAME=MLS001066617-01!DANAZOL
PI=GNPS
DATACOLLECTOR=GNPS
SMILES=C#C[C@@]1(CC[C@H]2[C@@H]3CCC4=Cc5c(C[C@]4(C)[C@H]3CC[C@]12C)cno5)O
INCHI=InChI=1S/C22H27NO2/c1-4-22(24)10-8-18-16-6-5-15-11-19-14(13-23-25-19)12-20(15,2)17(16)7-9-21(18,22)3/h1,11,13,16-18,24H,5-10,12H2,2-3H3/t16-,17+,18+,20+,21+,22+/m1/s1
FORMULA=C22H27NO2
PUBMED=N/A
SUBMITUSER=BIOADREM
LIBRARYQUALITY=0
SPECTRUMID=CCMSLIB00000085695
SCANS=3678
ID=CCMSLIB00000085695
91.0542261926 	 24.4
103.0542261926 	 13.94
105.0698762568 	 47.95
106.0651252299 	 27.43
115.0542261926 	 23.83
116.0620512247 	 17.6
117.0698762568 	 28.02
119.085526321 	 29.61
120.0443897878 	 13.05
120.0807752941 	 59.24
121.0647908789 	 55.88
122.0964253583 	 11.7
128.0620512247 	 38.61
129.0698762568 	 49.69
131.085526321 	 34.14
133.1011763852 	 13.16
141.0698762568 	 31.94
142.0777012889 	 36.91
143.085526321 	 39.5
145.0647908789 	 11.18
145.1011763852 	 23.77
147.0804409431 	 29.67
148.0756899162 	 100
153.0698762568 	 20.11
154.0777012889 	 17.28
155.085526321 	 42.2
156.0933513531 	 25.12
157.1011763852 	 33.9
159.0804409431 	 16.32
159.1168264494 	 15.45
165.0698762568 	 26.34
166.0777012889 	 17.52
167.085526321 	 27.58
169.1011763852 	 28
171.1168264494 	 15.95
173.0960910073 	 11.98
178.0777012889 	 11.53
179.085526321 	 21.66
181.1011763852 	 25.19
183.1168264494 	 24.55
185.0960910073 	 15.66
191.085526321 	 12.11
192.0933513531 	 19.69
193.1011763852 	 21
195.1168264494 	 17.8
207.1168264494 	 14.38
209.1324765136 	 15.03
225.163776642 	 13.25
295.1930653977 	 19.08
338.2114551161 	 73.94
END IONS

BEGIN IONS
PEPMASS=247.1077
CHARGE=1
MSLEVEL=2
RT=0
SOURCE_INSTRUMENT=qTOF
FILENAME=CCMSLIB00000085696.ms
IONMODE=Positive
ORGANISM=Natural
NAME=MLS001066362-01!N-Acetyl-D-tryptophan
PI=GNPS
DATACOLLECTOR=GNPS
SMILES=CC(=N[C@H](Cc1c[nH]c2ccccc12)C(=O)O)O
INCHI=InChI=1S/C13H14N2O3/c1-8(16)15-12(13(17)18)6-9-7-14-11-5-3-2-4-10(9)11/h2-5,7,12,14H,6H2,1H3,(H,15,16)(H,17,18)/t12-/m1/s1
FORMULA=C13H14N2O3
PUBMED=N/A
SUBMITUSER=BIOADREM
LIBRARYQUALITY=0
SPECTRUMID=CCMSLIB00000085696
SCANS=3679
ID=CCMSLIB00000085696
91.0542261926 	 5.94
115.0542261926 	 56.37
117.0573001978 	 33.73
118.0651252299 	 84.09
127.0542261926 	 5.62
130.0651252299 	 97.23
132.0807752941 	 87.09
140.0494751657 	 6.73
142.0651252299 	 71.5
143.072950262 	 44.73
144.0807752941 	 42.6
146.060039852 	 100
159.0916743314 	 99.05
170.060039852 	 52.49
188.0706045383 	 42.52
247.1077183261 	 0
END IONS

BEGIN IONS
PEPMASS=489.3208
CHARGE=1
MSLEVEL=2
RT=0
SOURCE_INSTRUMENT=qTOF
FILENAME=CCMSLIB00000085697.ms
IONMODE=Positive
ORGANISM=Natural
NAME=MLS001076292-01!11BETA,17ALPHA,21-TRIHYDROXY-4-PREGNENE-3,20-DIONE 21-CAPRYLATE
PI=GNPS
DATACOLLECTOR=GNPS
SMILES=CCCCCCCC(=O)OCC(=O)[C@]1(CC[C@H]2[C@@H]3CCC4=CC(=O)CC[C@]4(C)[C@H]3[C@H](C[C@]12C)O)O
INCHI=InChI=1S/C29H44O6/c1-4-5-6-7-8-9-25(33)35-18-24(32)29(34)15-13-22-21-11-10-19-16-20(30)12-14-27(19,2)26(21)23(31)17-28(22,29)3/h16,21-23,26,31,34H,4-15,17-18H2,1-3H3/t21-,22-,23-,26+,27-,28-,29-/m0/s1
FORMULA=C29H44O6
PUBMED=N/A
SUBMITUSER=BIOADREM
LIBRARYQUALITY=0
SPECTRUMID=CCMSLIB00000085697
SCANS=3680
ID=CCMSLIB00000085697
97.0647908789 	 23.74
109.0647908789 	 16
119.085526321 	 46.35
121.0647908789 	 100
123.0804409431 	 43.24
127.1117410715 	 63.94
129.0698762568 	 15.68
131.085526321 	 25.24
133.1011763852 	 20.71
135.0804409431 	 22.53
143.085526321 	 42.35
145.1011763852 	 49.09
147.0804409431 	 27.15
147.1168264494 	 21.79
155.085526321 	 32.03
157.1011763852 	 36.38
159.0804409431 	 19.88
159.1168264494 	 35.12
161.0960910073 	 18.97
163.1117410715 	 50.26
167.085526321 	 15.32
169.1011763852 	 26.47
171.0804409431 	 22.85
171.1168264494 	 28.91
173.0960910073 	 28.38
175.1117410715 	 25.79
183.1168264494 	 39.41
185.0960910073 	 20.09
185.1324765136 	 31.21
187.1117410715 	 35.82
189.1273911357 	 16.38
193.1011763852 	 18.35
195.1168264494 	 26.21
197.1324765136 	 31.88
199.1117410715 	 16.24
207.1168264494 	 18.03
209.1324765136 	 22.85
211.1117410715 	 20.76
213.1273911357 	 38.47
221.1324765136 	 19.03
223.1481265778 	 26.62
225.1273911357 	 25.38
227.1430411999 	 19.79
239.1430411999 	 38.5
241.1586912641 	 89.15
251.1430411999 	 23.74
253.1586912641 	 17.65
266.1665162962 	 15.56
267.1743413283 	 43.91
269.1899913925 	 17.35
281.1899913925 	 24.94
291.1743413283 	 22.47
309.1849060146 	 54.15
327.1954707009 	 74.76
345.2060353872 	 39.15
489.321065145 	 3.21
END IONS

BEGIN IONS
PEPMASS=340.202
CHARGE=1
MSLEVEL=2
RT=0
SOURCE_INSTRUMENT=qTOF
FILENAME=CCMSLIB00000085698.ms
IONMODE=Positive
ORGANISM=Natural
NAME=MLS000756415-01!Methergine
PI=GNPS
DATACOLLECTOR=GNPS
SMILES=CCC(CO)N=C(C1C=C2c3cccc4c3c(CC2N(C)C1)c[nH]4)O
INCHI=InChI=1S/C20H25N3O2/c1-3-14(11-24)22-20(25)13-7-16-15-5-4-6-17-19(15)12(9-21-17)8-18(16)23(2)10-13/h4-7,9,13-14,18,21,24H,3,8,10-11H2,1-2H3,(H,22,25)
FORMULA=C20H25N3O2
PUBMED=N/A
SUBMITUSER=BIOADREM
LIBRARYQUALITY=0
SPECTRUMID=CCMSLIB00000085698
SCANS=3681
ID=CCMSLIB00000085698
152.0620512247 	 1.55
153.0698762568 	 7.91
154.0651252299 	 2.38
165.0698762568 	 1.69
167.072950262 	 8.62
168.0807752941 	 4.7
178.0651252299 	 1.42
179.072950262 	 2.76
180.0807752941 	 61.71
190.0651252299 	 3.56
191.072950262 	 20.91
192.0807752941 	 13.47
194.060039852 	 2.96
194.0964253583 	 7.26
197.1073243956 	 10.29
206.0838492993 	 1.18
207.0678648841 	 34.46
208.0756899162 	 100
220.0756899162 	 1.89
221.1073243956 	 5.04
223.1229744598 	 48.86
224.0944139856 	 2.04
225.1022390177 	 6.26
236.0944139856 	 0.69
251.1178890819 	 1.67
269.1284537682 	 0.61
295.1441038324 	 0.61
297.1597538966 	 9.05
298.1675789287 	 1.96
325.178477966 	 1.46
340.2019530623 	 3.83
END IONS

BEGIN IONS
PEPMASS=360.2159
CHARGE=1
MSLEVEL=2
RT=0
SOURCE_INSTRUMENT=qTOF
FILENAME=CCMSLIB00000085699.ms
IONMODE=Positive
ORGANISM=Natural
NAME=MLS000860015-01!YS-035 hydrochloride
PI=GNPS
DATACOLLECTOR=GNPS
SMILES=CN(CCc1ccc(c(c1)OC)OC)CCc1ccc(c(c1)OC)OC
INCHI=InChI=1S/C21H29NO4/c1-22(12-10-16-6-8-18(23-2)20(14-16)25-4)13-11-17-7-9-19(24-3)21(15-17)26-5/h6-9,14-15H,10-13H2,1-5H3
FORMULA=C21H29NO4
PUBMED=N/A
SUBMITUSER=BIOADREM
LIBRARYQUALITY=0
SPECTRUMID=CCMSLIB00000085699
SCANS=3682
ID=CCMSLIB00000085699
91.0542261926 	 1.07
94.0413157826 	 0.22
102.0464011605 	 0.31
103.0542261926 	 5.53
104.0620512247 	 1.61
105.0698762568 	 10.76
107.0491408147 	 3.91
109.0647908789 	 0.56
118.0413157826 	 3.62
119.0491408147 	 2.89
120.0569658468 	 2.7
121.0647908789 	 6.68
122.072615911 	 2.13
131.0491408147 	 1.46
132.0569658468 	 1.07
133.0647908789 	 11.65
134.072615911 	 16.67
135.0440554368 	 12.7
135.0804409431 	 5.27
137.0960910073 	 0.42
138.0675305331 	 0.27
149.059705501 	 2.72
150.0675305331 	 54.03
161.0835149483 	 0.32
164.0831805973 	 0.62
165.0910056294 	 100
176.1069900446 	 0.56
179.1066556936 	 2.24
193.1097296988 	 0.31
208.1332047951 	 8.73
360.2169344245 	 1.05
END IONS

BEGIN IONS
PEPMASS=232.1691
CHARGE=1
MSLEVEL=2
RT=0
SOURCE_INSTRUMENT=qTOF
FILENAME=CCMSLIB00000085700.ms
IONMODE=Positive
ORGANISM=Natural
NAME=MLS002153407-01!cis-8-Hydroxy-3-(n-propyl)-1,2,3a,4,5,9b-hexahydro-1H-benz[e]indole hydrobromide
PI=GNPS
DATACOLLECTOR=GNPS
SMILES=CCCN1CC[C@@H]2c3cc(ccc3CC[C@H]12)O
INCHI=InChI=1S/C15H21NO/c1-2-8-16-9-7-13-14-10-12(17)5-3-11(14)4-6-15(13)16/h3,5,10,13,15,17H,2,4,6-9H2,1H3/t13-,15+/m1/s1
FORMULA=C15H21NO
PUBMED=N/A
SUBMITUSER=BIOADREM
LIBRARYQUALITY=0
SPECTRUMID=CCMSLIB00000085700
SCANS=3683
ID=CCMSLIB00000085700
91.0542261926 	 2.21
102.0464011605 	 1.13
103.0542261926 	 21.08
105.0698762568 	 2
107.0491408147 	 11.62
115.0542261926 	 13.81
117.0698762568 	 25.75
119.085526321 	 3.3
127.0542261926 	 22.16
129.0698762568 	 5.43
131.0491408147 	 34.63
132.0569658468 	 30.48
133.0647908789 	 9.46
145.0647908789 	 100
147.0804409431 	 13.52
158.072615911 	 13.67
161.0960910073 	 1.47
173.0960910073 	 12.75
232.1695903014 	 49.56
END IONS

BEGIN IONS
PEPMASS=350.229
CHARGE=1
MSLEVEL=2
RT=0
SOURCE_INSTRUMENT=qTOF
FILENAME=CCMSLIB00000085701.ms
IONMODE=Positive
ORGANISM=Natural
NAME=MLS002172447-01!p-Fluorohexahydro-sila-difenidol hydrochloride
PI=GNPS
DATACOLLECTOR=GNPS
SMILES=C1CCC(CC1)[Si](CCCN1CCCCC1)(c1ccc(cc1)F)O
INCHI=InChI=1S/C20H32FNOSi/c21-18-10-12-20(13-11-18)24(23,19-8-3-1-4-9-19)17-7-16-22-14-5-2-6-15-22/h10-13,19,23H,1-9,14-17H2
FORMULA=C20H32FNOSi
PUBMED=N/A
SUBMITUSER=BIOADREM
LIBRARYQUALITY=0
SPECTRUMID=CCMSLIB00000085701
SCANS=3684
ID=CCMSLIB00000085701
80.9791171548 	 0.45
97.0448043605 	 0.57
98.0964253583 	 1.59
99.0260673474 	 0.96
101.0417174116 	 4.25
111.0604544247 	 0.88
116.0506180199 	 0.77
124.1120754225 	 1.05
126.1277254867 	 2.9
127.0573674758 	 0.48
129.071019111 	 1.48
130.0662680841 	 5.56
141.0155026611 	 79.63
154.1026535904 	 0.59
159.0260673474 	 14.51
172.1132182767 	 1.25
177.0530310216 	 0.5
195.0635957079 	 0.56
212.1445184051 	 6.09
224.1445184051 	 0.44
236.1809039114 	 1.01
254.1914685977 	 100
255.1938815994 	 17.53
332.2204307009 	 2.87
350.2309953872 	 15.81
END IONS

BEGIN IONS
PEPMASS=180.1019
CHARGE=1
MSLEVEL=2
RT=0
SOURCE_INSTRUMENT=qTOF
FILENAME=CCMSLIB00000085704.ms
IONMODE=Positive
ORGANISM=Natural
NAME=MLS002153813-01!Fusaric acid536-69-6
PI=GNPS
DATACOLLECTOR=GNPS
SMILES=CCCCc1ccc(C(=O)O)nc1
INCHI=InChI=1S/C10H13NO2/c1-2-3-4-8-5-6-9(10(12)13)11-7-8/h5-7H,2-4H2,1H3,(H,12,13)
FORMULA=C10H13NO2
PUBMED=N/A
SUBMITUSER=BIOADREM
LIBRARYQUALITY=0
SPECTRUMID=CCMSLIB00000085704
SCANS=3686
ID=CCMSLIB00000085704
91.0542261926 	 13.55
92.0494751657 	 40.73
93.0573001978 	 14.17
104.0494751657 	 9.27
105.0573001978 	 16.22
106.0651252299 	 19.79
107.085526321 	 11.76
115.0542261926 	 47.59
118.0651252299 	 100
119.072950262 	 72.64
132.0807752941 	 36.72
133.0886003262 	 7.66
134.0964253583 	 86.9
152.1069900446 	 71.03
180.1019046667 	 0
END IONS

BEGIN IONS
PEPMASS=333.2298
CHARGE=1
MSLEVEL=2
RT=0
SOURCE_INSTRUMENT=qTOF
FILENAME=CCMSLIB00000085708.ms
IONMODE=Positive
ORGANISM=Natural
NAME=MLS002153882-01!Ipratropium bromide22254-24-6
PI=GNPS
DATACOLLECTOR=GNPS
SMILES=CC(C)[N+]1(C)[C@@H]2CC[C@@H]1CC(C2)OC(=O)C(CO)c1ccccc1
INCHI=InChI=1S/C20H30NO3/c1-14(2)21(3)16-9-10-17(21)12-18(11-16)24-20(23)19(13-22)15-7-5-4-6-8-15/h4-8,14,16-19,22H,9-13H2,1-3H3/q+1/t16-,17-,18?,19?,21?/m1/s1
FORMULA=C20H30NO3
PUBMED=N/A
SUBMITUSER=BIOADREM
LIBRARYQUALITY=0
SPECTRUMID=CCMSLIB00000085708
SCANS=3690
ID=CCMSLIB00000085708
91.0542261926 	 7.6
93.0698762568 	 12
95.085526321 	 2.87
96.0807752941 	 14.28
98.0964253583 	 0.85
103.0542261926 	 5.42
108.0807752941 	 0.85
109.0886003262 	 1.04
112.1120754225 	 0.34
121.0647908789 	 8.46
122.0964253583 	 1.03
124.1120754225 	 76.09
131.0491408147 	 0.5
138.1277254867 	 1.08
140.1069900446 	 5.53
142.1226401088 	 1.89
149.059705501 	 0.33
152.1433755509 	 5.78
166.1590256151 	 93.62
184.1695903014 	 1.21
272.1645049235 	 0.26
290.1750696098 	 55.23
333.2298448345 	 0
END IONS

BEGIN IONS
PEPMASS=212.03
CHARGE=1
MSLEVEL=2
RT=0
SOURCE_INSTRUMENT=qTOF
FILENAME=CCMSLIB00000085710.ms
IONMODE=Positive
ORGANISM=Natural
NAME=MLS002207159-01!3,5-Dinitrobenzamide121-81-3
PI=GNPS
DATACOLLECTOR=GNPS
SMILES=c1c(cc(cc1N(=O)=O)N(=O)=O)C(=N)O
INCHI=InChI=1S/C7H5N3O5/c8-7(11)4-1-5(9(12)13)3-6(2-4)10(14)15/h1-3H,(H2,8,11)
FORMULA=C7H5N3O5
PUBMED=N/A
SUBMITUSER=BIOADREM
LIBRARYQUALITY=0
SPECTRUMID=CCMSLIB00000085710
SCANS=3692
ID=CCMSLIB00000085710
103.0178406863 	 14.19
108.0443897878 	 6.94
120.0443897878 	 100
149.0107439357 	 10.48
195.0036471851 	 13.55
212.0301962866 	 6.45
END IONS

BEGIN IONS
PEPMASS=300.078
CHARGE=1
MSLEVEL=2
RT=0
SOURCE_INSTRUMENT=qTOF
FILENAME=CCMSLIB00000085711.ms
IONMODE=Positive
ORGANISM=Natural
NAME=MLS002153781-01!Thioguanosine85-31-4
PI=GNPS
DATACOLLECTOR=GNPS
SMILES=C([C@@H]1[C@H]([C@H]([C@H](n2cnc3c2[nH]c(=N)nc3S)O1)O)O)O
INCHI=InChI=1S/C10H13N5O4S/c11-10-13-7-4(8(20)14-10)12-2-15(7)9-6(18)5(17)3(1-16)19-9/h2-3,5-6,9,16-18H,1H2,(H3,11,13,14,20)/t3-,5-,6-,9-/m1/s1
FORMULA=C10H13N5O4S
PUBMED=N/A
SUBMITUSER=BIOADREM
LIBRARYQUALITY=0
SPECTRUMID=CCMSLIB00000085711
SCANS=3693
ID=CCMSLIB00000085711
81.0242855099 	 3.16
109.0495347452 	 3.99
126.0100156542 	 11.31
127.0178406863 	 4.66
134.0447837183 	 13.89
143.0491408147 	 3.41
151.005955371 	 45.67
152.009066914 	 4.41
168.0325044725 	 100
169.0356160155 	 13.39
300.0761006217 	 0
END IONS

BEGIN IONS
PEPMASS=607.2803
CHARGE=1
MSLEVEL=2
RT=0
SOURCE_INSTRUMENT=qTOF
FILENAME=CCMSLIB00000085715.ms
IONMODE=Positive
ORGANISM=Natural
NAME=MLS000728518-01!Cepharanthine
PI=GNPS
DATACOLLECTOR=GNPS
SMILES=CN1CCc2cc(c3cc2[C@H]1Cc1ccc(c(c1)Oc1ccc(cc1)C[C@H]1c2c(CCN1C)cc1c(c2O3)OCO1)OC)OC
INCHI=InChI=1S/C37H38N2O6/c1-38-13-11-24-18-31(41-4)33-20-27(24)28(38)16-23-7-10-30(40-3)32(17-23)44-26-8-5-22(6-9-26)15-29-35-25(12-14-39(29)2)19-34-36(37(35)45-33)43-21-42-34/h5-10,17-20,28-29H,11-16,21H2,1-4H3/t28-,29+/m1/s1
FORMULA=C37H38N2O6
PUBMED=N/A
SUBMITUSER=BIOADREM
LIBRARYQUALITY=0
SPECTRUMID=CCMSLIB00000085715
SCANS=3695
ID=CCMSLIB00000085715
162.0886599057 	 11.21
172.0756899162 	 7.33
174.0886599057 	 37.9
176.1043099699 	 12.82
190.0835745278 	 10.1
195.0804409431 	 6.88
213.0910056294 	 17.65
227.1026329482 	 17.48
237.086982884 	 7.33
241.1223057578 	 17.54
251.1066556936 	 8.27
253.1182830124 	 11.54
265.0886003262 	 8.66
304.0941392141 	 7.82
319.1202943851 	 10.88
320.1155433582 	 7.1
322.1073839751 	 8.88
324.1230340393 	 11.99
329.1199004546 	 7.71
333.1206883156 	 8.38
336.1230340393 	 7.33
337.1308590714 	 8.66
348.1468434866 	 9.77
365.1495831408 	 100
366.1488548593 	 18.76
367.1566798914 	 12.87
385.151988444 	 7.27
416.2220198024 	 9.88
521.1958646314 	 6.99
533.2070980197 	 15.93
534.2036896635 	 9.88
544.2118490466 	 11.99
545.2070980197 	 10.93
548.2193397277 	 7.44
560.2193397277 	 8.93
564.2380637971 	 75.8
565.2458888292 	 27.19
573.2383981481 	 9.71
575.2540482123 	 17.59
576.2380637971 	 59.49
577.2458888292 	 31.91
578.2537138613 	 10.1
591.2615388934 	 8.16
592.2567878665 	 8.77
605.2646128986 	 50.72
606.2724379307 	 12.93
607.2802629628 	 287.01
END IONS

BEGIN IONS
PEPMASS=288.0801
CHARGE=1
MSLEVEL=2
RT=0
SOURCE_INSTRUMENT=qTOF
FILENAME=CCMSLIB00000085721.ms
IONMODE=Positive
ORGANISM=Natural
NAME=MLS002153927-01!Sulmazole73384-60-8
PI=GNPS
DATACOLLECTOR=GNPS
SMILES=COc1cc(ccc1c1nc2cccnc2[nH]1)S(=O)C
INCHI=InChI=1S/C14H13N3O2S/c1-19-12-8-9(20(2)18)5-6-10(12)13-16-11-4-3-7-15-14(11)17-13/h3-8H,1-2H3,(H,15,16,17)
FORMULA=C14H13N3O2S
PUBMED=N/A
SUBMITUSER=BIOADREM
LIBRARYQUALITY=0
SPECTRUMID=CCMSLIB00000085721
SCANS=3701
ID=CCMSLIB00000085721
144.0556231761 	 0.54
146.034887734 	 4.74
155.060374203 	 5.9
164.0454524203 	 1.69
170.0712732403 	 1.24
181.0634482082 	 4.28
182.0712732403 	 46.07
195.0790982724 	 4.13
196.0869233045 	 12.07
197.0583628303 	 2.29
198.0661878624 	 5.3
202.0433439303 	 3.64
206.0712732403 	 1.24
210.0661878624 	 60.38
224.0818379266 	 4.03
225.0896629587 	 71.71
230.0382585524 	 38.82
244.0539086166 	 0.63
258.0331731745 	 4.83
258.0821347398 	 11.3
272.0488232387 	 1.34
273.0566482708 	 100
288.0801233671 	 0.32
END IONS

BEGIN IONS
PEPMASS=375.253
CHARGE=1
MSLEVEL=2
RT=0
SOURCE_INSTRUMENT=qTOF
FILENAME=CCMSLIB00000085724.ms
IONMODE=Positive
ORGANISM=Natural
NAME=MLS002153810-01!Digitoxigenin143-62-4
PI=GNPS
DATACOLLECTOR=GNPS
SMILES=C[C@]12CC[C@@H](C[C@H]1CC[C@@H]1[C@@H]2CC[C@]2(C)[C@H](CC[C@]12O)C1=CC(=O)OC1)O
INCHI=InChI=1S/C23H34O4/c1-21-8-5-16(24)12-15(21)3-4-19-18(21)6-9-22(2)17(7-10-23(19,22)26)14-11-20(25)27-13-14/h11,15-19,24,26H,3-10,12-13H2,1-2H3/t15-,16+,17-,18+,19-,21+,22-,23+/m1/s1
FORMULA=C23H34O4
PUBMED=N/A
SUBMITUSER=BIOADREM
LIBRARYQUALITY=0
SPECTRUMID=CCMSLIB00000085724
SCANS=3703
ID=CCMSLIB00000085724
91.0542261926 	 24.96
105.0698762568 	 69.23
107.085526321 	 40.99
109.1011763852 	 29.93
117.0698762568 	 22.87
119.085526321 	 54.88
121.1011763852 	 39.13
128.0620512247 	 18.58
129.0698762568 	 36.59
131.085526321 	 80.91
133.1011763852 	 58.44
135.1168264494 	 33.37
142.0777012889 	 15.36
143.085526321 	 54.49
145.1011763852 	 100
147.1168264494 	 45.68
149.1324765136 	 21.4
155.085526321 	 18.63
157.1011763852 	 38.11
159.0804409431 	 26.93
159.1168264494 	 87.69
161.1324765136 	 43.82
163.0753555652 	 13.66
169.1011763852 	 24.17
171.1168264494 	 38.74
173.1324765136 	 33.77
175.1481265778 	 14.06
177.0910056294 	 52.57
185.1324765136 	 46.36
187.1117410715 	 13.61
187.1481265778 	 27.89
197.1324765136 	 19.65
199.1481265778 	 32.19
201.163776642 	 27.67
205.1223057578 	 27.61
211.1481265778 	 31.34
213.1273911357 	 14.06
223.1481265778 	 15.64
231.137955822 	 18.13
237.163776642 	 18.01
251.1794267062 	 13.83
257.1536058862 	 22.53
279.2107268346 	 23.6
293.2263768988 	 37.61
311.2369415851 	 15.58
321.2212915209 	 43.31
339.2318562072 	 68.32
357.2424208935 	 56.35
375.2529855798 	 0
END IONS

BEGIN IONS
PEPMASS=159.093
CHARGE=1
MSLEVEL=2
RT=0
SOURCE_INSTRUMENT=qTOF
FILENAME=CCMSLIB00000085725.ms
IONMODE=Positive
ORGANISM=Natural
NAME=MLS000069473-01!
PI=GNPS
DATACOLLECTOR=GNPS
SMILES=c1ccc(cc1)Cn1ccnc1
INCHI=InChI=1S/C10H10N2/c1-2-4-10(5-3-1)8-12-7-6-11-9-12/h1-7,9H,8H2
FORMULA=C10H10N2
PUBMED=N/A
SUBMITUSER=BIOADREM
LIBRARYQUALITY=0
SPECTRUMID=CCMSLIB00000085725
SCANS=3704
ID=CCMSLIB00000085725
91.0542261926 	 100
127.0542261926 	 21.26
159.0916743314 	 0
END IONS

BEGIN IONS
PEPMASS=319.0448
CHARGE=1
MSLEVEL=2
RT=0
SOURCE_INSTRUMENT=qTOF
FILENAME=CCMSLIB00000085726.ms
IONMODE=Positive
ORGANISM=Natural
NAME=MLS002153825-01!Myricetin529-44-2
PI=GNPS
DATACOLLECTOR=GNPS
SMILES=c1c(cc(c(c1O)O)O)c1c(c(=O)c2c(cc(cc2o1)O)O)O
INCHI=InChI=1S/C15H10O8/c16-6-3-7(17)11-10(4-6)23-15(14(22)13(11)21)5-1-8(18)12(20)9(19)2-5/h1-4,16-20,22H
FORMULA=C15H10O8
PUBMED=N/A
SUBMITUSER=BIOADREM
LIBRARYQUALITY=0
SPECTRUMID=CCMSLIB00000085726
SCANS=3705
ID=CCMSLIB00000085726
121.0284053726 	 4.72
133.0284053726 	 4.04
137.0233199947 	 15.73
139.0389700589 	 4.38
147.0076699305 	 5.22
147.0440554368 	 7.13
153.0182346168 	 100
160.0518804689 	 3.88
161.059705501 	 7.02
165.0182346168 	 19.55
171.0440554368 	 9.66
183.0287993031 	 3.71
189.0546201231 	 17.25
192.0417097131 	 3.6
199.0389700589 	 6.29
203.033884681 	 15.28
217.0495347452 	 46.91
218.0573597773 	 8.37
227.033884681 	 13.03
245.0444493673 	 34.94
255.0287993031 	 3.76
263.0550140536 	 6.57
273.0393639894 	 33.76
319.0448432978 	 57.58
END IONS

BEGIN IONS
PEPMASS=221.093
CHARGE=1
MSLEVEL=2
RT=0
SOURCE_INSTRUMENT=qTOF
FILENAME=CCMSLIB00000085728.ms
IONMODE=Positive
ORGANISM=Natural
NAME=MLS002153452-01!5-Hydroxy-L-tryptophan145224-90-4
PI=GNPS
DATACOLLECTOR=GNPS
SMILES=c1cc2c(cc1O)c(C[C@@H](C(=O)O)N)c[nH]2
INCHI=InChI=1S/C11H12N2O3/c12-9(11(15)16)3-6-5-13-10-2-1-7(14)4-8(6)10/h1-2,4-5,9,13-14H,3,12H2,(H,15,16)/t9-/m0/s1
FORMULA=C11H12N2O3
PUBMED=N/A
SUBMITUSER=BIOADREM
LIBRARYQUALITY=0
SPECTRUMID=CCMSLIB00000085728
SCANS=3707
ID=CCMSLIB00000085728
103.0542261926 	 11.78
104.0620512247 	 8.9
106.0287397236 	 7.12
106.0651252299 	 17.12
107.0491408147 	 23.15
116.0494751657 	 15.21
130.0651252299 	 11.37
131.0491408147 	 28.63
133.0522148199 	 24.52
134.060039852 	 100
146.060039852 	 24.25
158.060039852 	 34.52
159.0678648841 	 28.77
160.0756899162 	 19.73
175.0865889535 	 6.3
221.0920682619 	 0
END IONS

BEGIN IONS
PEPMASS=341.1682
CHARGE=1
MSLEVEL=2
RT=0
SOURCE_INSTRUMENT=qTOF
FILENAME=CCMSLIB00000085729.ms
IONMODE=Positive
ORGANISM=Natural
NAME=MLS000859893-01!Propionylpromazine hydrochloride
PI=GNPS
DATACOLLECTOR=GNPS
SMILES=CCC(=O)c1ccc2c(c1)N(CCCN(C)C)c1ccccc1S2
INCHI=InChI=1S/C20H24N2OS/c1-4-18(23)15-10-11-20-17(14-15)22(13-7-12-21(2)3)16-8-5-6-9-19(16)24-20/h5-6,8-11,14H,4,7,12-13H2,1-3H3
FORMULA=C20H24N2OS
PUBMED=N/A
SUBMITUSER=BIOADREM
LIBRARYQUALITY=0
SPECTRUMID=CCMSLIB00000085729
SCANS=3708
ID=CCMSLIB00000085729
117.0698762568 	 2.01
179.072950262 	 5.76
180.0807752941 	 2.8
198.0371959199 	 7.6
202.032110542 	 3.22
205.0886003262 	 1.74
206.060039852 	 3.3
206.0964253583 	 9.29
210.0371959199 	 1.94
211.045020952 	 12.14
212.0528459841 	 15.24
224.0528459841 	 3.67
225.0606710162 	 4.86
226.032110542 	 7.54
234.0913399804 	 2.75
235.045020952 	 3.85
236.1069900446 	 100
238.0684960483 	 4.56
238.1134348682 	 1.24
239.0763210804 	 31.89
240.0841461125 	 12.68
250.0684960483 	 10.62
252.0477606062 	 1.6
254.0634106704 	 1.4
255.0712357025 	 14.73
262.1226401088 	 0.82
268.0790607346 	 85.75
296.110360863 	 8.51
341.1682100929 	 5.57
END IONS

BEGIN IONS
PEPMASS=374.1638
CHARGE=1
MSLEVEL=2
RT=0
SOURCE_INSTRUMENT=qTOF
FILENAME=CCMSLIB00000085730.ms
IONMODE=Positive
ORGANISM=Natural
NAME=MLS002153792-01!Clebopride maleate84370-95-6
PI=GNPS
DATACOLLECTOR=GNPS
SMILES=COc1cc(c(cc1C(=NC1CCN(CC1)Cc1ccccc1)[O-])Cl)N
INCHI=InChI=1S/C20H24ClN3O2/c1-26-19-12-18(22)17(21)11-16(19)20(25)23-15-7-9-24(10-8-15)13-14-5-3-2-4-6-14/h2-6,11-12,15H,7-10,13,22H2,1H3,(H,23,25)/p-1
FORMULA=C20H24ClN3O2
PUBMED=N/A
SUBMITUSER=BIOADREM
LIBRARYQUALITY=0
SPECTRUMID=CCMSLIB00000085730
SCANS=3709
ID=CCMSLIB00000085730
90.0338251015 	 0.42
93.0573001978 	 0.39
113.0026778115 	 0.56
120.0443897878 	 0.4
126.0105028436 	 2.77
128.0261529078 	 1.1
140.9975924336 	 8.68
154.0054174657 	 1.64
156.0210675299 	 1.23
168.9925070557 	 6.38
184.015982152 	 100
201.0425312535 	 0.52
267.0894814461 	 1.27
374.1629807402 	 0.88
END IONS

BEGIN IONS
PEPMASS=280.1896
CHARGE=1
MSLEVEL=2
RT=0
SOURCE_INSTRUMENT=qTOF
FILENAME=CCMSLIB00000085732.ms
IONMODE=Positive
ORGANISM=Natural
NAME=MLS001074103-01!
PI=GNPS
DATACOLLECTOR=GNPS
SMILES=CC(C)c1cc(c(C)cc1OCCN(C)C)OC(=O)C
INCHI=InChI=1S/C16H25NO3/c1-11(2)14-10-15(20-13(4)18)12(3)9-16(14)19-8-7-17(5)6/h9-11H,7-8H2,1-6H3
FORMULA=C16H25NO3
PUBMED=N/A
SUBMITUSER=BIOADREM
LIBRARYQUALITY=0
SPECTRUMID=CCMSLIB00000085732
SCANS=3711
ID=CCMSLIB00000085732
91.0542261926 	 8.11
105.0698762568 	 6.73
107.0491408147 	 5.46
109.0647908789 	 4.76
115.0542261926 	 3.63
117.0698762568 	 6.42
118.0413157826 	 2.65
119.085526321 	 10.33
121.0647908789 	 45.07
122.072615911 	 7.8
123.0440554368 	 8.14
123.0804409431 	 17.29
125.059705501 	 8.56
131.0491408147 	 2.65
132.0569658468 	 4.79
133.0647908789 	 13.54
135.0804409431 	 5.55
136.0518804689 	 6.39
137.059705501 	 26.75
137.0960910073 	 12.56
145.0647908789 	 14.05
146.072615911 	 2.51
147.0804409431 	 14.02
147.1168264494 	 5.6
149.059705501 	 11.12
151.0753555652 	 100
164.0831805973 	 24.89
165.0910056294 	 39.33
175.1117410715 	 7.29
177.0910056294 	 3.58
191.1066556936 	 2.28
193.1223057578 	 44.68
194.0937452836 	 3.94
235.1328704441 	 11.99
280.190719674 	 18.58
END IONS

BEGIN IONS
PEPMASS=169.0762
CHARGE=1
MSLEVEL=2
RT=0
SOURCE_INSTRUMENT=qTOF
FILENAME=CCMSLIB00000085735.ms
IONMODE=Positive
ORGANISM=Natural
NAME=MLS001148623-01!9H-PYRIDO[3,4-B]INDOLE
PI=GNPS
DATACOLLECTOR=GNPS
SMILES=c1ccc2c(c1)c1ccncc1[nH]2
INCHI=InChI=1S/C11H8N2/c1-2-4-10-8(3-1)9-5-6-12-7-11(9)13-10/h1-7,13H
FORMULA=C11H8N2
PUBMED=N/A
SUBMITUSER=BIOADREM
LIBRARYQUALITY=0
SPECTRUMID=CCMSLIB00000085735
SCANS=3713
ID=CCMSLIB00000085735
89.0385761284 	 0.51
114.0464011605 	 2.13
115.0542261926 	 100
141.0573001978 	 9.13
142.0651252299 	 14.79
168.0681992351 	 36.7
169.0760242672 	 126.22
END IONS

BEGIN IONS
PEPMASS=611.197
CHARGE=1
MSLEVEL=2
RT=0
SOURCE_INSTRUMENT=qTOF
FILENAME=CCMSLIB00000085736.ms
IONMODE=Positive
ORGANISM=Natural
NAME=MLS001335941-01!Hesperidin520-26-3
PI=GNPS
DATACOLLECTOR=GNPS
SMILES=CC1[C@@H]([C@@H](C([C@H](OCC2[C@H]([C@H](C([C@H](Oc3cc(c4C(=O)C[C@@H](c5ccc(c(c5)O)OC)Oc4c3)O)O2)O)O)O)O1)O)O)O
INCHI=InChI=1S/C28H34O15/c1-10-21(32)23(34)25(36)27(40-10)39-9-19-22(33)24(35)26(37)28(43-19)41-12-6-14(30)20-15(31)8-17(42-18(20)7-12)11-3-4-16(38-2)13(29)5-11/h3-7,10,17,19,21-30,32-37H,8-9H2,1-2H3/t10?,17-,19?,21-,22+,23-,24+,25?,26?,27+,28+/m0/s1
FORMULA=C28H34O15
PUBMED=N/A
SUBMITUSER=BIOADREM
LIBRARYQUALITY=0
SPECTRUMID=CCMSLIB00000085736
SCANS=3714
ID=CCMSLIB00000085736
99.0440554368 	 1.32
111.0440554368 	 0.96
119.0491408147 	 1.02
135.0440554368 	 1.42
137.059705501 	 4.07
149.059705501 	 1.75
151.0389700589 	 0.81
151.0753555652 	 3.94
153.0182346168 	 75.68
163.0389700589 	 0.92
165.0182346168 	 4.05
177.0546201231 	 65.97
179.033884681 	 8.32
191.033884681 	 1.74
195.0287993031 	 11.41
219.0287993031 	 4.56
245.0444493673 	 5.47
261.0393639894 	 1.51
263.0550140536 	 5.2
267.0651848094 	 0.81
285.0757494957 	 3.74
287.0550140536 	 0.99
303.086314182 	 100
611.1970464229 	 0
END IONS

BEGIN IONS
PEPMASS=323.187
CHARGE=1
MSLEVEL=2
RT=0
SOURCE_INSTRUMENT=qTOF
FILENAME=CCMSLIB00000085738.ms
IONMODE=Positive
ORGANISM=Natural
NAME=MLS001174878-01!Zearalanol
PI=GNPS
DATACOLLECTOR=GNPS
SMILES=C[C@H]1CCC[C@@H](CCCCCc2cc(cc(c2C(=O)O1)O)O)O
INCHI=InChI=1S/C18H26O5/c1-12-6-5-9-14(19)8-4-2-3-7-13-10-15(20)11-16(21)17(13)18(22)23-12/h10-12,14,19-21H,2-9H2,1H3/t12-,14+/m0/s1
FORMULA=C18H26O5
PUBMED=N/A
SUBMITUSER=BIOADREM
LIBRARYQUALITY=0
SPECTRUMID=CCMSLIB00000085738
SCANS=3716
ID=CCMSLIB00000085738
93.0698762568 	 9.76
115.0542261926 	 13.31
121.0284053726 	 42.9
121.1011763852 	 10.8
123.0440554368 	 78.7
131.085526321 	 12.87
135.0804409431 	 21.3
137.059705501 	 18.2
147.0440554368 	 10.65
147.0804409431 	 19.23
149.0233199947 	 51.92
149.059705501 	 82.84
157.0647908789 	 14.94
161.059705501 	 80.92
163.0753555652 	 100
165.0546201231 	 18.05
173.059705501 	 27.07
175.0389700589 	 53.99
175.0753555652 	 23.52
177.0910056294 	 21.3
189.0546201231 	 79.88
189.0910056294 	 90.38
191.0702701873 	 20.12
207.1015703157 	 16.86
323.1852999451 	 0
END IONS

BEGIN IONS
PEPMASS=438.0915
CHARGE=1
MSLEVEL=2
RT=0
SOURCE_INSTRUMENT=qTOF
FILENAME=CCMSLIB00000085741.ms
IONMODE=Positive
ORGANISM=Natural
NAME=MLS002153512-01!CB 34
PI=GNPS
DATACOLLECTOR=GNPS
SMILES=CCCN(CCC)C(=O)Cc1c(c2ccc(cc2)Cl)nc2c(cc(cn12)Cl)Cl
INCHI=InChI=1S/C21H22Cl3N3O/c1-3-9-26(10-4-2)19(28)12-18-20(14-5-7-15(22)8-6-14)25-21-17(24)11-16(23)13-27(18)21/h5-8,11,13H,3-4,9-10,12H2,1-2H3
FORMULA=C21H22Cl3N3O
PUBMED=N/A
SUBMITUSER=BIOADREM
LIBRARYQUALITY=0
SPECTRUMID=CCMSLIB00000085741
SCANS=3719
ID=CCMSLIB00000085741
137.0134240104 	 0.6
138.0105028436 	 0.55
146.9637054894 	 1.5
149.0134240104 	 0.89
165.0083386325 	 0.65
172.9793555536 	 2.95
192.0192376698 	 0.62
239.0370519451 	 3.8
267.0319665672 	 0.44
272.998079623 	 11.32
274.0059046551 	 26.99
282.9591073009 	 1.58
300.9929942451 	 3.54
302.0008192772 	 7.31
302.9960682503 	 1.5
308.9747573651 	 91.07
309.9825823972 	 100
336.9696719872 	 83.81
396.0431712813 	 2.39
438.0901214739 	 67.96
END IONS

BEGIN IONS
PEPMASS=382.1924
CHARGE=1
MSLEVEL=2
RT=0
SOURCE_INSTRUMENT=qTOF
FILENAME=CCMSLIB00000085742.ms
IONMODE=Positive
ORGANISM=Natural
NAME=MLS002153837-01!Benperidol2062-84-2
PI=GNPS
DATACOLLECTOR=GNPS
SMILES=c1ccc2c(c1)nc(n2C1CCN(CCCC(=O)c2ccc(cc2)F)CC1)O
INCHI=InChI=1S/C22H24FN3O2/c23-17-9-7-16(8-10-17)21(27)6-3-13-25-14-11-18(12-15-25)26-20-5-2-1-4-19(20)24-22(26)28/h1-2,4-5,7-10,18H,3,6,11-15H2,(H,24,28)
FORMULA=C22H24FN3O2
PUBMED=N/A
SUBMITUSER=BIOADREM
LIBRARYQUALITY=0
SPECTRUMID=CCMSLIB00000085742
SCANS=3720
ID=CCMSLIB00000085742
95.0291542963 	 3.78
96.0318137288 	 0.28
109.0448043605 	 1.22
113.0397189826 	 0.5
121.0448043605 	 0.22
123.0240689184 	 90.14
130.0651252299 	 0.34
147.0604544247 	 0.9
165.071019111 	 100
173.0709388893 	 3.68
201.1022390177 	 2.04
218.1287881192 	 3.28
230.1339537188 	 0.51
248.1445184051 	 2.2
364.1819665439 	 0.21
382.1925312302 	 9.3
END IONS

BEGIN IONS
PEPMASS=428.165
CHARGE=1
MSLEVEL=2
RT=0
SOURCE_INSTRUMENT=qTOF
FILENAME=CCMSLIB00000085743.ms
IONMODE=Positive
ORGANISM=Natural
NAME=MLS000862193-01!GR 125487 sulfamate salt
PI=GNPS
DATACOLLECTOR=GNPS
SMILES=COc1c(c2cc(ccc2[nH]1)F)C(=O)OCC1CCN(CC1)CCNS(=O)(=O)C
INCHI=InChI=1S/C19H26FN3O5S/c1-27-18-17(15-11-14(20)3-4-16(15)22-18)19(24)28-12-13-5-8-23(9-6-13)10-7-21-29(2,25)26/h3-4,11,13,21-22H,5-10,12H2,1-2H3
FORMULA=C19H26FN3O5S
PUBMED=N/A
SUBMITUSER=BIOADREM
LIBRARYQUALITY=0
SPECTRUMID=CCMSLIB00000085743
SCANS=3721
ID=CCMSLIB00000085743
94.0213292642 	 0.24
98.0964253583 	 10.93
108.0807752941 	 0.26
110.0964253583 	 5.9
116.1069900446 	 0.23
121.0322283015 	 0.79
124.1120754225 	 0.88
126.0913399804 	 0.29
128.1069900446 	 4.75
142.1226401088 	 2.63
149.0271429236 	 0.42
159.1491892103 	 0.28
164.0506180199 	 0.34
177.0220575457 	 17.59
192.045532642 	 41.16
195.032622232 	 2.67
210.0560973283 	 0.54
219.1161745224 	 100
237.1267392087 	 16.72
318.1374216545 	 0.82
333.1608967508 	 0.6
413.1415207544 	 1.39
428.1649958507 	 1.81
END IONS

BEGIN IONS
PEPMASS=509.1443
CHARGE=1
MSLEVEL=2
RT=0
SOURCE_INSTRUMENT=qTOF
FILENAME=CCMSLIB00000085744.ms
IONMODE=Positive
ORGANISM=Natural
NAME=MLS002172464-01!L-703,606 oxalate salt hydrate
PI=GNPS
DATACOLLECTOR=GNPS
SMILES=c1ccc(cc1)C(c1ccccc1)[C@@H]1[C@@H](C2CCN1CC2)NCc1ccccc1I
INCHI=InChI=1S/C27H29IN2/c28-24-14-8-7-13-23(24)19-29-26-22-15-17-30(18-16-22)27(26)25(20-9-3-1-4-10-20)21-11-5-2-6-12-21/h1-14,22,25-27,29H,15-19H2/t26-,27-/m1/s1
FORMULA=C27H29IN2
PUBMED=N/A
SUBMITUSER=BIOADREM
LIBRARYQUALITY=0
SPECTRUMID=CCMSLIB00000085744
SCANS=3722
ID=CCMSLIB00000085744
89.0385761284 	 0.47
90.0464011605 	 0.53
91.0542261926 	 0.74
94.0651252299 	 7.01
96.0807752941 	 0.54
103.0542261926 	 0.57
108.0807752941 	 0.41
109.0886003262 	 0.45
110.0964253583 	 0.52
115.0542261926 	 0.48
128.0620512247 	 0.58
129.0698762568 	 0.77
141.0698762568 	 0.92
151.0542261926 	 19.83
152.0620512247 	 0.41
155.085526321 	 22.16
165.0698762568 	 9.59
166.0777012889 	 100
167.085526321 	 0.38
170.0964253583 	 3
181.1011763852 	 0.42
185.1199004546 	 0.94
191.085526321 	 0.67
195.1042503904 	 0.45
198.1277254867 	 1.04
205.1011763852 	 28.12
208.1120754225 	 0.32
217.1011763852 	 0.33
231.1168264494 	 0.37
248.1433755509 	 3.77
276.1746756793 	 8.57
285.151200583 	 0.72
382.2403499413 	 42.36
END IONS

BEGIN IONS
PEPMASS=325.163
CHARGE=1
MSLEVEL=2
RT=0
SOURCE_INSTRUMENT=qTOF
FILENAME=CCMSLIB00000085746.ms
IONMODE=Positive
ORGANISM=Natural
NAME=MLS001304747-01!valacyclovir
PI=GNPS
DATACOLLECTOR=GNPS
SMILES=CC(C)[C@@H](C(=O)OCCOCn1cnc2c1[nH]c(=N)nc2O)N
INCHI=InChI=1S/C13H20N6O4/c1-7(2)8(14)12(21)23-4-3-22-6-19-5-16-9-10(19)17-13(15)18-11(9)20/h5,7-8H,3-4,6,14H2,1-2H3,(H3,15,17,18,20)/t8-/m0/s1
FORMULA=C13H20N6O4
PUBMED=N/A
SUBMITUSER=BIOADREM
LIBRARYQUALITY=0
SPECTRUMID=CCMSLIB00000085746
SCANS=3723
ID=CCMSLIB00000085746
112.1246514815 	 4.97
122.0362304047 	 4.59
125.034553383 	 4.59
144.1019046667 	 7.77
145.0760242672 	 5.48
146.1175547309 	 15.29
152.0566858086 	 100
153.0573001978 	 7.13
156.0443897878 	 3.18
164.0566858086 	 7.01
164.1433755509 	 3.31
166.0736785435 	 4.2
178.0723358728 	 3.18
199.0740128945 	 3.44
325.1618791616 	 0
END IONS

BEGIN IONS
PEPMASS=556.2011
CHARGE=1
MSLEVEL=2
RT=0
SOURCE_INSTRUMENT=qTOF
FILENAME=CCMSLIB00000085747.ms
IONMODE=Positive
ORGANISM=Natural
NAME=MLS002153379-01!Fiduxosin hydrochloride
PI=GNPS
DATACOLLECTOR=GNPS
SMILES=COc1cccc2c1[C@@H]1CN(CCCCn3c(=O)c4c(c5c(ncc(c6ccccc6)n5)s4)nc3O)C[C@@H]1CO2
INCHI=InChI=1S/C30H29N5O4S/c1-38-22-10-7-11-23-24(22)20-16-34(15-19(20)17-39-23)12-5-6-13-35-29(36)27-25(33-30(35)37)26-28(40-27)31-14-21(32-26)18-8-3-2-4-9-18/h2-4,7-11,14,19-20H,5-6,12-13,15-17H2,1H3,(H,33,37)/t19-,20-/m1/s1
FORMULA=C30H29N5O4S
PUBMED=N/A
SUBMITUSER=BIOADREM
LIBRARYQUALITY=0
SPECTRUMID=CCMSLIB00000085747
SCANS=3724
ID=CCMSLIB00000085747
121.0634482082 	 0.87
123.0427127661 	 0.63
135.0427127661 	 0.94
137.0583628303 	 1.46
147.0427127661 	 1.74
148.0505377982 	 1.85
149.0583628303 	 1.37
161.0583628303 	 3.11
161.0947483366 	 2.49
163.0740128945 	 0.59
175.0740128945 	 0.88
177.0896629587 	 1.76
189.0896629587 	 2.26
191.1053130229 	 1.03
204.100561996 	 7.85
206.1162120602 	 11.58
218.1162120602 	 0.6
224.0256657184 	 0.65
253.0542429676 	 1.28
254.0382585524 	 13.45
256.0341219147 	 0.83
258.1475121886 	 0.86
279.0335075255 	 1.31
280.0175231103 	 87.13
282.0133864726 	 8.2
297.0440722118 	 100
298.044686601 	 27.95
299.0399355741 	 8.19
309.0440722118 	 76.93
310.044686601 	 17.81
311.0399355741 	 4.44
327.0546368981 	 5.73
351.0910224044 	 49.06
352.0916367936 	 10.53
353.0868857667 	 2.71
381.1181858951 	 3.87
382.1094121228 	 1.06
556.2013011353 	 95.67
END IONS

BEGIN IONS
PEPMASS=335.0592
CHARGE=1
MSLEVEL=2
RT=0
SOURCE_INSTRUMENT=qTOF
FILENAME=CCMSLIB00000085748.ms
IONMODE=Positive
ORGANISM=Natural
NAME=MLS000860082-01!Chloroethylclonidine dihydrochloride
PI=GNPS
DATACOLLECTOR=GNPS
SMILES=CN(CCCl)Cc1cc(c(c(c1)Cl)NC1=NCCN1)Cl
INCHI=InChI=1S/C13H17Cl3N4/c1-20(5-2-14)8-9-6-10(15)12(11(16)7-9)19-13-17-3-4-18-13/h6-7H,2-5,8H2,1H3,(H2,17,18,19)
FORMULA=C13H17Cl3N4
PUBMED=N/A
SUBMITUSER=BIOADREM
LIBRARYQUALITY=0
SPECTRUMID=CCMSLIB00000085748
SCANS=3725
ID=CCMSLIB00000085748
166.041802972 	 5.24
171.9841065805 	 3.88
173.9871805857 	 29.55
179.0244758861 	 6.05
184.9793555536 	 4.49
200.0028306499 	 42.46
206.0479509824 	 23.2
209.0588500197 	 3.83
229.0168036924 	 3.68
242.0246287245 	 100
271.051177826 	 5.14
335.0591556965 	 1.87
END IONS

BEGIN IONS
PEPMASS=196.0145
CHARGE=1
MSLEVEL=2
RT=0
SOURCE_INSTRUMENT=qTOF
FILENAME=CCMSLIB00000085749.ms
IONMODE=Positive
ORGANISM=Natural
NAME=MLS002207052-01!5-Chloroindole-2-carboxylic acid10517-21-2
PI=GNPS
DATACOLLECTOR=GNPS
SMILES=c1cc2c(cc1Cl)cc(C(=O)O)[nH]2
INCHI=InChI=1S/C9H6ClNO2/c10-6-1-2-7-5(3-6)4-8(11-7)9(12)13/h1-4,11H,(H,12,13)
FORMULA=C9H6ClNO2
PUBMED=N/A
SUBMITUSER=BIOADREM
LIBRARYQUALITY=0
SPECTRUMID=CCMSLIB00000085749
SCANS=3726
ID=CCMSLIB00000085749
98.9996038063 	 3.42
114.0338251015 	 9.95
117.0573001978 	 24.47
122.9996038063 	 100
150.0105028436 	 27.43
153.0101684926 	 3.19
164.9975924336 	 5.85
178.0054174657 	 23.18
196.015982152 	 2.51
END IONS

BEGIN IONS
PEPMASS=524.2736
CHARGE=1
MSLEVEL=2
RT=0
SOURCE_INSTRUMENT=qTOF
FILENAME=CCMSLIB00000085751.ms
IONMODE=Positive
ORGANISM=Natural
NAME=MLS001056783-01!Calcimycin A23187
PI=GNPS
DATACOLLECTOR=GNPS
SMILES=C[C@@H]1CC[C@]2([C@H](C)C[C@@H](C)[C@@H]([C@H](C)C(=O)c3ccc[nH]3)O2)O[C@@H]1Cc1nc2c(ccc(c2C(=O)O)NC)o1
INCHI=InChI=1S/C29H37N3O6/c1-15-10-11-29(17(3)13-16(2)27(38-29)18(4)26(33)20-7-6-12-31-20)37-22(15)14-23-32-25-21(36-23)9-8-19(30-5)24(25)28(34)35/h6-9,12,15-18,22,27,30-31H,10-11,13-14H2,1-5H3,(H,34,35)/t15-,16-,17-,18-,22-,27+,29+/m1/s1
FORMULA=C29H37N3O6
PUBMED=N/A
SUBMITUSER=BIOADREM
LIBRARYQUALITY=0
SPECTRUMID=CCMSLIB00000085751
SCANS=3727
ID=CCMSLIB00000085751
72.0443897878 	 0.749128919860627
94.0287397236 	 6.27613240418119
99.1168264494 	 0.579268292682927
107.085526321 	 5.06968641114983
121.1011763852 	 6.49825783972125
123.0804409431 	 7.18205574912892
132.0443897878 	 4.6602787456446
135.0804409431 	 8.95034843205575
137.0960910073 	 25.3789198606272
137.1324765136 	 0.653310104529617
147.1168264494 	 4.78222996515679
155.1066556936 	 12.661149825784
159.1168264494 	 8.46689895470383
161.0709388893 	 12.1733449477352
163.0865889535 	 5.92770034843206
164.1069900446 	 1.10627177700348
165.1273911357 	 4.39024390243902
165.163776642 	 0.627177700348432
175.1117410715 	 10.801393728223
177.1273911357 	 8.28832752613241
189.0658535114 	 43.5540069686411
193.1223057578 	 8.07926829268293
203.1152090072 	 0.905923344947735
215.1178890819 	 8.79790940766551
216.0893286077 	 1.40679442508711
229.0971536398 	 10.8928571428571
229.1335391461 	 6.76393728222997
233.1536058862 	 9.68205574912892
241.0971536398 	 26.5461672473868
243.112803704 	 7.38240418118467
247.1077183261 	 10.7142857142857
248.1069900446 	 2.38240418118467
249.1148150767 	 0.618466898954704
255.112803704 	 19.5426829268293
257.1284537682 	 13.5017421602787
276.125714114 	 0.888501742160279
278.1710468644 	 3.63240418118467
283.1077183261 	 22.1951219512195
300.1958050519 	 8.41463414634146
301.1182830124 	 16.8641114982578
311.1390184545 	 4.95209059233449
313.1546685187 	 13.3797909407666
318.2063697382 	 43.5540069686411
319.2101720249 	 10.1829268292683
325.1546685187 	 13.3623693379791
326.1624935508 	 4.26829268292683
331.1692559504 	 0.63588850174216
334.1675789287 	 0.579268292682927
339.2067040892 	 6.62456445993031
355.2016187113 	 4.68205574912892
357.2172687755 	 23.684668989547
358.216540494 	 2.70034843205575
365.1859686471 	 20.7709059233449
375.2067040892 	 5.40940766550523
377.2223541534 	 6.33275261324042
383.1965333334 	 29.1550522648084
393.2172687755 	 28.8632404181185
395.2329188397 	 25.2351916376307
401.2070980197 	 15.9668989547038
402.2063697382 	 4.65592334494773
403.2016187113 	 7.50435540069686
403.2227480839 	 0.557491289198606
413.243483526 	 5.67508710801394
421.2121833976 	 27.5391986062718
439.2227480839 	 11.8945993031359
462.2751180054 	 4.24651567944251
470.243817877 	 10.9668989547038
480.2856826917 	 30.7970383275261
488.2543825633 	 38.5104529616725
506.2649472496 	 16.1585365853659
507.2727722817 	 0.596689895470383
524.2755119359 	 100
END IONS

BEGIN IONS
PEPMASS=357.1966
CHARGE=1
MSLEVEL=2
RT=0
SOURCE_INSTRUMENT=qTOF
FILENAME=CCMSLIB00000085753.ms
IONMODE=Positive
ORGANISM=Natural
NAME=MLS000107485-01!Fluanisone
PI=GNPS
DATACOLLECTOR=GNPS
SMILES=COc1ccccc1N1CCN(CCCC(=O)c2ccc(cc2)F)CC1
INCHI=InChI=1S/C21H25FN2O2/c1-26-21-7-3-2-5-19(21)24-15-13-23(14-16-24)12-4-6-20(25)17-8-10-18(22)11-9-17/h2-3,5,7-11H,4,6,12-16H2,1H3
FORMULA=C21H25FN2O2
PUBMED=N/A
SUBMITUSER=BIOADREM
LIBRARYQUALITY=0
SPECTRUMID=CCMSLIB00000085753
SCANS=3729
ID=CCMSLIB00000085753
91.0542261926 	 0.22
95.0291542963 	 4.82
96.0318137288 	 0.37
113.0397189826 	 0.75
118.0651252299 	 0.82
119.072950262 	 0.66
120.0443897878 	 2.96
121.0522148199 	 1.41
123.0240689184 	 74.73
124.0267283509 	 14.1
136.0756899162 	 0.24
147.0604544247 	 1.19
165.071019111 	 100
166.0736785435 	 11.93
357.1972822571 	 6.12
END IONS

BEGIN IONS
PEPMASS=196.0859
CHARGE=1
MSLEVEL=2
RT=0
SOURCE_INSTRUMENT=qTOF
FILENAME=CCMSLIB00000085754.ms
IONMODE=Positive
ORGANISM=Natural
NAME=MLS000701318-01!1-phenyl-1H-1,2,3-benzotriazole
PI=GNPS
DATACOLLECTOR=GNPS
SMILES=c1ccc(cc1)n1c2ccccc2nn1
INCHI=InChI=1S/C12H9N3/c1-2-6-10(7-3-1)15-12-9-5-4-8-11(12)13-14-15/h1-9H
FORMULA=C12H9N3
PUBMED=N/A
SUBMITUSER=BIOADREM
LIBRARYQUALITY=0
SPECTRUMID=CCMSLIB00000085754
SCANS=3730
ID=CCMSLIB00000085754
101.0385761284 	 0.54
115.0542261926 	 4.18
126.0464011605 	 0.3
128.0494751657 	 1.46
139.0542261926 	 10.14
141.0698762568 	 4.48
166.0651252299 	 22.22
167.072950262 	 100
196.0869233045 	 18.7
END IONS

BEGIN IONS
PEPMASS=213.138
CHARGE=1
MSLEVEL=2
RT=0
SOURCE_INSTRUMENT=qTOF
FILENAME=CCMSLIB00000085755.ms
IONMODE=Positive
ORGANISM=Natural
NAME=MLS000859936-01!1-(1-Naphthyl)piperazine hydrochloride
PI=GNPS
DATACOLLECTOR=GNPS
SMILES=c1ccc2c(c1)cccc2N1CCNCC1
INCHI=InChI=1S/C14H16N2/c1-2-6-13-12(4-1)5-3-7-14(13)16-10-8-15-9-11-16/h1-7,15H,8-11H2
FORMULA=C14H16N2
PUBMED=N/A
SUBMITUSER=BIOADREM
LIBRARYQUALITY=0
SPECTRUMID=CCMSLIB00000085755
SCANS=3731
ID=CCMSLIB00000085755
103.0542261926 	 3.84
115.0542261926 	 51.07
126.0464011605 	 2.3
127.0542261926 	 11.2
128.0620512247 	 60.24
129.0698762568 	 38.85
141.0698762568 	 59.17
143.072950262 	 36.64
152.0620512247 	 30.29
153.0698762568 	 48.62
154.0651252299 	 47.81
155.072950262 	 32.6
156.0807752941 	 14.95
166.0651252299 	 4.75
168.0807752941 	 100
169.0886003262 	 54.14
170.0964253583 	 95.67
179.085526321 	 0.66
196.1120754225 	 4.54
213.138624524 	 10.14
END IONS

BEGIN IONS
PEPMASS=294.1593
CHARGE=1
MSLEVEL=2
RT=0
SOURCE_INSTRUMENT=qTOF
FILENAME=CCMSLIB00000085757.ms
IONMODE=Positive
ORGANISM=Natural
NAME=MLS001165674-01!ondansetron
PI=GNPS
DATACOLLECTOR=GNPS
SMILES=Cc1nccn1C[C@@H]1CCc2c(c3ccccc3n2C)C1=O
INCHI=InChI=1S/C18H19N3O/c1-12-19-9-10-21(12)11-13-7-8-16-17(18(13)22)14-5-3-4-6-15(14)20(16)2/h3-6,9-10,13H,7-8,11H2,1-2H3/t13-/m0/s1
FORMULA=C18H19N3O
PUBMED=N/A
SUBMITUSER=BIOADREM
LIBRARYQUALITY=0
SPECTRUMID=CCMSLIB00000085757
SCANS=3733
ID=CCMSLIB00000085757
103.0542261926 	 0.24
115.0542261926 	 1.78
116.0620512247 	 1.06
117.0573001978 	 1.05
127.0542261926 	 0.3
128.0620512247 	 2.65
129.0698762568 	 2.79
141.0698762568 	 0.48
142.0651252299 	 3.17
143.072950262 	 12.74
153.0698762568 	 0.39
154.0651252299 	 3.16
155.072950262 	 3.68
156.0443897878 	 0.4
167.072950262 	 12.63
168.0807752941 	 16.54
169.0886003262 	 19.82
170.0964253583 	 100
171.0678648841 	 9.51
182.0964253583 	 12.2
184.1120754225 	 67.04
194.0964253583 	 0.38
212.1069900446 	 7.99
294.1600882476 	 4.94
END IONS

BEGIN IONS
PEPMASS=466.997
CHARGE=1
MSLEVEL=2
RT=0
SOURCE_INSTRUMENT=qTOF
FILENAME=CCMSLIB00000085758.ms
IONMODE=Positive
ORGANISM=Natural
NAME=MLS002207187-01!TEMEPHOS3383-96-8
PI=GNPS
DATACOLLECTOR=GNPS
SMILES=COP(=S)(OC)Oc1ccc(cc1)Sc1ccc(cc1)OP(=S)(OC)OC
INCHI=InChI=1S/C16H20O6P2S3/c1-17-23(25,18-2)21-13-5-9-15(10-6-13)27-16-11-7-14(8-12-16)22-24(26,19-3)20-4/h5-12H,1-4H3
FORMULA=C16H20O6P2S3
PUBMED=N/A
SUBMITUSER=BIOADREM
LIBRARYQUALITY=0
SPECTRUMID=CCMSLIB00000085758
SCANS=3734
ID=CCMSLIB00000085758
109.0049065368 	 6.68
124.9820626047 	 100
126.9765832963 	 5.63
127.0154712231 	 4.38
139.0542261926 	 2.56
142.992627291 	 23.02
154.9949967542 	 8.18
157.0049065368 	 2.21
171.0262968826 	 15.27
172.0317524515 	 5.46
183.0239274194 	 3.39
184.0341219147 	 5.35
185.0362066652 	 5.18
187.0188420415 	 4.61
197.0419469468 	 2.3
199.0212115047 	 2.74
200.0266670736 	 8.46
201.0344921057 	 4.15
215.0112542431 	 7.1
215.0525116331 	 2.67
219.0239274194 	 2.56
230.9932821947 	 3.38
232.0011072268 	 2.84
232.9763223231 	 2.17
233.0065627957 	 3.52
247.0245823231 	 2.82
248.030037892 	 4.18
248.9769772268 	 6.34
261.9790619773 	 3.77
262.9868870094 	 5.67
265.0034054715 	 2.39
278.9875419131 	 4.1
292.9983200936 	 2.4
294.9589576994 	 2.26
309.9824327957 	 4.95
325.0116481736 	 2.67
326.0194732057 	 2.34
341.0065627957 	 27.12
342.0143878278 	 10.09
356.030037892 	 3.21
357.0378629241 	 5.62
418.9936286462 	 8.82
466.9969994646 	 0
END IONS

BEGIN IONS
PEPMASS=366.1219
CHARGE=1
MSLEVEL=2
RT=0
SOURCE_INSTRUMENT=qTOF
FILENAME=CCMSLIB00000085759.ms
IONMODE=Positive
ORGANISM=Natural
NAME=MLS001032120-01!
PI=GNPS
DATACOLLECTOR=GNPS
SMILES=CC[n+]1c2ccccc2sc1C=CC=c1n(CC)c2ccccc2s1
INCHI=InChI=1S/C21H21N2S2/c1-3-22-16-10-5-7-12-18(16)24-20(22)14-9-15-21-23(4-2)17-11-6-8-13-19(17)25-21/h5-15H,3-4H2,1-2H3/q+1
FORMULA=C21H21N2S2
PUBMED=N/A
SUBMITUSER=BIOADREM
LIBRARYQUALITY=0
SPECTRUMID=CCMSLIB00000085759
SCANS=3735
ID=CCMSLIB00000085759
109.0106468184 	 0.83
136.0215458557 	 2.43
148.0215458557 	 6.08
149.0293708878 	 13.17
150.0338251015 	 1.11
154.0651252299 	 0.78
160.0215458557 	 3.8
162.0371959199 	 6.63
173.0293708878 	 100
174.0338251015 	 30.18
175.045020952 	 20.87
176.0494751657 	 2.38
185.0293708878 	 1.81
186.0371959199 	 70.21
187.0416501336 	 15.84
188.0528459841 	 93.18
198.0246198609 	 1.4
200.0528459841 	 4.76
201.0606710162 	 6.9
202.0651252299 	 3.88
275.0637450214 	 1.09
281.0201656472 	 0.69
295.0358157114 	 0.46
303.0950451498 	 1
306.0279906793 	 0.86
307.0358157114 	 39.14
321.0514657756 	 5.38
335.0671158398 	 4.03
336.0749408719 	 57.81
337.082765904 	 37.11
365.1140660324 	 52.17
366.1218910645 	 0
END IONS

BEGIN IONS
PEPMASS=209.061
CHARGE=1
MSLEVEL=2
RT=0
SOURCE_INSTRUMENT=qTOF
FILENAME=CCMSLIB00000085760.ms
IONMODE=Positive
ORGANISM=Natural
NAME=MLS000571180-01!Phenanthraquinone
PI=GNPS
DATACOLLECTOR=GNPS
SMILES=c1ccc2c(c1)c1ccccc1C(=O)C2=O
INCHI=InChI=1S/C14H8O2/c15-13-11-7-3-1-5-9(11)10-6-2-4-8-12(10)14(13)16/h1-8H
FORMULA=C14H8O2
PUBMED=N/A
SUBMITUSER=BIOADREM
LIBRARYQUALITY=0
SPECTRUMID=CCMSLIB00000085760
SCANS=3736
ID=CCMSLIB00000085760
145.0647908789 	 1.46
150.0464011605 	 1.55
151.0542261926 	 8.05
152.0620512247 	 100
181.0647908789 	 33.22
209.059705501 	 0
END IONS

BEGIN IONS
PEPMASS=336.1944
CHARGE=1
MSLEVEL=2
RT=0
SOURCE_INSTRUMENT=qTOF
FILENAME=CCMSLIB00000085761.ms
IONMODE=Positive
ORGANISM=Natural
NAME=MLS001076522-01!REV 5901
PI=GNPS
DATACOLLECTOR=GNPS
SMILES=CCCCCC(c1cccc(c1)OCc1ccc2ccccc2n1)O
INCHI=InChI=1S/C22H25NO2/c1-2-3-4-12-22(24)18-9-7-10-20(15-18)25-16-19-14-13-17-8-5-6-11-21(17)23-19/h5-11,13-15,22,24H,2-4,12,16H2,1H3
FORMULA=C22H25NO2
PUBMED=N/A
SUBMITUSER=BIOADREM
LIBRARYQUALITY=0
SPECTRUMID=CCMSLIB00000085761
SCANS=3737
ID=CCMSLIB00000085761
89.0385761284 	 0.31
107.0491408147 	 2.84
115.0542261926 	 29.77
117.0573001978 	 1.99
128.0494751657 	 8.28
130.0651252299 	 0.87
133.0647908789 	 1.22
140.0494751657 	 17.84
142.0651252299 	 82.41
143.072950262 	 100
160.0756899162 	 7.16
218.0964253583 	 1.34
220.1120754225 	 2.82
230.0964253583 	 1.62
233.0835149483 	 3.21
236.1069900446 	 6.17
246.0913399804 	 4.72
248.1069900446 	 14.21
264.1019046667 	 1.5
274.1226401088 	 1.26
318.1852403656 	 16
336.1958050519 	 5.76
END IONS

BEGIN IONS
PEPMASS=299.1866
CHARGE=1
MSLEVEL=2
RT=0
SOURCE_INSTRUMENT=qTOF
FILENAME=CCMSLIB00000085762.ms
IONMODE=Positive
ORGANISM=Natural
NAME=MLS001146964-01!
PI=GNPS
DATACOLLECTOR=GNPS
SMILES=Cc1cc(c2ccccc2)n[nH]c1=NCCN1CCOCC1
INCHI=InChI=1S/C17H22N4O/c1-14-13-16(15-5-3-2-4-6-15)19-20-17(14)18-7-8-21-9-11-22-12-10-21/h2-6,13H,7-12H2,1H3,(H,18,20)
FORMULA=C17H22N4O
PUBMED=N/A
SUBMITUSER=BIOADREM
LIBRARYQUALITY=0
SPECTRUMID=CCMSLIB00000085762
SCANS=3738
ID=CCMSLIB00000085762
91.0542261926 	 0.26
92.0494751657 	 0.23
104.0494751657 	 0.26
115.0542261926 	 0.61
118.0651252299 	 0.49
130.0651252299 	 0.51
141.0698762568 	 0.44
142.0651252299 	 8.26
156.0807752941 	 0.49
168.0807752941 	 0.79
169.0760242672 	 6.53
183.0916743314 	 1.78
186.1025733687 	 1.65
195.0916743314 	 0.94
196.0869233045 	 1.18
212.1182234329 	 100
299.1866373491 	 0
END IONS

BEGIN IONS
PEPMASS=200.054
CHARGE=1
MSLEVEL=2
RT=0
SOURCE_INSTRUMENT=qTOF
FILENAME=CCMSLIB00000085764.ms
IONMODE=Positive
ORGANISM=Natural
NAME=MLS002152928-01!92-84-2
PI=GNPS
DATACOLLECTOR=GNPS
SMILES=c1ccc2c(c1)Nc1ccccc1S2
INCHI=InChI=1S/C12H9NS/c1-3-7-11-9(5-1)13-10-6-2-4-8-12(10)14-11/h1-8,13H
FORMULA=C12H9NS
PUBMED=N/A
SUBMITUSER=BIOADREM
LIBRARYQUALITY=0
SPECTRUMID=CCMSLIB00000085764
SCANS=3740
ID=CCMSLIB00000085764
94.9949967542 	 0.75
96.0028217863 	 0.68
113.0385761284 	 0.61
115.0542261926 	 1.35
116.0494751657 	 0.93
122.0058957915 	 0.55
127.0542261926 	 0.94
128.0494751657 	 1.55
137.0385761284 	 0.51
138.0338251015 	 0.42
139.0542261926 	 9.44
140.0494751657 	 10.84
141.0573001978 	 1.09
142.0651252299 	 0.47
148.0215458557 	 0.41
154.0651252299 	 14.62
164.0494751657 	 0.83
165.0573001978 	 1.6
166.0651252299 	 40.97
167.072950262 	 100
173.0293708878 	 0.78
198.0371959199 	 26.58
199.045020952 	 63.06
200.0528459841 	 0
END IONS

BEGIN IONS
PEPMASS=227.1531
CHARGE=1
MSLEVEL=2
RT=0
SOURCE_INSTRUMENT=qTOF
FILENAME=CCMSLIB00000085767.ms
IONMODE=Positive
ORGANISM=Natural
NAME=MLS002222320-01!60762-57-4
PI=GNPS
DATACOLLECTOR=GNPS
SMILES=Cc1ccc2c(c1)c1CCCC3c1n2CCN3
INCHI=InChI=1S/C15H18N2/c1-10-5-6-14-12(9-10)11-3-2-4-13-15(11)17(14)8-7-16-13/h5-6,9,13,16H,2-4,7-8H2,1H3
FORMULA=C15H18N2
PUBMED=N/A
SUBMITUSER=BIOADREM
LIBRARYQUALITY=0
SPECTRUMID=CCMSLIB00000085767
SCANS=3743
ID=CCMSLIB00000085767
103.0542261926 	 0.61
105.0698762568 	 1.16
115.0542261926 	 3.51
116.0494751657 	 2.55
117.0573001978 	 0.56
118.0651252299 	 0.37
127.0542261926 	 0.89
128.0620512247 	 7.16
129.0698762568 	 6.71
131.072950262 	 1.33
132.0807752941 	 0.68
142.0651252299 	 6.03
144.0807752941 	 5.76
154.0651252299 	 12.36
156.0807752941 	 19.03
157.0886003262 	 42.89
167.072950262 	 21.23
168.0807752941 	 28.39
169.0886003262 	 17.98
170.0964253583 	 11
180.0807752941 	 8.84
182.0964253583 	 44.96
184.1120754225 	 100
194.0964253583 	 7.18
195.1042503904 	 5.7
198.1277254867 	 15.57
210.1277254867 	 10.95
227.1542745882 	 5.26
END IONS

BEGIN IONS
PEPMASS=325.156
CHARGE=1
MSLEVEL=2
RT=0
SOURCE_INSTRUMENT=qTOF
FILENAME=CCMSLIB00000085768.ms
IONMODE=Positive
ORGANISM=Natural
NAME=MLS002154125-01!Oxyphenbutazone129-20-4
PI=GNPS
DATACOLLECTOR=GNPS
SMILES=CCCCC1C(=O)N(c2ccccc2)N(c2ccc(cc2)O)C1=O
INCHI=InChI=1S/C19H20N2O3/c1-2-3-9-17-18(23)20(14-7-5-4-6-8-14)21(19(17)24)15-10-12-16(22)13-11-15/h4-8,10-13,17,22H,2-3,9H2,1H3
FORMULA=C19H20N2O3
PUBMED=N/A
SUBMITUSER=BIOADREM
LIBRARYQUALITY=0
SPECTRUMID=CCMSLIB00000085768
SCANS=3744
ID=CCMSLIB00000085768
91.0542261926 	 5.29
92.0494751657 	 14.17
93.0573001978 	 7
94.0624451552 	 11.76
104.046795091 	 10.29
106.0287397236 	 7.7
106.0651252299 	 18.4
107.0491408147 	 4.17
108.0443897878 	 31.92
110.060039852 	 5.82
118.0651252299 	 4.59
120.0443897878 	 28.92
122.060039852 	 13.23
128.0494751657 	 7.29
130.0651252299 	 5.47
132.0780952194 	 7.29
134.060039852 	 9.94
148.0393044099 	 100
149.047129442 	 74.13
158.060039852 	 9.11
160.1120754225 	 21.93
162.0549544741 	 22.1
162.0913399804 	 8.11
172.1093953478 	 7.11
176.034219032 	 4
176.1069900446 	 7.05
178.1226401088 	 7.88
200.1069900446 	 5.7
204.1019046667 	 47.97
214.0862546025 	 5.11
232.0968192888 	 10.41
325.1546685187 	 0
END IONS

BEGIN IONS
PEPMASS=278.1958
CHARGE=1
MSLEVEL=2
RT=0
SOURCE_INSTRUMENT=qTOF
FILENAME=CCMSLIB00000085771.ms
IONMODE=Positive
ORGANISM=Natural
NAME=MLS000860033-01!erythro-9-(2-Hydroxy-3-nonyl)-adenine hydrochloride
PI=GNPS
DATACOLLECTOR=GNPS
SMILES=CCCCCC[C@@H]([C@@H](C)O)n1cnc2c(N)ncnc12
INCHI=InChI=1S/C14H23N5O/c1-3-4-5-6-7-11(10(2)20)19-9-18-12-13(15)16-8-17-14(12)19/h8-11,20H,3-7H2,1-2H3,(H2,15,16,17)/t10-,11+/m1/s1
FORMULA=C14H23N5O
PUBMED=N/A
SUBMITUSER=BIOADREM
LIBRARYQUALITY=0
SPECTRUMID=CCMSLIB00000085771
SCANS=3746
ID=CCMSLIB00000085771
92.0243230477 	 0.53
94.0399731119 	 2.41
109.0508721492 	 1.96
119.035222085 	 31.84
136.0617711865 	 100
278.1975363864 	 4.15
END IONS

BEGIN IONS
PEPMASS=278.2095
CHARGE=1
MSLEVEL=2
RT=0
SOURCE_INSTRUMENT=qTOF
FILENAME=CCMSLIB00000085772.ms
IONMODE=Positive
ORGANISM=Natural
NAME=MLS000862199-01!U-99194 maleate
PI=GNPS
DATACOLLECTOR=GNPS
SMILES=CCCN(CCC)C1Cc2cc(c(cc2C1)OC)OC
INCHI=InChI=1S/C17H27NO2/c1-5-7-18(8-6-2)15-9-13-11-16(19-3)17(20-4)12-14(13)10-15/h11-12,15H,5-10H2,1-4H3
FORMULA=C17H27NO2
PUBMED=N/A
SUBMITUSER=BIOADREM
LIBRARYQUALITY=0
SPECTRUMID=CCMSLIB00000085772
SCANS=3747
ID=CCMSLIB00000085772
91.0542261926 	 4.29
94.0413157826 	 0.33
102.0464011605 	 2.06
103.0542261926 	 15.73
105.0698762568 	 2.22
106.0413157826 	 0.42
107.0491408147 	 2.12
108.0569658468 	 0.76
109.0647908789 	 0.8
115.0542261926 	 13.32
116.0620512247 	 4.48
117.0698762568 	 11.35
119.0491408147 	 7.17
121.0647908789 	 16.47
123.0440554368 	 0.32
127.0542261926 	 0.76
128.0620512247 	 0.53
130.0413157826 	 2.52
131.0491408147 	 42.94
133.0647908789 	 10.26
134.072615911 	 5.38
135.0440554368 	 0.79
137.059705501 	 1.95
144.0569658468 	 1.35
145.0647908789 	 9.76
146.072615911 	 100
147.0440554368 	 8.33
149.059705501 	 0.64
149.0960910073 	 2.57
151.0753555652 	 6.21
159.0804409431 	 0.29
161.059705501 	 5.73
162.0675305331 	 19.99
177.0910056294 	 73.27
278.2114551161 	 1.82
END IONS

BEGIN IONS
PEPMASS=305.14
CHARGE=1
MSLEVEL=2
RT=0
SOURCE_INSTRUMENT=qTOF
FILENAME=CCMSLIB00000085773.ms
IONMODE=Positive
ORGANISM=Natural
NAME=MLS002153180-01!Flupirtine maleate
PI=GNPS
DATACOLLECTOR=GNPS
SMILES=CCOC(=Nc1ccc(=NCc2ccc(cc2)F)[nH]c1N)[O-]
INCHI=InChI=1S/C15H17FN4O2/c1-2-22-15(21)19-12-7-8-13(20-14(12)17)18-9-10-3-5-11(16)6-4-10/h3-8H,2,9H2,1H3,(H,19,21)(H3,17,18,20)/p-1
FORMULA=C15H17FN4O2
PUBMED=N/A
SUBMITUSER=BIOADREM
LIBRARYQUALITY=0
SPECTRUMID=CCMSLIB00000085773
SCANS=3748
ID=CCMSLIB00000085773
95.047798144 	 0.4
96.0556231761 	 2.99
97.0634482082 	 1.71
106.0399731119 	 2.27
107.047798144 	 8.25
109.0448043605 	 100
110.047463793 	 9.36
122.0586971813 	 29.41
123.0665222134 	 35.43
124.0743472455 	 51.77
125.0761044889 	 1.98
150.0536118034 	 96.47
168.0641764897 	 0.84
196.0954766181 	 30.39
197.0958911908 	 2.33
305.1408300107 	 0.15
END IONS

BEGIN IONS
PEPMASS=234.184
CHARGE=1
MSLEVEL=2
RT=0
SOURCE_INSTRUMENT=qTOF
FILENAME=CCMSLIB00000085774.ms
IONMODE=Positive
ORGANISM=Natural
NAME=MLS002154094-01!Meptazinol hydrochloride59263-76-2
PI=GNPS
DATACOLLECTOR=GNPS
SMILES=CCC1(CCCCN(C)C1)c1cccc(c1)O
INCHI=InChI=1S/C15H23NO/c1-3-15(9-4-5-10-16(2)12-15)13-7-6-8-14(17)11-13/h6-8,11,17H,3-5,9-10,12H2,1-2H3
FORMULA=C15H23NO
PUBMED=N/A
SUBMITUSER=BIOADREM
LIBRARYQUALITY=0
SPECTRUMID=CCMSLIB00000085774
SCANS=3749
ID=CCMSLIB00000085774
91.0542261926 	 2.31
95.085526321 	 0.78
98.0964253583 	 0.71
102.0464011605 	 0.69
103.0542261926 	 6.67
105.0698762568 	 15.25
107.0491408147 	 100
109.1011763852 	 0.88
115.0542261926 	 4.03
117.0698762568 	 1.74
119.0491408147 	 1.58
119.085526321 	 2.76
120.0569658468 	 0.45
121.0647908789 	 9.09
126.1277254867 	 1.73
127.0542261926 	 1.05
128.0620512247 	 4.41
131.0491408147 	 6.1
132.0569658468 	 7.58
133.0647908789 	 32.92
135.0804409431 	 2.2
141.0698762568 	 0.5
143.085526321 	 0.84
145.0647908789 	 5.76
146.072615911 	 7.98
147.0804409431 	 17.08
159.0804409431 	 1.32
161.0960910073 	 13.99
177.1273911357 	 0.48
203.1430411999 	 0.71
234.1852403656 	 29.83
END IONS

BEGIN IONS
PEPMASS=393.2072
CHARGE=1
MSLEVEL=2
RT=0
SOURCE_INSTRUMENT=qTOF
FILENAME=CCMSLIB00000085776.ms
IONMODE=Positive
ORGANISM=Natural
NAME=MLS000859943-01!
PI=GNPS
DATACOLLECTOR=GNPS
SMILES=C[C@H]1C[C@H]2[C@@H]3CCC4=CC(=O)C=C[C@]4(C)[C@]3([C@H](C[C@]2(C)[C@]1(C(=O)CO)O)O)F
INCHI=InChI=1S/C22H29FO5/c1-12-8-16-15-5-4-13-9-14(25)6-7-19(13,2)21(15,23)17(26)10-20(16,3)22(12,28)18(27)11-24/h6-7,9,12,15-17,24,26,28H,4-5,8,10-11H2,1-3H3/t12-,15-,16-,17-,19-,20-,21-,22-/m0/s1
FORMULA=C22H29FO5
PUBMED=N/A
SUBMITUSER=BIOADREM
LIBRARYQUALITY=0
SPECTRUMID=CCMSLIB00000085776
SCANS=3750
ID=CCMSLIB00000085776
91.0542261926 	 9.04
105.0698762568 	 18.37
107.085526321 	 13.83
117.0698762568 	 8.85
119.085526321 	 27.32
121.0647908789 	 52.02
128.0620512247 	 23.05
129.0698762568 	 15.03
131.085526321 	 11.62
135.0804409431 	 27.64
143.085526321 	 21.88
145.0647908789 	 15.42
145.1011763852 	 11.88
147.0804409431 	 100
158.072615911 	 14.72
159.0804409431 	 41.28
161.0960910073 	 20.99
169.0647908789 	 11.32
171.0804409431 	 64.44
173.0960910073 	 27.51
179.085526321 	 13.23
185.0960910073 	 27.73
195.0804409431 	 12.97
196.0882659752 	 14.92
197.0960910073 	 28.23
208.0882659752 	 16.13
209.0960910073 	 27.32
211.1117410715 	 22.83
213.1273911357 	 12.51
219.1168264494 	 11.49
221.0960910073 	 24.44
222.1039160394 	 27.75
223.1117410715 	 27.54
224.1195661036 	 10.54
233.0960910073 	 13.57
235.1117410715 	 12.69
237.1273911357 	 22.98
239.1430411999 	 10.19
247.1117410715 	 12.66
248.1195661036 	 10.95
249.1273911357 	 13.12
261.1273911357 	 15.03
262.1352161678 	 12.14
263.1430411999 	 29.06
277.1586912641 	 13.73
291.1743413283 	 10.12
319.1692559504 	 8.85
393.2071782414 	 0
END IONS

BEGIN IONS
PEPMASS=277.0374
CHARGE=1
MSLEVEL=2
RT=0
SOURCE_INSTRUMENT=qTOF
FILENAME=CCMSLIB00000085777.ms
IONMODE=Positive
ORGANISM=Natural
NAME=MLS001056751-01!22978-25-2
PI=GNPS
DATACOLLECTOR=GNPS
SMILES=c1ccc(cc1)N=C(c1cc(ccc1Cl)N(=O)=O)O
INCHI=InChI=1S/C13H9ClN2O3/c14-12-7-6-10(16(18)19)8-11(12)13(17)15-9-4-2-1-3-5-9/h1-8H,(H,15,17)
FORMULA=C13H9ClN2O3
PUBMED=N/A
SUBMITUSER=BIOADREM
LIBRARYQUALITY=0
SPECTRUMID=CCMSLIB00000085777
SCANS=3751
ID=CCMSLIB00000085777
105.0334907505 	 100
125.0026778115 	 8.93
138.9819423694 	 2.03
155.0006664388 	 3.59
172.9901017525 	 6.42
195.0678648841 	 5.31
198.990495683 	 10.33
199.9983207151 	 4.83
200.9850163746 	 6.3
233.0363832431 	 2.03
241.0607681335 	 1.95
277.0374458756 	 2.19
END IONS

BEGIN IONS
PEPMASS=256.1332
CHARGE=1
MSLEVEL=2
RT=0
SOURCE_INSTRUMENT=qTOF
FILENAME=CCMSLIB00000085779.ms
IONMODE=Positive
ORGANISM=Natural
NAME=MLS000859931-01!(+/-)-SKF-38393 hydrochloride
PI=GNPS
DATACOLLECTOR=GNPS
SMILES=c1ccc(cc1)C1CNCCc2cc(c(cc12)O)O
INCHI=InChI=1S/C16H17NO2/c18-15-8-12-6-7-17-10-14(13(12)9-16(15)19)11-4-2-1-3-5-11/h1-5,8-9,14,17-19H,6-7,10H2
FORMULA=C16H17NO2
PUBMED=N/A
SUBMITUSER=BIOADREM
LIBRARYQUALITY=0
SPECTRUMID=CCMSLIB00000085779
SCANS=3753
ID=CCMSLIB00000085779
91.0542261926 	 39.41
102.0464011605 	 4.53
103.0542261926 	 10.82
105.0698762568 	 8.63
107.0491408147 	 2.68
109.0647908789 	 4.54
115.0542261926 	 42.78
119.0491408147 	 53.97
120.0807752941 	 27.95
123.0440554368 	 12.73
129.0698762568 	 9.33
130.0413157826 	 4.31
131.0491408147 	 3.39
137.059705501 	 100
141.0698762568 	 2.54
143.0491408147 	 19.28
148.0518804689 	 6.14
149.059705501 	 3.03
152.0620512247 	 4.62
161.059705501 	 12.3
165.0698762568 	 13.15
178.0777012889 	 63.46
181.0647908789 	 5.96
181.1011763852 	 2.86
191.085526321 	 5.05
193.1011763852 	 15.64
203.085526321 	 7.89
209.0960910073 	 1.68
221.0960910073 	 4.95
227.1066556936 	 1.71
239.1066556936 	 4.34
256.1332047951 	 0
END IONS

BEGIN IONS
PEPMASS=328.1543
CHARGE=1
MSLEVEL=2
RT=0
SOURCE_INSTRUMENT=qTOF
FILENAME=CCMSLIB00000085780.ms
IONMODE=Positive
ORGANISM=Natural
NAME=MLS002153899-01!Boldine476-70-0
PI=GNPS
DATACOLLECTOR=GNPS
SMILES=CN1CCc2cc(c(c3c4cc(c(cc4C[C@H]1c23)O)OC)OC)O
INCHI=InChI=1S/C19H21NO4/c1-20-5-4-10-7-15(22)19(24-3)18-12-9-16(23-2)14(21)8-11(12)6-13(20)17(10)18/h7-9,13,21-22H,4-6H2,1-3H3/t13-/m0/s1
FORMULA=C19H21NO4
PUBMED=N/A
SUBMITUSER=BIOADREM
LIBRARYQUALITY=0
SPECTRUMID=CCMSLIB00000085780
SCANS=3754
ID=CCMSLIB00000085780
166.0777012889 	 4.44
176.0620512247 	 2.74
177.0698762568 	 44.74
182.072615911 	 1.08
183.0804409431 	 4.45
191.085526321 	 2.36
193.0647908789 	 2.72
194.072615911 	 41.75
204.0569658468 	 1.4
205.0647908789 	 61.93
209.0960910073 	 3.11
210.0675305331 	 1.47
211.0753555652 	 11.18
219.0804409431 	 1.81
221.059705501 	 6.04
222.0675305331 	 47.04
226.0988306615 	 2.36
233.059705501 	 12.9
236.0831805973 	 1.37
237.0910056294 	 100
239.0702701873 	 27.71
250.0624451552 	 9
251.0702701873 	 10.86
254.0937452836 	 14.28
264.0780952194 	 1.24
265.0859202515 	 63.91
267.0651848094 	 22.95
282.0886599057 	 22.33
297.112135002 	 13.21
328.1543341677 	 0
END IONS

BEGIN IONS
PEPMASS=291.1259
CHARGE=1
MSLEVEL=2
RT=0
SOURCE_INSTRUMENT=qTOF
FILENAME=CCMSLIB00000085782.ms
IONMODE=Positive
ORGANISM=Natural
NAME=MLS002222188-01!3505-38-2
PI=GNPS
DATACOLLECTOR=GNPS
SMILES=CN(C)CCOC(c1ccc(cc1)Cl)c1ccccn1
INCHI=InChI=1S/C16H19ClN2O/c1-19(2)11-12-20-16(15-5-3-4-10-18-15)13-6-8-14(17)9-7-13/h3-10,16H,11-12H2,1-2H3
FORMULA=C16H19ClN2O
PUBMED=N/A
SUBMITUSER=BIOADREM
LIBRARYQUALITY=0
SPECTRUMID=CCMSLIB00000085782
SCANS=3755
ID=CCMSLIB00000085782
139.0542261926 	 1
166.0651252299 	 4.74
167.072950262 	 100
202.041802972 	 23.13
291.1258669524 	 0
END IONS

BEGIN IONS
PEPMASS=346.0366
CHARGE=1
MSLEVEL=2
RT=0
SOURCE_INSTRUMENT=qTOF
FILENAME=CCMSLIB00000085783.ms
IONMODE=Positive
ORGANISM=Natural
NAME=MLS000701317-01!3-allyl-5-{[5-(4-fluorophenyl)-2-furyl]methylene}-2-thioxo-1,3-thiazolidin-4-one
PI=GNPS
DATACOLLECTOR=GNPS
SMILES=C=CCN1C(=O)/C(=C/c2ccc(c3ccc(cc3)F)o2)/SC1=S
INCHI=InChI=1S/C17H12FNO2S2/c1-2-9-19-16(20)15(23-17(19)22)10-13-7-8-14(21-13)11-3-5-12(18)6-4-11/h2-8,10H,1,9H2/b15-10-
FORMULA=C17H12FNO2S2
PUBMED=N/A
SUBMITUSER=BIOADREM
LIBRARYQUALITY=0
SPECTRUMID=CCMSLIB00000085783
SCANS=3756
ID=CCMSLIB00000085783
55.0542261926 	 2.99
95.0325251147 	 4.4
99.0229260642 	 4.63
103.0553690468 	 2.99
122.9899113763 	 8.68
123.0229260642 	 24.27
133.0448043605 	 9.61
146.0526293926 	 17.29
147.0604544247 	 11.78
157.0481751789 	 3.99
163.0553690468 	 2.93
171.0262968826 	 5.92
175.0587398652 	 7.03
186.0497719789 	 4.69
189.0168750505 	 25.79
190.0247000826 	 18.05
191.0325251147 	 19.7
200.0528459841 	 4.28
201.0168750505 	 4.45
202.0247000826 	 3.4
218.0196147047 	 100
219.0274397368 	 26.85
223.0045958047 	 28.96
224.0090500184 	 5.04
231.0712357025 	 5.04
247.0223543589 	 7.56
250.9995104268 	 4.4
346.0366242146 	 1.82
END IONS

BEGIN IONS
PEPMASS=218.015
CHARGE=1
MSLEVEL=2
RT=0
SOURCE_INSTRUMENT=qTOF
FILENAME=CCMSLIB00000085785.ms
IONMODE=Positive
ORGANISM=Natural
NAME=MLS002207241-01!Propanil709-98-8
PI=GNPS
DATACOLLECTOR=GNPS
SMILES=CCC(=Nc1ccc(c(c1)Cl)Cl)O
INCHI=InChI=1S/C9H9Cl2NO/c1-2-9(13)12-6-3-4-7(10)8(11)5-6/h3-5H,2H2,1H3,(H,12,13)
FORMULA=C9H9Cl2NO
PUBMED=N/A
SUBMITUSER=BIOADREM
LIBRARYQUALITY=0
SPECTRUMID=CCMSLIB00000085785
SCANS=3758
ID=CCMSLIB00000085785
54.0100156542 	 0.39
92.0494751657 	 0.57
100.0074288384 	 2.12
102.9945184284 	 0.37
127.0183278757 	 100
130.0179935247 	 0.6
161.9871805857 	 9.14
218.0133953362 	 0
END IONS

BEGIN IONS
PEPMASS=916.5272
CHARGE=1
MSLEVEL=2
RT=0
SOURCE_INSTRUMENT=qTOF
FILENAME=CCMSLIB00000085786.ms
IONMODE=Positive
ORGANISM=Natural
NAME=MLS002695913-01!1405-53-4
PI=GNPS
DATACOLLECTOR=GNPS
SMILES=CC[C@@H]1[C@H](C=C(C)C=CC(=O)[C@H](C)C[C@H](CC=O)[C@@H]([C@@H](C)[C@@H](CC(=O)O1)O)O[C@H]1[C@@H]([C@H]([C@@H]([C@@H](C)O1)O[C@H]1C[C@](C)([C@H]([C@H](C)O1)O)O)N(C)C)O)CO[C@H]1[C@@H]([C@@H]([C@@H]([C@@H](C)O1)O)OC)OC
INCHI=InChI=1S/C46H77NO17/c1-13-33-30(22-58-45-42(57-12)41(56-11)37(52)26(5)60-45)18-23(2)14-15-31(49)24(3)19-29(16-17-48)39(25(4)32(50)20-34(51)62-33)64-44-38(53)36(47(9)10)40(27(6)61-44)63-35-21-46(8,55)43(54)28(7)59-35/h14-15,17-18,24-30,32-33,35-45,50,52-55H,13,16,19-22H2,1-12H3/b15-14+,23-18+/t24-,25+,26-,27-,28+,29+,30-,32-,33-,35+,36-,37-,38-,39-,40-,41-,42-,43+,44+,45-,46-/m1/s1
FORMULA=C46H77NO17
PUBMED=N/A
SUBMITUSER=BIOADREM
LIBRARYQUALITY=0
SPECTRUMID=CCMSLIB00000085786
SCANS=3759
ID=CCMSLIB00000085786
98.0964253583 	 2.56
99.0440554368 	 0.51
100.0756899162 	 1.54
101.059705501 	 8.52
109.0647908789 	 0.5
112.0756899162 	 0.66
114.0913399804 	 2.57
115.0991650125 	 1.69
116.0706045383 	 4.5
121.1011763852 	 0.56
126.0913399804 	 0.43
127.0753555652 	 6.27
130.0862546025 	 0.83
132.1019046667 	 9.06
143.0702701873 	 0.86
145.0859202515 	 9.3
156.1019046667 	 9.87
158.1175547309 	 0.87
172.0968192888 	 1.03
174.112469353 	 100
232.1543341677 	 1.51
276.1805489182 	 1.16
318.1911136045 	 2.86
359.2216854514 	 0.4
371.2216854514 	 0.69
389.2322501377 	 1.1
407.242814824 	 1.95
425.2533795103 	 0.56
598.3585728633 	 1.8
754.4372171148 	 0.4
755.4450421469 	 0.37
772.4477818011 	 19.16
916.5264260526 	 13.41
END IONS

BEGIN IONS
PEPMASS=326.1587
CHARGE=1
MSLEVEL=2
RT=0
SOURCE_INSTRUMENT=qTOF
FILENAME=CCMSLIB00000085787.ms
IONMODE=Positive
ORGANISM=Natural
NAME=MLS002153902-01!Monocrotaline315-22-0
PI=GNPS
DATACOLLECTOR=GNPS
SMILES=C[C@H]1C(=O)O[C@@H]2CCN3CC=C(COC(=O)[C@@](C)([C@]1(C)O)O)[C@H]23
INCHI=InChI=1S/C16H23NO6/c1-9-13(18)23-11-5-7-17-6-4-10(12(11)17)8-22-14(19)16(3,21)15(9,2)20/h4,9,11-12,20-21H,5-8H2,1-3H3/t9-,11+,12+,15+,16-/m0/s1
FORMULA=C16H23NO6
PUBMED=N/A
SUBMITUSER=BIOADREM
LIBRARYQUALITY=0
SPECTRUMID=CCMSLIB00000085787
SCANS=3760
ID=CCMSLIB00000085787
93.0573001978 	 6
94.0624451552 	 20.29
95.072950262 	 6.33
106.0624451552 	 7.63
107.0702701873 	 6.13
108.0807752941 	 5.48
109.0647908789 	 4.63
110.0964253583 	 6.26
117.0698762568 	 5.35
118.0624451552 	 8.48
120.0807752941 	 100
121.0886003262 	 68.56
122.0937452836 	 23.29
136.0730098415 	 4.89
138.0913399804 	 13.96
139.0991650125 	 17.48
156.1019046667 	 8.22
164.1069900446 	 15.39
180.1019046667 	 4.7
184.0968192888 	 13.57
194.1148746562 	 23.55
208.0968192888 	 4.24
222.1097892783 	 4.96
228.1230340393 	 4.11
237.1332643746 	 29.55
280.1543341677 	 20.81
298.164898854 	 11.29
308.1492487898 	 8.35
326.1598134761 	 117.29
END IONS

BEGIN IONS
PEPMASS=339.2687
CHARGE=1
MSLEVEL=2
RT=0
SOURCE_INSTRUMENT=qTOF
FILENAME=CCMSLIB00000085788.ms
IONMODE=Positive
ORGANISM=Natural
NAME=MLS002154263-01!Clofilium tosylate92953-10-1
PI=GNPS
DATACOLLECTOR=GNPS
SMILES=CCCCCCC[N+](CC)(CC)CCCCc1ccc(cc1)Cl
INCHI=InChI=1S/C21H37ClN/c1-4-7-8-9-11-18-23(5-2,6-3)19-12-10-13-20-14-16-21(22)17-15-20/h14-17H,4-13,18-19H2,1-3H3/q+1
FORMULA=C21H37ClN
PUBMED=N/A
SUBMITUSER=BIOADREM
LIBRARYQUALITY=0
SPECTRUMID=CCMSLIB00000085788
SCANS=3761
ID=CCMSLIB00000085788
86.0964253583 	 0.25
89.0385761284 	 0.38
98.9996038063 	 0.64
103.0542261926 	 0.56
112.1120754225 	 0.28
117.0698762568 	 0.22
125.0152538705 	 84.08
129.0698762568 	 0.56
130.0777012889 	 0.8
131.085526321 	 0.22
139.0309039347 	 1.94
142.1590256151 	 0.84
153.0465539989 	 0.21
156.1746756793 	 15.98
165.0465539989 	 2.12
167.0622040631 	 3.28
172.2059758077 	 19.19
210.1044032288 	 1.12
224.120053293 	 19.47
238.1357033572 	 8.34
240.1513534214 	 23.58
294.198303614 	 0.66
308.2139536782 	 4.37
309.2217787103 	 1.2
338.2609038708 	 100
339.2687289029 	 0
END IONS

BEGIN IONS
PEPMASS=341.2111
CHARGE=1
MSLEVEL=2
RT=0
SOURCE_INSTRUMENT=qTOF
FILENAME=CCMSLIB00000085789.ms
IONMODE=Positive
ORGANISM=Natural
NAME=MLS001304004-01!Norethindrone Acetate
PI=GNPS
DATACOLLECTOR=GNPS
SMILES=C#C[C@@]1(CCC2C3CCC4=CC(=O)CC[C@@H]4C3CC[C@]12C)OC(=O)C
INCHI=InChI=1S/C22H28O3/c1-4-22(25-14(2)23)12-10-20-19-7-5-15-13-16(24)6-8-17(15)18(19)9-11-21(20,22)3/h1,13,17-20H,5-12H2,2-3H3/t17-,18?,19?,20?,21-,22-/m0/s1
FORMULA=C22H28O3
PUBMED=N/A
SUBMITUSER=BIOADREM
LIBRARYQUALITY=0
SPECTRUMID=CCMSLIB00000085789
SCANS=3762
ID=CCMSLIB00000085789
91.0542261926 	 21.45
103.0542261926 	 14.53
105.0698762568 	 63.13
107.0491408147 	 21.3
107.085526321 	 9.16
109.0647908789 	 100
115.0542261926 	 52.38
116.0620512247 	 12.11
117.0698762568 	 43.32
119.085526321 	 37.45
128.0620512247 	 63.04
129.0698762568 	 85.42
131.085526321 	 53.4
133.0647908789 	 10.52
133.1011763852 	 12.57
135.0804409431 	 13.62
141.0698762568 	 43.15
142.0777012889 	 32
143.085526321 	 68.64
145.1011763852 	 44.24
147.0804409431 	 10.95
147.1168264494 	 11.61
149.0960910073 	 15.79
153.0698762568 	 15.32
154.0777012889 	 17.06
155.085526321 	 35.81
156.0933513531 	 34.11
157.1011763852 	 38.26
159.0804409431 	 11.98
159.1168264494 	 19.99
161.0960910073 	 16.98
165.0698762568 	 18.87
166.0777012889 	 20.92
167.085526321 	 18.65
168.0933513531 	 11.58
169.1011763852 	 35.27
171.1168264494 	 46.13
175.1117410715 	 10.58
178.0777012889 	 8.65
179.085526321 	 17.56
181.1011763852 	 21.5
183.1168264494 	 20.85
185.1324765136 	 12.77
187.1117410715 	 9.36
193.1011763852 	 16.43
195.1168264494 	 18.22
197.1324765136 	 10.54
207.1168264494 	 10.29
211.1481265778 	 15.01
221.1324765136 	 11.36
223.1481265778 	 14.54
281.1899913925 	 14.71
341.2111207651 	 4.12
END IONS

BEGIN IONS
PEPMASS=587.3062
CHARGE=1
MSLEVEL=2
RT=0
SOURCE_INSTRUMENT=qTOF
FILENAME=CCMSLIB00000085790.ms
IONMODE=Positive
ORGANISM=Natural
NAME=MLS002153278-01!DIHYDROOUABAIN
PI=GNPS
DATACOLLECTOR=GNPS
SMILES=C[C@H]1[C@@H]([C@H]([C@H]([C@@H](O1)O[C@H]1C[C@H]([C@]2(CO)[C@@H]3[C@@H](CC[C@@]2(C1)O)[C@]1(CC[C@H](C2CC(=O)OC2)[C@@]1(C)C[C@H]3O)O)O)O)O)O
INCHI=InChI=1S/C29H46O12/c1-13-22(34)23(35)24(36)25(40-13)41-15-8-19(32)28(12-30)21-17(3-5-27(28,37)9-15)29(38)6-4-16(14-7-20(33)39-11-14)26(29,2)10-18(21)31/h13-19,21-25,30-32,34-38H,3-12H2,1-2H3/t13-,14?,15-,16+,17+,18+,19+,21+,22-,23+,24+,25-,26+,27-,28+,29-/m0/s1
FORMULA=C29H46O12
PUBMED=N/A
SUBMITUSER=BIOADREM
LIBRARYQUALITY=0
SPECTRUMID=CCMSLIB00000085790
SCANS=3763
ID=CCMSLIB00000085790
117.0698762568 	 17.17
119.085526321 	 30.78
129.0698762568 	 25.7
131.085526321 	 27.32
141.0698762568 	 36.72
143.085526321 	 46.33
145.0647908789 	 13.39
145.1011763852 	 28.73
155.085526321 	 27.65
157.1011763852 	 100
159.0804409431 	 15.12
159.1168264494 	 26.13
167.085526321 	 15.98
173.0960910073 	 19.11
181.1011763852 	 31.53
183.1168264494 	 19.65
185.0960910073 	 17.06
207.1168264494 	 27.21
261.163776642 	 38.88
265.1586912641 	 15.01
291.1743413283 	 16.74
309.1849060146 	 16.74
321.1849060146 	 60.04
323.2005560788 	 48.6
325.1798206367 	 18.9
333.1849060146 	 21.49
339.1954707009 	 72.25
351.1954707009 	 53.24
357.2060353872 	 24.19
369.2060353872 	 63.93
387.2166000735 	 32.61
587.3062029418 	 0
END IONS

BEGIN IONS
PEPMASS=181.0754
CHARGE=1
MSLEVEL=2
RT=0
SOURCE_INSTRUMENT=qTOF
FILENAME=CCMSLIB00000085792.ms
IONMODE=Positive
ORGANISM=Natural
NAME=MLS000069797-01!1,10-PHENANTHROLINE66-71-7
PI=GNPS
DATACOLLECTOR=GNPS
SMILES=c1cc2ccc3cccnc3c2nc1
INCHI=InChI=1S/C12H8N2/c1-3-9-5-6-10-4-2-8-14-12(10)11(9)13-7-1/h1-8H
FORMULA=C12H8N2
PUBMED=N/A
SUBMITUSER=BIOADREM
LIBRARYQUALITY=0
SPECTRUMID=CCMSLIB00000085792
SCANS=3765
ID=CCMSLIB00000085792
98.0151010321 	 0.62
101.0385761284 	 2.18
103.0542261926 	 5.02
126.0464011605 	 10.63
127.0542261926 	 30.09
128.0494751657 	 17.26
153.0573001978 	 12.31
154.0651252299 	 100
155.060374203 	 24.18
166.0525491709 	 0.95
181.0760242672 	 253.47
END IONS

BEGIN IONS
PEPMASS=387.1775
CHARGE=1
MSLEVEL=2
RT=0
SOURCE_INSTRUMENT=qTOF
FILENAME=CCMSLIB00000085793.ms
IONMODE=Positive
ORGANISM=Natural
NAME=MLS000859964-01!N6-2-(4-Aminophenyl)ethyladenosine
PI=GNPS
DATACOLLECTOR=GNPS
SMILES=c1cc(ccc1CCNc1c2c(ncn1)n(cn2)[C@H]1[C@@H]([C@@H]([C@@H](CO)O1)O)O)N
INCHI=InChI=1S/C18H22N6O4/c19-11-3-1-10(2-4-11)5-6-20-16-13-17(22-8-21-16)24(9-23-13)18-15(27)14(26)12(7-25)28-18/h1-4,8-9,12,14-15,18,25-27H,5-7,19H2,(H,20,21,22)/t12-,14-,15-,18-/m1/s1
FORMULA=C18H22N6O4
PUBMED=N/A
SUBMITUSER=BIOADREM
LIBRARYQUALITY=0
SPECTRUMID=CCMSLIB00000085793
SCANS=3766
ID=CCMSLIB00000085793
93.0573001978 	 0.76
94.0651252299 	 1.44
103.0542261926 	 4.57
118.0651252299 	 1.86
119.072950262 	 1.55
120.0807752941 	 100
255.1339330766 	 33.71
387.1775292258 	 0
END IONS

BEGIN IONS
PEPMASS=310.1914
CHARGE=1
MSLEVEL=2
RT=0
SOURCE_INSTRUMENT=qTOF
FILENAME=CCMSLIB00000085796.ms
IONMODE=Positive
ORGANISM=Natural
NAME=MLS001216204-01!
PI=GNPS
DATACOLLECTOR=GNPS
SMILES=CN(C)CCCOc1c2ccccc2n(Cc2ccccc2)n1
INCHI=InChI=1S/C19H23N3O/c1-21(2)13-8-14-23-19-17-11-6-7-12-18(17)22(20-19)15-16-9-4-3-5-10-16/h3-7,9-12H,8,13-15H2,1-2H3
FORMULA=C19H23N3O
PUBMED=N/A
SUBMITUSER=BIOADREM
LIBRARYQUALITY=0
SPECTRUMID=CCMSLIB00000085796
SCANS=3768
ID=CCMSLIB00000085796
91.0542261926 	 7.18
118.0413157826 	 17.46
145.0760242672 	 5.18
146.047463793 	 68.36
173.0709388893 	 1.63
174.0787639214 	 100
265.1335391461 	 16.52
310.191388376 	 0
END IONS

BEGIN IONS
PEPMASS=231.0086
CHARGE=1
MSLEVEL=2
RT=0
SOURCE_INSTRUMENT=qTOF
FILENAME=CCMSLIB00000085798.ms
IONMODE=Positive
ORGANISM=Natural
NAME=MLS002153394-01!DCEBIO60563-36-2
PI=GNPS
DATACOLLECTOR=GNPS
SMILES=CCn1c2cc(c(cc2nc1O)Cl)Cl
INCHI=InChI=1S/C9H8Cl2N2O/c1-2-13-8-4-6(11)5(10)3-7(8)12-9(13)14/h3-4H,2H2,1H3,(H,12,14)
FORMULA=C9H8Cl2N2O
PUBMED=N/A
SUBMITUSER=BIOADREM
LIBRARYQUALITY=0
SPECTRUMID=CCMSLIB00000085798
SCANS=3769
ID=CCMSLIB00000085798
103.0290740746 	 1.89
105.0447241388 	 39.8
111.9948527794 	 3.15
113.0026778115 	 1.61
120.9606314842 	 1.08
139.0057518167 	 19.35
147.9715305215 	 41.81
167.0006664388 	 1.83
168.0084914709 	 100
174.9824295588 	 23.71
202.9773441809 	 50.61
231.0086443093 	 8.9
END IONS

BEGIN IONS
PEPMASS=245.099
CHARGE=1
MSLEVEL=2
RT=0
SOURCE_INSTRUMENT=qTOF
FILENAME=CCMSLIB00000085799.ms
IONMODE=Positive
ORGANISM=Natural
NAME=MLS001066337-01!(S)-(+)-2-Fluoro-alpha-methyl-4-biphenylacetic acid
PI=GNPS
DATACOLLECTOR=GNPS
SMILES=C[C@@H](c1ccc(c2ccccc2)c(c1)F)C(=O)O
INCHI=InChI=1S/C15H13FO2/c1-10(15(17)18)12-7-8-13(14(16)9-12)11-5-3-2-4-6-11/h2-10H,1H3,(H,17,18)/t10-/m0/s1
FORMULA=C15H13FO2
PUBMED=N/A
SUBMITUSER=BIOADREM
LIBRARYQUALITY=0
SPECTRUMID=CCMSLIB00000085799
SCANS=3770
ID=CCMSLIB00000085799
152.0620512247 	 9.15
178.0777012889 	 100
179.085526321 	 68.95
183.0604544247 	 41.79
184.0682794568 	 39.46
199.0917545531 	 35.24
245.0972338615 	 0
END IONS

BEGIN IONS
PEPMASS=186.089
CHARGE=1
MSLEVEL=2
RT=0
SOURCE_INSTRUMENT=qTOF
FILENAME=CCMSLIB00000085800.ms
IONMODE=Positive
ORGANISM=Natural
NAME=MLS001201813-01!1-(2-Methyl-5-nitro-imidazol-1-yl)-propan-2-ol
PI=GNPS
DATACOLLECTOR=GNPS
SMILES=CC(Cn1c(C)ncc1N(=O)=O)O
INCHI=InChI=1S/C7H11N3O3/c1-5(11)4-9-6(2)8-3-7(9)10(12)13/h3,5,11H,4H2,1-2H3
FORMULA=C7H11N3O3
PUBMED=N/A
SUBMITUSER=BIOADREM
LIBRARYQUALITY=0
SPECTRUMID=CCMSLIB00000085800
SCANS=3771
ID=CCMSLIB00000085800
67.0164980156 	 5.54
98.047463793 	 7.17
111.0427127661 	 30.13
128.0454524203 	 100
186.087317235 	 0
END IONS

BEGIN IONS
PEPMASS=197.1497
CHARGE=1
MSLEVEL=2
RT=0
SOURCE_INSTRUMENT=qTOF
FILENAME=CCMSLIB00000085801.ms
IONMODE=Positive
ORGANISM=Natural
NAME=MLS000548114-01!N-[4,6-bis(dimethylamino)-1,3,5-triazin-2-yl]-N-methylamine
PI=GNPS
DATACOLLECTOR=GNPS
SMILES=CN=c1nc([nH]c(n1)N(C)C)N(C)C
INCHI=InChI=1S/C8H16N6/c1-9-6-10-7(13(2)3)12-8(11-6)14(4)5/h1-5H3,(H,9,10,11,12)
FORMULA=C8H16N6
PUBMED=N/A
SUBMITUSER=BIOADREM
LIBRARYQUALITY=0
SPECTRUMID=CCMSLIB00000085801
SCANS=3772
ID=CCMSLIB00000085801
96.0556231761 	 100
111.0665222134 	 2.59
123.0665222134 	 1.67
125.0821722776 	 3.27
127.0978223418 	 82.01
138.0774212507 	 3.77
152.0930713149 	 31.99
154.1087213791 	 7.86
166.1087213791 	 5.8
181.1196204164 	 6.42
197.1509205448 	 265.83
END IONS

BEGIN IONS
PEPMASS=241.1069
CHARGE=1
MSLEVEL=2
RT=0
SOURCE_INSTRUMENT=qTOF
FILENAME=CCMSLIB00000085802.ms
IONMODE=Positive
ORGANISM=Natural
NAME=MLS000862182-01!Imazodan
PI=GNPS
DATACOLLECTOR=GNPS
SMILES=c1cc(ccc1C1=NN=C(CC1)O)n1ccnc1
INCHI=InChI=1S/C13H12N4O/c18-13-6-5-12(15-16-13)10-1-3-11(4-2-10)17-8-7-14-9-17/h1-4,7-9H,5-6H2,(H,16,18)
FORMULA=C13H12N4O
PUBMED=N/A
SUBMITUSER=BIOADREM
LIBRARYQUALITY=0
SPECTRUMID=CCMSLIB00000085802
SCANS=3773
ID=CCMSLIB00000085802
104.0494751657 	 1.4
115.0542261926 	 6.24
116.0494751657 	 14.74
118.0651252299 	 1.53
130.0651252299 	 6.11
143.060374203 	 14.67
144.0681992351 	 18.71
157.0760242672 	 3.13
158.0838492993 	 4.63
166.0651252299 	 1.35
169.0760242672 	 51.78
170.0712732403 	 100
171.0790982724 	 9.24
172.0869233045 	 1.75
183.0916743314 	 13.82
184.0994993635 	 7.43
196.0869233045 	 5.47
197.0947483366 	 2
198.1025733687 	 5.63
214.0974879908 	 2.4
224.0818379266 	 1.62
241.1083870281 	 76.1
END IONS

BEGIN IONS
PEPMASS=204.0489
CHARGE=1
MSLEVEL=2
RT=0
SOURCE_INSTRUMENT=qTOF
FILENAME=CCMSLIB00000085803.ms
IONMODE=Positive
ORGANISM=Natural
NAME=MLS002153464-01!4-(2-Aminoethyl)benzenesulfonyl fluoride hydrochloride30827-99-7
PI=GNPS
DATACOLLECTOR=GNPS
SMILES=c1cc(ccc1CCN)S(=O)(=O)F
INCHI=InChI=1S/C8H10FNO2S/c9-13(11,12)8-3-1-7(2-4-8)5-6-10/h1-4H,5-6,10H2
FORMULA=C8H10FNO2S
PUBMED=N/A
SUBMITUSER=BIOADREM
LIBRARYQUALITY=0
SPECTRUMID=CCMSLIB00000085803
SCANS=3774
ID=CCMSLIB00000085803
102.0464011605 	 4.71
103.0542261926 	 68.41
104.0620512247 	 100
120.0569658468 	 1.25
187.0223543589 	 9.14
204.0489034604 	 0
END IONS

BEGIN IONS
PEPMASS=466.1884
CHARGE=1
MSLEVEL=2
RT=0
SOURCE_INSTRUMENT=qTOF
FILENAME=CCMSLIB00000085804.ms
IONMODE=Positive
ORGANISM=Natural
NAME=MLS002153807-01!Cisapride81098-60-4
PI=GNPS
DATACOLLECTOR=GNPS
SMILES=COc1cc(c(cc1C(=N[C@H]1CCN(CCCOc2ccc(cc2)F)C[C@H]1OC)O)Cl)N
INCHI=InChI=1S/C23H29ClFN3O4/c1-30-21-13-19(26)18(24)12-17(21)23(29)27-20-8-10-28(14-22(20)31-2)9-3-11-32-16-6-4-15(25)5-7-16/h4-7,12-13,20,22H,3,8-11,14,26H2,1-2H3,(H,27,29)/t20-,22+/m0/s1
FORMULA=C23H29ClFN3O4
PUBMED=N/A
SUBMITUSER=BIOADREM
LIBRARYQUALITY=0
SPECTRUMID=CCMSLIB00000085804
SCANS=3775
ID=CCMSLIB00000085804
90.0338251015 	 0.24
93.0573001978 	 0.42
95.072950262 	 0.25
96.0807752941 	 3.37
98.9996038063 	 0.24
108.0807752941 	 0.52
113.0026778115 	 0.65
122.0964253583 	 2.9
125.0385761284 	 0.65
126.0105028436 	 2.14
128.0261529078 	 1.05
128.1069900446 	 0.29
140.9975924336 	 7.4
141.9980070063 	 0.51
142.9932559794 	 1.81
153.0698762568 	 0.26
154.0054174657 	 1.19
154.1226401088 	 0.75
158.0167310757 	 0.27
168.9925070557 	 5.12
169.9929216284 	 0.35
170.9881706015 	 1.3
184.015982152 	 100
186.0116456978 	 46.36
234.1277254867 	 20.02
252.138290173 	 0.2
266.1539402372 	 1.42
283.1804893387 	 1.18
299.0957096782 	 0.22
434.1641235944 	 0.48
466.1903383449 	 1.88
END IONS

BEGIN IONS
PEPMASS=391.2479
CHARGE=1
MSLEVEL=2
RT=0
SOURCE_INSTRUMENT=qTOF
FILENAME=CCMSLIB00000085806.ms
IONMODE=Positive
ORGANISM=Natural
NAME=MLS002154092-01!Alfadolone acetate23930-37-2
PI=GNPS
DATACOLLECTOR=GNPS
SMILES=CC(=O)OCC(=O)[C@H]1CC[C@H]2[C@@H]3CC[C@H]4C[C@@H](CC[C@]4(C)[C@H]3C(=O)C[C@]12C)O
INCHI=InChI=1S/C23H34O5/c1-13(24)28-12-20(27)18-7-6-17-16-5-4-14-10-15(25)8-9-22(14,2)21(16)19(26)11-23(17,18)3/h14-18,21,25H,4-12H2,1-3H3/t14-,15+,16-,17-,18+,21+,22-,23-/m0/s1
FORMULA=C23H34O5
PUBMED=N/A
SUBMITUSER=BIOADREM
LIBRARYQUALITY=0
SPECTRUMID=CCMSLIB00000085806
SCANS=3777
ID=CCMSLIB00000085806
91.0542261926 	 19.11
105.0698762568 	 87.76
107.085526321 	 64.01
109.0647908789 	 32.98
109.1011763852 	 29.19
117.0698762568 	 21.14
119.085526321 	 82.98
121.0647908789 	 38.68
121.1011763852 	 41.3
129.0698762568 	 37.7
131.085526321 	 61.52
133.1011763852 	 70.94
135.0804409431 	 27.81
135.1168264494 	 44.76
142.0777012889 	 35.73
143.085526321 	 85.54
145.1011763852 	 86.71
147.0804409431 	 34.03
147.1168264494 	 95.09
149.0960910073 	 30.17
149.1324765136 	 39.07
155.085526321 	 37.57
157.1011763852 	 93.91
159.1168264494 	 84.75
161.0960910073 	 37.37
169.1011763852 	 40.25
171.1168264494 	 43.13
173.0960910073 	 37.37
173.1324765136 	 46.4
175.1117410715 	 29.97
181.1011763852 	 19.37
183.1168264494 	 31.61
185.1324765136 	 53.53
187.1117410715 	 29.06
195.1168264494 	 43.59
197.1324765136 	 58.18
199.1481265778 	 32.72
205.1223057578 	 25.33
211.1481265778 	 35.67
213.1273911357 	 35.21
225.163776642 	 28.34
227.1794267062 	 24.74
235.1481265778 	 25.79
237.163776642 	 27.36
253.1950767704 	 37.96
267.2107268346 	 27.29
277.1950767704 	 49.02
287.2005560788 	 18.98
295.2056414567 	 100
313.216206143 	 83.51
331.2267708293 	 34.95
391.2479002019 	 0
END IONS

BEGIN IONS
PEPMASS=325.2036
CHARGE=1
MSLEVEL=2
RT=0
SOURCE_INSTRUMENT=qTOF
FILENAME=CCMSLIB00000085808.ms
IONMODE=Positive
ORGANISM=Natural
NAME=MLS000859984-01!4-Diphenylacetoxy-N-methylpiperidine methiodide
PI=GNPS
DATACOLLECTOR=GNPS
SMILES=C[N+]1(C)CCC(CC1)OC(=O)C(c1ccccc1)c1ccccc1
INCHI=InChI=1S/C21H26NO2/c1-22(2)15-13-19(14-16-22)24-21(23)20(17-9-5-3-6-10-17)18-11-7-4-8-12-18/h3-12,19-20H,13-16H2,1-2H3/q+1
FORMULA=C21H26NO2
PUBMED=N/A
SUBMITUSER=BIOADREM
LIBRARYQUALITY=0
SPECTRUMID=CCMSLIB00000085808
SCANS=3778
ID=CCMSLIB00000085808
96.0807752941 	 1.01
112.1120754225 	 42.88
114.0913399804 	 1.49
115.0991650125 	 0.78
130.1226401088 	 12.15
325.203630084 	 0
END IONS

BEGIN IONS
PEPMASS=292.2263
CHARGE=1
MSLEVEL=2
RT=0
SOURCE_INSTRUMENT=qTOF
FILENAME=CCMSLIB00000085809.ms
IONMODE=Positive
ORGANISM=Natural
NAME=MLS002154120-01!Penbutolol sulfate38363-32-5
PI=GNPS
DATACOLLECTOR=GNPS
SMILES=CC(C)(C)NCC(COc1ccccc1C1CCCC1)O
INCHI=InChI=1S/C18H29NO2/c1-18(2,3)19-12-15(20)13-21-17-11-7-6-10-16(17)14-8-4-5-9-14/h6-7,10-11,14-15,19-20H,4-5,8-9,12-13H2,1-3H3
FORMULA=C18H29NO2
PUBMED=N/A
SUBMITUSER=BIOADREM
LIBRARYQUALITY=0
SPECTRUMID=CCMSLIB00000085809
SCANS=3779
ID=CCMSLIB00000085809
91.0542261926 	 11.6
93.0698762568 	 2.34
95.0491408147 	 1.96
103.0542261926 	 7.05
105.0698762568 	 61.66
107.0491408147 	 25.32
115.0542261926 	 5.41
117.0698762568 	 5.66
119.0491408147 	 2.61
119.085526321 	 11.89
121.0647908789 	 62.57
127.0542261926 	 1.49
128.0620512247 	 2.69
129.0698762568 	 4.43
131.0491408147 	 4.72
131.085526321 	 2.19
132.0569658468 	 1.3
133.0647908789 	 100
135.0804409431 	 14.1
143.085526321 	 2.39
144.0569658468 	 2.61
145.0647908789 	 5.47
145.1011763852 	 3.75
147.0804409431 	 13.16
150.0913399804 	 4.92
151.0753555652 	 2.27
157.0647908789 	 1.53
157.1011763852 	 4.32
159.0804409431 	 26.04
161.0960910073 	 4.97
168.1019046667 	 45.92
173.0960910073 	 6.63
173.1324765136 	 1.38
175.1117410715 	 20.85
189.1273911357 	 8.97
201.1273911357 	 88.39
218.1539402372 	 1.17
236.1645049235 	 79.93
292.2271051803 	 0.98
END IONS

BEGIN IONS
PEPMASS=345.2163
CHARGE=1
MSLEVEL=2
RT=0
SOURCE_INSTRUMENT=qTOF
FILENAME=CCMSLIB00000085811.ms
IONMODE=Positive
ORGANISM=Natural
NAME=MLS001074201-01!
PI=GNPS
DATACOLLECTOR=GNPS
SMILES=CN1CCCN=C1COC(=O)C(c1ccccc1)(C1CCCCC1)O
INCHI=InChI=1S/C20H28N2O3/c1-22-14-8-13-21-18(22)15-25-19(23)20(24,16-9-4-2-5-10-16)17-11-6-3-7-12-17/h2,4-5,9-10,17,24H,3,6-8,11-15H2,1H3
FORMULA=C20H28N2O3
PUBMED=N/A
SUBMITUSER=BIOADREM
LIBRARYQUALITY=0
SPECTRUMID=CCMSLIB00000085811
SCANS=3781
ID=CCMSLIB00000085811
111.0916743314 	 3.22
129.1022390177 	 100
327.2067040892 	 1.1
345.2172687755 	 6.56
END IONS

BEGIN IONS
PEPMASS=224.1278
CHARGE=1
MSLEVEL=2
RT=0
SOURCE_INSTRUMENT=qTOF
FILENAME=CCMSLIB00000085813.ms
IONMODE=Positive
ORGANISM=Natural
NAME=MLS001146918-01!
PI=GNPS
DATACOLLECTOR=GNPS
SMILES=CCN(CC)C(=O)c1ccc(c(c1)OC)O
INCHI=InChI=1S/C12H17NO3/c1-4-13(5-2)12(15)9-6-7-10(14)11(8-9)16-3/h6-8,14H,4-5H2,1-3H3
FORMULA=C12H17NO3
PUBMED=N/A
SUBMITUSER=BIOADREM
LIBRARYQUALITY=0
SPECTRUMID=CCMSLIB00000085813
SCANS=3783
ID=CCMSLIB00000085813
95.0491408147 	 1.3
108.0205803405 	 16.75
123.0440554368 	 7.39
136.0154949626 	 5.16
151.0389700589 	 100
224.1281194172 	 1.22
END IONS

BEGIN IONS
PEPMASS=201.1013
CHARGE=1
MSLEVEL=2
RT=0
SOURCE_INSTRUMENT=qTOF
FILENAME=CCMSLIB00000085817.ms
IONMODE=Positive
ORGANISM=Natural
NAME=MLS002153909-01!Harmalol hydrochloride dihydrate6028-00-8
PI=GNPS
DATACOLLECTOR=GNPS
SMILES=CC1=NCCc2c3ccc(cc3[nH]c12)O
INCHI=InChI=1S/C12H12N2O/c1-7-12-10(4-5-13-7)9-3-2-8(15)6-11(9)14-12/h2-3,6,14-15H,4-5H2,1H3
FORMULA=C12H12N2O
PUBMED=N/A
SUBMITUSER=BIOADREM
LIBRARYQUALITY=0
SPECTRUMID=CCMSLIB00000085817
SCANS=3785
ID=CCMSLIB00000085817
103.0542261926 	 3.21
105.0698762568 	 2.7
115.0542261926 	 19.74
117.0573001978 	 14.02
129.0698762568 	 3.01
130.0651252299 	 6.56
131.0491408147 	 5.61
131.072950262 	 5.46
132.0807752941 	 11.15
140.0494751657 	 1.99
141.0573001978 	 1.41
142.0651252299 	 4.5
143.072950262 	 4.82
144.0443897878 	 2.24
146.060039852 	 4.18
154.0651252299 	 3.69
158.060039852 	 9.05
159.0678648841 	 30.12
160.0756899162 	 100
166.0651252299 	 4.07
168.0681992351 	 0.72
169.0522148199 	 2
172.0756899162 	 3.5
174.0913399804 	 2.36
184.0756899162 	 14.21
185.0709388893 	 24.57
186.0787639214 	 18.05
201.1022390177 	 38.19
END IONS

BEGIN IONS
PEPMASS=357.0655
CHARGE=1
MSLEVEL=2
RT=0
SOURCE_INSTRUMENT=qTOF
FILENAME=CCMSLIB00000085818.ms
IONMODE=Positive
ORGANISM=Natural
NAME=MLS000860022-01!R(+)-IAA-94
PI=GNPS
DATACOLLECTOR=GNPS
SMILES=C[C@@]1(Cc2cc(c(c(c2C1=O)Cl)Cl)OCC(=O)O)C1CCCC1
INCHI=InChI=1S/C17H18Cl2O4/c1-17(10-4-2-3-5-10)7-9-6-11(23-8-12(20)21)14(18)15(19)13(9)16(17)22/h6,10H,2-5,7-8H2,1H3,(H,20,21)/t17-/m1/s1
FORMULA=C17H18Cl2O4
PUBMED=N/A
SUBMITUSER=BIOADREM
LIBRARYQUALITY=0
SPECTRUMID=CCMSLIB00000085818
SCANS=3786
ID=CCMSLIB00000085818
115.0542261926 	 12.75
116.0620512247 	 14.22
145.0647908789 	 70.82
149.0152538705 	 12.52
150.0230789026 	 12.95
151.0309039347 	 18.71
158.9762815484 	 14.86
162.0230789026 	 25.7
167.0258185568 	 8.5
178.0179935247 	 28.18
179.0258185568 	 29.72
180.0336435889 	 95.48
189.0101684926 	 7.1
190.0179935247 	 8.07
195.0207331789 	 61.31
196.028558211 	 24.67
196.9919316126 	 18.54
200.9868462347 	 12.55
208.028558211 	 7.33
212.9868462347 	 33.6
219.0651848094 	 10.48
224.9868462347 	 26.91
228.9817608568 	 29.92
229.9895858889 	 15.29
230.997410921 	 80.29
242.997410921 	 34.2
253.0262124873 	 9.17
254.0340375194 	 28.35
270.9923255431 	 9.87
286.9872401652 	 8.3
289.0028902294 	 100
357.0654904862 	 0
END IONS

BEGIN IONS
PEPMASS=287.0961
CHARGE=1
MSLEVEL=2
RT=0
SOURCE_INSTRUMENT=qTOF
FILENAME=CCMSLIB00000085819.ms
IONMODE=Positive
ORGANISM=Natural
NAME=MLS000862184-01!SB 204741
PI=GNPS
DATACOLLECTOR=GNPS
SMILES=Cc1cc(NC(=O)Nc2ccc3c(ccn3C)c2)sn1
INCHI=InChI=1S/C14H14N4OS/c1-9-7-13(20-17-9)16-14(19)15-11-3-4-12-10(8-11)5-6-18(12)2/h3-8H,1-2H3,(H2,15,16,19)
FORMULA=C14H14N4OS
PUBMED=N/A
SUBMITUSER=BIOADREM
LIBRARYQUALITY=0
SPECTRUMID=CCMSLIB00000085819
SCANS=3787
ID=CCMSLIB00000085819
88.0215458557 	 0.85
99.9851603494 	 3.02
106.0651252299 	 1.44
115.032444893 	 100
118.0651252299 	 3.41
120.0807752941 	 0.65
130.0651252299 	 0.8
132.0681992351 	 18.98
141.0117094509 	 38.41
145.0760242672 	 11.07
147.0916743314 	 23.68
158.047463793 	 1.19
173.0709388893 	 0.55
287.0961077823 	 0
END IONS

BEGIN IONS
PEPMASS=340.2271
CHARGE=1
MSLEVEL=2
RT=0
SOURCE_INSTRUMENT=qTOF
FILENAME=CCMSLIB00000085820.ms
IONMODE=Positive
ORGANISM=Natural
NAME=MLS002153317-01!Ro 25-6981 hydrochloride
PI=GNPS
DATACOLLECTOR=GNPS
SMILES=C[C@@H](CN1CCC(CC1)Cc1ccccc1)[C@H](c1ccc(cc1)O)O
INCHI=InChI=1S/C22H29NO2/c1-17(22(25)20-7-9-21(24)10-8-20)16-23-13-11-19(12-14-23)15-18-5-3-2-4-6-18/h2-10,17,19,22,24-25H,11-16H2,1H3/t17-,22+/m0/s1
FORMULA=C22H29NO2
PUBMED=N/A
SUBMITUSER=BIOADREM
LIBRARYQUALITY=0
SPECTRUMID=CCMSLIB00000085820
SCANS=3788
ID=CCMSLIB00000085820
91.0542261926 	 6.57
94.0651252299 	 0.72
96.0807752941 	 7.74
103.0542261926 	 0.24
105.0698762568 	 0.88
110.0964253583 	 0.42
115.0542261926 	 0.85
117.0698762568 	 2.66
128.0620512247 	 0.64
129.0698762568 	 1.98
130.0777012889 	 1.25
131.085526321 	 2.34
143.085526321 	 1.29
145.1011763852 	 6.22
157.1011763852 	 0.33
160.1120754225 	 0.98
173.1199004546 	 0.41
188.1433755509 	 100
340.2271051803 	 0
END IONS

BEGIN IONS
PEPMASS=351.1711
CHARGE=1
MSLEVEL=2
RT=0
SOURCE_INSTRUMENT=qTOF
FILENAME=CCMSLIB00000085821.ms
IONMODE=Positive
ORGANISM=Natural
NAME=MLS002153333-01!NO-711 hydrochloride145645-62-1
PI=GNPS
DATACOLLECTOR=GNPS
SMILES=c1ccc(cc1)C(=NOCCN1CCC=C(C1)C(=O)O)c1ccccc1
INCHI=InChI=1S/C21H22N2O3/c24-21(25)19-12-7-13-23(16-19)14-15-26-22-20(17-8-3-1-4-9-17)18-10-5-2-6-11-18/h1-6,8-12H,7,13-16H2,(H,24,25)
FORMULA=C21H22N2O3
PUBMED=N/A
SUBMITUSER=BIOADREM
LIBRARYQUALITY=0
SPECTRUMID=CCMSLIB00000085821
SCANS=3789
ID=CCMSLIB00000085821
91.0542261926 	 0.68
94.0651252299 	 0.39
104.0494751657 	 1.79
106.0651252299 	 0.22
108.0443897878 	 0.35
108.0807752941 	 1.31
122.060039852 	 1.3
124.0756899162 	 0.33
126.0549544741 	 1.51
136.0756899162 	 3.6
140.0706045383 	 5.92
154.0862546025 	 48.1
170.0811692246 	 0.8
180.0807752941 	 100
351.1703185829 	 0.05
END IONS

BEGIN IONS
PEPMASS=281.1066
CHARGE=1
MSLEVEL=2
RT=0
SOURCE_INSTRUMENT=qTOF
FILENAME=CCMSLIB00000085825.ms
IONMODE=Positive
ORGANISM=Natural
NAME=MLS000859939-01!MCN-A-343
PI=GNPS
DATACOLLECTOR=GNPS
SMILES=C[N+](C)(C)CC#CCOC(=Nc1cccc(c1)Cl)[O-]
INCHI=InChI=1S/C14H17ClN2O2/c1-17(2,3)9-4-5-10-19-14(18)16-13-8-6-7-12(15)11-13/h6-8,11H,9-10H2,1-3H3
FORMULA=C14H17ClN2O2
PUBMED=N/A
SUBMITUSER=BIOADREM
LIBRARYQUALITY=0
SPECTRUMID=CCMSLIB00000085825
SCANS=3791
ID=CCMSLIB00000085825
98.9996038063 	 14.82
110.9996038063 	 13.52
114.0464011605 	 1.41
114.9945184284 	 1.72
115.0542261926 	 7.66
116.0620512247 	 1.5
117.0573001978 	 3.2
126.0105028436 	 100
129.0101684926 	 4.67
140.0494751657 	 9.42
141.0573001978 	 19.79
143.072950262 	 31.91
152.0261529078 	 9.05
154.0054174657 	 91.86
172.015982152 	 13.08
176.0261529078 	 11.45
180.0210675299 	 5.81
186.0549544741 	 2.16
204.0210675299 	 2.53
222.0316322162 	 73.22
281.1051315103 	 0.81
END IONS

BEGIN IONS
PEPMASS=342.2387
CHARGE=1
MSLEVEL=2
RT=0
SOURCE_INSTRUMENT=qTOF
FILENAME=CCMSLIB00000085826.ms
IONMODE=Positive
ORGANISM=Natural
NAME=MLS002207185-01!Ile-Pro-Ile90614-48-5
PI=GNPS
DATACOLLECTOR=GNPS
SMILES=CCC(C)C(C(=O)N1CCCC1C(=NC(C(C)CC)C(=O)O)O)N
INCHI=InChI=1S/C17H31N3O4/c1-5-10(3)13(18)16(22)20-9-7-8-12(20)15(21)19-14(17(23)24)11(4)6-2/h10-14H,5-9,18H2,1-4H3,(H,19,21)(H,23,24)
FORMULA=C17H31N3O4
PUBMED=N/A
SUBMITUSER=BIOADREM
LIBRARYQUALITY=0
SPECTRUMID=CCMSLIB00000085826
SCANS=3792
ID=CCMSLIB00000085826
98.060039852 	 5.35
117.0698762568 	 2.6
131.085526321 	 3.18
132.1019046667 	 3.91
133.1011763852 	 2.12
142.0862546025 	 2.99
145.1011763852 	 2.22
165.1359444493 	 2.22
173.1172203799 	 2.36
174.125045412 	 2.36
183.1491892103 	 9.17
188.1406954762 	 23.49
229.1546685187 	 100
230.1539402372 	 9.5
342.2387324991 	 0
END IONS

BEGIN IONS
PEPMASS=266.1387
CHARGE=1
MSLEVEL=2
RT=0
SOURCE_INSTRUMENT=qTOF
FILENAME=CCMSLIB00000085827.ms
IONMODE=Positive
ORGANISM=Natural
NAME=MLS001066392-01!Anisomycin from Streptomyces griseolus
PI=GNPS
DATACOLLECTOR=GNPS
SMILES=CC(=O)O[C@H]1[C@@H](Cc2ccc(cc2)OC)NC[C@@H]1O
INCHI=InChI=1S/C14H19NO4/c1-9(16)19-14-12(15-8-13(14)17)7-10-3-5-11(18-2)6-4-10/h3-6,12-15,17H,7-8H2,1-2H3/t12-,13+,14+/m1/s1
FORMULA=C14H19NO4
PUBMED=N/A
SUBMITUSER=BIOADREM
LIBRARYQUALITY=0
SPECTRUMID=CCMSLIB00000085827
SCANS=3793
ID=CCMSLIB00000085827
91.0542261926 	 3.92
102.0464011605 	 0.87
103.0542261926 	 0.89
105.0698762568 	 1.14
106.0413157826 	 1.44
107.0491408147 	 1.04
109.0647908789 	 0.57
115.0542261926 	 3.05
116.0620512247 	 1.85
118.0651252299 	 0.79
119.0491408147 	 0.59
121.0647908789 	 100
127.0542261926 	 0.55
128.0620512247 	 2.06
129.0698762568 	 0.86
130.0651252299 	 2.25
131.0491408147 	 1.33
133.0647908789 	 0.85
135.0804409431 	 1.32
144.0569658468 	 7.64
148.0756899162 	 1.74
156.0569658468 	 0.55
159.0804409431 	 3.93
162.0913399804 	 1.86
171.0804409431 	 1.93
188.1069900446 	 2.22
206.1175547309 	 7.87
266.1386841035 	 0.71
END IONS

BEGIN IONS
PEPMASS=823.4124
CHARGE=1
MSLEVEL=2
RT=0
SOURCE_INSTRUMENT=qTOF
FILENAME=CCMSLIB00000085828.ms
IONMODE=Positive
ORGANISM=Natural
NAME=MLS001333745-01!13292-46-1
PI=GNPS
DATACOLLECTOR=GNPS
SMILES=C[C@H]1C=CC=C(C)C(=Nc2c(C=NN3CCN(C)CC3)c(c3c(c(c(C)c4c3C(=O)[C@@](C)(OC=C[C@@H]([C@@H](C)[C@H]([C@H](C)[C@@H]([C@H](C)[C@H]1O)O)OC(=O)C)OC)O4)O)c2O)O)O
INCHI=InChI=1S/C43H58N4O12/c1-21-12-11-13-22(2)42(55)45-33-28(20-44-47-17-15-46(9)16-18-47)37(52)30-31(38(33)53)36(51)26(6)40-32(30)41(54)43(8,59-40)57-19-14-29(56-10)23(3)39(58-27(7)48)25(5)35(50)24(4)34(21)49/h11-14,19-21,23-25,29,34-35,39,49-53H,15-18H2,1-10H3,(H,45,55)/t21-,23+,24+,25+,29-,34-,35+,39+,43-/m0/s1
FORMULA=C43H58N4O12
PUBMED=N/A
SUBMITUSER=BIOADREM
LIBRARYQUALITY=0
SPECTRUMID=CCMSLIB00000085828
SCANS=3794
ID=CCMSLIB00000085828
91.0542261926 	 1.785
93.0698762568 	 4.645
95.0491408147 	 7.58
95.085526321 	 18.505
97.0647908789 	 2.42
105.0698762568 	 11.075
107.085526321 	 28.115
109.0647908789 	 15.34
109.1011763852 	 7.685
111.0804409431 	 7.065
119.085526321 	 14.68
121.0647908789 	 9.17
121.1011763852 	 11.96
123.0804409431 	 47.46
125.0960910073 	 6.175
133.0647908789 	 5.195
133.1011763852 	 11.845
135.0804409431 	 25.76
135.1168264494 	 11.265
137.0960910073 	 12.08
139.0753555652 	 2.475
143.085526321 	 4.215
145.1011763852 	 28.695
147.0804409431 	 2.44
147.1168264494 	 19.62
149.0947483366 	 2.955
149.0960910073 	 2.98
151.0753555652 	 100
153.0910056294 	 16.77
157.1011763852 	 7.705
159.1168264494 	 13.245
161.0960910073 	 30.71
163.1117410715 	 89.075
165.126048465 	 4.14
165.1273911357 	 2.5
171.1168264494 	 2.92
173.0960910073 	 19.155
173.1324765136 	 13.525
175.1117410715 	 22
175.1481265778 	 2.33
177.0896629587 	 3.23
177.0910056294 	 3.215
177.1273911357 	 4.795
179.1066556936 	 28.905
181.1223057578 	 1.925
185.1324765136 	 7.8
191.1066556936 	 40.765
193.1209630871 	 4.36
193.1223057578 	 3.675
201.1273911357 	 11.54
203.1430411999 	 7.06
209.1172203799 	 3.49
213.1273911357 	 5.3
219.1366131513 	 4.63
219.137955822 	 3.97
231.137955822 	 7.87
269.1886487218 	 2.535
269.1899913925 	 2.25
279.1729986576 	 2.745
279.1743413283 	 2.785
297.1835633439 	 5.76
297.1849060146 	 5.665
315.1941280302 	 3.68
315.1954707009 	 3.89
823.4123993478 	 0.06
END IONS

BEGIN IONS
PEPMASS=419.0727
CHARGE=1
MSLEVEL=2
RT=0
SOURCE_INSTRUMENT=qTOF
FILENAME=CCMSLIB00000085829.ms
IONMODE=Positive
ORGANISM=Natural
NAME=MLS002153296-01!L-750,667 trihydrochloride
PI=GNPS
DATACOLLECTOR=GNPS
SMILES=c1cc2c(c[nH]c2nc1)CN1CCN(CC1)c1ccc(cc1)I
INCHI=InChI=1S/C18H19IN4/c19-15-3-5-16(6-4-15)23-10-8-22(9-11-23)13-14-12-21-18-17(14)2-1-7-20-18/h1-7,12H,8-11,13H2,(H,20,21)
FORMULA=C18H19IN4
PUBMED=N/A
SUBMITUSER=BIOADREM
LIBRARYQUALITY=0
SPECTRUMID=CCMSLIB00000085829
SCANS=3795
ID=CCMSLIB00000085829
104.0494751657 	 7.51
118.0651252299 	 3.76
119.072950262 	 5.35
119.072950262 	 100
131.060374203 	 0.26
161.1073243956 	 1.71
162.1151494277 	 10.06
162.1151494277 	 29.4
292.1682476307 	 0
END IONS

BEGIN IONS
PEPMASS=242.0789
CHARGE=1
MSLEVEL=2
RT=0
SOURCE_INSTRUMENT=qTOF
FILENAME=CCMSLIB00000085833.ms
IONMODE=Positive
ORGANISM=Natural
NAME=MLS001401450-01!MOXONIDINE HCl
PI=GNPS
DATACOLLECTOR=GNPS
SMILES=Cc1nc(c(c(n1)OC)NC1=NCCN1)Cl
INCHI=InChI=1S/C9H12ClN5O/c1-5-13-7(10)6(8(14-5)16-2)15-9-11-3-4-12-9/h3-4H2,1-2H3,(H2,11,12,15)
FORMULA=C9H12ClN5O
PUBMED=N/A
SUBMITUSER=BIOADREM
LIBRARYQUALITY=0
SPECTRUMID=CCMSLIB00000085833
SCANS=3798
ID=CCMSLIB00000085833
96.0569658468 	 10.64
103.0052646273 	 10.06
108.0556231761 	 12.38
122.0586971813 	 12.77
131.0258185568 	 9.09
136.0505377982 	 36.75
137.0821722776 	 24.37
138.0661878624 	 21.86
145.016316503 	 13.15
149.0821722776 	 33.27
170.0115654761 	 25.15
174.0428656045 	 22.05
179.1165464112 	 9.28
192.087985937 	 16.44
197.0224645134 	 10.64
199.0381145776 	 100
242.0803137433 	 59.96
END IONS

BEGIN IONS
PEPMASS=406.1921
CHARGE=1
MSLEVEL=2
RT=0
SOURCE_INSTRUMENT=qTOF
FILENAME=CCMSLIB00000085835.ms
IONMODE=Positive
ORGANISM=Natural
NAME=MLS001304092-01!
PI=GNPS
DATACOLLECTOR=GNPS
SMILES=CCN(CC)CCOc1ccc(cc1)/C(=C(\c1ccccc1)/Cl)/c1ccccc1
INCHI=InChI=1S/C26H28ClNO/c1-3-28(4-2)19-20-29-24-17-15-22(16-18-24)25(21-11-7-5-8-12-21)26(27)23-13-9-6-10-14-23/h5-18H,3-4,19-20H2,1-2H3/b26-25+
FORMULA=C26H28ClNO
PUBMED=N/A
SUBMITUSER=BIOADREM
LIBRARYQUALITY=0
SPECTRUMID=CCMSLIB00000085835
SCANS=3800
ID=CCMSLIB00000085835
100.1120754225 	 100
165.0698762568 	 5.25
178.0777012889 	 51.92
191.085526321 	 5.28
199.0309039347 	 12.49
202.0777012889 	 2.15
203.085526321 	 1.57
208.0887531646 	 1.23
213.0465539989 	 1.4
215.085526321 	 2
219.0804409431 	 7.05
220.0882659752 	 5.68
226.0777012889 	 1.87
228.0933513531 	 2.61
239.085526321 	 8.84
240.0933513531 	 5.74
241.1011763852 	 31.55
242.1090014173 	 16.44
249.0465539989 	 2.9
251.085526321 	 1.44
252.0933513531 	 17.63
253.1011763852 	 33.43
254.1090014173 	 32.02
255.0804409431 	 1.75
263.085526321 	 1.78
264.0933513531 	 1.24
265.1011763852 	 3.35
268.0882659752 	 3.04
269.0960910073 	 7.14
269.1324765136 	 4.03
270.1039160394 	 11.74
271.1117410715 	 3.28
277.0778541273 	 3.57
278.1090014173 	 4.41
279.1168264494 	 6.78
280.1246514815 	 1.81
281.0960910073 	 4.45
282.1039160394 	 6.08
283.1117410715 	 3.23
295.1122282609 	 1.36
296.1195661036 	 2.26
297.1273911357 	 28.4
305.0727687494 	 3.81
333.1040688778 	 2.34
406.1932182361 	 60.53
END IONS

BEGIN IONS
PEPMASS=292.2055
CHARGE=1
MSLEVEL=2
RT=0
SOURCE_INSTRUMENT=qTOF
FILENAME=CCMSLIB00000085837.ms
IONMODE=Positive
ORGANISM=Natural
NAME=MLS002153397-01!L-687,384 hydrochloride
PI=GNPS
DATACOLLECTOR=GNPS
SMILES=c1ccc(cc1)CN1CCC2(CCCc3ccccc23)CC1
INCHI=InChI=1S/C21H25N/c1-2-7-18(8-3-1)17-22-15-13-21(14-16-22)12-6-10-19-9-4-5-11-20(19)21/h1-5,7-9,11H,6,10,12-17H2
FORMULA=C21H25N
PUBMED=N/A
SUBMITUSER=BIOADREM
LIBRARYQUALITY=0
SPECTRUMID=CCMSLIB00000085837
SCANS=3802
ID=CCMSLIB00000085837
91.0542261926 	 100
105.0698762568 	 0.67
115.0542261926 	 0.67
128.0620512247 	 1.48
129.0698762568 	 2.63
130.0777012889 	 1.32
131.085526321 	 1.14
145.1011763852 	 13.15
154.0777012889 	 0.92
155.085526321 	 1.44
157.1011763852 	 1.92
165.0698762568 	 1.3
169.1011763852 	 0.98
181.1011763852 	 3.58
200.1433755509 	 9.13
207.1168264494 	 1.24
235.1481265778 	 1.37
292.2059758077 	 226.78
END IONS

BEGIN IONS
PEPMASS=489.2483
CHARGE=1
MSLEVEL=2
RT=0
SOURCE_INSTRUMENT=qTOF
FILENAME=CCMSLIB00000085838.ms
IONMODE=Positive
ORGANISM=Natural
NAME=MLS002154121-01!Prednicarbate73771-04-7
PI=GNPS
DATACOLLECTOR=GNPS
SMILES=CCC(=O)OCC(=O)[C@]1(CC[C@H]2[C@@H]3CCC4=CC(=O)C=C[C@]4(C)[C@H]3[C@H](C[C@]12C)O)OC(=O)OCC
INCHI=InChI=1S/C27H36O8/c1-5-22(31)34-15-21(30)27(35-24(32)33-6-2)12-10-19-18-8-7-16-13-17(28)9-11-25(16,3)23(18)20(29)14-26(19,27)4/h9,11,13,18-20,23,29H,5-8,10,12,14-15H2,1-4H3/t18-,19-,20-,23+,25-,26-,27-/m0/s1
FORMULA=C27H36O8
PUBMED=N/A
SUBMITUSER=BIOADREM
LIBRARYQUALITY=0
SPECTRUMID=CCMSLIB00000085838
SCANS=3803
ID=CCMSLIB00000085838
105.0698762568 	 9.49
117.0698762568 	 6.93
119.085526321 	 12.67
121.0647908789 	 51.35
135.0804409431 	 20.94
143.085526321 	 10.67
145.0647908789 	 9.56
145.1011763852 	 9.98
147.0804409431 	 100
155.085526321 	 8.87
157.1011763852 	 9.48
158.072615911 	 7.06
159.0804409431 	 16.57
161.0960910073 	 9.08
171.0804409431 	 58.52
173.0960910073 	 41.1
185.0960910073 	 9.47
187.1117410715 	 6.63
195.0804409431 	 8.58
197.0960910073 	 11.23
199.1117410715 	 7.44
205.1011763852 	 13.68
208.0882659752 	 14.27
209.0960910073 	 20.7
221.0960910073 	 16.67
222.1039160394 	 9.03
223.1117410715 	 46.6
225.1273911357 	 6.54
234.1039160394 	 7.46
235.1117410715 	 6.59
237.1273911357 	 16.05
245.0960910073 	 7.26
247.1117410715 	 12.17
248.1195661036 	 11.83
249.1273911357 	 11.83
249.163776642 	 8.38
251.1430411999 	 58.86
259.1117410715 	 14.13
261.1273911357 	 12.56
263.1430411999 	 16.17
264.150866232 	 11.25
265.1586912641 	 30.08
274.1352161678 	 21.58
277.1586912641 	 7.69
279.1743413283 	 11.36
289.1586912641 	 40.14
307.1692559504 	 17.05
325.1798206367 	 8.24
489.2482941324 	 0
END IONS

BEGIN IONS
PEPMASS=405.2272
CHARGE=1
MSLEVEL=2
RT=0
SOURCE_INSTRUMENT=qTOF
FILENAME=CCMSLIB00000085839.ms
IONMODE=Positive
ORGANISM=Natural
NAME=MLS002153969-01!Strophanthidin66-28-4
PI=GNPS
DATACOLLECTOR=GNPS
SMILES=C[C@@]12CC[C@H]3[C@@H](CC[C@@]4(C[C@H](CC[C@]34C=O)O)O)[C@]2(CC[C@@H]1C1=CC(=O)OC1)O
INCHI=InChI=1S/C23H32O6/c1-20-6-3-17-18(4-8-22(27)11-15(25)2-7-21(17,22)13-24)23(20,28)9-5-16(20)14-10-19(26)29-12-14/h10,13,15-18,25,27-28H,2-9,11-12H2,1H3/t15-,16+,17-,18+,20+,21-,22-,23-/m0/s1
FORMULA=C23H32O6
PUBMED=N/A
SUBMITUSER=BIOADREM
LIBRARYQUALITY=0
SPECTRUMID=CCMSLIB00000085839
SCANS=3804
ID=CCMSLIB00000085839
105.0698762568 	 22.19
109.0647908789 	 11.85
115.0542261926 	 8.23
117.0698762568 	 23.42
119.085526321 	 18.85
121.1011763852 	 8.37
125.059705501 	 100
128.0620512247 	 16.03
129.0698762568 	 19.41
131.085526321 	 34.53
133.1011763852 	 12.94
135.0804409431 	 8.97
137.059705501 	 10.02
141.0698762568 	 9.92
143.085526321 	 37.69
145.1011763852 	 45.71
147.0804409431 	 9.77
147.1168264494 	 9.21
153.0910056294 	 7.91
157.1011763852 	 27.11
159.0804409431 	 22.64
159.1168264494 	 19.9
161.0960910073 	 9.25
161.1324765136 	 8.9
165.0698762568 	 7.88
167.085526321 	 10.9
169.1011763852 	 18.28
171.1168264494 	 39.17
173.0960910073 	 12.87
173.1324765136 	 21.38
181.1011763852 	 15.51
185.1324765136 	 19.59
189.1273911357 	 10.2
193.1011763852 	 8.16
199.1117410715 	 9.63
199.1481265778 	 10.83
211.1481265778 	 18
221.1324765136 	 14.84
277.1950767704 	 7.95
305.1899913925 	 20.53
323.2005560788 	 24.75
351.1954707009 	 22.57
405.2271647598 	 0
END IONS

BEGIN IONS
PEPMASS=162.055
CHARGE=1
MSLEVEL=2
RT=0
SOURCE_INSTRUMENT=qTOF
FILENAME=CCMSLIB00000085840.ms
IONMODE=Positive
ORGANISM=Natural
NAME=MLS000860043-01!1,5-Isoquinolinediol
PI=GNPS
DATACOLLECTOR=GNPS
SMILES=c1cc2c(ccnc2O)c(c1)O
INCHI=InChI=1S/C9H7NO2/c11-8-3-1-2-7-6(8)4-5-10-9(7)12/h1-5,11H,(H,10,12)
FORMULA=C9H7NO2
PUBMED=N/A
SUBMITUSER=BIOADREM
LIBRARYQUALITY=0
SPECTRUMID=CCMSLIB00000085840
SCANS=3805
ID=CCMSLIB00000085840
89.0385761284 	 6.01
101.0385761284 	 2.64
106.0651252299 	 5.02
116.0494751657 	 100
117.0334907505 	 5.41
135.0440554368 	 3.23
144.0443897878 	 20
162.0549544741 	 20.4
END IONS

BEGIN IONS
PEPMASS=337.0601
CHARGE=1
MSLEVEL=2
RT=0
SOURCE_INSTRUMENT=qTOF
FILENAME=CCMSLIB00000085843.ms
IONMODE=Positive
ORGANISM=Natural
NAME=MLS000859938-01!8-(p-Sulfophenyl)theophylline hydrate
PI=GNPS
DATACOLLECTOR=GNPS
SMILES=Cn1c2c(c(=O)n(C)c1=O)[nH]c(c1ccc(cc1)S(=O)(=O)O)n2
INCHI=InChI=1S/C13H12N4O5S/c1-16-11-9(12(18)17(2)13(16)19)14-10(15-11)7-3-5-8(6-4-7)23(20,21)22/h3-6H,1-2H3,(H,14,15)(H,20,21,22)
FORMULA=C13H12N4O5S
PUBMED=N/A
SUBMITUSER=BIOADREM
LIBRARYQUALITY=0
SPECTRUMID=CCMSLIB00000085843
SCANS=3806
ID=CCMSLIB00000085843
95.035222085 	 5.67
132.0443897878 	 7.83
134.0586971813 	 4.58
144.0681992351 	 3.83
171.0790982724 	 8.5
184.0049470513 	 22.67
196.0089697967 	 7.5
198.0246198609 	 4.33
199.0740128945 	 6.83
204.9992305092 	 5.42
211.0171887593 	 6.75
219.0335075255 	 4
221.0015386951 	 4.5
223.019868834 	 4.08
225.0355188982 	 6.08
251.9947762955 	 4.25
252.0437378608 	 16.25
256.0954766181 	 8.25
259.0131660139 	 4.08
270.0179170408 	 4.42
280.0386524829 	 100
282.0417264881 	 4.42
337.0601162065 	 0
END IONS

BEGIN IONS
PEPMASS=277.0641
CHARGE=1
MSLEVEL=2
RT=0
SOURCE_INSTRUMENT=qTOF
FILENAME=CCMSLIB00000085845.ms
IONMODE=Positive
ORGANISM=Natural
NAME=MLS000069716-01!SULFABENZAMIDE
PI=GNPS
DATACOLLECTOR=GNPS
SMILES=c1ccc(cc1)C(=NS(=O)(=O)c1ccc(cc1)N)O
INCHI=InChI=1S/C13H12N2O3S/c14-11-6-8-12(9-7-11)19(17,18)15-13(16)10-4-2-1-3-5-10/h1-9H,14H2,(H,15,16)
FORMULA=C13H12N2O3S
PUBMED=N/A
SUBMITUSER=BIOADREM
LIBRARYQUALITY=0
SPECTRUMID=CCMSLIB00000085845
SCANS=3808
ID=CCMSLIB00000085845
92.0494751657 	 16.58
108.0443897878 	 100
156.0113750999 	 23.21
157.0158293136 	 2.31
277.0641389519 	 0
END IONS

BEGIN IONS
PEPMASS=357.1057
CHARGE=1
MSLEVEL=2
RT=0
SOURCE_INSTRUMENT=qTOF
FILENAME=CCMSLIB00000085847.ms
IONMODE=Positive
ORGANISM=Natural
NAME=MLS001148586-01!(+/-)-BAY K 8644
PI=GNPS
DATACOLLECTOR=GNPS
SMILES=CC1=NC(=C(C(c2ccccc2C(F)(F)F)/C/1=C(\O)/OC)N(=O)=O)C
INCHI=InChI=1S/C16H15F3N2O4/c1-8-12(15(22)25-3)13(14(21(23)24)9(2)20-8)10-6-4-5-7-11(10)16(17,18)19/h4-7,13,22H,1-3H3/b15-12+
FORMULA=C16H15F3N2O4
PUBMED=N/A
SUBMITUSER=BIOADREM
LIBRARYQUALITY=0
SPECTRUMID=CCMSLIB00000085847
SCANS=3810
ID=CCMSLIB00000085847
133.0459472147 	 3.41
134.0573597773 	 4.49
150.0525097978 	 9
157.0259606963 	 7.88
158.047463793 	 3.43
165.0759848941 	 10.86
167.0702701873 	 4.08
179.0291542963 	 6.31
180.0745076889 	 5.32
181.0859202515 	 7.46
185.0646712841 	 3.37
189.0510325926 	 4.21
191.0514265231 	 5.5
194.0811692246 	 8.01
195.0889942567 	 5.33
197.0646712841 	 13.04
198.0850723752 	 3.26
208.0730098415 	 7.48
209.0808348736 	 9.13
210.0886599057 	 12.24
211.0729108889 	 9.31
212.0843234515 	 23.41
213.0885609531 	 6.22
216.0619316299 	 6.91
217.0459472147 	 6.5
217.0670765873 	 4.54
226.0862546025 	 30.07
227.0866691752 	 4.26
228.0819181483 	 9.43
230.0775816941 	 18.26
231.0815837973 	 7.02
232.0905516836 	 100
233.0972338615 	 9.15
236.068159862 	 8.98
238.0662680841 	 2.98
240.0994599904 	 9.22
241.0908860346 	 4.21
242.0975682125 	 4.12
254.1061215261 	 52.24
255.0690077383 	 2.89
255.107678953 	 5.98
256.0768327704 	 16.65
258.0724963162 	 28.32
259.0764984194 	 14.85
260.0854663057 	 3.63
264.0630744841 	 5.35
270.0924828346 	 4.86
276.0830610025 	 69.33
277.0870631057 	 9.84
278.0787245483 	 33.08
290.0987110667 	 57.85
357.1056675803 	 0
END IONS

BEGIN IONS
PEPMASS=291.185
CHARGE=1
MSLEVEL=2
RT=0
SOURCE_INSTRUMENT=qTOF
FILENAME=CCMSLIB00000085850.ms
IONMODE=Positive
ORGANISM=Natural
NAME=MLS002153328-01!LE 300274694-98-3
PI=GNPS
DATACOLLECTOR=GNPS
SMILES=CN1CCc2ccccc2Cc2c(CC1)c1ccccc1[nH]2
INCHI=InChI=1S/C20H22N2/c1-22-12-10-15-6-2-3-7-16(15)14-20-18(11-13-22)17-8-4-5-9-19(17)21-20/h2-9,21H,10-14H2,1H3
FORMULA=C20H22N2
PUBMED=N/A
SUBMITUSER=BIOADREM
LIBRARYQUALITY=0
SPECTRUMID=CCMSLIB00000085850
SCANS=3813
ID=CCMSLIB00000085850
103.0542261926 	 2.32
105.0698762568 	 3.06
115.0542261926 	 14.53
117.0698762568 	 18.39
119.085526321 	 3.15
127.0542261926 	 2.28
128.0620512247 	 8.58
129.0698762568 	 6.88
130.0651252299 	 38.46
131.072950262 	 13.76
132.0807752941 	 2.55
133.0886003262 	 0.99
141.0698762568 	 1.26
142.0651252299 	 1.11
143.072950262 	 8.5
144.0807752941 	 100
145.0886003262 	 41.34
146.0964253583 	 14.76
148.1120754225 	 3.86
154.0651252299 	 1.1
156.0807752941 	 7.03
157.0886003262 	 1.24
158.0964253583 	 36.58
160.1120754225 	 66.63
174.1277254867 	 1.11
205.0886003262 	 1.44
206.0964253583 	 1.43
216.0807752941 	 1.43
217.0886003262 	 7.21
218.0964253583 	 15.42
230.0964253583 	 36.91
231.1042503904 	 27.74
234.1277254867 	 22.31
244.1120754225 	 11.18
245.1199004546 	 10.69
246.1277254867 	 26.88
248.1433755509 	 5.05
260.1433755509 	 28.22
291.1855747166 	 10.93
END IONS

BEGIN IONS
PEPMASS=384.0716
CHARGE=1
MSLEVEL=2
RT=0
SOURCE_INSTRUMENT=qTOF
FILENAME=CCMSLIB00000085851.ms
IONMODE=Positive
ORGANISM=Natural
NAME=MLS002153787-01!Brinzolamide138890-62-7
PI=GNPS
DATACOLLECTOR=GNPS
SMILES=CCN[C@H]1CN(CCCOC)S(=O)(=O)c2c1cc(s2)S(=O)(=O)N
INCHI=InChI=1S/C12H21N3O5S3/c1-3-14-10-8-15(5-4-6-20-2)23(18,19)12-9(10)7-11(21-12)22(13,16)17/h7,10,14H,3-6,8H2,1-2H3,(H2,13,16,17)/t10-/m0/s1
FORMULA=C12H21N3O5S3
PUBMED=N/A
SUBMITUSER=BIOADREM
LIBRARYQUALITY=0
SPECTRUMID=CCMSLIB00000085851
SCANS=3814
ID=CCMSLIB00000085851
104.0494751657 	 7.02
109.0106468184 	 2.78
110.0184718505 	 6.95
111.0137208236 	 3.91
115.9748924763 	 2.81
118.0651252299 	 1.96
122.0058957915 	 2.3
123.0137208236 	 6.22
124.0215458557 	 6.47
126.0371959199 	 2.31
130.0651252299 	 3.11
134.0058957915 	 6.01
135.0137208236 	 29.21
136.0215458557 	 97.67
137.0293708878 	 100
140.9701414494 	 2.17
148.0215458557 	 1.97
150.0008104136 	 2.13
150.0371959199 	 4.6
151.0086354457 	 6.77
152.0164604778 	 8.84
162.0371959199 	 15.28
163.045020952 	 61
178.032110542 	 2.03
180.0477606062 	 4.95
187.9834457899 	 1.91
189.9990958541 	 1.83
195.0712357025 	 29.73
210.0583252925 	 4.52
214.9943448272 	 26.18
217.0099948914 	 77.11
221.9347810378 	 14.73
249.9296956599 	 5.06
258.0253106046 	 3.84
275.0518597061 	 2.49
278.9562447614 	 54.49
280.9718948256 	 21.48
306.9875448898 	 3.69
384.0716088702 	 0
END IONS

BEGIN IONS
PEPMASS=338.0268
CHARGE=1
MSLEVEL=2
RT=0
SOURCE_INSTRUMENT=qTOF
FILENAME=CCMSLIB00000085854.ms
IONMODE=Positive
ORGANISM=Natural
NAME=MLS001074071-01!4-HYDROXY-2-METHYL-N-2-PYRIDINYL-2H-THIENO[2,3-E]-1,2-THIAZINE-3-CARBOXAMIDE 1,1-DIOXIDE
PI=GNPS
DATACOLLECTOR=GNPS
SMILES=CN1C(=C(c2c(ccs2)S1(=O)=O)O)C(=Nc1ccccn1)O
INCHI=InChI=1S/C13H11N3O4S2/c1-16-10(13(18)15-9-4-2-3-6-14-9)11(17)12-8(5-7-21-12)22(16,19)20/h2-7,17H,1H3,(H,14,15,18)
FORMULA=C13H11N3O4S2
PUBMED=N/A
SUBMITUSER=BIOADREM
LIBRARYQUALITY=0
SPECTRUMID=CCMSLIB00000085854
SCANS=3815
ID=CCMSLIB00000085854
49.0284053726 	 1.62
95.060374203 	 43.83
103.045020952 	 2
110.9899113763 	 3.68
114.9670674442 	 4.17
121.0396387609 	 100
123.0552888251 	 4.03
136.0215458557 	 1.68
138.0008104136 	 1.6
142.9619820663 	 13.74
143.9936165457 	 2.6
148.0505377982 	 2.9
149.0293708878 	 2.49
149.0556827556 	 3.57
158.9568966884 	 18.21
164.0791578519 	 5.71
169.9728811036 	 10.34
171.9647217205 	 1.49
197.0327417062 	 1.57
199.0358157114 	 1.73
199.9800749715 	 6.49
209.0266908131 	 2.6
210.0345158452 	 2.14
210.0661878624 	 1.73
215.9749895936 	 4.38
227.0307303335 	 3.14
243.0144115673 	 1.76
338.0263732371 	 1.38
END IONS

BEGIN IONS
PEPMASS=390.0344
CHARGE=1
MSLEVEL=2
RT=0
SOURCE_INSTRUMENT=qTOF
FILENAME=CCMSLIB00000085855.ms
IONMODE=Positive
ORGANISM=Natural
NAME=MLS002153205-01!
PI=GNPS
DATACOLLECTOR=GNPS
SMILES=C1=C[C@@H]2C[C@H]1CC2C1Nc2cc(c(cc2S(=O)(=O)N1)S(=O)(=O)N)Cl
INCHI=InChI=1S/C14H16ClN3O4S2/c15-10-5-11-13(6-12(10)23(16,19)20)24(21,22)18-14(17-11)9-4-7-1-2-8(9)3-7/h1-2,5-9,14,17-18H,3-4H2,(H2,16,19,20)/t7-,8+,9?,14?/m0/s1
FORMULA=C14H16ClN3O4S2
PUBMED=N/A
SUBMITUSER=BIOADREM
LIBRARYQUALITY=0
SPECTRUMID=CCMSLIB00000085855
SCANS=3816
ID=CCMSLIB00000085855
105.0698762568 	 33.77
106.0651252299 	 18.74
117.0573001978 	 29.68
120.0807752941 	 24.86
121.0886003262 	 26.53
128.0494751657 	 9.09
143.0576941283 	 10.02
143.9642433947 	 8.91
151.0183278757 	 15.03
152.0261529078 	 15.77
155.9794995284 	 11.13
155.9846820236 	 9.09
157.019200132 	 10.02
163.015647801 	 15.77
164.0261529078 	 15.77
166.0179935247 	 9.46
179.008732563 	 19.29
179.0343718704 	 30.98
181.0322633804 	 16.88
186.9756207578 	 15.21
187.9515702184 	 13.54
194.0065865352 	 9.46
195.0029746247 	 20.59
195.0400326914 	 9.65
197.0033685552 	 9.28
204.9861854441 	 41.19
206.9778225067 	 15.4
212.0057142789 	 9.28
213.0551073125 	 10.02
220.9777292478 	 30.43
245.0094194483 	 10.39
258.9967501304 	 33.77
260.9890779367 	 23.38
306.9574809951 	 100
307.9653060272 	 20.96
323.9966061556 	 10.58
390.0343511076 	 0
END IONS

BEGIN IONS
PEPMASS=447.2739
CHARGE=1
MSLEVEL=2
RT=0
SOURCE_INSTRUMENT=qTOF
FILENAME=CCMSLIB00000085856.ms
IONMODE=Positive
ORGANISM=Natural
NAME=MLS001076102-01!Westcort
PI=GNPS
DATACOLLECTOR=GNPS
SMILES=CCCCC(=O)O[C@@]1(CC[C@H]2[C@@H]3CCC4=CC(=O)CC[C@]4(C)[C@H]3[C@H](C[C@]12C)O)C(=O)CO
INCHI=InChI=1S/C26H38O6/c1-4-5-6-22(31)32-26(21(30)15-27)12-10-19-18-8-7-16-13-17(28)9-11-24(16,2)23(18)20(29)14-25(19,26)3/h13,18-20,23,27,29H,4-12,14-15H2,1-3H3/t18-,19-,20-,23+,24-,25-,26-/m0/s1
FORMULA=C26H38O6
PUBMED=N/A
SUBMITUSER=BIOADREM
LIBRARYQUALITY=0
SPECTRUMID=CCMSLIB00000085856
SCANS=3817
ID=CCMSLIB00000085856
105.0698762568 	 23.35
107.085526321 	 7.55
109.0647908789 	 8.2
117.0698762568 	 12.29
119.085526321 	 10.87
121.0647908789 	 100
123.0804409431 	 21.73
128.0620512247 	 9.13
129.0698762568 	 18.32
131.085526321 	 24.46
133.1011763852 	 9.7
135.0804409431 	 9.44
141.0698762568 	 14.07
142.0777012889 	 10.5
143.085526321 	 38.49
145.1011763852 	 32.15
147.0804409431 	 10.33
147.1168264494 	 37.04
149.0960910073 	 7.62
155.085526321 	 20.97
157.1011763852 	 24.55
159.1168264494 	 14.24
161.0960910073 	 14.11
167.085526321 	 10.75
169.1011763852 	 22.18
171.0804409431 	 10.02
171.1168264494 	 15.02
173.0960910073 	 23.98
173.1324765136 	 8
175.1117410715 	 6.92
181.1011763852 	 10.26
185.1324765136 	 12.49
187.1117410715 	 13.79
193.1011763852 	 7.81
195.1168264494 	 12.35
197.1324765136 	 8.9
207.1168264494 	 10.88
209.1324765136 	 16.6
211.1481265778 	 8.53
225.1273911357 	 9.52
225.163776642 	 7.5
235.1481265778 	 8.69
239.1430411999 	 12.18
249.163776642 	 10.27
253.1586912641 	 43.11
267.1743413283 	 20.9
269.1899913925 	 20.52
279.1743413283 	 7.07
281.1899913925 	 10.71
297.1849060146 	 10.9
309.1849060146 	 9.95
327.1954707009 	 9.13
447.2741149524 	 0.44
END IONS

BEGIN IONS
PEPMASS=384.1442
CHARGE=1
MSLEVEL=2
RT=0
SOURCE_INSTRUMENT=qTOF
FILENAME=CCMSLIB00000085859.ms
IONMODE=Positive
ORGANISM=Natural
NAME=MLS002153416-01!(1S,9R)-(+)-beta-Hydrastine118-08-1
PI=GNPS
DATACOLLECTOR=GNPS
SMILES=CN1CCc2cc3c(cc2[C@H]1[C@H]1c2ccc(c(c2C(=O)O1)OC)OC)OCO3
INCHI=InChI=1S/C21H21NO6/c1-22-7-6-11-8-15-16(27-10-26-15)9-13(11)18(22)19-12-4-5-14(24-2)20(25-3)17(12)21(23)28-19/h4-5,8-9,18-19H,6-7,10H2,1-3H3/t18-,19+/m0/s1
FORMULA=C21H21NO6
PUBMED=N/A
SUBMITUSER=BIOADREM
LIBRARYQUALITY=0
SPECTRUMID=CCMSLIB00000085859
SCANS=3819
ID=CCMSLIB00000085859
149.059705501 	 4.86
176.0706045383 	 13.08
190.0862546025 	 89.74
193.0495347452 	 6.68
194.072615911 	 5.01
204.0569658468 	 3.96
207.0804409431 	 4.29
221.059705501 	 7.87
222.0675305331 	 9.62
232.0518804689 	 7.74
233.059705501 	 4.7
234.0675305331 	 7.27
235.0753555652 	 7.25
236.0831805973 	 3.61
237.0910056294 	 4.91
247.0753555652 	 4.25
249.0546201231 	 12.95
250.0624451552 	 24.58
251.0702701873 	 16.92
252.0780952194 	 4.67
260.046795091 	 6.82
262.0624451552 	 7.55
263.0702701873 	 7.68
265.0495347452 	 12
265.0859202515 	 31.62
274.0624451552 	 4.6
275.0702701873 	 4.64
277.0495347452 	 12.06
277.0859202515 	 4.27
278.0573597773 	 16.92
279.0651848094 	 13.29
280.0730098415 	 13.73
282.0886599057 	 7.71
291.0651848094 	 11.77
292.0730098415 	 21.27
293.0808348736 	 76.98
295.0964849378 	 25.58
297.112135002 	 3.6
302.0573597773 	 5.33
304.0730098415 	 8.47
305.0808348736 	 6.56
307.0600994315 	 4.92
308.0679244636 	 14.09
320.0679244636 	 9.3
322.0835745278 	 4.89
323.0913995599 	 100
335.0913995599 	 9.88
384.1441634119 	 3.86
END IONS

BEGIN IONS
PEPMASS=267.1693
CHARGE=1
MSLEVEL=2
RT=0
SOURCE_INSTRUMENT=qTOF
FILENAME=CCMSLIB00000085861.ms
IONMODE=Positive
ORGANISM=Natural
NAME=MLS002153779-01!Practolol6673-35-4
PI=GNPS
DATACOLLECTOR=GNPS
SMILES=CC(C)NCC(COc1ccc(cc1)N=C(C)O)O
INCHI=InChI=1S/C14H22N2O3/c1-10(2)15-8-13(18)9-19-14-6-4-12(5-7-14)16-11(3)17/h4-7,10,13,15,18H,8-9H2,1-3H3,(H,16,17)
FORMULA=C14H22N2O3
PUBMED=N/A
SUBMITUSER=BIOADREM
LIBRARYQUALITY=0
SPECTRUMID=CCMSLIB00000085861
SCANS=3820
ID=CCMSLIB00000085861
82.0651252299 	 2.59
91.0542261926 	 3.17
92.0494751657 	 4.34
93.0573001978 	 25.82
94.0651252299 	 39.09
98.0964253583 	 3.17
103.0542261926 	 21.56
106.0651252299 	 5.06
108.0443897878 	 24.46
108.0807752941 	 5.26
110.060039852 	 13.13
116.1069900446 	 5.01
118.0651252299 	 40.82
120.0807752941 	 81.8
122.060039852 	 94.57
130.0651252299 	 19.34
131.0491408147 	 16.69
133.0522148199 	 14.41
134.060039852 	 10.21
136.0756899162 	 15.92
144.0807752941 	 2.34
148.0756899162 	 100
152.0706045383 	 9.96
164.0706045383 	 25.24
178.0862546025 	 83.11
190.0862546025 	 45.35
225.1233683903 	 5.18
267.1703185829 	 4.4
END IONS

BEGIN IONS
PEPMASS=295.1803
CHARGE=1
MSLEVEL=2
RT=0
SOURCE_INSTRUMENT=qTOF
FILENAME=CCMSLIB00000085862.ms
IONMODE=Positive
ORGANISM=Natural
NAME=MLS002153905-01!(-)-Cinchonidine485-71-2
PI=GNPS
DATACOLLECTOR=GNPS
SMILES=C=C[C@H]1CN2CC[C@H]1C[C@H]2[C@@H](c1ccnc2ccccc12)O
INCHI=InChI=1S/C19H22N2O/c1-2-13-12-21-10-8-14(13)11-18(21)19(22)16-7-9-20-17-6-4-3-5-15(16)17/h2-7,9,13-14,18-19,22H,1,8,10-12H2/t13-,14-,18-,19+/m0/s1
FORMULA=C19H22N2O
PUBMED=N/A
SUBMITUSER=BIOADREM
LIBRARYQUALITY=0
SPECTRUMID=CCMSLIB00000085862
SCANS=3821
ID=CCMSLIB00000085862
108.0807752941 	 9.6
110.0964253583 	 4.7
115.0542261926 	 8.8
128.0494751657 	 14.64
130.0651252299 	 59.17
132.0807752941 	 6.05
134.0964253583 	 10.62
136.1120754225 	 9.08
142.0651252299 	 42.82
143.072950262 	 25.1
144.0807752941 	 20.11
154.0651252299 	 30.31
155.072950262 	 9.89
156.0807752941 	 51.86
158.060039852 	 9.08
166.0651252299 	 17.44
166.1226401088 	 9.24
167.072950262 	 27.87
168.0807752941 	 52.69
172.0756899162 	 10.77
180.0807752941 	 29.09
183.0916743314 	 10.23
184.0756899162 	 18.66
192.0807752941 	 6.83
193.0886003262 	 6.49
194.0964253583 	 14.98
195.0916743314 	 4.62
197.1073243956 	 6.7
204.0807752941 	 5.92
206.0964253583 	 12.43
218.0964253583 	 8.75
234.1277254867 	 13.29
235.1229744598 	 17.23
249.138624524 	 5.48
252.138290173 	 5.92
277.1699246524 	 100
295.1804893387 	 310.49
END IONS

BEGIN IONS
PEPMASS=335.1965
CHARGE=1
MSLEVEL=2
RT=0
SOURCE_INSTRUMENT=qTOF
FILENAME=CCMSLIB00000085863.ms
IONMODE=Positive
ORGANISM=Natural
NAME=MLS002154246-01!Proglumide6620-60-6
PI=GNPS
DATACOLLECTOR=GNPS
SMILES=CCCN(CCC)C(=O)C(CCC(=O)O)N=C(c1ccccc1)O
INCHI=InChI=1S/C18H26N2O4/c1-3-12-20(13-4-2)18(24)15(10-11-16(21)22)19-17(23)14-8-6-5-7-9-14/h5-9,15H,3-4,10-13H2,1-2H3,(H,19,23)(H,21,22)
FORMULA=C18H26N2O4
PUBMED=N/A
SUBMITUSER=BIOADREM
LIBRARYQUALITY=0
SPECTRUMID=CCMSLIB00000085863
SCANS=3822
ID=CCMSLIB00000085863
80.0494751657 	 0.53
102.1277254867 	 27.33
105.0334907505 	 100
106.0372930372 	 7.3
122.060039852 	 0.68
160.0730098415 	 1.65
161.0920682619 	 0.54
171.0804409431 	 0.57
206.0811692246 	 7.3
207.0804409431 	 0.91
208.0882659752 	 0.81
225.1273911357 	 0.54
335.1965333334 	 0
END IONS

BEGIN IONS
PEPMASS=444.1771
CHARGE=1
MSLEVEL=2
RT=0
SOURCE_INSTRUMENT=qTOF
FILENAME=CCMSLIB00000085866.ms
IONMODE=Positive
ORGANISM=Natural
NAME=MLS000028463-01!CIS-THIOTHIXENE
PI=GNPS
DATACOLLECTOR=GNPS
SMILES=CN(C)S(=O)(=O)c1ccc2c(c1)/C(=C\CCN1CCN(C)CC1)/c1ccccc1S2
INCHI=InChI=1S/C23H29N3O2S2/c1-24(2)30(27,28)18-10-11-23-21(17-18)19(20-7-4-5-9-22(20)29-23)8-6-12-26-15-13-25(3)14-16-26/h4-5,7-11,17H,6,12-16H2,1-3H3/b19-8-
FORMULA=C23H29N3O2S2
PUBMED=N/A
SUBMITUSER=BIOADREM
LIBRARYQUALITY=0
SPECTRUMID=CCMSLIB00000085866
SCANS=3824
ID=CCMSLIB00000085866
96.0807752941 	 5.09
97.0760242672 	 11.56
98.0838492993 	 30.22
111.0916743314 	 15.4
112.0994993635 	 3.87
113.1073243956 	 5.49
124.0994993635 	 3.16
139.1229744598 	 20.58
196.0341219147 	 5.43
197.0419469468 	 29.77
202.0777012889 	 8.12
203.085526321 	 20.37
209.0419469468 	 1.92
210.0497719789 	 11.07
211.057597011 	 5.83
213.0368615689 	 24.29
221.0419469468 	 100
222.0457492335 	 25.43
223.045020952 	 4.41
227.0525116331 	 1.94
234.0497719789 	 21.07
235.057597011 	 92.75
236.0654220431 	 68.37
237.0692243298 	 28.27
238.0684960483 	 3.09
250.0684960483 	 7.68
253.0681616973 	 17.42
264.0841461125 	 2.7
276.0841461125 	 2.9
278.0997961767 	 3.53
292.1154462409 	 9.34
294.1185202461 	 3.12
304.0460460467 	 66.45
320.1341703103 	 1.92
335.1576454066 	 18.69
344.0773461751 	 50.87
346.0804201803 	 5.73
401.135195405 	 6.09
429.1539194744 	 11.66
444.1773945707 	 98.56
END IONS

BEGIN IONS
PEPMASS=386.1823
CHARGE=1
MSLEVEL=2
RT=0
SOURCE_INSTRUMENT=qTOF
FILENAME=CCMSLIB00000085867.ms
IONMODE=Positive
ORGANISM=Natural
NAME=MLS000859990-01!()-N6-(2-Phenylisopropyl)adenosine
PI=GNPS
DATACOLLECTOR=GNPS
SMILES=CC(Cc1ccccc1)Nc1c2c(ncn1)n(cn2)C1C(C(C(CO)O1)O)O
INCHI=InChI=1S/C19H23N5O4/c1-11(7-12-5-3-2-4-6-12)23-17-14-18(21-9-20-17)24(10-22-14)19-16(27)15(26)13(8-25)28-19/h2-6,9-11,13,15-16,19,25-27H,7-8H2,1H3,(H,20,21,23)
FORMULA=C19H23N5O4
PUBMED=N/A
SUBMITUSER=BIOADREM
LIBRARYQUALITY=0
SPECTRUMID=CCMSLIB00000085867
SCANS=3825
ID=CCMSLIB00000085867
91.0542261926 	 6.78
119.033884681 	 2.79
119.085526321 	 4.02
136.0604337825 	 88.87
162.0760838467 	 1.54
254.1386841035 	 100
386.1822802527 	 0.3
END IONS

BEGIN IONS
PEPMASS=322.0299
CHARGE=1
MSLEVEL=2
RT=0
SOURCE_INSTRUMENT=qTOF
FILENAME=CCMSLIB00000085868.ms
IONMODE=Positive
ORGANISM=Natural
NAME=MLS001056789-01!(R)()-DOI hydrochloride
PI=GNPS
DATACOLLECTOR=GNPS
SMILES=C[C@H](Cc1cc(c(cc1OC)I)OC)N
INCHI=InChI=1S/C11H16INO2/c1-7(13)4-8-5-11(15-3)9(12)6-10(8)14-2/h5-7H,4,13H2,1-3H3/t7-/m1/s1
FORMULA=C11H16INO2
PUBMED=N/A
SUBMITUSER=BIOADREM
LIBRARYQUALITY=0
SPECTRUMID=CCMSLIB00000085868
SCANS=3826
ID=CCMSLIB00000085868
89.0385761284 	 1.53
90.0464011605 	 1.25
91.0542261926 	 10.16
103.0542261926 	 19.35
105.0334907505 	 27
105.0334907505 	 33.76
105.0698762568 	 6.6
107.0491408147 	 1.2
108.0569658468 	 4.65
115.0542261926 	 4.96
117.0698762568 	 5.11
119.0491408147 	 1.04
119.085526321 	 33.4
120.0569658468 	 7.9
120.0569658468 	 9.95
121.0647908789 	 5.44
122.072615911 	 3.19
122.072615911 	 3.84
131.0491408147 	 87.14
133.0284053726 	 0.99
133.0647908789 	 2.72
135.0440554368 	 13.24
135.0804409431 	 24.78
137.059705501 	 9.16
145.0647908789 	 16.16
147.0440554368 	 74.16
147.0804409431 	 1.85
148.0518804689 	 53.96
148.0518804689 	 18.84
149.059705501 	 92.46
150.0675305331 	 4.51
150.0675305331 	 1.04
163.0753555652 	 0.98
163.0753555652 	 100
177.0910056294 	 83.3
178.0988306615 	 83.57
178.0988306615 	 19.32
195.125379763 	 0.11
END IONS

BEGIN IONS
PEPMASS=373.0934
CHARGE=1
MSLEVEL=2
RT=0
SOURCE_INSTRUMENT=qTOF
FILENAME=CCMSLIB00000085869.ms
IONMODE=Positive
ORGANISM=Natural
NAME=MLS002154254-01!Glafenine hydrochloride65513-72-6
PI=GNPS
DATACOLLECTOR=GNPS
SMILES=c1ccc(c(c1)C(=O)OCC(CO)O)Nc1ccnc2cc(ccc12)Cl
INCHI=InChI=1S/C19H17ClN2O4/c20-12-5-6-14-17(7-8-21-18(14)9-12)22-16-4-2-1-3-15(16)19(25)26-11-13(24)10-23/h1-9,13,23-24H,10-11H2,(H,21,22)
FORMULA=C19H17ClN2O4
PUBMED=N/A
SUBMITUSER=BIOADREM
LIBRARYQUALITY=0
SPECTRUMID=CCMSLIB00000085869
SCANS=3827
ID=CCMSLIB00000085869
116.0494751657 	 1.19
144.0443897878 	 2.53
162.0549544741 	 1.04
163.0183278757 	 0.98
190.0624451552 	 0.9
191.0702701873 	 0.32
203.0702701873 	 0.22
217.0733441925 	 1.51
218.0811692246 	 15.5
228.0655191604 	 0.66
245.0682588146 	 2.71
246.0760838467 	 16.75
251.0343718704 	 0.24
252.0421969025 	 3.28
253.0500219346 	 4.38
263.0343718704 	 0.84
279.0292864925 	 0.46
280.0371115246 	 2.58
281.0449365567 	 100
373.0949607545 	 3.48
END IONS

BEGIN IONS
PEPMASS=305.1083
CHARGE=1
MSLEVEL=2
RT=0
SOURCE_INSTRUMENT=qTOF
FILENAME=CCMSLIB00000085870.ms
IONMODE=Positive
ORGANISM=Natural
NAME=MLS002207243-01!Diazinon333-41-5
PI=GNPS
DATACOLLECTOR=GNPS
SMILES=CCOP(=S)(OCC)Oc1cc(C)nc(C(C)C)n1
INCHI=InChI=1S/C12H21N2O3PS/c1-6-15-18(19,16-7-2)17-11-8-10(5)13-12(14-11)9(3)4/h8-9H,6-7H2,1-5H3
FORMULA=C12H21N2O3PS
PUBMED=N/A
SUBMITUSER=BIOADREM
LIBRARYQUALITY=0
SPECTRUMID=CCMSLIB00000085870
SCANS=3828
ID=CCMSLIB00000085870
96.9507624763 	 31.56
100.0215458557 	 20.77
114.9613271626 	 7.04
135.0916743314 	 0.52
136.0756899162 	 0.2
137.0709388893 	 0.35
138.0787639214 	 0.64
152.0528459841 	 0.52
153.1022390177 	 61.81
154.0559199893 	 3.64
169.0793950856 	 100
231.0351608077 	 0.67
249.045725494 	 0.56
305.1083257508 	 0
END IONS

BEGIN IONS
PEPMASS=359.22
CHARGE=1
MSLEVEL=2
RT=0
SOURCE_INSTRUMENT=qTOF
FILENAME=CCMSLIB00000085873.ms
IONMODE=Positive
ORGANISM=Natural
NAME=MLS002154212-01!Canrenoic acid potassium salt2181-04-6
PI=GNPS
DATACOLLECTOR=GNPS
SMILES=C[C@]12CCC(=O)C=C1C=C[C@@H]1[C@@H]2CC[C@@]2(C)[C@H]1CC[C@]2(CCC(=O)[O-])O
INCHI=InChI=1S/C22H30O4/c1-20-9-5-15(23)13-14(20)3-4-16-17(20)6-10-21(2)18(16)7-11-22(21,26)12-8-19(24)25/h3-4,13,16-18,26H,5-12H2,1-2H3,(H,24,25)/p-1/t16-,17+,18+,20+,21+,22-/m1/s1
FORMULA=C22H30O4
PUBMED=N/A
SUBMITUSER=BIOADREM
LIBRARYQUALITY=0
SPECTRUMID=CCMSLIB00000085873
SCANS=3829
ID=CCMSLIB00000085873
91.0542261926 	 13.81
93.0698762568 	 11.99
97.0647908789 	 11.33
105.0698762568 	 51.88
107.085526321 	 51.5
109.0647908789 	 10.21
111.0440554368 	 13.34
115.0542261926 	 13.18
117.0698762568 	 20.26
119.085526321 	 52.1
121.1011763852 	 11.49
123.0804409431 	 18
128.0620512247 	 23.01
129.0698762568 	 28.15
130.0777012889 	 9.33
131.085526321 	 44.21
133.0647908789 	 12.77
133.1011763852 	 31.72
135.0804409431 	 16.06
141.0698762568 	 24.55
142.0777012889 	 10.83
143.085526321 	 62.71
145.1011763852 	 100
147.0804409431 	 40.73
147.1168264494 	 12.74
155.085526321 	 24.26
157.1011763852 	 34.6
159.0804409431 	 23.39
159.1168264494 	 25.99
161.0960910073 	 53.54
169.1011763852 	 43.33
170.1090014173 	 18.6
171.0804409431 	 11.08
173.0960910073 	 49.12
175.1117410715 	 23.76
177.1273911357 	 10.08
179.1066556936 	 10.77
183.1168264494 	 13.96
185.1324765136 	 14.31
187.1117410715 	 25.74
195.1168264494 	 17.03
205.1223057578 	 43.93
207.1168264494 	 9.8
209.1324765136 	 11.77
213.1273911357 	 10.05
223.1481265778 	 13.59
227.1430411999 	 10.39
305.1899913925 	 13.56
323.2005560788 	 12.65
341.2111207651 	 27.52
359.2216854514 	 9.71
END IONS

BEGIN IONS
PEPMASS=282.2221
CHARGE=1
MSLEVEL=2
RT=0
SOURCE_INSTRUMENT=qTOF
FILENAME=CCMSLIB00000085875.ms
IONMODE=Positive
ORGANISM=Natural
NAME=MLS001148462-01!alverine
PI=GNPS
DATACOLLECTOR=GNPS
SMILES=CCN(CCCc1ccccc1)CCCc1ccccc1
INCHI=InChI=1S/C20H27N/c1-2-21(17-9-15-19-11-5-3-6-12-19)18-10-16-20-13-7-4-8-14-20/h3-8,11-14H,2,9-10,15-18H2,1H3
FORMULA=C20H27N
PUBMED=N/A
SUBMITUSER=BIOADREM
LIBRARYQUALITY=0
SPECTRUMID=CCMSLIB00000085875
SCANS=3831
ID=CCMSLIB00000085875
91.0542261926 	 100
103.0542261926 	 0.89
105.0698762568 	 1.16
117.0698762568 	 6.63
119.085526321 	 13.6
136.1120754225 	 0.58
162.1277254867 	 6.26
164.1433755509 	 65.95
252.1746756793 	 0.78
254.1903257435 	 2.43
282.2216258719 	 214.16
END IONS

BEGIN IONS
PEPMASS=285.0474
CHARGE=1
MSLEVEL=2
RT=0
SOURCE_INSTRUMENT=qTOF
FILENAME=CCMSLIB00000085876.ms
IONMODE=Positive
ORGANISM=Natural
NAME=MLS001204918-01!4-Amino-N-(5-ethyl-[1,3,4]thiadiazol-2-yl)-benzenesulfonamide
PI=GNPS
DATACOLLECTOR=GNPS
SMILES=CCc1nnc(NS(=O)(=O)c2ccc(cc2)N)s1
INCHI=InChI=1S/C10H12N4O2S2/c1-2-9-12-13-10(17-9)14-18(15,16)8-5-3-7(11)4-6-8/h3-6H,2,11H2,1H3,(H,13,14)
FORMULA=C10H12N4O2S2
PUBMED=N/A
SUBMITUSER=BIOADREM
LIBRARYQUALITY=0
SPECTRUMID=CCMSLIB00000085876
SCANS=3832
ID=CCMSLIB00000085876
91.0542261926 	 1.55
92.0494751657 	 19.54
108.0443897878 	 100
124.0181750373 	 0.64
130.0413157826 	 15.46
156.0113750999 	 23
157.0140176368 	 2.17
158.0058957915 	 2.12
192.0113750999 	 0.74
285.0474430302 	 0
END IONS

BEGIN IONS
PEPMASS=316.0347
CHARGE=1
MSLEVEL=2
RT=0
SOURCE_INSTRUMENT=qTOF
FILENAME=CCMSLIB00000085877.ms
IONMODE=Positive
ORGANISM=Natural
NAME=MLS001304019-01!
PI=GNPS
DATACOLLECTOR=GNPS
SMILES=C1CC1C#CC1(c2cc(ccc2N=C(O)O1)Cl)C(F)(F)F
INCHI=InChI=1S/C14H9ClF3NO2/c15-9-3-4-11-10(7-9)13(14(16,17)18,21-12(20)19-11)6-5-8-1-2-8/h3-4,7-8H,1-2H2,(H,19,20)
FORMULA=C14H9ClF3NO2
PUBMED=N/A
SUBMITUSER=BIOADREM
LIBRARYQUALITY=0
SPECTRUMID=CCMSLIB00000085877
SCANS=3833
ID=CCMSLIB00000085877
138.0275574963 	 11.47
151.0183278757 	 9.76
153.0146470863 	 4.87
162.0111585084 	 5.34
164.0268085726 	 10.77
166.0651252299 	 20.5
167.072950262 	 100
168.0807752941 	 99.36
169.0333711557 	 8.06
170.0526293926 	 8.33
172.0557033978 	 5.23
174.0105028436 	 8.19
175.0183278757 	 8.89
177.0384565336 	 5.62
188.0268085726 	 32.47
189.0384565336 	 40.43
190.0424586368 	 6.26
192.0010810115 	 15.86
195.0490212199 	 7.31
196.0557033978 	 13.51
197.0635284299 	 21.07
201.0339779399 	 31.49
209.0446847657 	 13.22
212.0073092436 	 21.97
214.0054174657 	 6.45
214.0474244199 	 7.53
215.055249452 	 16.93
216.0619316299 	 24.91
217.069756662 	 8.62
222.0525097978 	 26.28
224.0084520978 	 84.8
225.0113113468 	 9.35
226.0065603199 	 25.6
230.0178739299 	 6.52
231.0252117726 	 4.7
232.015982152 	 38.46
233.0208753184 	 6.75
235.0603348299 	 9.94
236.068159862 	 16.47
237.0759848941 	 4.6
250.024102162 	 23.72
251.0314400047 	 5.01
252.0222103841 	 6.23
316.0346668483 	 0
END IONS

BEGIN IONS
PEPMASS=309.1121
CHARGE=1
MSLEVEL=2
RT=0
SOURCE_INSTRUMENT=qTOF
FILENAME=CCMSLIB00000085878.ms
IONMODE=Positive
ORGANISM=Natural
NAME=MLS001304042-01!WARFARIN81-81-2
PI=GNPS
DATACOLLECTOR=GNPS
SMILES=CC(=O)CC(c1ccccc1)c1c(=O)c2ccccc2oc1O
INCHI=InChI=1S/C19H16O4/c1-12(20)11-15(13-7-3-2-4-8-13)17-18(21)14-9-5-6-10-16(14)23-19(17)22/h2-10,15,22H,11H2,1H3
FORMULA=C19H16O4
PUBMED=N/A
SUBMITUSER=BIOADREM
LIBRARYQUALITY=0
SPECTRUMID=CCMSLIB00000085878
SCANS=3834
ID=CCMSLIB00000085878
93.0334907505 	 0.84
95.0491408147 	 1.37
103.0542261926 	 6.63
109.0284053726 	 0.85
121.0284053726 	 52.61
127.0542261926 	 1.22
129.0698762568 	 8.01
131.0491408147 	 11.28
145.0284053726 	 2.84
147.0804409431 	 6.44
153.0698762568 	 3.61
155.085526321 	 37.41
157.0284053726 	 5.79
163.0389700589 	 100
165.0698762568 	 7.16
167.085526321 	 9.89
173.0233199947 	 37.22
175.0389700589 	 1.18
177.0698762568 	 2.27
178.0777012889 	 11.75
179.085526321 	 5.72
183.0804409431 	 24.3
191.033884681 	 24.23
195.0804409431 	 2.37
205.0647908789 	 7.95
223.0753555652 	 18.11
233.059705501 	 8.83
251.0702701873 	 97.29
309.112135002 	 0
END IONS

BEGIN IONS
PEPMASS=371.1387
CHARGE=1
MSLEVEL=2
RT=0
SOURCE_INSTRUMENT=qTOF
FILENAME=CCMSLIB00000085885.ms
IONMODE=Positive
ORGANISM=Natural
NAME=MLS002153402-01!SR 2640
PI=GNPS
DATACOLLECTOR=GNPS
SMILES=c1ccc2c(c1)ccc(COc1cccc(c1)Nc1ccccc1C(=O)O)n2
INCHI=InChI=1S/C23H18N2O3/c26-23(27)20-9-2-4-11-22(20)24-17-7-5-8-19(14-17)28-15-18-13-12-16-6-1-3-10-21(16)25-18/h1-14,24H,15H2,(H,26,27)
FORMULA=C23H18N2O3
PUBMED=N/A
SUBMITUSER=BIOADREM
LIBRARYQUALITY=0
SPECTRUMID=CCMSLIB00000085885
SCANS=3839
ID=CCMSLIB00000085885
115.0542261926 	 26.37
117.0573001978 	 2.08
128.0494751657 	 6.94
130.0651252299 	 2.17
140.0494751657 	 14.18
142.0651252299 	 78.48
143.072950262 	 100
154.0651252299 	 4.63
155.072950262 	 0.83
156.0807752941 	 0.88
160.0756899162 	 7.35
180.0807752941 	 5.74
182.060039852 	 1.09
183.0678648841 	 41.81
194.060039852 	 0.58
206.0964253583 	 0.87
208.0756899162 	 0.48
211.0627795062 	 12.81
212.0706045383 	 5.42
229.0733441925 	 6.43
234.0913399804 	 2.8
306.112469353 	 0.82
310.1100640498 	 1.73
325.1335391461 	 6.7
335.1178890819 	 8.05
353.1284537682 	 29.41
371.1390184545 	 5.26
END IONS

BEGIN IONS
PEPMASS=407.1874
CHARGE=1
MSLEVEL=2
RT=0
SOURCE_INSTRUMENT=qTOF
FILENAME=CCMSLIB00000085886.ms
IONMODE=Positive
ORGANISM=Natural
NAME=MLS002172445-01!BRL 15572
PI=GNPS
DATACOLLECTOR=GNPS
SMILES=c1ccc(cc1)C(c1ccccc1)C(CN1CCN(CC1)c1cccc(c1)Cl)O
INCHI=InChI=1S/C25H27ClN2O/c26-22-12-7-13-23(18-22)28-16-14-27(15-17-28)19-24(29)25(20-8-3-1-4-9-20)21-10-5-2-6-11-21/h1-13,18,24-25,29H,14-17,19H2
FORMULA=C25H27ClN2O
PUBMED=N/A
SUBMITUSER=BIOADREM
LIBRARYQUALITY=0
SPECTRUMID=CCMSLIB00000085886
SCANS=3840
ID=CCMSLIB00000085886
91.0542261926 	 0.47
103.0542261926 	 0.56
105.0334907505 	 0.71
105.0698762568 	 3.14
110.9996038063 	 0.5
115.0542261926 	 1.29
117.0698762568 	 0.6
118.0651252299 	 0.94
119.072950262 	 1.66
130.0651252299 	 0.95
133.0647908789 	 0.96
138.0105028436 	 14.68
141.0101684926 	 0.34
141.0698762568 	 0.66
151.0542261926 	 1.64
152.0620512247 	 27.07
154.041802972 	 14.4
165.0698762568 	 26.74
166.041802972 	 39.77
167.085526321 	 100
169.041468621 	 1.1
179.0370519451 	 0.66
181.0527020093 	 1.07
193.1011763852 	 0.68
194.0605270414 	 16.47
207.0683520735 	 1.13
209.0840021377 	 47.44
212.0836677867 	 1.03
239.094566824 	 0.38
389.1779025229 	 0.52
407.1884672092 	 15.66
END IONS

BEGIN IONS
PEPMASS=188.0804
CHARGE=1
MSLEVEL=2
RT=0
SOURCE_INSTRUMENT=qTOF
FILENAME=CCMSLIB00000085888.ms
IONMODE=Positive
ORGANISM=Natural
NAME=MLS001074083-01!60719-84-8
PI=GNPS
DATACOLLECTOR=GNPS
SMILES=c1cnccc1c1cc(c(nc1)O)N
INCHI=InChI=1S/C10H9N3O/c11-9-5-8(6-13-10(9)14)7-1-3-12-4-2-7/h1-6H,11H2,(H,13,14)
FORMULA=C10H9N3O
PUBMED=N/A
SUBMITUSER=BIOADREM
LIBRARYQUALITY=0
SPECTRUMID=CCMSLIB00000085888
SCANS=3842
ID=CCMSLIB00000085888
90.0464011605 	 8.75
102.0338251015 	 7.58
104.0494751657 	 31.48
105.0447241388 	 6.9
106.0651252299 	 21.38
107.060374203 	 12.63
116.0494751657 	 16.84
117.0573001978 	 36.2
118.0525491709 	 22.73
131.060374203 	 20.2
132.0681992351 	 33
133.0760242672 	 100
142.0525491709 	 15.99
145.0522148199 	 8.92
159.0790982724 	 17.68
160.0869233045 	 59.76
187.0740128945 	 7.24
188.0818379266 	 66.33
END IONS

BEGIN IONS
PEPMASS=300.0786
CHARGE=1
MSLEVEL=2
RT=0
SOURCE_INSTRUMENT=qTOF
FILENAME=CCMSLIB00000085891.ms
IONMODE=Positive
ORGANISM=Natural
NAME=MLS000069723-01!FENBENDAZOLE43210-67-9
PI=GNPS
DATACOLLECTOR=GNPS
SMILES=COC(=Nc1nc2ccc(cc2[nH]1)Sc1ccccc1)O
INCHI=InChI=1S/C15H13N3O2S/c1-20-15(19)18-14-16-12-8-7-11(9-13(12)17-14)21-10-5-3-2-4-6-10/h2-9H,1H3,(H2,16,17,18,19)
FORMULA=C15H13N3O2S
PUBMED=N/A
SUBMITUSER=BIOADREM
LIBRARYQUALITY=0
SPECTRUMID=CCMSLIB00000085891
SCANS=3844
ID=CCMSLIB00000085891
104.0368991067 	 3.65
130.0399731119 	 0.73
131.047798144 	 22.17
146.034887734 	 0.59
147.0011447646 	 0.54
158.034887734 	 1.28
159.0427127661 	 92.79
171.0262968826 	 2.22
174.0298023561 	 0.57
186.0371959199 	 0.45
190.006958424 	 22.78
198.0371959199 	 3.03
213.0480949572 	 0.76
225.0480949572 	 2.33
240.0589939945 	 3.55
268.0539086166 	 100
300.0801233671 	 1.8
END IONS

BEGIN IONS
PEPMASS=328.169
CHARGE=1
MSLEVEL=2
RT=0
SOURCE_INSTRUMENT=qTOF
FILENAME=CCMSLIB00000085894.ms
IONMODE=Positive
ORGANISM=Natural
NAME=MLS002153392-01!JWH-015155471-08-2
PI=GNPS
DATACOLLECTOR=GNPS
SMILES=CCCn1c(C)c(c2ccccc12)C(=O)c1cccc2ccccc12
INCHI=InChI=1S/C23H21NO/c1-3-15-24-16(2)22(20-12-6-7-14-21(20)24)23(25)19-13-8-10-17-9-4-5-11-18(17)19/h4-14H,3,15H2,1-2H3
FORMULA=C23H21NO
PUBMED=N/A
SUBMITUSER=BIOADREM
LIBRARYQUALITY=0
SPECTRUMID=CCMSLIB00000085894
SCANS=3846
ID=CCMSLIB00000085894
101.0385761284 	 0.21
102.0464011605 	 0.67
103.0542261926 	 28.5
115.0542261926 	 0.62
117.0698762568 	 1
126.0464011605 	 3.56
127.0542261926 	 40.13
130.0651252299 	 3.17
131.0491408147 	 2.9
143.0491408147 	 0.53
145.0647908789 	 20.45
158.060039852 	 20.54
200.1069900446 	 25.96
328.1695903014 	 4.15
END IONS

BEGIN IONS
PEPMASS=473.1294
CHARGE=1
MSLEVEL=2
RT=0
SOURCE_INSTRUMENT=qTOF
FILENAME=CCMSLIB00000085895.ms
IONMODE=Positive
ORGANISM=Natural
NAME=MLS002172463-01!N-Acetyl-L-trytophan 3,5-bis(trifluoromethyl)benzyl ester148451-96-1
PI=GNPS
DATACOLLECTOR=GNPS
SMILES=CC(=N[C@@H](Cc1c[nH]c2ccccc12)C(=O)OCc1cc(cc(c1)C(F)(F)F)C(F)(F)F)O
INCHI=InChI=1S/C22H18F6N2O3/c1-12(31)30-19(8-14-10-29-18-5-3-2-4-17(14)18)20(32)33-11-13-6-15(21(23,24)25)9-16(7-13)22(26,27)28/h2-7,9-10,19,29H,8,11H2,1H3,(H,30,31)/t19-/m0/s1
FORMULA=C22H18F6N2O3
PUBMED=N/A
SUBMITUSER=BIOADREM
LIBRARYQUALITY=0
SPECTRUMID=CCMSLIB00000085895
SCANS=3847
ID=CCMSLIB00000085895
103.0542261926 	 1.21
115.0542261926 	 4.48
117.0573001978 	 7.19
118.0651252299 	 3.52
128.0494751657 	 0.85
130.0651252299 	 33.7
132.0807752941 	 33.89
133.082332721 	 5.29
141.0573001978 	 1.49
142.0651252299 	 12.88
143.072950262 	 54.61
144.0443897878 	 1.5
146.060039852 	 2.8
156.0807752941 	 1.68
158.0838492993 	 7.62
159.0916743314 	 100
160.0932317583 	 14.29
169.0522148199 	 9.32
169.0760242672 	 4.85
170.060039852 	 13.06
171.0615972789 	 1.45
174.0913399804 	 0.98
177.0321889284 	 4.21
183.0916743314 	 4.73
184.0756899162 	 2.86
187.0865889535 	 5.68
201.1022390177 	 18.42
202.1037964446 	 3.51
205.0271035505 	 0.88
207.0229260642 	 1.6
227.0291542963 	 76.59
332.0693027162 	 1.42
336.0806163262 	 0.93
342.0711944941 	 1.93
344.0868445583 	 2.57
352.0755309483 	 5.98
353.0783901973 	 1.47
356.0868445583 	 2.75
357.0908466615 	 0.81
358.1024946225 	 1.22
368.0868445583 	 2.69
370.0986716936 	 1.01
372.0817591804 	 4.59
373.0846184294 	 0.96
385.1158383361 	 3.88
386.117395763 	 1.19
396.0817591804 	 1.28
414.0923238667 	 33.09
415.1001488988 	 8.36
455.1188729682 	 1.13
473.1294376545 	 0
END IONS

BEGIN IONS
PEPMASS=230.007
CHARGE=1
MSLEVEL=2
RT=0
SOURCE_INSTRUMENT=qTOF
FILENAME=CCMSLIB00000085896.ms
IONMODE=Positive
ORGANISM=Natural
NAME=MLS002207196-01!Dimethoate60-51-5
PI=GNPS
DATACOLLECTOR=GNPS
SMILES=CN=C(CSP(=S)(OC)OC)O
INCHI=InChI=1S/C5H12NO3PS2/c1-6-5(7)4-12-10(11,8-2)9-3/h4H2,1-3H3,(H,6,7)
FORMULA=C5H12NO3PS2
PUBMED=N/A
SUBMITUSER=BIOADREM
LIBRARYQUALITY=0
SPECTRUMID=CCMSLIB00000085896
SCANS=3848
ID=CCMSLIB00000085896
76.0756899162 	 1.27
104.0164604778 	 2.65
110.9664125405 	 2.77
119.9936165457 	 1.27
124.0011072268 	 1.47
124.9820626047 	 100
126.0219397862 	 1.45
126.9799541147 	 3.75
128.9769772268 	 3.54
142.992627291 	 13.81
170.9697833589 	 9
230.0068971467 	 0
END IONS

BEGIN IONS
PEPMASS=319.1778
CHARGE=1
MSLEVEL=2
RT=0
SOURCE_INSTRUMENT=qTOF
FILENAME=CCMSLIB00000085898.ms
IONMODE=Positive
ORGANISM=Natural
NAME=MLS001076542-01!(-)-Scopolamine methyl bromide
PI=GNPS
DATACOLLECTOR=GNPS
SMILES=C[N+]1(C)C2CC(CC1C1C2O1)OC(=O)C(CO)c1ccccc1
INCHI=InChI=1S/C18H24NO4/c1-19(2)14-8-12(9-15(19)17-16(14)23-17)22-18(21)13(10-20)11-6-4-3-5-7-11/h3-7,12-17,20H,8-10H2,1-2H3/q+1
FORMULA=C18H24NO4
PUBMED=N/A
SUBMITUSER=BIOADREM
LIBRARYQUALITY=0
SPECTRUMID=CCMSLIB00000085898
SCANS=3849
ID=CCMSLIB00000085898
91.0542261926 	 1.33
94.0651252299 	 3.31
96.0807752941 	 0.47
98.060039852 	 0.42
103.0542261926 	 2.56
107.0491408147 	 0.49
107.072950262 	 1.32
108.0807752941 	 0.88
109.0647908789 	 0.23
109.0886003262 	 0.93
110.060039852 	 0.21
110.0964253583 	 0.22
112.0756899162 	 0.29
121.0647908789 	 1.33
122.0964253583 	 3.14
124.0756899162 	 0.98
124.1120754225 	 2.51
126.0913399804 	 0.23
134.0964253583 	 0.46
136.0756899162 	 0.76
137.0835149483 	 0.57
140.1069900446 	 0.22
152.1069900446 	 100
168.1019046667 	 0.7
170.1175547309 	 4.27
288.1594195456 	 0.38
318.1699842319 	 26.5
319.177809264 	 0
END IONS

BEGIN IONS
PEPMASS=306.0865
CHARGE=1
MSLEVEL=2
RT=0
SOURCE_INSTRUMENT=qTOF
FILENAME=CCMSLIB00000085900.ms
IONMODE=Positive
ORGANISM=Natural
NAME=MLS000860083-01!Phenamil methanesulfonate salt
PI=GNPS
DATACOLLECTOR=GNPS
SMILES=c1ccc(cc1)NC(=N)N=C(c1c(N)nc(c(Cl)n1)N)O
INCHI=InChI=1S/C12H12ClN7O/c13-8-10(15)19-9(14)7(18-8)11(21)20-12(16)17-6-4-2-1-3-5-6/h1-5H,(H4,14,15,19)(H3,16,17,20,21)
FORMULA=C12H12ClN7O
PUBMED=N/A
SUBMITUSER=BIOADREM
LIBRARYQUALITY=0
SPECTRUMID=CCMSLIB00000085900
SCANS=3851
ID=CCMSLIB00000085900
88.9901017525 	 0.34
92.0494751657 	 0.55
93.0573001978 	 0.49
94.0651252299 	 13.09
100.9901017525 	 1.99
107.035222085 	 0.33
108.0430471171 	 8.45
116.0010007898 	 41.94
119.060374203 	 78.55
125.0457867713 	 0.4
136.0869233045 	 100
143.0118998271 	 30.52
161.0224645134 	 19.24
162.0230789026 	 0.77
163.0183278757 	 5.36
171.0054717785 	 76.05
172.0074288384 	 3.89
173.0026778115 	 21.75
189.0160364648 	 10.51
190.0179935247 	 0.62
191.0132424978 	 3.4
306.0864617537 	 0.94
END IONS

BEGIN IONS
PEPMASS=318.002
CHARGE=1
MSLEVEL=2
RT=0
SOURCE_INSTRUMENT=qTOF
FILENAME=CCMSLIB00000085901.ms
IONMODE=Positive
ORGANISM=Natural
NAME=MLS001074294-01!Fosmet732-11-6
PI=GNPS
DATACOLLECTOR=GNPS
SMILES=COP(=S)(OC)SCN1C(=O)c2ccccc2C1=O
INCHI=InChI=1S/C11H12NO4PS2/c1-15-17(18,16-2)19-7-12-10(13)8-5-3-4-6-9(8)11(12)14/h3-6H,7H2,1-2H3
FORMULA=C11H12NO4PS2
PUBMED=N/A
SUBMITUSER=BIOADREM
LIBRARYQUALITY=0
SPECTRUMID=CCMSLIB00000085901
SCANS=3852
ID=CCMSLIB00000085901
130.0287397236 	 4.82
132.0443897878 	 2.05
133.0284053726 	 25.58
160.0393044099 	 100
161.0419469468 	 8.41
318.0018117688 	 0
END IONS

BEGIN IONS
PEPMASS=259.021
CHARGE=1
MSLEVEL=2
RT=0
SOURCE_INSTRUMENT=qTOF
FILENAME=CCMSLIB00000085904.ms
IONMODE=Positive
ORGANISM=Natural
NAME=MLS001077357-01!6-ETHOXY-2-BENZOTHIAZOLESULFONAMIDE
PI=GNPS
DATACOLLECTOR=GNPS
SMILES=CCOc1ccc2c(c1)sc(n2)S(=O)(=O)N
INCHI=InChI=1S/C9H10N2O3S2/c1-2-14-6-3-4-7-8(5-6)15-9(11-7)16(10,12)13/h3-5H,2H2,1H3,(H2,10,12,13)
FORMULA=C9H10N2O3S2
PUBMED=N/A
SUBMITUSER=BIOADREM
LIBRARYQUALITY=0
SPECTRUMID=CCMSLIB00000085904
SCANS=3855
ID=CCMSLIB00000085904
93.9871717221 	 0.94
94.9949967542 	 9.13
106.0287397236 	 43.95
106.9949967542 	 0.98
109.0106468184 	 1.04
117.0573001978 	 1.08
122.0058957915 	 30.19
122.9899113763 	 59.83
126.0008104136 	 0.9
134.0058957915 	 3.11
134.060039852 	 1.41
138.0008104136 	 5.8
148.9929853815 	 5.75
150.0008104136 	 100
153.9957250357 	 2.18
165.9957250357 	 11.2
178.032110542 	 15.15
181.9906396578 	 5.41
259.0205595777 	 0
END IONS

BEGIN IONS
PEPMASS=280.1682
CHARGE=1
MSLEVEL=2
RT=0
SOURCE_INSTRUMENT=qTOF
FILENAME=CCMSLIB00000085905.ms
IONMODE=Positive
ORGANISM=Natural
NAME=MLS001148235-01!
PI=GNPS
DATACOLLECTOR=GNPS
SMILES=CN(C)CC/C=C/1\c2ccccc2COc2ccccc12
INCHI=InChI=1S/C19H21NO/c1-20(2)13-7-11-17-16-9-4-3-8-15(16)14-21-19-12-6-5-10-18(17)19/h3-6,8-12H,7,13-14H2,1-2H3/b17-11+
FORMULA=C19H21NO
PUBMED=N/A
SUBMITUSER=BIOADREM
LIBRARYQUALITY=0
SPECTRUMID=CCMSLIB00000085905
SCANS=3856
ID=CCMSLIB00000085905
91.0542261926 	 6.14
103.0542261926 	 3.11
107.0491408147 	 100
115.0542261926 	 69.15
117.0698762568 	 35.38
129.0698762568 	 28.76
131.0491408147 	 15.18
141.0698762568 	 57.33
152.0620512247 	 8.27
153.0698762568 	 4.08
157.0647908789 	 4.49
165.0698762568 	 49.77
166.0777012889 	 33.64
167.085526321 	 29.83
177.0698762568 	 4.17
178.0777012889 	 50.59
179.085526321 	 30.97
181.0647908789 	 3.53
181.1011763852 	 4.5
189.0698762568 	 4.74
190.0777012889 	 5.99
191.085526321 	 32.84
192.0933513531 	 29.92
194.072615911 	 53.14
202.0777012889 	 85.16
205.0647908789 	 6.44
207.0804409431 	 23.54
207.1168264494 	 8.8
209.0960910073 	 3.58
217.1011763852 	 19.69
219.0804409431 	 31.54
220.0882659752 	 72.86
235.1117410715 	 19.37
280.1695903014 	 13.97
END IONS

BEGIN IONS
PEPMASS=370.1277
CHARGE=1
MSLEVEL=2
RT=0
SOURCE_INSTRUMENT=qTOF
FILENAME=CCMSLIB00000085906.ms
IONMODE=Positive
ORGANISM=Natural
NAME=MLS002172495-01!2-Chloro-N6-cyclopentyladenosine hemihydrate
PI=GNPS
DATACOLLECTOR=GNPS
SMILES=C1CCC(C1)Nc1c2c(nc(Cl)n1)n(cn2)[C@H]1[C@@H]([C@@H]([C@@H](CO)O1)O)O
INCHI=InChI=1S/C15H20ClN5O4/c16-15-19-12(18-7-3-1-2-4-7)9-13(20-15)21(6-17-9)14-11(24)10(23)8(5-22)25-14/h6-8,10-11,14,22-24H,1-5H2,(H,18,19,20)/t8-,10-,11-,14-/m1/s1
FORMULA=C15H20ClN5O4
PUBMED=N/A
SUBMITUSER=BIOADREM
LIBRARYQUALITY=0
SPECTRUMID=CCMSLIB00000085906
SCANS=3857
ID=CCMSLIB00000085906
107.035222085 	 0.58
134.0461211223 	 29.94
152.9962497629 	 0.31
170.0227988644 	 100
238.0853991212 	 73.19
370.1276578664 	 0
END IONS

BEGIN IONS
PEPMASS=219.113
CHARGE=1
MSLEVEL=2
RT=0
SOURCE_INSTRUMENT=qTOF
FILENAME=CCMSLIB00000085908.ms
IONMODE=Positive
ORGANISM=Natural
NAME=MLS000859911-01!N-Acetyl-5-hydroxytryptamine
PI=GNPS
DATACOLLECTOR=GNPS
SMILES=CC(=NCCc1c[nH]c2ccc(cc12)O)O
INCHI=InChI=1S/C12H14N2O2/c1-8(15)13-5-4-9-7-14-12-3-2-10(16)6-11(9)12/h2-3,6-7,14,16H,4-5H2,1H3,(H,13,15)
FORMULA=C12H14N2O2
PUBMED=N/A
SUBMITUSER=BIOADREM
LIBRARYQUALITY=0
SPECTRUMID=CCMSLIB00000085908
SCANS=3859
ID=CCMSLIB00000085908
103.0542261926 	 3.42
105.0698762568 	 11.87
107.0491408147 	 1.22
115.0542261926 	 53.15
117.0573001978 	 41.78
123.0440554368 	 1.76
130.0651252299 	 13.41
131.0491408147 	 10.54
131.072950262 	 10.52
132.0807752941 	 25.01
133.0522148199 	 16.5
134.060039852 	 3.59
138.0675305331 	 7.41
140.0494751657 	 3.65
141.0573001978 	 3.3
142.0651252299 	 13.55
145.0522148199 	 3.74
158.060039852 	 5.44
159.0678648841 	 26.94
160.0756899162 	 100
219.112803704 	 0
END IONS

BEGIN IONS
PEPMASS=261.1589
CHARGE=1
MSLEVEL=2
RT=0
SOURCE_INSTRUMENT=qTOF
FILENAME=CCMSLIB00000085909.ms
IONMODE=Positive
ORGANISM=Natural
NAME=MLS001056735-01!
PI=GNPS
DATACOLLECTOR=GNPS
SMILES=c1ccc(cc1)CCN1CCC2(CC1)CN=C(O)O2
INCHI=InChI=1S/C15H20N2O2/c18-14-16-12-15(19-14)7-10-17(11-8-15)9-6-13-4-2-1-3-5-13/h1-5H,6-12H2,(H,16,18)
FORMULA=C15H20N2O2
PUBMED=N/A
SUBMITUSER=BIOADREM
LIBRARYQUALITY=0
SPECTRUMID=CCMSLIB00000085909
SCANS=3860
ID=CCMSLIB00000085909
96.0807752941 	 3.66
103.0542261926 	 24.89
105.0698762568 	 100
139.0865889535 	 1.28
151.0865889535 	 0.55
157.0971536398 	 0.82
169.0971536398 	 9.2
243.1491892103 	 0.47
261.1597538966 	 14.26
END IONS

BEGIN IONS
PEPMASS=267.09
CHARGE=1
MSLEVEL=2
RT=0
SOURCE_INSTRUMENT=qTOF
FILENAME=CCMSLIB00000085910.ms
IONMODE=Positive
ORGANISM=Natural
NAME=MLS002153444-01!6-CHLOROMELATONIN63762-74-3
PI=GNPS
DATACOLLECTOR=GNPS
SMILES=CC(=NCCc1c[nH]c2cc(c(cc12)OC)Cl)O
INCHI=InChI=1S/C13H15ClN2O2/c1-8(17)15-4-3-9-7-16-12-6-11(14)13(18-2)5-10(9)12/h5-7,16H,3-4H2,1-2H3,(H,15,17)
FORMULA=C13H15ClN2O2
PUBMED=N/A
SUBMITUSER=BIOADREM
LIBRARYQUALITY=0
SPECTRUMID=CCMSLIB00000085910
SCANS=3861
ID=CCMSLIB00000085910
103.0542261926 	 2.75
115.0542261926 	 1.22
118.0651252299 	 0.33
128.0494751657 	 0.95
129.0573001978 	 0.42
130.0651252299 	 51.19
132.0443897878 	 0.51
140.0494751657 	 0.31
143.072950262 	 1.56
144.0807752941 	 4.26
146.060039852 	 1.62
154.0651252299 	 0.34
157.0522148199 	 0.45
158.060039852 	 79.22
161.0835149483 	 0.97
164.0261529078 	 1.55
165.0339779399 	 7.76
172.0756899162 	 3.27
173.0835149483 	 100
181.028892562 	 0.51
193.028892562 	 13.26
196.0523676583 	 0.6
208.0523676583 	 32.43
267.0894814461 	 0
END IONS

BEGIN IONS
PEPMASS=340.37
CHARGE=1
MSLEVEL=2
RT=0
SOURCE_INSTRUMENT=qTOF
FILENAME=CCMSLIB00000085911.ms
IONMODE=Positive
ORGANISM=Natural
NAME=MLS002207232-01!HEXETIDINE141-94-6
PI=GNPS
DATACOLLECTOR=GNPS
SMILES=CCCCC(CC)CN1CC(C)(CN(CC(CC)CCCC)C1)N
INCHI=InChI=1S/C21H45N3/c1-6-10-12-19(8-3)14-23-16-21(5,22)17-24(18-23)15-20(9-4)13-11-7-2/h19-20H,6-18,22H2,1-5H3
FORMULA=C21H45N3
PUBMED=N/A
SUBMITUSER=BIOADREM
LIBRARYQUALITY=0
SPECTRUMID=CCMSLIB00000085911
SCANS=3862
ID=CCMSLIB00000085911
95.085526321 	 0.73
96.0807752941 	 2.49
98.0964253583 	 2.57
110.0964253583 	 0.62
112.1120754225 	 2.41
125.1199004546 	 0.75
126.1277254867 	 2.07
128.1433755509 	 1.86
140.1433755509 	 24.65
142.1590256151 	 7.43
144.1746756793 	 1.92
156.1746756793 	 100
168.1746756793 	 40.7
170.1903257435 	 7.24
180.1746756793 	 1.33
182.1903257435 	 11.91
185.2012247808 	 11.16
196.2059758077 	 2.83
213.2325249092 	 2.6
340.3686244601 	 0
END IONS

BEGIN IONS
PEPMASS=332.104
CHARGE=1
MSLEVEL=2
RT=0
SOURCE_INSTRUMENT=qTOF
FILENAME=CCMSLIB00000085913.ms
IONMODE=Positive
ORGANISM=Natural
NAME=MLS002153274-01!Z-L-Phe chloromethyl ketone26049-94-5
PI=GNPS
DATACOLLECTOR=GNPS
SMILES=c1ccc(cc1)C[C@@H](C(=O)CCl)N=C(O)OCc1ccccc1
INCHI=InChI=1S/C18H18ClNO3/c19-12-17(21)16(11-14-7-3-1-4-8-14)20-18(22)23-13-15-9-5-2-6-10-15/h1-10,16H,11-13H2,(H,20,22)/t16-/m0/s1
FORMULA=C18H18ClNO3
PUBMED=N/A
SUBMITUSER=BIOADREM
LIBRARYQUALITY=0
SPECTRUMID=CCMSLIB00000085913
SCANS=3863
ID=CCMSLIB00000085913
91.0542261926 	 100
115.0542261926 	 12.61
117.0573001978 	 6.4
119.072950262 	 5.64
126.0185689678 	 4.99
129.0698762568 	 22.95
130.0651252299 	 10.07
141.0698762568 	 8.84
143.072950262 	 11.57
144.0780952194 	 5.08
153.0676833715 	 7.43
165.0698762568 	 61.05
166.0755084036 	 76.39
178.0777012889 	 19.1
179.0469479294 	 11.48
179.085526321 	 26.9
180.0933513531 	 9.88
181.0989834999 	 68.11
191.085526321 	 6.87
193.0733441925 	 5.17
193.1011763852 	 10.63
202.0777012889 	 22.77
210.1277254867 	 8.56
217.1011763852 	 15.9
332.1047971593 	 0
END IONS

BEGIN IONS
PEPMASS=219.0882
CHARGE=1
MSLEVEL=2
RT=0
SOURCE_INSTRUMENT=qTOF
FILENAME=CCMSLIB00000085915.ms
IONMODE=Positive
ORGANISM=Natural
NAME=MLS000862190-01!3,7-Dimethyl-1-propargylxanthine
PI=GNPS
DATACOLLECTOR=GNPS
SMILES=C#CCn1c(=O)c2c(ncn2C)n(C)c1=O
INCHI=InChI=1S/C10H10N4O2/c1-4-5-14-9(15)7-8(11-6-12(7)2)13(3)10(14)16/h1,6H,5H2,2-3H3
FORMULA=C10H10N4O2
PUBMED=N/A
SUBMITUSER=BIOADREM
LIBRARYQUALITY=0
SPECTRUMID=CCMSLIB00000085915
SCANS=3865
ID=CCMSLIB00000085915
109.0396387609 	 6.06
109.0647908789 	 1.92
110.0712732403 	 22.2
121.0634482082 	 1.84
123.0427127661 	 20.9
136.0518804689 	 4.56
138.0661878624 	 100
158.0712732403 	 2.93
163.0627795062 	 3.05
219.087651586 	 14.34
END IONS

BEGIN IONS
PEPMASS=496.2968
CHARGE=1
MSLEVEL=2
RT=0
SOURCE_INSTRUMENT=qTOF
FILENAME=CCMSLIB00000085917.ms
IONMODE=Positive
ORGANISM=Natural
NAME=MLS001056800-01!Mibefradil dihydrochloride hydrate
PI=GNPS
DATACOLLECTOR=GNPS
SMILES=CC(C)[C@H]1c2ccc(cc2CC[C@@]1(CCN(C)CCCc1nc2ccccc2[nH]1)OC(=O)COC)F
INCHI=InChI=1S/C29H38FN3O3/c1-20(2)28-23-12-11-22(30)18-21(23)13-14-29(28,36-27(34)19-35-4)15-17-33(3)16-7-10-26-31-24-8-5-6-9-25(24)32-26/h5-6,8-9,11-12,18,20,28H,7,10,13-17,19H2,1-4H3,(H,31,32)/t28-,29-/m0/s1
FORMULA=C29H38FN3O3
PUBMED=N/A
SUBMITUSER=BIOADREM
LIBRARYQUALITY=0
SPECTRUMID=CCMSLIB00000085917
SCANS=3866
ID=CCMSLIB00000085917
109.0448043605 	 0.25
119.060374203 	 0.39
131.060374203 	 3.57
132.0655191604 	 0.39
133.0448043605 	 0.48
135.0604544247 	 5.73
136.0631138572 	 0.41
145.0760242672 	 0.26
146.0526293926 	 1.35
147.0604544247 	 3.02
148.0631138572 	 0.29
149.0761044889 	 0.56
156.0681992351 	 0.24
157.0760242672 	 7.99
159.0916743314 	 100
161.0761044889 	 7.78
162.0787639214 	 0.79
173.0761044889 	 0.38
174.083929521 	 0.26
175.0917545531 	 3.5
176.0944139856 	 0.88
189.1074046173 	 0.41
190.1311934224 	 2.19
201.138624524 	 0.21
202.1338734971 	 36.14
217.1387047457 	 1.97
218.1413641782 	 0.23
406.2653022428 	 3.67
407.2704472002 	 1.34
496.2969963017 	 0.14
END IONS

BEGIN IONS
PEPMASS=461.156
CHARGE=1
MSLEVEL=2
RT=0
SOURCE_INSTRUMENT=qTOF
FILENAME=CCMSLIB00000085918.ms
IONMODE=Positive
ORGANISM=Natural
NAME=MLS001183715-01!OXYTETRACYCLINE (INTERNAL USE)79-57-2
PI=GNPS
DATACOLLECTOR=GNPS
SMILES=CC1(c2cccc(c2C(=O)C2=C(C3(C(C(C(=O)C(=C3O)C(=N)O)N(C)C)C(C12)O)O)O)O)O
INCHI=InChI=1S/C22H24N2O9/c1-21(32)7-5-4-6-8(25)9(7)15(26)10-12(21)17(28)13-14(24(2)3)16(27)11(20(23)31)19(30)22(13,33)18(10)29/h4-6,12-14,17,25,28-30,32-33H,1-3H3,(H2,23,31)
FORMULA=C22H24N2O9
PUBMED=N/A
SUBMITUSER=BIOADREM
LIBRARYQUALITY=0
SPECTRUMID=CCMSLIB00000085918
SCANS=3867
ID=CCMSLIB00000085918
98.060039852 	 9.45
126.0549544741 	 5.68
145.0647908789 	 3.56
152.0706045383 	 3.72
154.0498690962 	 19.59
180.0655191604 	 5.03
198.0760838467 	 4.05
201.0546201231 	 100
208.0604337825 	 8.42
211.0753555652 	 4.29
213.0546201231 	 20.91
226.0709984688 	 12.91
227.0702701873 	 5.27
239.0702701873 	 11.81
251.0702701873 	 3.89
255.0651848094 	 2.96
263.0702701873 	 4.89
267.0651848094 	 13.02
268.0366243352 	 26.87
279.0651848094 	 8.88
281.0808348736 	 3.24
283.0600994315 	 48.48
284.0639017182 	 10.12
285.0757494957 	 5.99
291.0651848094 	 3.89
294.0522743994 	 3.45
307.0600994315 	 8.16
309.0757494957 	 4.27
319.0600994315 	 3.86
322.0471890215 	 9.52
335.0550140536 	 7.26
337.0706641178 	 24.63
338.0744664045 	 5.38
350.0421036436 	 26.36
351.0459059303 	 5.81
353.0655787399 	 3.61
363.0499286757 	 7.25
365.0655787399 	 20.1
366.0693810266 	 5.42
380.1128632835 	 2.94
381.060493362 	 19.84
408.1077779056 	 10.02
426.1183425919 	 36.47
444.1289072782 	 4.27
461.1554563797 	 0
END IONS

BEGIN IONS
PEPMASS=210.113
CHARGE=1
MSLEVEL=2
RT=0
SOURCE_INSTRUMENT=qTOF
FILENAME=CCMSLIB00000085919.ms
IONMODE=Positive
ORGANISM=Natural
NAME=MLS002207242-01!Propoxur114-26-1
PI=GNPS
DATACOLLECTOR=GNPS
SMILES=CC(C)Oc1ccccc1OC(=NC)O
INCHI=InChI=1S/C11H15NO3/c1-8(2)14-9-6-4-5-7-10(9)15-11(13)12-3/h4-8H,1-3H3,(H,12,13)
FORMULA=C11H15NO3
PUBMED=N/A
SUBMITUSER=BIOADREM
LIBRARYQUALITY=0
SPECTRUMID=CCMSLIB00000085919
SCANS=3868
ID=CCMSLIB00000085919
93.0334907505 	 35.26
107.0491408147 	 2.22
111.0440554368 	 100
137.0260000694 	 2.55
168.0655191604 	 3.09
210.112469353 	 0
END IONS

BEGIN IONS
PEPMASS=266.1751
CHARGE=1
MSLEVEL=2
RT=0
SOURCE_INSTRUMENT=qTOF
FILENAME=CCMSLIB00000085920.ms
IONMODE=Positive
ORGANISM=Natural
NAME=MLS002154132-01!Oxprenolol hydrochloride6452-73-9
PI=GNPS
DATACOLLECTOR=GNPS
SMILES=C=CCOc1ccccc1OCC(CNC(C)C)O
INCHI=InChI=1S/C15H23NO3/c1-4-9-18-14-7-5-6-8-15(14)19-11-13(17)10-16-12(2)3/h4-8,12-13,16-17H,1,9-11H2,2-3H3
FORMULA=C15H23NO3
PUBMED=N/A
SUBMITUSER=BIOADREM
LIBRARYQUALITY=0
SPECTRUMID=CCMSLIB00000085920
SCANS=3869
ID=CCMSLIB00000085920
91.0542261926 	 5.57
98.0964253583 	 25.59
100.0756899162 	 8.74
103.0542261926 	 24.38
105.0698762568 	 73.15
107.0491408147 	 43.57
108.0569658468 	 7.35
110.0362304047 	 22.29
115.0542261926 	 17.61
116.1069900446 	 100
117.0698762568 	 17.92
120.0569658468 	 8.93
121.0284053726 	 82.77
122.0362304047 	 35.85
123.0440554368 	 31.1
128.0620512247 	 8.23
131.0491408147 	 27.42
131.085526321 	 7.09
132.0569658468 	 13.74
133.0647908789 	 28.63
135.0440554368 	 56.74
143.085526321 	 5.19
145.0647908789 	 27.8
147.0440554368 	 61.87
147.0804409431 	 16.47
148.0518804689 	 35.85
149.059705501 	 21.98
161.059705501 	 13.81
163.0753555652 	 9.75
189.0910056294 	 11.78
206.1175547309 	 6.9
207.125379763 	 5.83
210.112469353 	 30.02
225.1359444493 	 6.33
248.1645049235 	 4.75
266.1750696098 	 0
END IONS

BEGIN IONS
PEPMASS=371.1881
CHARGE=1
MSLEVEL=2
RT=0
SOURCE_INSTRUMENT=qTOF
FILENAME=CCMSLIB00000085925.ms
IONMODE=Positive
ORGANISM=Natural
NAME=MLS002153184-01!7-Cyclopentyl-5-(4-phenoxyphenyl)-7H-pyrrolo[2,3-d]pyrimidin-4-ylamine
PI=GNPS
DATACOLLECTOR=GNPS
SMILES=c1ccc(cc1)Oc1ccc(cc1)c1cn(C2CCCC2)c2c1c(N)ncn2
INCHI=InChI=1S/C23H22N4O/c24-22-21-20(14-27(17-6-4-5-7-17)23(21)26-15-25-22)16-10-12-19(13-11-16)28-18-8-2-1-3-9-18/h1-3,8-15,17H,4-7H2,(H2,24,25,26)
FORMULA=C23H22N4O
PUBMED=N/A
SUBMITUSER=BIOADREM
LIBRARYQUALITY=0
SPECTRUMID=CCMSLIB00000085925
SCANS=3872
ID=CCMSLIB00000085925
141.0573001978 	 0.3
155.060374203 	 0.54
156.0681992351 	 0.33
166.0525491709 	 1.97
168.0681992351 	 1.54
180.0556231761 	 1.39
182.0712732403 	 0.69
183.0790982724 	 15.63
192.0569658468 	 0.48
193.0647908789 	 13.96
197.0821722776 	 0.59
198.0899973097 	 0.77
204.0807752941 	 0.57
207.0804409431 	 2.47
208.0505377982 	 1.16
209.0821722776 	 29.72
210.0913399804 	 29.61
225.0770868997 	 1.32
226.0849119318 	 0.98
230.0838492993 	 0.32
231.0916743314 	 1.31
232.0756899162 	 4.21
234.0913399804 	 0.84
241.0760242672 	 0.34
257.0947483366 	 0.3
258.1025733687 	 0.78
259.0865889535 	 5.64
261.1022390177 	 3.78
276.113138055 	 2.44
285.0896629587 	 0.48
286.0974879908 	 5.91
302.1162120602 	 0.32
303.1240370923 	 100
371.1866373491 	 47.22
END IONS

BEGIN IONS
PEPMASS=286.2519
CHARGE=1
MSLEVEL=2
RT=0
SOURCE_INSTRUMENT=qTOF
FILENAME=CCMSLIB00000085927.ms
IONMODE=Positive
ORGANISM=Natural
NAME=MLS002207102-01!(+)-Dehydroabietylamine1446-61-3
PI=GNPS
DATACOLLECTOR=GNPS
SMILES=CC(C)c1ccc2c(CC[C@H]3[C@@](C)(CCC[C@]23C)CN)c1
INCHI=InChI=1S/C20H31N/c1-14(2)15-6-8-17-16(12-15)7-9-18-19(3,13-21)10-5-11-20(17,18)4/h6,8,12,14,18H,5,7,9-11,13,21H2,1-4H3/t18-,19-,20+/m0/s1
FORMULA=C20H31N
PUBMED=N/A
SUBMITUSER=BIOADREM
LIBRARYQUALITY=0
SPECTRUMID=CCMSLIB00000085927
SCANS=3874
ID=CCMSLIB00000085927
91.0542261926 	 4.805
103.0542261926 	 1.745
105.0698762568 	 1.73
109.1011763852 	 0.195
115.0542261926 	 6.59
116.0620512247 	 4.45
117.0698762568 	 22.39
119.085526321 	 0.695
127.0542261926 	 0.79
128.0620512247 	 16.085
129.0698762568 	 22.875
131.085526321 	 100
133.1011763852 	 1.57
141.0698762568 	 2.22
142.0777012889 	 4.54
143.085526321 	 27.285
145.1011763852 	 9.415
147.1168264494 	 0.595
153.0698762568 	 0.23
154.0777012889 	 0.32
155.085526321 	 1.77
156.0933513531 	 1.965
157.1011763852 	 5.915
159.1168264494 	 9.965
161.1324765136 	 0.9
169.1011763852 	 1.64
170.1090014173 	 2.425
171.1168264494 	 7.17
173.1324765136 	 95.72
183.1168264494 	 0.35
184.1246514815 	 1.175
185.1324765136 	 24.47
187.1481265778 	 3.015
199.1481265778 	 4.75
213.163776642 	 1.59
227.1794267062 	 0.25
286.2529260003 	 0.22
END IONS

BEGIN IONS
PEPMASS=191.0698
CHARGE=1
MSLEVEL=2
RT=0
SOURCE_INSTRUMENT=qTOF
FILENAME=CCMSLIB00000085928.ms
IONMODE=Positive
ORGANISM=Natural
NAME=MLS002207059-01!7-Methoxy-4-methylcoumarin2555-28-4
PI=GNPS
DATACOLLECTOR=GNPS
SMILES=Cc1cc(=O)oc2cc(ccc12)OC
INCHI=InChI=1S/C11H10O3/c1-7-5-11(12)14-10-6-8(13-2)3-4-9(7)10/h3-6H,1-2H3
FORMULA=C11H10O3
PUBMED=N/A
SUBMITUSER=BIOADREM
LIBRARYQUALITY=0
SPECTRUMID=CCMSLIB00000085928
SCANS=3875
ID=CCMSLIB00000085928
50.0151010321 	 5.12
91.0542261926 	 26.49
92.0620512247 	 4.21
103.0542261926 	 55.28
104.0620512247 	 9.24
105.0334907505 	 8.25
105.0698762568 	 29.79
107.0491408147 	 29.54
115.0542261926 	 21.62
116.0620512247 	 4.7
119.0491408147 	 11.55
120.0569658468 	 21.2
131.0491408147 	 47.69
132.0569658468 	 15.1
133.0284053726 	 7.43
133.0647908789 	 6.27
135.0804409431 	 53.8
145.0647908789 	 9.9
147.0440554368 	 10.31
148.0518804689 	 100
163.0753555652 	 7.26
176.046795091 	 16.42
191.0702701873 	 49.83
END IONS

BEGIN IONS
PEPMASS=288.1227
CHARGE=1
MSLEVEL=2
RT=0
SOURCE_INSTRUMENT=qTOF
FILENAME=CCMSLIB00000085929.ms
IONMODE=Positive
ORGANISM=Natural
NAME=MLS002153955-01!Lycorine hydrochloride2188-68-3
PI=GNPS
DATACOLLECTOR=GNPS
SMILES=C1CN2Cc3cc4c(cc3[C@H]3C2C1=C[C@@H]([C@H]3O)O)OCO4
INCHI=InChI=1S/C16H17NO4/c18-11-3-8-1-2-17-6-9-4-12-13(21-7-20-12)5-10(9)14(15(8)17)16(11)19/h3-5,11,14-16,18-19H,1-2,6-7H2/t11-,14-,15?,16+/m0/s1
FORMULA=C16H17NO4
PUBMED=N/A
SUBMITUSER=BIOADREM
LIBRARYQUALITY=0
SPECTRUMID=CCMSLIB00000085929
SCANS=3876
ID=CCMSLIB00000085929
91.0542261926 	 3.39
94.0651252299 	 1.85
112.0756899162 	 2.49
119.0491408147 	 56.33
121.0522148199 	 2.08
134.060039852 	 6.74
136.0518804689 	 4.79
147.0440554368 	 100
149.059705501 	 2.01
153.0698762568 	 2.49
159.0440554368 	 2.36
177.0546201231 	 19.36
184.1120754225 	 2.17
186.0913399804 	 2.17
194.0964253583 	 4.35
212.1069900446 	 3.58
270.112469353 	 4.73
288.1230340393 	 19.87
END IONS

BEGIN IONS
PEPMASS=451.2555
CHARGE=1
MSLEVEL=2
RT=0
SOURCE_INSTRUMENT=qTOF
FILENAME=CCMSLIB00000085932.ms
IONMODE=Positive
ORGANISM=Natural
NAME=MLS001060846-01!
PI=GNPS
DATACOLLECTOR=GNPS
SMILES=c1ccc(cc1)CCCN1CCN(CC1)CCOC(c1ccc(cc1)F)c1ccc(cc1)F
INCHI=InChI=1S/C28H32F2N2O/c29-26-12-8-24(9-13-26)28(25-10-14-27(30)15-11-25)33-22-21-32-19-17-31(18-20-32)16-4-7-23-5-2-1-3-6-23/h1-3,5-6,8-15,28H,4,7,16-22H2
FORMULA=C28H32F2N2O
PUBMED=N/A
SUBMITUSER=BIOADREM
LIBRARYQUALITY=0
SPECTRUMID=CCMSLIB00000085932
SCANS=3878
ID=CCMSLIB00000085932
133.0448043605 	 0.27
157.0448043605 	 0.24
163.0542261926 	 0.65
170.0526293926 	 1.24
181.0448043605 	 0.64
183.0604544247 	 64.96
184.0631138572 	 14.31
188.0432075605 	 2.09
189.045866993 	 0.21
201.0510325926 	 25.35
203.0666826568 	 100
204.0693420893 	 47.64
451.2555460597 	 0.03
END IONS

BEGIN IONS
PEPMASS=476.2504
CHARGE=1
MSLEVEL=2
RT=0
SOURCE_INSTRUMENT=qTOF
FILENAME=CCMSLIB00000085935.ms
IONMODE=Positive
ORGANISM=Natural
NAME=MLS001333730-01!
PI=GNPS
DATACOLLECTOR=GNPS
SMILES=c1ccc(cc1)N1CN=C(C21CCN(CCCC(c1ccc(cc1)F)c1ccc(cc1)F)CC2)O
INCHI=InChI=1S/C29H31F2N3O/c30-24-12-8-22(9-13-24)27(23-10-14-25(31)15-11-23)7-4-18-33-19-16-29(17-20-33)28(35)32-21-34(29)26-5-2-1-3-6-26/h1-3,5-6,8-15,27H,4,7,16-21H2,(H,32,35)
FORMULA=C29H31F2N3O
PUBMED=N/A
SUBMITUSER=BIOADREM
LIBRARYQUALITY=0
SPECTRUMID=CCMSLIB00000085935
SCANS=3881
ID=CCMSLIB00000085935
103.0542261926 	 0.53
106.0651252299 	 18.28
109.0448043605 	 17.28
110.060039852 	 4.98
123.0604544247 	 1.01
130.0662680841 	 0.4
135.0604544247 	 1.22
146.0975682125 	 1.36
147.0604544247 	 17.08
149.0761044889 	 13.95
158.0964253583 	 0.4
178.1026535904 	 0.77
183.0604544247 	 0.37
203.0666826568 	 5.47
217.082332721 	 1.35
243.0979827852 	 2.3
246.1288683409 	 7.34
274.1401819509 	 14.13
300.1558320151 	 2.37
324.1558320151 	 1.3
325.1398475999 	 0.43
326.1714820793 	 4.58
328.1871321435 	 1.29
342.1663967014 	 15.93
354.1663967014 	 2.1
371.1929458029 	 64.61
476.2507950328 	 34.32
END IONS

BEGIN IONS
PEPMASS=166.121
CHARGE=1
MSLEVEL=2
RT=0
SOURCE_INSTRUMENT=qTOF
FILENAME=CCMSLIB00000085937.ms
IONMODE=Positive
ORGANISM=Natural
NAME=MLS000069657-01!(1R,2R)-(-)-PSEUDOEPHEDRINE
PI=GNPS
DATACOLLECTOR=GNPS
SMILES=C[C@H]([C@@H](c1ccccc1)O)NC
INCHI=InChI=1S/C10H15NO/c1-8(11-2)10(12)9-6-4-3-5-7-9/h3-8,10-12H,1-2H3/t8-,10+/m1/s1
FORMULA=C10H15NO
PUBMED=N/A
SUBMITUSER=BIOADREM
LIBRARYQUALITY=0
SPECTRUMID=CCMSLIB00000085937
SCANS=3883
ID=CCMSLIB00000085937
105.0698762568 	 10.68
115.0542261926 	 47.69
116.0620512247 	 19.93
117.0698762568 	 69.04
132.0807752941 	 100
133.0886003262 	 79.36
148.1120754225 	 30.6
166.1226401088 	 0
END IONS

BEGIN IONS
PEPMASS=193.0498
CHARGE=1
MSLEVEL=2
RT=0
SOURCE_INSTRUMENT=qTOF
FILENAME=CCMSLIB00000085938.ms
IONMODE=Positive
ORGANISM=Natural
NAME=MLS002207303-01!5,7-Dihydroxy-4-methylcoumarin2107-76-8
PI=GNPS
DATACOLLECTOR=GNPS
SMILES=Cc1cc(=O)oc2cc(cc(c12)O)O
INCHI=InChI=1S/C10H8O4/c1-5-2-9(13)14-8-4-6(11)3-7(12)10(5)8/h2-4,11-12H,1H3
FORMULA=C10H8O4
PUBMED=N/A
SUBMITUSER=BIOADREM
LIBRARYQUALITY=0
SPECTRUMID=CCMSLIB00000085938
SCANS=3884
ID=CCMSLIB00000085938
103.0542261926 	 49.56
104.0620512247 	 9.35
107.0491408147 	 8.82
109.0647908789 	 26.28
110.0362304047 	 8.47
119.0491408147 	 43.92
123.0440554368 	 18.17
125.059705501 	 9.35
137.059705501 	 100
147.0440554368 	 13.76
149.059705501 	 9.88
150.0311450268 	 36.16
165.0546201231 	 7.58
193.0495347452 	 89.24
END IONS

BEGIN IONS
PEPMASS=336.1669
CHARGE=1
MSLEVEL=2
RT=0
SOURCE_INSTRUMENT=qTOF
FILENAME=CCMSLIB00000085939.ms
IONMODE=Positive
ORGANISM=Natural
NAME=MLS000859957-01!N6-Cyclopentyladenosine
PI=GNPS
DATACOLLECTOR=GNPS
SMILES=C1CCC(C1)Nc1c2c(ncn1)n(cn2)C1C(C(C(CO)O1)O)O
INCHI=InChI=1S/C15H21N5O4/c21-5-9-11(22)12(23)15(24-9)20-7-18-10-13(16-6-17-14(10)20)19-8-3-1-2-4-8/h6-9,11-12,15,21-23H,1-5H2,(H,16,17,19)
FORMULA=C15H21N5O4
PUBMED=N/A
SUBMITUSER=BIOADREM
LIBRARYQUALITY=0
SPECTRUMID=CCMSLIB00000085939
SCANS=3885
ID=CCMSLIB00000085939
94.0399731119 	 0.95
109.0508721492 	 0.59
119.035222085 	 9.37
136.0617711865 	 100
204.1243714433 	 74.65
336.1666301885 	 0.38
END IONS

BEGIN IONS
PEPMASS=276.1741
CHARGE=1
MSLEVEL=2
RT=0
SOURCE_INSTRUMENT=qTOF
FILENAME=CCMSLIB00000085940.ms
IONMODE=Positive
ORGANISM=Natural
NAME=MLS002153815-01!
PI=GNPS
DATACOLLECTOR=GNPS
SMILES=CN(C)CCC=C1c2ccccc2C=Cc2ccccc12
INCHI=InChI=1S/C20H21N/c1-21(2)15-7-12-20-18-10-5-3-8-16(18)13-14-17-9-4-6-11-19(17)20/h3-6,8-14H,7,15H2,1-2H3
FORMULA=C20H21N
PUBMED=N/A
SUBMITUSER=BIOADREM
LIBRARYQUALITY=0
SPECTRUMID=CCMSLIB00000085940
SCANS=3886
ID=CCMSLIB00000085940
103.0542261926 	 1.55
127.0542261926 	 0.67
128.0620512247 	 0.88
129.0698762568 	 1.05
151.0542261926 	 0.37
152.0620512247 	 3.87
153.0698762568 	 13.32
155.085526321 	 1.04
165.0698762568 	 4.82
177.0698762568 	 0.47
178.0777012889 	 9
179.085526321 	 2.03
189.0698762568 	 4.93
190.0777012889 	 8.94
191.085526321 	 33.81
203.085526321 	 18.66
204.0933513531 	 15.46
205.1011763852 	 24.74
215.085526321 	 100
216.0933513531 	 93.39
231.1168264494 	 18.09
276.1746756793 	 2.81
END IONS

BEGIN IONS
PEPMASS=231.1016
CHARGE=1
MSLEVEL=2
RT=0
SOURCE_INSTRUMENT=qTOF
FILENAME=CCMSLIB00000085941.ms
IONMODE=Positive
ORGANISM=Natural
NAME=MLS002154236-01!Kawain500-64-1
PI=GNPS
DATACOLLECTOR=GNPS
SMILES=COC1=CC(=O)O[C@@H](/C=C/c2ccccc2)C1
INCHI=InChI=1S/C14H14O3/c1-16-13-9-12(17-14(15)10-13)8-7-11-5-3-2-4-6-11/h2-8,10,12H,9H2,1H3/b8-7+/t12-/m0/s1
FORMULA=C14H14O3
PUBMED=N/A
SUBMITUSER=BIOADREM
LIBRARYQUALITY=0
SPECTRUMID=CCMSLIB00000085941
SCANS=3887
ID=CCMSLIB00000085941
91.0542261926 	 2.66
102.0464011605 	 0.76
103.0542261926 	 4.21
105.0698762568 	 0.55
108.0569658468 	 0.54
115.0542261926 	 42.2
126.0464011605 	 1.46
127.0542261926 	 9.58
128.0620512247 	 49.83
129.0698762568 	 16.25
131.0491408147 	 0.69
131.085526321 	 0.51
133.0647908789 	 0.58
141.0698762568 	 7.83
142.0777012889 	 3.61
143.085526321 	 2.55
151.0542261926 	 9.1
152.0620512247 	 100
153.0698762568 	 57.72
157.0647908789 	 4.56
167.085526321 	 0.83
169.0647908789 	 14.2
170.072615911 	 10.93
185.0960910073 	 2.69
231.1015703157 	 0
END IONS

BEGIN IONS
PEPMASS=218.1165
CHARGE=1
MSLEVEL=2
RT=0
SOURCE_INSTRUMENT=qTOF
FILENAME=CCMSLIB00000085942.ms
IONMODE=Positive
ORGANISM=Natural
NAME=MLS002154027-01!Securinine5610-40-2
PI=GNPS
DATACOLLECTOR=GNPS
SMILES=C1CCN2[C@@H]3C=CC4=CC(=O)OC4(C3)[C@H]2C1
INCHI=InChI=1S/C13H15NO2/c15-12-7-9-4-5-10-8-13(9,16-12)11-3-1-2-6-14(10)11/h4-5,7,10-11H,1-3,6,8H2/t10-,11-,13?/m1/s1
FORMULA=C13H15NO2
PUBMED=N/A
SUBMITUSER=BIOADREM
LIBRARYQUALITY=0
SPECTRUMID=CCMSLIB00000085942
SCANS=3888
ID=CCMSLIB00000085942
91.0542261926 	 31.62
115.0542261926 	 33.09
129.0698762568 	 27.94
147.0678648841 	 31.62
162.0913399804 	 100
190.0862546025 	 31.62
218.1175547309 	 88.97
END IONS

BEGIN IONS
PEPMASS=210.134
CHARGE=1
MSLEVEL=2
RT=0
SOURCE_INSTRUMENT=qTOF
FILENAME=CCMSLIB00000085945.ms
IONMODE=Positive
ORGANISM=Natural
NAME=MLS000028566-01!Minoxidil
PI=GNPS
DATACOLLECTOR=GNPS
SMILES=C1CCN(CC1)c1cc(=N)n(c(=N)[nH]1)O
INCHI=InChI=1S/C9H15N5O/c10-7-6-8(12-9(11)14(7)15)13-4-2-1-3-5-13/h6,10,15H,1-5H2,(H2,11,12)
FORMULA=C9H15N5O
PUBMED=N/A
SUBMITUSER=BIOADREM
LIBRARYQUALITY=0
SPECTRUMID=CCMSLIB00000085945
SCANS=3889
ID=CCMSLIB00000085945
107.0576941283 	 0.35
124.0730098415 	 1.88
125.0682588146 	 2.26
133.0495347452 	 0.49
133.0733441925 	 0.68
137.0808348736 	 27.22
146.0573597773 	 0.31
147.0651848094 	 16.62
149.0808348736 	 2.34
150.0760838467 	 17.25
151.0839088788 	 2.55
152.0917339109 	 1.22
161.0808348736 	 0.59
162.0760838467 	 4
164.0917339109 	 100
175.0964849378 	 1.04
178.1073839751 	 5.13
192.1230340393 	 6.53
193.1308590714 	 4.53
210.1335987256 	 0.68
END IONS

BEGIN IONS
PEPMASS=485.3006
CHARGE=1
MSLEVEL=2
RT=0
SOURCE_INSTRUMENT=qTOF
FILENAME=CCMSLIB00000085946.ms
IONMODE=Positive
ORGANISM=Natural
NAME=MLS000069359-01!D600
PI=GNPS
DATACOLLECTOR=GNPS
SMILES=CC(C)C(CCCN(C)CCc1ccc(c(c1)OC)OC)(C#N)c1cc(c(c(c1)OC)OC)OC
INCHI=InChI=1S/C28H40N2O5/c1-20(2)28(19-29,22-17-25(33-6)27(35-8)26(18-22)34-7)13-9-14-30(3)15-12-21-10-11-23(31-4)24(16-21)32-5/h10-11,16-18,20H,9,12-15H2,1-8H3
FORMULA=C28H40N2O5
PUBMED=N/A
SUBMITUSER=BIOADREM
LIBRARYQUALITY=0
SPECTRUMID=CCMSLIB00000085946
SCANS=3890
ID=CCMSLIB00000085946
103.0542261926 	 3.32
104.0620512247 	 0.89
105.0698762568 	 8
107.0491408147 	 2.43
118.0413157826 	 2.05
119.0491408147 	 1.64
120.0569658468 	 2.04
121.0647908789 	 3.61
122.072615911 	 1.33
131.0491408147 	 0.72
133.0647908789 	 11.57
134.072615911 	 12.17
135.0440554368 	 8.61
135.0804409431 	 5.67
137.059705501 	 0.94
149.059705501 	 2.27
150.0675305331 	 59.69
153.0546201231 	 0.99
154.0624451552 	 1.86
165.0910056294 	 100
167.0702701873 	 6.17
168.0780952194 	 7.16
169.0859202515 	 2.82
176.0831805973 	 1.71
180.0780952194 	 1.04
181.0859202515 	 9.87
193.0859202515 	 0.74
195.1015703157 	 2.94
207.1015703157 	 4.03
216.1019046667 	 2.31
233.1046443209 	 0.93
248.1281194172 	 3
260.1281194172 	 0.72
275.1515945135 	 5.38
290.1750696098 	 24.79
333.2172687755 	 32.2
485.3009984049 	 18.89
END IONS

BEGIN IONS
PEPMASS=321.1345
CHARGE=1
MSLEVEL=2
RT=0
SOURCE_INSTRUMENT=qTOF
FILENAME=CCMSLIB00000085947.ms
IONMODE=Positive
ORGANISM=Natural
NAME=MLS000069645-01!ENOXACIN
PI=GNPS
DATACOLLECTOR=GNPS
SMILES=CCn1cc(c(=O)c2cc(c(nc12)N1CCNCC1)F)C(=O)O
INCHI=InChI=1S/C15H17FN4O3/c1-2-19-8-10(15(22)23)12(21)9-7-11(16)14(18-13(9)19)20-5-3-17-4-6-20/h7-8,17H,2-6H2,1H3,(H,22,23)
FORMULA=C15H17FN4O3
PUBMED=N/A
SUBMITUSER=BIOADREM
LIBRARYQUALITY=0
SPECTRUMID=CCMSLIB00000085947
SCANS=3891
ID=CCMSLIB00000085947
110.0400533336 	 1.68
137.0509523709 	 3.8
145.0396387609 	 2.02
151.0302169288 	 6.08
164.0380419609 	 2.32
165.045866993 	 2.45
176.0618514082 	 4.08
177.0696764403 	 15.5
178.0536920251 	 7.77
179.0615170572 	 18.05
180.0567660303 	 17.53
185.0583628303 	 2.25
186.0661878624 	 8.65
191.0615170572 	 2.15
204.0567660303 	 43.64
205.0645910624 	 56.24
206.0724160945 	 100
219.0802411266 	 3.83
220.0880661587 	 5.35
221.0958911908 	 2.09
227.0927369639 	 2.15
229.1083870281 	 13.05
232.0516806524 	 36.59
234.1037162229 	 85.29
250.0622453387 	 6.6
255.087651586 	 2.31
257.1396871565 	 14.9
260.0829807808 	 2.79
275.0938798181 	 2.05
277.1459153886 	 7.52
278.0935454671 	 3.39
283.1189517144 	 3.92
303.1251799465 	 42.04
321.1357446328 	 22
END IONS

BEGIN IONS
PEPMASS=433.8745
CHARGE=1
MSLEVEL=2
RT=0
SOURCE_INSTRUMENT=qTOF
FILENAME=CCMSLIB00000085952.ms
IONMODE=Positive
ORGANISM=Natural
NAME=MLS000028503-01!3,5-DIIODO-L-TYROSINE
PI=GNPS
DATACOLLECTOR=GNPS
SMILES=c1c(cc(c(c1I)O)I)C[C@@H](C(=O)O)N
INCHI=InChI=1S/C9H9I2NO3/c10-5-1-4(2-6(11)8(5)13)3-7(12)9(14)15/h1-2,7,13H,3,12H2,(H,14,15)/t7-/m0/s1
FORMULA=C9H9I2NO3
PUBMED=N/A
SUBMITUSER=BIOADREM
LIBRARYQUALITY=0
SPECTRUMID=CCMSLIB00000085952
SCANS=3894
ID=CCMSLIB00000085952
89.0385761284 	 0.74
89.0385761284 	 0.92
93.0334907505 	 1.72
105.0334907505 	 5.71
106.0413157826 	 9.75
106.0413157826 	 2.14
106.0651252299 	 1.8
107.0491408147 	 2.12
107.0491408147 	 0.85
116.0494751657 	 0.86
116.0494751657 	 0.78
117.0334907505 	 8.09
117.0334907505 	 21.85
117.0334907505 	 1.63
117.0573001978 	 0.8
118.0413157826 	 0.45
119.0491408147 	 2.24
120.0205803405 	 0.87
121.0284053726 	 28.69
121.0284053726 	 13.57
121.0284053726 	 33.46
133.0522148199 	 0.47
133.0522148199 	 15.76
134.060039852 	 6.69
134.060039852 	 5.35
134.060039852 	 9.35
145.0284053726 	 100
145.0284053726 	 11.41
145.0284053726 	 5.94
146.0362304047 	 6.42
146.0362304047 	 21.67
162.0311450268 	 3.94
162.0311450268 	 12.2
163.0389700589 	 58.76
163.0389700589 	 1.12
163.0389700589 	 1.54
180.0655191604 	 0.41
END IONS

BEGIN IONS
PEPMASS=282.1469
CHARGE=1
MSLEVEL=2
RT=0
SOURCE_INSTRUMENT=qTOF
FILENAME=CCMSLIB00000085953.ms
IONMODE=Positive
ORGANISM=Natural
NAME=MLS000859992-01!R()-Apocodeine hydrochloride
PI=GNPS
DATACOLLECTOR=GNPS
SMILES=CN1CCc2cccc3c2[C@H]1Cc1ccc(c(c31)O)OC
INCHI=InChI=1S/C18H19NO2/c1-19-9-8-11-4-3-5-13-16(11)14(19)10-12-6-7-15(21-2)18(20)17(12)13/h3-7,14,20H,8-10H2,1-2H3/t14-/m1/s1
FORMULA=C18H19NO2
PUBMED=N/A
SUBMITUSER=BIOADREM
LIBRARYQUALITY=0
SPECTRUMID=CCMSLIB00000085953
SCANS=3895
ID=CCMSLIB00000085953
152.0620512247 	 0.39
154.0777012889 	 0.23
165.0698762568 	 4.11
177.0698762568 	 0.56
178.0777012889 	 1.01
179.085526321 	 2.75
180.0933513531 	 2.23
189.0698762568 	 16.98
190.0777012889 	 37.86
191.085526321 	 100
193.0647908789 	 1.44
200.0620512247 	 1.13
201.0698762568 	 6.56
205.0647908789 	 2.9
207.0804409431 	 5.24
208.0882659752 	 3.89
217.0647908789 	 0.63
218.072615911 	 5.65
219.0804409431 	 32.43
221.059705501 	 6.51
235.0753555652 	 0.88
236.0831805973 	 7.23
251.1066556936 	 13.43
282.1488548593 	 0.17
END IONS

BEGIN IONS
PEPMASS=282.0736
CHARGE=1
MSLEVEL=2
RT=0
SOURCE_INSTRUMENT=qTOF
FILENAME=CCMSLIB00000085954.ms
IONMODE=Positive
ORGANISM=Natural
NAME=MLS001148610-01!530-78-9
PI=GNPS
DATACOLLECTOR=GNPS
SMILES=c1ccc(c(c1)C(=O)O)Nc1cccc(c1)C(F)(F)F
INCHI=InChI=1S/C14H10F3NO2/c15-14(16,17)9-4-3-5-10(8-9)18-12-7-2-1-6-11(12)13(19)20/h1-8,18H,(H,19,20)
FORMULA=C14H10F3NO2
PUBMED=N/A
SUBMITUSER=BIOADREM
LIBRARYQUALITY=0
SPECTRUMID=CCMSLIB00000085954
SCANS=3896
ID=CCMSLIB00000085954
166.0651252299 	 4.57
167.072950262 	 36.22
169.0448043605 	 1.13
176.0494751657 	 0.56
177.0573001978 	 1.52
194.060039852 	 1.37
195.0678648841 	 17.32
196.0557033978 	 10.87
215.0541065978 	 2.34
216.0619316299 	 28.97
226.0462815657 	 1.01
235.0603348299 	 6.73
243.0490212199 	 0.73
244.056846252 	 37.54
263.055249452 	 5.87
264.0630744841 	 100
282.0736391704 	 0
END IONS

BEGIN IONS
PEPMASS=265.0754
CHARGE=1
MSLEVEL=2
RT=0
SOURCE_INSTRUMENT=qTOF
FILENAME=CCMSLIB00000085957.ms
IONMODE=Positive
ORGANISM=Natural
NAME=MLS001201765-01!4-Amino-N-(4-methyl-pyrimidin-2-yl)-benzenesulfonamide
PI=GNPS
DATACOLLECTOR=GNPS
SMILES=Cc1ccnc(n1)NS(=O)(=O)c1ccc(cc1)N
INCHI=InChI=1S/C11H12N4O2S/c1-8-6-7-13-11(14-8)15-18(16,17)10-4-2-9(12)3-5-10/h2-7H,12H2,1H3,(H,13,14,15)
FORMULA=C11H12N4O2S
PUBMED=N/A
SUBMITUSER=BIOADREM
LIBRARYQUALITY=0
SPECTRUMID=CCMSLIB00000085957
SCANS=3899
ID=CCMSLIB00000085957
92.0494751657 	 7.6
93.0447241388 	 5.16
108.0443897878 	 100
110.0712732403 	 61.75
143.072950262 	 1.36
146.0838492993 	 1.33
156.0113750999 	 16.34
182.0712732403 	 6.32
184.0743472455 	 2.12
199.0978223418 	 15.25
265.0753723402 	 0
END IONS

BEGIN IONS
PEPMASS=338.0618
CHARGE=1
MSLEVEL=2
RT=0
SOURCE_INSTRUMENT=qTOF
FILENAME=CCMSLIB00000085959.ms
IONMODE=Positive
ORGANISM=Natural
NAME=MLS002153138-01!IMID-4F hydrochloride
PI=GNPS
DATACOLLECTOR=GNPS
SMILES=c1cc(cc(c1)F)CN(c1c(cccc1Cl)Cl)C1=NCCN1
INCHI=InChI=1S/C16H14Cl2FN3/c17-13-5-2-6-14(18)15(13)22(16-20-7-8-21-16)10-11-3-1-4-12(19)9-11/h1-6,9H,7-8,10H2,(H,20,21)
FORMULA=C16H14Cl2FN3
PUBMED=N/A
SUBMITUSER=BIOADREM
LIBRARYQUALITY=0
SPECTRUMID=CCMSLIB00000085959
SCANS=3901
ID=CCMSLIB00000085959
89.0385761284 	 0.27
109.0448043605 	 100
159.0790982724 	 0.48
171.9715305215 	 3.4
194.0479509824 	 9.13
195.0478783657 	 0.78
196.0449571989 	 2.36
198.9824295588 	 0.3
214.9932559794 	 0.27
229.0168036924 	 13.63
230.0167310757 	 1.32
231.0138099089 	 8.66
268.124451665 	 0.95
303.093304375 	 0.88
318.0559288529 	 2.12
338.062157085 	 3.01
END IONS

BEGIN IONS
PEPMASS=407.1603
CHARGE=1
MSLEVEL=2
RT=0
SOURCE_INSTRUMENT=qTOF
FILENAME=CCMSLIB00000085962.ms
IONMODE=Positive
ORGANISM=Natural
NAME=MLS000701320-01!N-(4,5-diphenyl-1H-pyrazolo[3,4-c]pyridazin-3-yl)-N'-phenylurea
PI=GNPS
DATACOLLECTOR=GNPS
SMILES=c1ccc(cc1)c1c2c(=NC(=Nc3ccccc3)O)[nH][nH]c2nnc1c1ccccc1
INCHI=InChI=1S/C24H18N6O/c31-24(25-18-14-8-3-9-15-18)26-22-20-19(16-10-4-1-5-11-16)21(17-12-6-2-7-13-17)27-29-23(20)30-28-22/h1-15H,(H3,25,26,28,29,30,31)
FORMULA=C24H18N6O
PUBMED=N/A
SUBMITUSER=BIOADREM
LIBRARYQUALITY=0
SPECTRUMID=CCMSLIB00000085962
SCANS=3904
ID=CCMSLIB00000085962
116.0494751657 	 1.12
128.0494751657 	 1.93
130.0651252299 	 1.82
140.0494751657 	 1.16
141.0447241388 	 1.59
143.060374203 	 1.45
155.060374203 	 3.45
168.0556231761 	 0.7
180.0556231761 	 1.04
183.0790982724 	 1.38
189.0698762568 	 1.42
191.085526321 	 5.81
204.0807752941 	 2.06
214.0651252299 	 0.71
216.0807752941 	 6.62
217.0886003262 	 3.84
219.0916743314 	 2.29
229.0760242672 	 1.45
231.0916743314 	 4.8
232.0994993635 	 2.15
236.0566858086 	 2.76
241.0760242672 	 1.07
242.0838492993 	 4
243.0916743314 	 3.67
245.0960910073 	 0.95
246.1025733687 	 1.09
257.0947483366 	 3.35
258.1025733687 	 2.66
259.1103984008 	 1.76
271.0978223418 	 2.85
286.1087213791 	 0.9
288.125714114 	 77.08
290.1287881192 	 1.7
314.1036360012 	 100
407.1614852311 	 1.3
END IONS

BEGIN IONS
PEPMASS=577.2518
CHARGE=1
MSLEVEL=2
RT=0
SOURCE_INSTRUMENT=qTOF
FILENAME=CCMSLIB00000085963.ms
IONMODE=Positive
ORGANISM=Natural
NAME=MLS002153192-01!Adenosine amine congener  hydrate
PI=GNPS
DATACOLLECTOR=GNPS
SMILES=c1cc(ccc1CC(=NCCN)O)NC(=O)Cc1ccc(cc1)Nc1c2c(ncn1)n(cn2)[C@H]1[C@@H]([C@@H]([C@@H](CO)O1)O)O
INCHI=InChI=1S/C28H32N8O6/c29-9-10-30-21(38)11-16-1-5-18(6-2-16)34-22(39)12-17-3-7-19(8-4-17)35-26-23-27(32-14-31-26)36(15-33-23)28-25(41)24(40)20(13-37)42-28/h1-8,14-15,20,24-25,28,37,40-41H,9-13,29H2,(H,30,38)(H,34,39)(H,31,32,35)/t20-,24-,25-,28-/m1/s1
FORMULA=C28H32N8O6
PUBMED=N/A
SUBMITUSER=BIOADREM
LIBRARYQUALITY=0
SPECTRUMID=CCMSLIB00000085963
SCANS=3905
ID=CCMSLIB00000085963
106.0651252299 	 26.78
176.1182234329 	 4.41
177.1022390177 	 44.57
194.1287881192 	 2.76
224.0930713149 	 99.9
252.087985937 	 35.68
295.1315277734 	 2.54
312.1580768749 	 2.27
357.1458351669 	 5.42
358.1509801243 	 2.34
384.1567342042 	 6.44
385.140749789 	 15.8
387.1438237942 	 1.22
402.1672988905 	 1.74
410.1723842684 	 1.11
427.1989333699 	 26.19
428.1829489547 	 64.51
429.1880939121 	 18.98
430.1860229599 	 2.66
445.2094980562 	 100
446.2146430136 	 21.81
523.2173826678 	 1.09
577.2517568014 	 0
END IONS

BEGIN IONS
PEPMASS=377.305
CHARGE=1
MSLEVEL=2
RT=0
SOURCE_INSTRUMENT=qTOF
FILENAME=CCMSLIB00000085965.ms
IONMODE=Positive
ORGANISM=Natural
NAME=MLS002153159-01!CP-5594083002-04-4
PI=GNPS
DATACOLLECTOR=GNPS
SMILES=CCCCCCC(C)(C)c1ccc([C@@H]2C[C@@H](CC[C@H]2CCCO)O)c(c1)O
INCHI=InChI=1S/C24H40O3/c1-4-5-6-7-14-24(2,3)19-11-13-21(23(27)16-19)22-17-20(26)12-10-18(22)9-8-15-25/h11,13,16,18,20,22,25-27H,4-10,12,14-15,17H2,1-3H3/t18-,20-,22-/m1/s1
FORMULA=C24H40O3
PUBMED=N/A
SUBMITUSER=BIOADREM
LIBRARYQUALITY=0
SPECTRUMID=CCMSLIB00000085965
SCANS=3907
ID=CCMSLIB00000085965
93.0698762568 	 10.65
95.085526321 	 3.68
97.0647908789 	 4.4
103.0542261926 	 4.84
107.0491408147 	 25.02
108.0569658468 	 5.23
117.0698762568 	 5.08
121.0647908789 	 45.55
121.1011763852 	 64.91
129.0698762568 	 3.19
131.0491408147 	 9.15
133.0647908789 	 41.87
135.0804409431 	 6.24
139.1117410715 	 11.62
145.0647908789 	 9.29
147.0804409431 	 26.19
149.0960910073 	 25.12
159.0804409431 	 9.34
173.0960910073 	 13.75
187.1117410715 	 5.37
191.1430411999 	 3.87
215.1430411999 	 27.93
233.1899913925 	 100
273.2212915209 	 10.75
377.3050211503 	 0
END IONS

BEGIN IONS
PEPMASS=353.1622
CHARGE=1
MSLEVEL=2
RT=0
SOURCE_INSTRUMENT=qTOF
FILENAME=CCMSLIB00000085966.ms
IONMODE=Positive
ORGANISM=Natural
NAME=MLS002153886-01!Palmatine chloride3486-67-7
PI=GNPS
DATACOLLECTOR=GNPS
SMILES=COc1ccc2cc3c4cc(c(cc4CC[n+]3cc2c1OC)OC)OC
INCHI=InChI=1S/C21H22NO4/c1-23-18-6-5-13-9-17-15-11-20(25-3)19(24-2)10-14(15)7-8-22(17)12-16(13)21(18)26-4/h5-6,9-12H,7-8H2,1-4H3/q+1
FORMULA=C21H22NO4
PUBMED=N/A
SUBMITUSER=BIOADREM
LIBRARYQUALITY=0
SPECTRUMID=CCMSLIB00000085966
SCANS=3908
ID=CCMSLIB00000085966
233.0835149483 	 0.82
234.0913399804 	 0.63
235.0991650125 	 1.62
236.0706045383 	 0.37
236.1069900446 	 0.51
246.0913399804 	 0.47
247.0991650125 	 1
248.1069900446 	 0.48
249.0784295704 	 0.83
250.0862546025 	 3.82
261.0784295704 	 0.34
262.0862546025 	 1.25
263.0940796346 	 4.45
264.1019046667 	 7.28
265.0733441925 	 1.14
275.0940796346 	 2.58
276.1019046667 	 3.09
278.0811692246 	 20.16
279.0889942567 	 14.48
290.0811692246 	 1.31
291.0889942567 	 4.45
291.125379763 	 3.15
292.0968192888 	 34.08
293.1046443209 	 14.17
294.112469353 	 67.29
304.0968192888 	 8.84
305.1046443209 	 4.66
306.0760838467 	 3.84
307.0839088788 	 4.69
307.1202943851 	 4.15
308.1281194172 	 63.15
320.0917339109 	 38.76
320.1281194172 	 25.88
321.099558943 	 19.56
322.1073839751 	 54.78
336.1230340393 	 100
337.1308590714 	 62.42
352.1543341677 	 35.63
353.1621591998 	 0
END IONS

BEGIN IONS
PEPMASS=353.1415
CHARGE=1
MSLEVEL=2
RT=0
SOURCE_INSTRUMENT=qTOF
FILENAME=CCMSLIB00000085971.ms
IONMODE=Positive
ORGANISM=Natural
NAME=MLS000028483-01!1-(2-CHLOROPHENYL)-N-METHYL-N-(1-METHYLPROPYL)-3-ISOQUINOLINECARBOXAMIDE85532-75-8
PI=GNPS
DATACOLLECTOR=GNPS
SMILES=CCC(C)N(C)C(=O)c1cc2ccccc2c(c2ccccc2Cl)n1
INCHI=InChI=1S/C21H21ClN2O/c1-4-14(2)24(3)21(25)19-13-15-9-5-6-10-16(15)20(23-19)17-11-7-8-12-18(17)22/h5-14H,4H2,1-3H3
FORMULA=C21H21ClN2O
PUBMED=N/A
SUBMITUSER=BIOADREM
LIBRARYQUALITY=0
SPECTRUMID=CCMSLIB00000085971
SCANS=3910
ID=CCMSLIB00000085971
150.0464011605 	 0.22
176.0620512247 	 2.36
194.060039852 	 0.33
201.0573001978 	 2.75
202.0651252299 	 27.23
203.072950262 	 56.53
211.0309039347 	 1.31
220.0756899162 	 10.49
237.0339779399 	 0.57
238.041802972 	 100
252.0574530362 	 4.86
256.0523676583 	 80.32
266.0367175941 	 8.95
279.0683520735 	 39.67
297.0789167598 	 34.88
353.1415170166 	 0.68
END IONS

BEGIN IONS
PEPMASS=330.2067
CHARGE=1
MSLEVEL=2
RT=0
SOURCE_INSTRUMENT=qTOF
FILENAME=CCMSLIB00000085972.ms
IONMODE=Positive
ORGANISM=Natural
NAME=MLS001056780-01!A-77636 hydrochloride
PI=GNPS
DATACOLLECTOR=GNPS
SMILES=c1cc(c(c2C[C@@H](C34CC5CC(CC(C5)C4)C3)O[C@@H](CN)c12)O)O
INCHI=InChI=1S/C20H27NO3/c21-10-17-14-1-2-16(22)19(23)15(14)6-18(24-17)20-7-11-3-12(8-20)5-13(4-11)9-20/h1-2,11-13,17-18,22-23H,3-10,21H2/t11?,12?,13?,17-,18-,20?/m0/s1
FORMULA=C20H27NO3
PUBMED=N/A
SUBMITUSER=BIOADREM
LIBRARYQUALITY=0
SPECTRUMID=CCMSLIB00000085972
SCANS=3911
ID=CCMSLIB00000085972
91.0542261926 	 1.31
93.0698762568 	 4.6
105.0698762568 	 0.75
107.085526321 	 12.72
115.0542261926 	 1.62
133.1011763852 	 0.48
135.1168264494 	 100
143.0491408147 	 1.49
179.1066556936 	 0.32
295.1692559504 	 5.25
312.1958050519 	 2.6
313.1798206367 	 4.35
330.2063697382 	 2.06
END IONS

BEGIN IONS
PEPMASS=319.0247
CHARGE=1
MSLEVEL=2
RT=0
SOURCE_INSTRUMENT=qTOF
FILENAME=CCMSLIB00000085973.ms
IONMODE=Positive
ORGANISM=Natural
NAME=MLS002153177-01!5,6-Dichlorobenzimidazole 1-beta-D-ribofuranoside53-85-0
PI=GNPS
DATACOLLECTOR=GNPS
SMILES=c1c(c(cc2c1ncn2[C@H]1[C@@H]([C@@H]([C@@H](CO)O1)O)O)Cl)Cl
INCHI=InChI=1S/C12H12Cl2N2O4/c13-5-1-7-8(2-6(5)14)16(4-15-7)12-11(19)10(18)9(3-17)20-12/h1-2,4,9-12,17-19H,3H2/t9-,10-,11-,12-/m1/s1
FORMULA=C12H12Cl2N2O4
PUBMED=N/A
SUBMITUSER=BIOADREM
LIBRARYQUALITY=0
SPECTRUMID=CCMSLIB00000085973
SCANS=3912
ID=CCMSLIB00000085973
123.9948527794 	 1.87
151.0057518167 	 2.65
152.0135768488 	 16.19
159.9715305215 	 0.78
186.9824295588 	 100
319.024688304 	 0
END IONS

BEGIN IONS
PEPMASS=348.1455
CHARGE=1
MSLEVEL=2
RT=0
SOURCE_INSTRUMENT=qTOF
FILENAME=CCMSLIB00000085974.ms
IONMODE=Positive
ORGANISM=Natural
NAME=MLS002153942-01!Evoxine522-11-2
PI=GNPS
DATACOLLECTOR=GNPS
SMILES=CC(C)([C@@H](COc1ccc2c(c1OC)nc1c(cco1)c2OC)O)O
INCHI=InChI=1S/C18H21NO6/c1-18(2,21)13(20)9-25-12-6-5-10-14(16(12)23-4)19-17-11(7-8-24-17)15(10)22-3/h5-8,13,20-21H,9H2,1-4H3/t13-/m1/s1
FORMULA=C18H21NO6
PUBMED=N/A
SUBMITUSER=BIOADREM
LIBRARYQUALITY=0
SPECTRUMID=CCMSLIB00000085974
SCANS=3913
ID=CCMSLIB00000085974
128.0494751657 	 0.83
156.0443897878 	 3.42
157.0495347452 	 0.93
158.060039852 	 0.63
170.060039852 	 0.77
172.0393044099 	 0.94
173.047129442 	 0.74
174.0549544741 	 0.72
184.0393044099 	 10.05
185.0444493673 	 2.38
186.0549544741 	 2.14
187.0627795062 	 0.71
188.034219032 	 4.67
198.0549544741 	 0.91
199.0627795062 	 15.93
200.034219032 	 2.53
200.0679244636 	 2.78
201.0420440641 	 7.41
202.0498690962 	 7.38
212.034219032 	 1.36
213.0420440641 	 5.73
214.0498690962 	 4.1
215.0576941283 	 1.64
216.0291336541 	 31.94
216.0655191604 	 12.01
226.0498690962 	 0.58
227.0576941283 	 29.72
228.0291336541 	 11.97
228.0628390857 	 5.53
229.0369586862 	 6.02
230.0447837183 	 7.57
231.0526087504 	 100
242.0447837183 	 7.64
243.0526087504 	 37.68
244.0604337825 	 29.62
246.0760838467 	 27.83
258.0760838467 	 25.84
274.0709984688 	 0.99
286.1073839751 	 0.58
312.1230340393 	 1.82
330.1335987256 	 18.94
348.1441634119 	 1.53
END IONS

BEGIN IONS
PEPMASS=363.2152
CHARGE=1
MSLEVEL=2
RT=0
SOURCE_INSTRUMENT=qTOF
FILENAME=CCMSLIB00000085976.ms
IONMODE=Positive
ORGANISM=Natural
NAME=MLS001074333-01!
PI=GNPS
DATACOLLECTOR=GNPS
SMILES=CC12CCC(=O)C=C1CCC1C3CCC(C(=O)CO)(C3(C)CC(C21)O)O
INCHI=InChI=1S/C21H30O5/c1-19-7-5-13(23)9-12(19)3-4-14-15-6-8-21(26,17(25)11-22)20(15,2)10-16(24)18(14)19/h9,14-16,18,22,24,26H,3-8,10-11H2,1-2H3
FORMULA=C21H30O5
PUBMED=N/A
SUBMITUSER=BIOADREM
LIBRARYQUALITY=0
SPECTRUMID=CCMSLIB00000085976
SCANS=3915
ID=CCMSLIB00000085976
91.0542261926 	 7.38
97.0647908789 	 16.89
105.0698762568 	 23.45
107.085526321 	 9.07
109.0647908789 	 15.83
115.0542261926 	 11.28
117.0698762568 	 16.8
119.085526321 	 23.58
121.0647908789 	 100
123.0804409431 	 26.46
128.0620512247 	 13.1
129.0698762568 	 20.06
130.0777012889 	 7.71
131.085526321 	 24.67
133.1011763852 	 11.95
135.0804409431 	 14.19
141.0698762568 	 15.85
142.0777012889 	 13.81
143.085526321 	 27.39
145.0647908789 	 8.51
145.1011763852 	 37.79
147.0804409431 	 17.26
147.1168264494 	 28.21
155.085526321 	 11.48
157.1011763852 	 20.21
159.0804409431 	 10.37
159.1168264494 	 22.1
161.0960910073 	 10.24
163.1117410715 	 21.68
167.085526321 	 6.91
169.1011763852 	 17.75
171.0804409431 	 8.66
171.1168264494 	 12.86
173.0960910073 	 11.61
173.1324765136 	 9.04
175.1117410715 	 9.02
181.1011763852 	 9.69
183.1168264494 	 17.27
185.0960910073 	 9.37
185.1324765136 	 12.52
187.1117410715 	 10.08
195.1168264494 	 11.73
197.1324765136 	 10.62
209.1324765136 	 11.12
211.1481265778 	 8.27
213.1273911357 	 7.07
223.1481265778 	 8.4
227.1430411999 	 7.25
239.1430411999 	 8.8
241.1586912641 	 14.94
253.1586912641 	 11.9
269.1899913925 	 8.56
363.2166000735 	 4.03
END IONS

BEGIN IONS
PEPMASS=202.0443
CHARGE=1
MSLEVEL=2
RT=0
SOURCE_INSTRUMENT=qTOF
FILENAME=CCMSLIB00000085978.ms
IONMODE=Positive
ORGANISM=Natural
NAME=MLS000053094-01!THIABENDAZOLE148-79-8
PI=GNPS
DATACOLLECTOR=GNPS
SMILES=c1ccc2c(c1)nc(c1cscn1)[nH]2
INCHI=InChI=1S/C10H7N3S/c1-2-4-8-7(3-1)12-10(13-8)9-5-14-6-11-9/h1-6H,(H,12,13)
FORMULA=C10H7N3S
PUBMED=N/A
SUBMITUSER=BIOADREM
LIBRARYQUALITY=0
SPECTRUMID=CCMSLIB00000085978
SCANS=3916
ID=CCMSLIB00000085978
104.0494751657 	 6.12
131.060374203 	 64.84
142.0525491709 	 1.67
143.060374203 	 13.48
149.0167948288 	 0.5
158.0712732403 	 4.84
170.0712732403 	 3
175.032444893 	 100
202.0433439303 	 68.24
END IONS

BEGIN IONS
PEPMASS=280.1656
CHARGE=1
MSLEVEL=2
RT=0
SOURCE_INSTRUMENT=qTOF
FILENAME=CCMSLIB00000085979.ms
IONMODE=Positive
ORGANISM=Natural
NAME=MLS000756891-01!Oxamniquine
PI=GNPS
DATACOLLECTOR=GNPS
SMILES=CC(C)NCC1CCc2cc(CO)c(cc2N1)N(=O)=O
INCHI=InChI=1S/C14H21N3O3/c1-9(2)15-7-12-4-3-10-5-11(8-18)14(17(19)20)6-13(10)16-12/h5-6,9,12,15-16,18H,3-4,7-8H2,1-2H3
FORMULA=C14H21N3O3
PUBMED=N/A
SUBMITUSER=BIOADREM
LIBRARYQUALITY=0
SPECTRUMID=CCMSLIB00000085979
SCANS=3917
ID=CCMSLIB00000085979
103.0542261926 	 4.91
104.0494751657 	 1.17
105.0698762568 	 1.02
106.0651252299 	 2.27
115.0542261926 	 4.59
116.0494751657 	 1.35
117.0573001978 	 13.21
118.0651252299 	 16.44
120.0807752941 	 2.46
127.0542261926 	 0.93
130.0651252299 	 27.86
131.072950262 	 14.34
132.0807752941 	 13.86
133.0522148199 	 1.13
134.060039852 	 2.23
142.0651252299 	 3.34
143.072950262 	 5.36
144.0807752941 	 48.07
145.0886003262 	 38.28
146.0964253583 	 54.81
148.0756899162 	 5.52
157.0760242672 	 2.08
158.060039852 	 2.32
158.0838492993 	 3.12
159.0916743314 	 25.5
160.0756899162 	 9.35
161.047129442 	 1.58
161.0709388893 	 6.61
162.0913399804 	 3.18
163.0502034472 	 4.19
174.0913399804 	 100
176.0706045383 	 3.39
176.0944139856 	 14.2
177.0784295704 	 22.89
185.0709388893 	 1.96
187.0865889535 	 34.27
190.0862546025 	 4.37
191.0815035756 	 7.86
203.0815035756 	 1.19
204.0893286077 	 6.24
221.0920682619 	 44.45
280.165567556 	 0.2
END IONS

BEGIN IONS
PEPMASS=452.1948
CHARGE=1
MSLEVEL=2
RT=0
SOURCE_INSTRUMENT=qTOF
FILENAME=CCMSLIB00000085981.ms
IONMODE=Positive
ORGANISM=Natural
NAME=MLS001165720-01!doxazosin
PI=GNPS
DATACOLLECTOR=GNPS
SMILES=COc1cc2c(cc1OC)nc([nH]c2=N)N1CCN(CC1)C(=O)[C@H]1COc2ccccc2O1
INCHI=InChI=1S/C23H25N5O5/c1-30-18-11-14-15(12-19(18)31-2)25-23(26-21(14)24)28-9-7-27(8-10-28)22(29)20-13-32-16-5-3-4-6-17(16)33-20/h3-6,11-12,20H,7-10,13H2,1-2H3,(H2,24,25,26)/t20-/m1/s1
FORMULA=C23H25N5O5
PUBMED=N/A
SUBMITUSER=BIOADREM
LIBRARYQUALITY=0
SPECTRUMID=CCMSLIB00000085981
SCANS=3918
ID=CCMSLIB00000085981
98.060039852 	 4.48
107.0491408147 	 0.95
124.0756899162 	 2.72
135.0440554368 	 6.01
163.0389700589 	 1.11
203.0927369639 	 2.81
204.0780952194 	 1.55
205.0720015218 	 2.42
206.0798265539 	 1.56
217.0720015218 	 1.5
219.087651586 	 0.61
221.1033016502 	 18.89
222.1039160394 	 1.84
231.087651586 	 12.82
232.0954766181 	 10.46
233.1033016502 	 13.9
245.1033016502 	 4.65
247.1189517144 	 66.18
248.1195661036 	 10.97
257.1033016502 	 0.76
259.1189517144 	 2.38
260.1155433582 	 1.11
271.1189517144 	 0.52
272.1142006875 	 0.83
273.1346017786 	 2.51
274.1298507517 	 3.4
275.1304651409 	 1.45
282.1349361296 	 1.06
288.1455008159 	 8.95
290.1611508801 	 37.5
291.1617652693 	 5.68
300.1455008159 	 2.03
301.1295164007 	 4.14
310.1298507517 	 6.03
326.1611508801 	 9.33
327.1617652693 	 1.72
328.140415438 	 8.93
329.1482404701 	 5.65
330.1488548593 	 0.76
344.1717155664 	 100
345.1723299556 	 22.97
436.1615448106 	 3.17
437.1693698427 	 1.79
452.192844939 	 71.79
END IONS

BEGIN IONS
PEPMASS=267.1703
CHARGE=1
MSLEVEL=2
RT=0
SOURCE_INSTRUMENT=qTOF
FILENAME=CCMSLIB00000085982.ms
IONMODE=Positive
ORGANISM=Natural
NAME=MLS001331735-01!
PI=GNPS
DATACOLLECTOR=GNPS
SMILES=COc1ccc(CN2CCNCC2)c(c1OC)OC
INCHI=InChI=1S/C14H22N2O3/c1-17-12-5-4-11(13(18-2)14(12)19-3)10-16-8-6-15-7-9-16/h4-5,15H,6-10H2,1-3H3
FORMULA=C14H22N2O3
PUBMED=N/A
SUBMITUSER=BIOADREM
LIBRARYQUALITY=0
SPECTRUMID=CCMSLIB00000085982
SCANS=3919
ID=CCMSLIB00000085982
91.0542261926 	 2.19
105.0334907505 	 1.19
106.0413157826 	 1.77
107.0491408147 	 2.1
108.0569658468 	 1.83
119.0491408147 	 1.11
121.0284053726 	 8.8
121.0647908789 	 2.49
122.0362304047 	 1.74
123.0440554368 	 2.64
123.0804409431 	 1.64
135.0440554368 	 13.86
136.0518804689 	 33.07
151.0389700589 	 16.48
165.0546201231 	 21.98
166.0624451552 	 100
181.0859202515 	 22.87
267.1703185829 	 0
END IONS

BEGIN IONS
PEPMASS=378.254
CHARGE=1
MSLEVEL=2
RT=0
SOURCE_INSTRUMENT=qTOF
FILENAME=CCMSLIB00000085984.ms
IONMODE=Positive
ORGANISM=Natural
NAME=MLS002153964-01!Famprofazone22881-35-2
PI=GNPS
DATACOLLECTOR=GNPS
SMILES=CC(C)c1c(CN(C)C(C)Cc2ccccc2)n(C)n(c2ccccc2)c1=O
INCHI=InChI=1S/C24H31N3O/c1-18(2)23-22(17-25(4)19(3)16-20-12-8-6-9-13-20)26(5)27(24(23)28)21-14-10-7-11-15-21/h6-15,18-19H,16-17H2,1-5H3
FORMULA=C24H31N3O
PUBMED=N/A
SUBMITUSER=BIOADREM
LIBRARYQUALITY=0
SPECTRUMID=CCMSLIB00000085984
SCANS=3920
ID=CCMSLIB00000085984
91.0542261926 	 27.02
94.0651252299 	 5.41
95.072950262 	 2.71
96.0807752941 	 2.53
104.0494751657 	 3.05
106.0651252299 	 2.3
108.0807752941 	 5.43
110.0964253583 	 4.36
117.0573001978 	 1.96
118.0651252299 	 4.75
119.085526321 	 30.86
121.0760242672 	 2.44
124.0756899162 	 2.14
130.0651252299 	 5.37
132.0443897878 	 6.94
143.072950262 	 1.83
144.0807752941 	 4.32
145.0760242672 	 8.32
147.0916743314 	 3.12
155.072950262 	 2.18
156.0807752941 	 10.23
157.0886003262 	 12.36
158.0964253583 	 6.12
159.0916743314 	 1.8
162.1277254867 	 65.18
170.0964253583 	 10.31
172.1120754225 	 14.37
173.0709388893 	 2.1
174.0787639214 	 20.32
175.0865889535 	 16.33
185.1073243956 	 8.35
186.1151494277 	 3.72
187.0865889535 	 8.07
187.1229744598 	 9.77
189.1022390177 	 1.64
199.0865889535 	 10.25
201.1022390177 	 2.71
201.138624524 	 3.69
213.1022390177 	 11.07
214.1100640498 	 61.52
217.1335391461 	 100
229.1335391461 	 48.29
260.1757383118 	 12.26
378.2539886328 	 12.62
END IONS

BEGIN IONS
PEPMASS=260.1653
CHARGE=1
MSLEVEL=2
RT=0
SOURCE_INSTRUMENT=qTOF
FILENAME=CCMSLIB00000085986.ms
IONMODE=Positive
ORGANISM=Natural
NAME=MLS000859887-01!(S)-()-Propranolol hydrochloride
PI=GNPS
DATACOLLECTOR=GNPS
SMILES=CC(C)NC[C@@H](COc1cccc2ccccc12)O
INCHI=InChI=1S/C16H21NO2/c1-12(2)17-10-14(18)11-19-16-9-5-7-13-6-3-4-8-15(13)16/h3-9,12,14,17-18H,10-11H2,1-2H3/t14-/m0/s1
FORMULA=C16H21NO2
PUBMED=N/A
SUBMITUSER=BIOADREM
LIBRARYQUALITY=0
SPECTRUMID=CCMSLIB00000085986
SCANS=3922
ID=CCMSLIB00000085986
103.0542261926 	 14.4
115.0542261926 	 34.78
116.0620512247 	 3.61
117.0698762568 	 7.71
126.0464011605 	 1.74
127.0542261926 	 20.02
128.0620512247 	 56.63
129.0698762568 	 86.88
131.0491408147 	 1.14
140.0620512247 	 2.69
141.0698762568 	 17.75
143.0491408147 	 3.46
144.0569658468 	 3.88
145.0647908789 	 24.24
152.0620512247 	 6.44
153.0698762568 	 42.1
154.0777012889 	 23.94
155.085526321 	 100
157.0647908789 	 55.05
165.0698762568 	 44.55
168.0569658468 	 14.28
169.0647908789 	 1.8
171.0804409431 	 4.07
183.0804409431 	 34.93
185.0960910073 	 0.89
186.1039160394 	 0.87
260.1645049235 	 5.28
END IONS

BEGIN IONS
PEPMASS=270.1507
CHARGE=1
MSLEVEL=2
RT=0
SOURCE_INSTRUMENT=qTOF
FILENAME=CCMSLIB00000085988.ms
IONMODE=Positive
ORGANISM=Natural
NAME=MLS002172465-01!SKF-75670 hydrobromide
PI=GNPS
DATACOLLECTOR=GNPS
SMILES=CN1CCc2cc(c(cc2C(C1)c1ccccc1)O)O
INCHI=InChI=1S/C17H19NO2/c1-18-8-7-13-9-16(19)17(20)10-14(13)15(11-18)12-5-3-2-4-6-12/h2-6,9-10,15,19-20H,7-8,11H2,1H3
FORMULA=C17H19NO2
PUBMED=N/A
SUBMITUSER=BIOADREM
LIBRARYQUALITY=0
SPECTRUMID=CCMSLIB00000085988
SCANS=3923
ID=CCMSLIB00000085988
91.0542261926 	 54.56
102.0464011605 	 7.11
103.0542261926 	 11.26
104.0620512247 	 3.27
105.0698762568 	 23.95
109.0647908789 	 10.31
115.0542261926 	 29.15
118.0651252299 	 5.99
119.0491408147 	 54.29
119.072950262 	 25.03
123.0440554368 	 18.67
129.0698762568 	 15.7
130.0413157826 	 6.44
131.0491408147 	 7.3
134.0964253583 	 79.76
137.059705501 	 100
143.0491408147 	 12.46
147.0440554368 	 3.85
148.0518804689 	 5.59
149.059705501 	 6.7
152.0620512247 	 6.34
153.0698762568 	 5.28
164.0706045383 	 5.46
165.0698762568 	 18.26
166.0777012889 	 21.74
167.085526321 	 10.66
178.0777012889 	 37.72
179.085526321 	 13.1
181.0647908789 	 4.15
181.1011763852 	 12.98
191.085526321 	 3.05
193.1011763852 	 13.06
194.072615911 	 4.19
209.0960910073 	 6.34
227.1066556936 	 3.5
239.1066556936 	 10.18
270.1488548593 	 35.94
END IONS

BEGIN IONS
PEPMASS=231.0812
CHARGE=1
MSLEVEL=2
RT=0
SOURCE_INSTRUMENT=qTOF
FILENAME=CCMSLIB00000085989.ms
IONMODE=Positive
ORGANISM=Natural
NAME=MLS002207268-01!BENZANTHRONE82-05-3
PI=GNPS
DATACOLLECTOR=GNPS
SMILES=c1ccc2c(c1)c1cccc3cccc(c13)C2=O
INCHI=InChI=1S/C17H10O/c18-17-14-8-2-1-7-12(14)13-9-3-5-11-6-4-10-15(17)16(11)13/h1-10H
FORMULA=C17H10O
PUBMED=N/A
SUBMITUSER=BIOADREM
LIBRARYQUALITY=0
SPECTRUMID=CCMSLIB00000085989
SCANS=3924
ID=CCMSLIB00000085989
151.0542261926 	 0.48
152.0620512247 	 0.48
200.0620512247 	 2.95
201.0698762568 	 3.94
202.0777012889 	 100
203.085526321 	 36.32
231.0804409431 	 48.69
END IONS

BEGIN IONS
PEPMASS=212.085
CHARGE=1
MSLEVEL=2
RT=0
SOURCE_INSTRUMENT=qTOF
FILENAME=CCMSLIB00000085991.ms
IONMODE=Positive
ORGANISM=Natural
NAME=MLS002207036-01!Propachlor1918-16-7
PI=GNPS
DATACOLLECTOR=GNPS
SMILES=CC(C)N(c1ccccc1)C(=O)CCl
INCHI=InChI=1S/C11H14ClNO/c1-9(2)13(11(14)8-12)10-6-4-3-5-7-10/h3-7,9H,8H2,1-2H3
FORMULA=C11H14ClNO
PUBMED=N/A
SUBMITUSER=BIOADREM
LIBRARYQUALITY=0
SPECTRUMID=CCMSLIB00000085991
SCANS=3925
ID=CCMSLIB00000085991
94.0651252299 	 55.27
95.0491408147 	 11.52
106.0651252299 	 46.98
112.0074288384 	 6.66
117.0573001978 	 11.16
134.060039852 	 15.93
152.0261529078 	 26.37
170.0367175941 	 100
212.0836677867 	 0
END IONS

BEGIN IONS
PEPMASS=359.187
CHARGE=1
MSLEVEL=2
RT=0
SOURCE_INSTRUMENT=qTOF
FILENAME=CCMSLIB00000085992.ms
IONMODE=Positive
ORGANISM=Natural
NAME=MLS002638114-01!53-03-2
PI=GNPS
DATACOLLECTOR=GNPS
SMILES=CC12C=CC(=O)C=C1CCC1C3CCC(C(=O)CO)(C3(C)CC(=O)C21)O
INCHI=InChI=1S/C21H26O5/c1-19-7-5-13(23)9-12(19)3-4-14-15-6-8-21(26,17(25)11-22)20(15,2)10-16(24)18(14)19/h5,7,9,14-15,18,22,26H,3-4,6,8,10-11H2,1-2H3
FORMULA=C21H26O5
PUBMED=N/A
SUBMITUSER=BIOADREM
LIBRARYQUALITY=0
SPECTRUMID=CCMSLIB00000085992
SCANS=3926
ID=CCMSLIB00000085992
91.0542261926 	 17.82
107.0491408147 	 19.2
119.085526321 	 28.73
121.0647908789 	 50.69
145.0647908789 	 30.39
145.1011763852 	 18.23
146.072615911 	 18.09
147.0804409431 	 100
158.072615911 	 38.4
159.0804409431 	 72.51
161.0960910073 	 44.2
171.0804409431 	 84.12
173.0960910073 	 25.97
179.085526321 	 27.21
181.0647908789 	 20.99
183.0804409431 	 34.81
185.0960910073 	 43.92
187.0753555652 	 16.02
187.1117410715 	 17.27
193.1011763852 	 25.97
195.0804409431 	 26.38
197.0960910073 	 51.93
207.0804409431 	 21.82
208.0882659752 	 24.31
209.0960910073 	 44.89
215.1066556936 	 20.99
221.0960910073 	 34.25
222.1039160394 	 55.66
223.1117410715 	 34.94
237.1273911357 	 53.59
239.1430411999 	 35.22
359.1852999451 	 0
END IONS

BEGIN IONS
PEPMASS=364.0752
CHARGE=1
MSLEVEL=2
RT=0
SOURCE_INSTRUMENT=qTOF
FILENAME=CCMSLIB00000085993.ms
IONMODE=Positive
ORGANISM=Natural
NAME=MLS000860076-01!L-701,324
PI=GNPS
DATACOLLECTOR=GNPS
SMILES=c1ccc(cc1)Oc1cccc(c1)c1c(c2ccc(cc2nc1O)Cl)O
INCHI=InChI=1S/C21H14ClNO3/c22-14-9-10-17-18(12-14)23-21(25)19(20(17)24)13-5-4-8-16(11-13)26-15-6-2-1-3-7-15/h1-12H,(H2,23,24,25)
FORMULA=C21H14ClNO3
PUBMED=N/A
SUBMITUSER=BIOADREM
LIBRARYQUALITY=0
SPECTRUMID=CCMSLIB00000085993
SCANS=3927
ID=CCMSLIB00000085993
126.0100156542 	 5.53
141.0698762568 	 2.95
154.0049302763 	 58.04
155.085526321 	 3.52
165.0698762568 	 3.26
179.072950262 	 2.87
180.0807752941 	 2
181.0647908789 	 11.01
183.0804409431 	 5.63
190.0651252299 	 11.76
197.059705501 	 3.76
206.060039852 	 2.17
207.0678648841 	 8.26
208.0756899162 	 1.99
214.041802972 	 5.48
224.0261529078 	 8
225.0339779399 	 5.89
230.0367175941 	 3.29
235.0627795062 	 6.17
240.0210675299 	 7.36
241.028892562 	 2.74
242.0367175941 	 7.43
252.0210675299 	 7.51
253.028892562 	 100
254.0964253583 	 5.1
255.1042503904 	 2.95
258.0316322162 	 2.87
269.0238071841 	 3.12
270.0316322162 	 75.11
271.0394572483 	 20.85
282.0913399804 	 7.98
283.0991650125 	 12.55
293.0835149483 	 3.06
310.0862546025 	 5.8
311.0940796346 	 12.71
318.0680177225 	 7.05
328.0523676583 	 2.68
346.0629323446 	 17.38
364.0734970309 	 99.08
END IONS

BEGIN IONS
PEPMASS=374.1635
CHARGE=1
MSLEVEL=2
RT=0
SOURCE_INSTRUMENT=qTOF
FILENAME=CCMSLIB00000085995.ms
IONMODE=Positive
ORGANISM=Natural
NAME=MLS002153518-01!N-[2-(4-(4-Chlorophenyl)piperazin-1-yl)ethyl]-3-methoxybenzamide
PI=GNPS
DATACOLLECTOR=GNPS
SMILES=COc1cccc(c1)C(=NCCN1CCN(CC1)c1ccc(cc1)Cl)O
INCHI=InChI=1S/C20H24ClN3O2/c1-26-19-4-2-3-16(15-19)20(25)22-9-10-23-11-13-24(14-12-23)18-7-5-17(21)6-8-18/h2-8,15H,9-14H2,1H3,(H,22,25)
FORMULA=C20H24ClN3O2
PUBMED=N/A
SUBMITUSER=BIOADREM
LIBRARYQUALITY=0
SPECTRUMID=CCMSLIB00000085995
SCANS=3928
ID=CCMSLIB00000085995
92.0261529078 	 1.43
107.0496280041 	 11
119.072950262 	 0.22
125.0601926904 	 3.49
130.0651252299 	 0.2
135.0445426262 	 68.73
138.0105028436 	 0.98
154.041802972 	 0.75
163.0632666956 	 1.6
166.041802972 	 1.51
178.0867417919 	 100
193.0527020093 	 0.26
197.0840021377 	 0.64
223.0996522019 	 1.85
374.1629807402 	 0.59
END IONS

BEGIN IONS
PEPMASS=400.1755
CHARGE=1
MSLEVEL=2
RT=0
SOURCE_INSTRUMENT=qTOF
FILENAME=CCMSLIB00000085996.ms
IONMODE=Positive
ORGANISM=Natural
NAME=MLS002153821-01!Lumicolchicine gamma6901-14-0
PI=GNPS
DATACOLLECTOR=GNPS
SMILES=CC(=N[C@H]1CCc2cc(c(c(c2C2=C1[C@H]1[C@@H]2C=C(C1=O)OC)OC)OC)OC)O
INCHI=InChI=1S/C22H25NO6/c1-10(24)23-13-7-6-11-8-15(27-3)21(28-4)22(29-5)16(11)17-12-9-14(26-2)20(25)18(12)19(13)17/h8-9,12-13,18H,6-7H2,1-5H3,(H,23,24)/t12-,13+,18-/m1/s1
FORMULA=C22H25NO6
PUBMED=N/A
SUBMITUSER=BIOADREM
LIBRARYQUALITY=0
SPECTRUMID=CCMSLIB00000085996
SCANS=3929
ID=CCMSLIB00000085996
195.0804409431 	 4.93
208.0882659752 	 5.34
209.0960910073 	 4.14
212.0831805973 	 3.4
221.0960910073 	 3.26
223.0753555652 	 9.71
224.0831805973 	 17.95
227.0702701873 	 7.56
235.0753555652 	 6.39
236.0831805973 	 12.05
237.0910056294 	 7.72
238.0988306615 	 4.53
239.1066556936 	 23.58
240.0780952194 	 7.05
241.0859202515 	 9.24
242.0937452836 	 6.27
249.0910056294 	 3.24
250.0988306615 	 6.24
251.0702701873 	 12.19
251.1066556936 	 14.86
252.0780952194 	 12.46
255.0651848094 	 10.3
255.1015703157 	 11.64
263.0702701873 	 4.91
265.0859202515 	 6.03
266.0937452836 	 5.05
267.1015703157 	 72.23
269.1172203799 	 5.02
270.0886599057 	 13.16
278.0937452836 	 7.1
279.0651848094 	 4.06
280.0730098415 	 3.2
281.1172203799 	 10.13
282.125045412 	 100
283.0964849378 	 23.97
284.1043099699 	 6.62
285.112135002 	 49.72
295.0964849378 	 12.02
298.1199600341 	 17.72
309.112135002 	 3.54
310.1199600341 	 7.2
311.0913995599 	 7.46
313.1070496241 	 8.9
313.1434351304 	 13.64
326.1148746562 	 4.43
341.1383497525 	 59.63
400.1754635403 	 0
END IONS

BEGIN IONS
PEPMASS=371.2217
CHARGE=1
MSLEVEL=2
RT=0
SOURCE_INSTRUMENT=qTOF
FILENAME=CCMSLIB00000085997.ms
IONMODE=Positive
ORGANISM=Natural
NAME=MLS002154113-01!Nomegestrol acetate58652-20-3
PI=GNPS
DATACOLLECTOR=GNPS
SMILES=CC1=C[C@@H]2[C@H](CC[C@@]3(C)[C@H]2CC[C@@]3(C(=O)C)OC(=O)C)[C@H]2CCC(=O)C=C12
INCHI=InChI=1S/C23H30O4/c1-13-11-20-18(17-6-5-16(26)12-19(13)17)7-9-22(4)21(20)8-10-23(22,14(2)24)27-15(3)25/h11-12,17-18,20-21H,5-10H2,1-4H3/t17-,18-,20-,21+,22+,23+/m1/s1
FORMULA=C23H30O4
PUBMED=N/A
SUBMITUSER=BIOADREM
LIBRARYQUALITY=0
SPECTRUMID=CCMSLIB00000085997
SCANS=3930
ID=CCMSLIB00000085997
105.0698762568 	 12.86
119.085526321 	 8.45
128.0620512247 	 11.79
129.0698762568 	 8.45
131.085526321 	 20.57
133.1011763852 	 33.12
141.0698762568 	 9.84
142.0777012889 	 19.84
143.085526321 	 18.47
145.0647908789 	 7.35
145.1011763852 	 19.89
147.1168264494 	 10.06
155.085526321 	 20.41
157.1011763852 	 37.12
158.072615911 	 15.55
159.0804409431 	 14.73
161.0960910073 	 32.52
165.0698762568 	 6.86
167.085526321 	 9.36
169.1011763852 	 29.28
171.0804409431 	 14.77
171.1168264494 	 7.86
173.0960910073 	 63
175.1117410715 	 49.34
179.085526321 	 9.16
180.0933513531 	 8.03
181.1011763852 	 11.55
183.1168264494 	 18.87
193.1011763852 	 9.66
194.1090014173 	 12.24
195.1168264494 	 50.92
197.1324765136 	 23.02
207.1168264494 	 10.27
208.1246514815 	 8.12
209.1324765136 	 40.94
210.1403015457 	 43.7
211.1481265778 	 29.23
220.1246514815 	 11.49
221.1324765136 	 8.34
223.1481265778 	 7.31
227.1430411999 	 11.56
235.1481265778 	 24.16
239.1430411999 	 7.26
250.1716016741 	 9.61
251.1430411999 	 8.82
251.1794267062 	 17.59
253.1586912641 	 100
267.1743413283 	 29.35
268.1821663604 	 60.38
269.1899913925 	 18.48
293.1899913925 	 8.05
296.1770809825 	 8.58
311.2005560788 	 13.48
371.2216854514 	 0
END IONS

BEGIN IONS
PEPMASS=271.171
CHARGE=1
MSLEVEL=2
RT=0
SOURCE_INSTRUMENT=qTOF
FILENAME=CCMSLIB00000085999.ms
IONMODE=Positive
ORGANISM=Natural
NAME=MLS001331716-01!
PI=GNPS
DATACOLLECTOR=GNPS
SMILES=CC12CCC3c4ccc(cc4CCC3C1CCC2=O)O
INCHI=InChI=1S/C18H22O2/c1-18-9-8-14-13-5-3-12(19)10-11(13)2-4-15(14)16(18)6-7-17(18)20/h3,5,10,14-16,19H,2,4,6-9H2,1H3
FORMULA=C18H22O2
PUBMED=N/A
SUBMITUSER=BIOADREM
LIBRARYQUALITY=0
SPECTRUMID=CCMSLIB00000085999
SCANS=3932
ID=CCMSLIB00000085999
103.0542261926 	 5.94
105.0698762568 	 27.16
107.0491408147 	 7.14
115.0542261926 	 16.35
116.0620512247 	 16.67
127.0542261926 	 5.35
128.0620512247 	 11.37
129.0698762568 	 11.57
131.0491408147 	 14.2
131.085526321 	 14.32
132.0569658468 	 5.38
133.0647908789 	 86.08
141.0698762568 	 18.79
144.0569658468 	 40.69
145.0647908789 	 21.54
147.0804409431 	 6.42
153.0698762568 	 3.95
154.0777012889 	 3.23
155.085526321 	 5.86
157.0647908789 	 100
159.0804409431 	 57.4
167.085526321 	 4.87
171.0804409431 	 14.52
172.0882659752 	 5.15
179.085526321 	 8.54
181.1011763852 	 3.51
182.072615911 	 13.92
183.0804409431 	 22.02
185.0960910073 	 7.42
197.0960910073 	 25.77
198.1039160394 	 15.32
199.1117410715 	 5.11
211.1117410715 	 15.16
213.1273911357 	 7.98
225.1273911357 	 3.15
253.1586912641 	 12.09
271.1692559504 	 0
END IONS

BEGIN IONS
PEPMASS=334.2378
CHARGE=1
MSLEVEL=2
RT=0
SOURCE_INSTRUMENT=qTOF
FILENAME=CCMSLIB00000086001.ms
IONMODE=Positive
ORGANISM=Natural
NAME=MLS000859895-01!23142-01-0
PI=GNPS
DATACOLLECTOR=GNPS
SMILES=CCN(CC)CCOCCOC(=O)C1(CCCC1)c1ccccc1
INCHI=InChI=1S/C20H31NO3/c1-3-21(4-2)14-15-23-16-17-24-19(22)20(12-8-9-13-20)18-10-6-5-7-11-18/h5-7,10-11H,3-4,8-9,12-17H2,1-2H3
FORMULA=C20H31NO3
PUBMED=N/A
SUBMITUSER=BIOADREM
LIBRARYQUALITY=0
SPECTRUMID=CCMSLIB00000086001
SCANS=3934
ID=CCMSLIB00000086001
91.0542261926 	 25.66
100.1120754225 	 100
103.0542261926 	 0.5
105.0334907505 	 7.89
115.0542261926 	 0.66
117.0698762568 	 2.99
118.1226401088 	 0.56
128.0620512247 	 0.59
129.0698762568 	 1.6
130.0777012889 	 0.76
131.085526321 	 3.26
143.085526321 	 0.8
145.1011763852 	 96.86
149.059705501 	 10.71
155.085526321 	 1.49
157.1011763852 	 0.56
173.0960910073 	 1.21
175.0753555652 	 0.86
217.1223057578 	 28.67
334.2376698666 	 32.82
END IONS

BEGIN IONS
PEPMASS=378.1627
CHARGE=1
MSLEVEL=2
RT=0
SOURCE_INSTRUMENT=qTOF
FILENAME=CCMSLIB00000086003.ms
IONMODE=Positive
ORGANISM=Natural
NAME=MLS001148158-01!HALOPERIDOL METABOLITE II
PI=GNPS
DATACOLLECTOR=GNPS
SMILES=C(CC(c1ccc(cc1)F)O)CN1CCC(CC1)(c1ccc(cc1)Cl)O
INCHI=InChI=1S/C21H25ClFNO2/c22-18-7-5-17(6-8-18)21(26)11-14-24(15-12-21)13-1-2-20(25)16-3-9-19(23)10-4-16/h3-10,20,25-26H,1-2,11-15H2
FORMULA=C21H25ClFNO2
PUBMED=N/A
SUBMITUSER=BIOADREM
LIBRARYQUALITY=0
SPECTRUMID=CCMSLIB00000086003
SCANS=3936
ID=CCMSLIB00000086003
103.0542261926 	 1.19
109.0448043605 	 54.35
115.0553690468 	 0.5
121.0448043605 	 2.6
123.0240689184 	 3.94
123.0604544247 	 1.46
127.0553690468 	 0.66
128.0631940789 	 3.75
129.071019111 	 14.35
130.0788441431 	 2.94
133.0448043605 	 3.75
134.0526293926 	 13.45
135.0571186852 	 1.4
137.0163967247 	 2.07
139.0320467889 	 0.38
145.0659337331 	 0.51
146.0526293926 	 1.34
147.0604544247 	 12.59
149.0761044889 	 100
150.0805937815 	 11.07
161.0761044889 	 0.41
165.0476968531 	 1.13
165.071019111 	 2.65
178.1026535904 	 1.23
206.0742459546 	 2.63
208.1132182767 	 0.8
224.0848106409 	 4.54
342.1419315893 	 12.37
360.1524962756 	 24.63
378.1630609619 	 1.24
END IONS

BEGIN IONS
PEPMASS=389.2071
CHARGE=1
MSLEVEL=2
RT=0
SOURCE_INSTRUMENT=qTOF
FILENAME=CCMSLIB00000086005.ms
IONMODE=Positive
ORGANISM=Natural
NAME=MLS002154193-01!Trimethobenzamide hydrochloride554-92-7
PI=GNPS
DATACOLLECTOR=GNPS
SMILES=CN(C)CCOc1ccc(cc1)CN=C(c1cc(c(c(c1)OC)OC)OC)O
INCHI=InChI=1S/C21H28N2O5/c1-23(2)10-11-28-17-8-6-15(7-9-17)14-22-21(24)16-12-18(25-3)20(27-5)19(13-16)26-4/h6-9,12-13H,10-11,14H2,1-5H3,(H,22,24)
FORMULA=C21H28N2O5
PUBMED=N/A
SUBMITUSER=BIOADREM
LIBRARYQUALITY=0
SPECTRUMID=CCMSLIB00000086005
SCANS=3938
ID=CCMSLIB00000086005
96.0569658468 	 1.07
105.0698762568 	 1.37
107.0491408147 	 3.44
109.0647908789 	 2.26
111.0804409431 	 1.61
121.0284053726 	 1.33
121.0647908789 	 2.41
124.0518804689 	 4.69
128.046795091 	 1.55
133.0647908789 	 12.84
137.0233199947 	 1.87
139.0753555652 	 7.61
141.0182346168 	 1.24
151.0389700589 	 1.49
152.046795091 	 12.3
154.0624451552 	 2.45
166.1226401088 	 17.72
167.0702701873 	 6.58
168.0807752941 	 0.77
169.0886003262 	 1.11
185.0835149483 	 1.18
194.0811692246 	 1.12
195.0651848094 	 100
212.1155433582 	 0.97
389.2070980197 	 0
END IONS

BEGIN IONS
PEPMASS=342.17
CHARGE=1
MSLEVEL=2
RT=0
SOURCE_INSTRUMENT=qTOF
FILENAME=CCMSLIB00000086009.ms
IONMODE=Positive
ORGANISM=Natural
NAME=MLS002153898-01!Isocorydine (+)475-67-2
PI=GNPS
DATACOLLECTOR=GNPS
SMILES=CN1CCc2cc(c(c3c2[C@@H]1Cc1ccc(c(c31)O)OC)OC)OC
INCHI=InChI=1S/C20H23NO4/c1-21-8-7-12-10-15(24-3)20(25-4)18-16(12)13(21)9-11-5-6-14(23-2)19(22)17(11)18/h5-6,10,13,22H,7-9H2,1-4H3/t13-/m0/s1
FORMULA=C20H23NO4
PUBMED=N/A
SUBMITUSER=BIOADREM
LIBRARYQUALITY=0
SPECTRUMID=CCMSLIB00000086009
SCANS=3941
ID=CCMSLIB00000086009
165.0698762568 	 8.69
166.0777012889 	 3.87
178.0777012889 	 9.5
179.085526321 	 7.99
180.0933513531 	 3.97
190.0777012889 	 11.55
191.085526321 	 31.86
193.0647908789 	 6.25
194.072615911 	 10.86
202.0777012889 	 5.42
205.0647908789 	 10.82
206.072615911 	 13.27
207.0804409431 	 18.92
208.0882659752 	 21.9
209.0960910073 	 7.52
218.072615911 	 6.64
219.0804409431 	 23.38
220.0882659752 	 10.3
221.059705501 	 15.74
221.0960910073 	 8.85
222.0675305331 	 8.58
223.1117410715 	 5.44
224.0831805973 	 4.21
231.0804409431 	 12.47
233.059705501 	 6.68
235.0753555652 	 33.18
236.0831805973 	 100
237.0910056294 	 37.79
238.0624451552 	 31.98
246.0675305331 	 4.11
247.0753555652 	 51.9
248.0831805973 	 47.68
249.0546201231 	 6.96
249.0910056294 	 13.16
250.0988306615 	 5.11
251.0702701873 	 4.09
251.1066556936 	 19.65
252.0780952194 	 3.8
253.0859202515 	 44.18
262.0988306615 	 3.92
263.0702701873 	 19.38
264.0780952194 	 68.66
265.0859202515 	 91.76
267.1015703157 	 6.09
278.0937452836 	 3.58
279.1015703157 	 59.58
280.1093953478 	 40.77
281.0808348736 	 42.86
296.1043099699 	 27.64
311.1277850662 	 15.55
342.1699842319 	 1.12
END IONS

BEGIN IONS
PEPMASS=241.0503
CHARGE=1
MSLEVEL=2
RT=0
SOURCE_INSTRUMENT=qTOF
FILENAME=CCMSLIB00000086011.ms
IONMODE=Positive
ORGANISM=Natural
NAME=MLS002207283-01!Alizarin72-48-0
PI=GNPS
DATACOLLECTOR=GNPS
SMILES=c1ccc2c(c1)C(=O)c1ccc(c(c1C2=O)O)O
INCHI=InChI=1S/C14H8O4/c15-10-6-5-9-11(14(10)18)13(17)8-4-2-1-3-7(8)12(9)16/h1-6,15,18H
FORMULA=C14H8O4
PUBMED=N/A
SUBMITUSER=BIOADREM
LIBRARYQUALITY=0
SPECTRUMID=CCMSLIB00000086011
SCANS=3942
ID=CCMSLIB00000086011
102.0464011605 	 10.79
105.0334907505 	 11
107.0127553084 	 12.24
113.0385761284 	 8.92
128.0620512247 	 76.97
129.0698762568 	 41.49
139.0542261926 	 89.63
157.0647908789 	 100
167.0491408147 	 30.71
184.0518804689 	 16.8
185.059705501 	 46.68
195.0440554368 	 35.68
241.0495347452 	 71.78
END IONS

BEGIN IONS
PEPMASS=309.1234
CHARGE=1
MSLEVEL=2
RT=0
SOURCE_INSTRUMENT=qTOF
FILENAME=CCMSLIB00000086012.ms
IONMODE=Positive
ORGANISM=Natural
NAME=MLS002153178-01!Tyrphostin AG 527133550-32-0
PI=GNPS
DATACOLLECTOR=GNPS
SMILES=C[C@H](c1ccccc1)N=C(/C(=C/c1ccc(c(c1)O)O)/C#N)O
INCHI=InChI=1S/C18H16N2O3/c1-12(14-5-3-2-4-6-14)20-18(23)15(11-19)9-13-7-8-16(21)17(22)10-13/h2-10,12,21-22H,1H3,(H,20,23)/b15-9+/t12-/m1/s1
FORMULA=C18H16N2O3
PUBMED=N/A
SUBMITUSER=BIOADREM
LIBRARYQUALITY=0
SPECTRUMID=CCMSLIB00000086012
SCANS=3943
ID=CCMSLIB00000086012
45.0573001978 	 2.34
103.0542261926 	 15.24
104.0494751657 	 5.28
105.0698762568 	 100
106.0736785435 	 14.07
114.0338251015 	 8.85
132.0443897878 	 10.84
134.0685931656 	 2.34
155.1066556936 	 2.52
160.0393044099 	 26.85
163.0416501336 	 2.34
170.0236543457 	 12.49
188.034219032 	 7.21
309.1233683903 	 0
END IONS

BEGIN IONS
PEPMASS=359.2581
CHARGE=1
MSLEVEL=2
RT=0
SOURCE_INSTRUMENT=qTOF
FILENAME=CCMSLIB00000086013.ms
IONMODE=Positive
ORGANISM=Natural
NAME=MLS000069411-01!PREGNENOLONE ACETATE
PI=GNPS
DATACOLLECTOR=GNPS
SMILES=CC(=O)[C@H]1CC[C@H]2[C@@H]3CC=C4C[C@H](CC[C@]4(C)[C@H]3CC[C@]12C)OC(=O)C
INCHI=InChI=1S/C23H34O3/c1-14(24)19-7-8-20-18-6-5-16-13-17(26-15(2)25)9-11-22(16,3)21(18)10-12-23(19,20)4/h5,17-21H,6-13H2,1-4H3/t17-,18-,19+,20-,21-,22-,23+/m0/s1
FORMULA=C23H34O3
PUBMED=N/A
SUBMITUSER=BIOADREM
LIBRARYQUALITY=0
SPECTRUMID=CCMSLIB00000086013
SCANS=3944
ID=CCMSLIB00000086013
105.0698762568 	 83.18
117.0698762568 	 50
119.085526321 	 52.8
130.0777012889 	 42.99
131.085526321 	 97.66
133.1011763852 	 99.53
141.0698762568 	 30.84
145.1011763852 	 81.31
157.1011763852 	 100
159.1168264494 	 88.79
183.1168264494 	 35.05
185.1324765136 	 77.57
197.1324765136 	 60.28
213.163776642 	 36.92
359.2580709577 	 0
END IONS

BEGIN IONS
PEPMASS=330.1255
CHARGE=1
MSLEVEL=2
RT=0
SOURCE_INSTRUMENT=qTOF
FILENAME=CCMSLIB00000086014.ms
IONMODE=Positive
ORGANISM=Natural
NAME=MLS001056784-01!Chloro-APB hydrobromide
PI=GNPS
DATACOLLECTOR=GNPS
SMILES=C=CCN1CCc2c(cc(c(c2Cl)O)O)C(C1)c1ccccc1
INCHI=InChI=1S/C19H20ClNO2/c1-2-9-21-10-8-14-15(11-17(22)19(23)18(14)20)16(12-21)13-6-4-3-5-7-13/h2-7,11,16,22-23H,1,8-10,12H2
FORMULA=C19H20ClNO2
PUBMED=N/A
SUBMITUSER=BIOADREM
LIBRARYQUALITY=0
SPECTRUMID=CCMSLIB00000086014
SCANS=3945
ID=CCMSLIB00000086014
91.0542261926 	 12.42
105.0698762568 	 18.58
119.072950262 	 10.49
125.0152538705 	 63.96
128.0620512247 	 8.57
136.0518804689 	 24.47
147.0440554368 	 11.61
149.0152538705 	 11.57
153.0101684926 	 27.77
157.0050831147 	 12.53
160.1120754225 	 39.12
162.0549544741 	 28.4
163.0627795062 	 13.09
165.0698762568 	 23.8
166.0777012889 	 9.71
171.0207331789 	 100
177.0101684926 	 13.76
178.0777012889 	 9.68
179.085526321 	 14.83
183.0207331789 	 9.75
184.015982152 	 8.94
191.085526321 	 11.53
192.0933513531 	 12.42
193.0647908789 	 10.27
194.072615911 	 8.23
197.0238071841 	 20.69
198.0316322162 	 27.81
210.0675305331 	 17.69
211.0753555652 	 22.95
219.0804409431 	 7.45
220.0882659752 	 7.75
223.0753555652 	 18.24
224.0836677867 	 9.45
225.0910056294 	 12.87
236.0831805973 	 19.95
238.0988306615 	 19.58
245.0363832431 	 10.09
247.0520333073 	 15.02
252.1019046667 	 15.57
253.1097296988 	 7.86
254.1175547309 	 13.16
288.0785824088 	 57.06
289.0864074409 	 13.94
330.1255326014 	 48.05
END IONS

BEGIN IONS
PEPMASS=194.0948
CHARGE=1
MSLEVEL=2
RT=0
SOURCE_INSTRUMENT=qTOF
FILENAME=CCMSLIB00000086015.ms
IONMODE=Positive
ORGANISM=Natural
NAME=MLS000701322-01!2-phenyl-1H-indole
PI=GNPS
DATACOLLECTOR=GNPS
SMILES=c1ccc(cc1)c1cc2ccccc2[nH]1
INCHI=InChI=1S/C14H11N/c1-2-6-11(7-3-1)14-10-12-8-4-5-9-13(12)15-14/h1-10,15H
FORMULA=C14H11N
PUBMED=N/A
SUBMITUSER=BIOADREM
LIBRARYQUALITY=0
SPECTRUMID=CCMSLIB00000086015
SCANS=3946
ID=CCMSLIB00000086015
89.0385761284 	 3.21
90.0464011605 	 2.62
116.0494751657 	 20.82
117.0573001978 	 25.08
128.0620512247 	 4.37
139.0542261926 	 2.65
141.0698762568 	 6.22
151.0542261926 	 5.13
152.0620512247 	 48.17
165.0698762568 	 73.7
166.0777012889 	 17.01
167.085526321 	 38
178.0777012889 	 6.74
194.0964253583 	 52.67
END IONS

BEGIN IONS
PEPMASS=257.9713
CHARGE=1
MSLEVEL=2
RT=0
SOURCE_INSTRUMENT=qTOF
FILENAME=CCMSLIB00000086016.ms
IONMODE=Positive
ORGANISM=Natural
NAME=MLS001066393-01!5,7-Dichlorokynurenic acid monohydrate
PI=GNPS
DATACOLLECTOR=GNPS
SMILES=c1c(cc2c(c1Cl)c(=O)cc(C(=O)O)[nH]2)Cl
INCHI=InChI=1S/C10H5Cl2NO3/c11-4-1-5(12)9-6(2-4)13-7(10(15)16)3-8(9)14/h1-3H,(H,13,14)(H,15,16)
FORMULA=C10H5Cl2NO3
PUBMED=N/A
SUBMITUSER=BIOADREM
LIBRARYQUALITY=0
SPECTRUMID=CCMSLIB00000086016
SCANS=3947
ID=CCMSLIB00000086016
114.0338251015 	 1.78
147.9948527794 	 10.09
149.0026778115 	 9.26
156.9606314842 	 100
166.0054174657 	 1.58
176.9975924336 	 7.6
183.9715305215 	 53.25
211.9664451436 	 51.41
229.9770098299 	 53.87
257.971924452 	 0.47
END IONS

BEGIN IONS
PEPMASS=305.1985
CHARGE=1
MSLEVEL=2
RT=0
SOURCE_INSTRUMENT=qTOF
FILENAME=CCMSLIB00000086018.ms
IONMODE=Positive
ORGANISM=Natural
NAME=MLS002154057-01!Methylatropine nitrate52-88-0
PI=GNPS
DATACOLLECTOR=GNPS
SMILES=C[N+]1(C)[C@H]2CCC1C[C@@H](C2)OC(=O)C(CO)c1ccccc1
INCHI=InChI=1S/C18H26NO3/c1-19(2)14-8-9-15(19)11-16(10-14)22-18(21)17(12-20)13-6-4-3-5-7-13/h3-7,14-17,20H,8-12H2,1-2H3/q+1/t14-,15?,16+,17?/m0/s1
FORMULA=C18H26NO3
PUBMED=N/A
SUBMITUSER=BIOADREM
LIBRARYQUALITY=0
SPECTRUMID=CCMSLIB00000086018
SCANS=3948
ID=CCMSLIB00000086018
91.0542261926 	 5.82
93.0698762568 	 6.61
95.085526321 	 1.93
96.0807752941 	 1.19
97.0886003262 	 0.35
100.0756899162 	 0.46
108.0807752941 	 1.49
109.0886003262 	 0.97
110.0964253583 	 1.42
112.1120754225 	 1.3
122.0964253583 	 0.85
123.1042503904 	 0.96
124.1120754225 	 0.63
136.1120754225 	 0.39
138.1277254867 	 100
154.1226401088 	 2.1
156.138290173 	 4.54
274.1801549877 	 1.37
275.1879800198 	 0.7
304.190719674 	 29.67
305.1985447061 	 0
END IONS

BEGIN IONS
PEPMASS=319.2142
CHARGE=1
MSLEVEL=2
RT=0
SOURCE_INSTRUMENT=qTOF
FILENAME=CCMSLIB00000086019.ms
IONMODE=Positive
ORGANISM=Natural
NAME=MLS002222301-01!
PI=GNPS
DATACOLLECTOR=GNPS
SMILES=C[N+]1(C)CCC(C1)OC(=O)C(c1ccccc1)(C1CCCC1)O
INCHI=InChI=1S/C19H28NO3/c1-20(2)13-12-17(14-20)23-18(21)19(22,16-10-6-7-11-16)15-8-4-3-5-9-15/h3-5,8-9,16-17,22H,6-7,10-14H2,1-2H3/q+1
FORMULA=C19H28NO3
PUBMED=N/A
SUBMITUSER=BIOADREM
LIBRARYQUALITY=0
SPECTRUMID=CCMSLIB00000086019
SCANS=3949
ID=CCMSLIB00000086019
88.0756899162 	 0.38
98.0964253583 	 4.31
100.0756899162 	 0.54
101.0835149483 	 0.65
105.0334907505 	 0.5
116.1069900446 	 100
119.0491408147 	 0.27
129.0698762568 	 0.55
157.1011763852 	 0.75
175.1117410715 	 1.22
319.2141947703 	 0
END IONS

BEGIN IONS
PEPMASS=611.4052
CHARGE=1
MSLEVEL=2
RT=0
SOURCE_INSTRUMENT=qTOF
FILENAME=CCMSLIB00000086020.ms
IONMODE=Positive
ORGANISM=Natural
NAME=MLS000859956-01!U-74389G
PI=GNPS
DATACOLLECTOR=GNPS
SMILES=C[C@]12C=CC(=O)C=C1CC[C@H]1[C@@H]3CC[C@H](C(=O)CN4CCN(CC4)c4cc(nc(n4)N4CCCC4)N4CCCC4)[C@@]3(C)CC=C21
INCHI=InChI=1S/C37H50N6O2/c1-36-13-11-27(44)23-26(36)7-8-28-29-9-10-31(37(29,2)14-12-30(28)36)32(45)25-40-19-21-42(22-20-40)34-24-33(41-15-3-4-16-41)38-35(39-34)43-17-5-6-18-43/h11-13,23-24,28-29,31H,3-10,14-22,25H2,1-2H3/t28-,29-,31+,36-,37-/m0/s1
FORMULA=C37H50N6O2
PUBMED=N/A
SUBMITUSER=BIOADREM
LIBRARYQUALITY=0
SPECTRUMID=CCMSLIB00000086020
SCANS=3950
ID=CCMSLIB00000086020
99.0916743314 	 4.12
121.0760242672 	 4.71
246.1614309183 	 7.84
247.1804893387 	 3.82
256.1444381834 	 4.61
256.1695903014 	 4.61
260.1883143708 	 7.16
301.2148634723 	 18.73
315.2318562072 	 6.76
330.2427552445 	 3.92
353.2461636007 	 3.82
371.256728287 	 5.88
395.2481749734 	 3.92
426.3155262571 	 4.31
428.1505861938 	 4.12
567.2503002384 	 3.82
568.3897538327 	 5.59
569.3850028058 	 3.82
578.3727610978 	 4.02
582.3676757199 	 4.31
596.3833257841 	 100
597.3911508162 	 40.2
611.4068008804 	 84.31
END IONS

BEGIN IONS
PEPMASS=152.1426
CHARGE=1
MSLEVEL=2
RT=0
SOURCE_INSTRUMENT=qTOF
FILENAME=CCMSLIB00000086021.ms
IONMODE=Positive
ORGANISM=Natural
NAME=MLS000028731-01!1-ADAMANTANAMINE HYDROCHLORIDE
PI=GNPS
DATACOLLECTOR=GNPS
SMILES=C1C2CC3CC1CC(C2)(C3)N
INCHI=InChI=1S/C10H17N/c11-10-4-7-1-8(5-10)3-9(2-7)6-10/h7-9H,1-6,11H2
FORMULA=C10H17N
PUBMED=N/A
SUBMITUSER=BIOADREM
LIBRARYQUALITY=0
SPECTRUMID=CCMSLIB00000086021
SCANS=3951
ID=CCMSLIB00000086021
93.0698762568 	 9.89
105.0698762568 	 4.31
107.085526321 	 22.27
125.1199004546 	 0.96
133.1011763852 	 2.29
135.1168264494 	 100
152.1433755509 	 1.7
END IONS

BEGIN IONS
PEPMASS=378.2176
CHARGE=1
MSLEVEL=2
RT=0
SOURCE_INSTRUMENT=qTOF
FILENAME=CCMSLIB00000086022.ms
IONMODE=Positive
ORGANISM=Natural
NAME=MLS001056583-01!
PI=GNPS
DATACOLLECTOR=GNPS
SMILES=CN(C)CCc1c[nH]c2ccc(/C=C/C(=NCc3ccc(cc3)OC)O)cc12
INCHI=InChI=1S/C23H27N3O2/c1-26(2)13-12-19-16-24-22-10-6-17(14-21(19)22)7-11-23(27)25-15-18-4-8-20(28-3)9-5-18/h4-11,14,16,24H,12-13,15H2,1-3H3,(H,25,27)/b11-7+
FORMULA=C23H27N3O2
PUBMED=N/A
SUBMITUSER=BIOADREM
LIBRARYQUALITY=0
SPECTRUMID=CCMSLIB00000086022
SCANS=3952
ID=CCMSLIB00000086022
91.0542261926 	 2.05
106.0413157826 	 2.9
121.0647908789 	 100
143.072950262 	 1.3
154.0651252299 	 1.82
156.0807752941 	 4.88
168.0807752941 	 13.71
170.0964253583 	 6.32
171.1042503904 	 2.17
180.0807752941 	 1.72
182.060039852 	 2.64
183.0678648841 	 1.93
196.0756899162 	 16.04
198.0913399804 	 7.41
248.1069900446 	 1.3
333.1597538966 	 54.82
378.2176031265 	 0
END IONS

BEGIN IONS
PEPMASS=258.1859
CHARGE=1
MSLEVEL=2
RT=0
SOURCE_INSTRUMENT=qTOF
FILENAME=CCMSLIB00000086023.ms
IONMODE=Positive
ORGANISM=Natural
NAME=MLS001056787-01!(+)-N-Allylnormetazocine hydrochloride
PI=GNPS
DATACOLLECTOR=GNPS
SMILES=C=CCN1CC[C@]2(C)[C@@H](C)C1Cc1ccc(cc21)O
INCHI=InChI=1S/C17H23NO/c1-4-8-18-9-7-17(3)12(2)16(18)10-13-5-6-14(19)11-15(13)17/h4-6,11-12,16,19H,1,7-10H2,2-3H3/t12-,16?,17+/m0/s1
FORMULA=C17H23NO
PUBMED=N/A
SUBMITUSER=BIOADREM
LIBRARYQUALITY=0
SPECTRUMID=CCMSLIB00000086023
SCANS=3953
ID=CCMSLIB00000086023
91.0542261926 	 1.94
103.0542261926 	 3.8
105.0698762568 	 10.1
107.0491408147 	 6.66
115.0542261926 	 12.52
116.0620512247 	 5.72
117.0698762568 	 7.66
119.085526321 	 1.95
121.0647908789 	 2.65
127.0542261926 	 9.13
129.0698762568 	 6.99
130.0777012889 	 5.45
131.0491408147 	 7.21
131.085526321 	 24.35
133.0647908789 	 40.27
141.0698762568 	 15.08
143.085526321 	 2.43
144.0569658468 	 32.7
145.0647908789 	 41.02
145.1011763852 	 33.43
147.0804409431 	 11.24
153.0698762568 	 3.52
154.0777012889 	 2.01
155.085526321 	 17.11
157.0647908789 	 14.39
158.072615911 	 95.88
159.0804409431 	 69.37
161.0960910073 	 2.06
171.0804409431 	 2.3
172.0882659752 	 2.66
173.0960910073 	 100
175.1117410715 	 45.15
188.1069900446 	 0.96
199.1117410715 	 1.09
202.1226401088 	 12.58
216.138290173 	 14.14
258.1852403656 	 49.49
END IONS

BEGIN IONS
PEPMASS=418.3316
CHARGE=1
MSLEVEL=2
RT=0
SOURCE_INSTRUMENT=qTOF
FILENAME=CCMSLIB00000086025.ms
IONMODE=Positive
ORGANISM=Natural
NAME=MLS002153451-01!N-Oleoyldopamine105955-11-1
PI=GNPS
DATACOLLECTOR=GNPS
SMILES=CCCCCCCC/C=C\CCCCCCCC(=NCCc1ccc(c(c1)O)O)O
INCHI=InChI=1S/C26H43NO3/c1-2-3-4-5-6-7-8-9-10-11-12-13-14-15-16-17-26(30)27-21-20-23-18-19-24(28)25(29)22-23/h9-10,18-19,22,28-29H,2-8,11-17,20-21H2,1H3,(H,27,30)/b10-9-
FORMULA=C26H43NO3
PUBMED=N/A
SUBMITUSER=BIOADREM
LIBRARYQUALITY=0
SPECTRUMID=CCMSLIB00000086025
SCANS=3955
ID=CCMSLIB00000086025
91.0542261926 	 6.98
93.0698762568 	 0.63
95.085526321 	 0.98
97.1011763852 	 0.27
107.0491408147 	 0.26
107.085526321 	 0.64
109.0647908789 	 1.33
109.1011763852 	 0.61
119.0491408147 	 21.99
121.1011763852 	 1.07
123.0440554368 	 0.2
123.1168264494 	 0.32
135.0440554368 	 0.38
135.1168264494 	 0.91
137.059705501 	 100
139.0627795062 	 1.28
149.1324765136 	 0.44
154.0862546025 	 6.62
191.1794267062 	 0.22
265.2525916493 	 0.23
282.2791407508 	 0.29
418.3315702518 	 0.13
END IONS

BEGIN IONS
PEPMASS=250.1804
CHARGE=1
MSLEVEL=2
RT=0
SOURCE_INSTRUMENT=qTOF
FILENAME=CCMSLIB00000086027.ms
IONMODE=Positive
ORGANISM=Natural
NAME=MLS002222241-01!
PI=GNPS
DATACOLLECTOR=GNPS
SMILES=C=CCc1ccccc1OCC(CNC(C)C)O
INCHI=InChI=1S/C15H23NO2/c1-4-7-13-8-5-6-9-15(13)18-11-14(17)10-16-12(2)3/h4-6,8-9,12,14,16-17H,1,7,10-11H2,2-3H3
FORMULA=C15H23NO2
PUBMED=N/A
SUBMITUSER=BIOADREM
LIBRARYQUALITY=0
SPECTRUMID=CCMSLIB00000086027
SCANS=3956
ID=CCMSLIB00000086027
91.0542261926 	 33.76
98.0964253583 	 10.46
103.0542261926 	 16.28
104.0620512247 	 13
105.0698762568 	 16.11
107.0491408147 	 72.86
115.0542261926 	 43.74
116.0620512247 	 9.61
116.1069900446 	 24.52
117.0698762568 	 34.85
119.0491408147 	 21.65
119.085526321 	 34.94
121.0647908789 	 5.37
126.0464011605 	 4.64
127.0542261926 	 3.92
128.0620512247 	 23.18
129.0698762568 	 27.95
130.0777012889 	 12.92
131.0491408147 	 100
132.0569658468 	 61.35
133.0647908789 	 10.26
133.1011763852 	 3.27
135.0804409431 	 5.86
143.085526321 	 4.08
144.0569658468 	 19.71
145.0647908789 	 32.59
146.072615911 	 8.04
147.0804409431 	 27.54
155.085526321 	 6.7
158.072615911 	 21.04
161.0960910073 	 6.14
173.0960910073 	 20.88
250.1801549877 	 11.63
END IONS

BEGIN IONS
PEPMASS=295.1804
CHARGE=1
MSLEVEL=2
RT=0
SOURCE_INSTRUMENT=qTOF
FILENAME=CCMSLIB00000086028.ms
IONMODE=Positive
ORGANISM=Natural
NAME=MLS002153907-01!Cinchonine118-10-5
PI=GNPS
DATACOLLECTOR=GNPS
SMILES=C=C[C@H]1CN2CC[C@H]1C[C@@H]2[C@H](c1ccnc2ccccc12)O
INCHI=InChI=1S/C19H22N2O/c1-2-13-12-21-10-8-14(13)11-18(21)19(22)16-7-9-20-17-6-4-3-5-15(16)17/h2-7,9,13-14,18-19,22H,1,8,10-12H2/t13-,14-,18+,19-/m0/s1
FORMULA=C19H22N2O
PUBMED=N/A
SUBMITUSER=BIOADREM
LIBRARYQUALITY=0
SPECTRUMID=CCMSLIB00000086028
SCANS=3957
ID=CCMSLIB00000086028
91.0542261926 	 15.44
106.0651252299 	 10.29
115.0542261926 	 13.53
128.0494751657 	 32.94
129.0573001978 	 11.47
130.0651252299 	 81.62
132.0807752941 	 16.03
142.0651252299 	 50
144.0807752941 	 11.32
154.0651252299 	 42.94
156.0807752941 	 82.5
158.060039852 	 16.47
166.0651252299 	 14.26
167.072950262 	 48.24
168.0807752941 	 95
172.0756899162 	 25.59
180.0807752941 	 36.32
182.0838492993 	 11.62
183.0916743314 	 11.18
193.0886003262 	 12.5
194.0964253583 	 31.62
204.0807752941 	 12.06
206.0964253583 	 20.44
208.1120754225 	 14.12
218.0964253583 	 19.41
221.1073243956 	 18.68
223.1229744598 	 29.71
234.1277254867 	 30
277.1699246524 	 100
295.1804893387 	 211.76
END IONS

BEGIN IONS
PEPMASS=348.1594
CHARGE=1
MSLEVEL=2
RT=0
SOURCE_INSTRUMENT=qTOF
FILENAME=CCMSLIB00000086030.ms
IONMODE=Positive
ORGANISM=Natural
NAME=MLS000860055-01!FPL 64176
PI=GNPS
DATACOLLECTOR=GNPS
SMILES=Cc1c(c(c(C)[nH]1)C(=O)OC)C(=O)c1ccccc1Cc1ccccc1
INCHI=InChI=1S/C22H21NO3/c1-14-19(20(15(2)23-14)22(25)26-3)21(24)18-12-8-7-11-17(18)13-16-9-5-4-6-10-16/h4-12,23H,13H2,1-3H3
FORMULA=C22H21NO3
PUBMED=N/A
SUBMITUSER=BIOADREM
LIBRARYQUALITY=0
SPECTRUMID=CCMSLIB00000086030
SCANS=3958
ID=CCMSLIB00000086030
91.0542261926 	 100
141.0698762568 	 1.25
165.0698762568 	 1.91
167.0491408147 	 1.15
168.0807752941 	 1.14
169.0647908789 	 6.59
182.0964253583 	 1
193.0647908789 	 5.39
196.0756899162 	 6.27
210.0913399804 	 14.03
224.0706045383 	 25.37
238.0862546025 	 15.12
240.1019046667 	 2.1
258.0913399804 	 1.11
272.1069900446 	 2.12
273.1148150767 	 4.77
283.0991650125 	 4.1
289.1461152051 	 1.03
298.1226401088 	 1.3
316.1332047951 	 20.92
317.1410298272 	 2.66
348.1594195456 	 0
END IONS

BEGIN IONS
PEPMASS=279.087
CHARGE=1
MSLEVEL=2
RT=0
SOURCE_INSTRUMENT=qTOF
FILENAME=CCMSLIB00000086031.ms
IONMODE=Positive
ORGANISM=Natural
NAME=MLS000860066-01!3-Methyl-6-[3-(trifluoromethyl)phenyl]-1,2,4-triazolo[4,3-b]pyridazine
PI=GNPS
DATACOLLECTOR=GNPS
SMILES=Cc1nnc2ccc(c3cccc(c3)C(F)(F)F)nn12
INCHI=InChI=1S/C13H9F3N4/c1-8-17-18-12-6-5-11(19-20(8)12)9-3-2-4-10(7-9)13(14,15)16/h2-7H,1H3
FORMULA=C13H9F3N4
PUBMED=N/A
SUBMITUSER=BIOADREM
LIBRARYQUALITY=0
SPECTRUMID=CCMSLIB00000086031
SCANS=3959
ID=CCMSLIB00000086031
101.0197324642 	 1.87
121.0259606963 	 0.7
125.0197324642 	 8.4
140.0306315015 	 6.63
143.0291542963 	 0.81
145.0259606963 	 100
153.0447241388 	 1.71
160.0368597336 	 5.67
161.0446847657 	 7.55
163.0353825284 	 1.88
169.0634482082 	 1.95
170.0712732403 	 0.74
171.0353023067 	 2.61
183.0416107605 	 24.02
186.0525097978 	 18.93
190.0462815657 	 1.71
191.0415305388 	 8.46
196.0368597336 	 10.1
198.046201344 	 7.14
210.0525097978 	 2.54
218.0524295761 	 28.13
219.0602546082 	 4.33
223.0477587709 	 17.44
238.0586578082 	 26.35
239.0664828403 	 3.52
259.0789786776 	 20.92
279.0852069097 	 120.99
END IONS

BEGIN IONS
PEPMASS=467.1995
CHARGE=1
MSLEVEL=2
RT=0
SOURCE_INSTRUMENT=qTOF
FILENAME=CCMSLIB00000086033.ms
IONMODE=Positive
ORGANISM=Natural
NAME=MLS002153997-01!Clobetasol propionate25122-46-7
PI=GNPS
DATACOLLECTOR=GNPS
SMILES=CCC(=O)OC1([C@@H](C)C[C@H]2[C@@H]3CCC4=CC(=O)C=C[C@]4(C)[C@]3([C@H](C[C@]12C)O)F)C(=O)CCl
INCHI=InChI=1S/C25H32ClFO5/c1-5-21(31)32-25(20(30)13-26)14(2)10-18-17-7-6-15-11-16(28)8-9-22(15,3)24(17,27)19(29)12-23(18,25)4/h8-9,11,14,17-19,29H,5-7,10,12-13H2,1-4H3/t14-,17-,18-,19-,22-,23-,24-,25?/m0/s1
FORMULA=C25H32ClFO5
PUBMED=N/A
SUBMITUSER=BIOADREM
LIBRARYQUALITY=0
SPECTRUMID=CCMSLIB00000086033
SCANS=3961
ID=CCMSLIB00000086033
105.071019111 	 9.63
107.0866691752 	 11.43
115.0553690468 	 6.85
119.085526321 	 15.8
121.0647908789 	 33.25
121.1011763852 	 7.16
128.0631940789 	 15.5
131.0866691752 	 15.07
133.1023192394 	 9.59
135.0815837973 	 14.45
141.071019111 	 7.12
143.0866691752 	 11.22
145.0659337331 	 12.8
145.1011763852 	 6.88
147.0804409431 	 57.75
158.0737587652 	 8.15
159.0815837973 	 31.95
161.0972338615 	 12.69
171.0815837973 	 41.16
173.0960910073 	 21.68
185.0972338615 	 19.97
187.0764984194 	 15.55
193.1023192394 	 7.45
197.0972338615 	 8.35
208.0894088294 	 12.34
209.0972338615 	 10.82
210.1050588936 	 8.41
211.1117410715 	 9.29
213.1285339899 	 14.31
221.0972338615 	 14.87
222.1050588936 	 10.26
223.1128839257 	 16.93
233.0972338615 	 8.15
234.1050588936 	 11.69
235.1128839257 	 14.67
237.1285339899 	 9.35
247.1128839257 	 9.12
248.1207089578 	 25.35
249.1285339899 	 15.44
253.1598341183 	 8.35
259.1128839257 	 8.27
260.1207089578 	 7.18
261.1285339899 	 7.14
261.1649194962 	 8.37
262.136359022 	 13.29
263.1441840541 	 100
273.1285339899 	 13.77
276.1520090862 	 9.75
278.1676591504 	 31.01
279.1754841825 	 17.67
291.1390986762 	 10.24
306.1625737725 	 8.07
467.1995060477 	 0
END IONS

BEGIN IONS
PEPMASS=324.1961
CHARGE=1
MSLEVEL=2
RT=0
SOURCE_INSTRUMENT=qTOF
FILENAME=CCMSLIB00000086034.ms
IONMODE=Positive
ORGANISM=Natural
NAME=MLS002154130-01!Piperidolate hydrochloride129-77-1
PI=GNPS
DATACOLLECTOR=GNPS
SMILES=CCN1CCCC(C1)OC(=O)C(c1ccccc1)c1ccccc1
INCHI=InChI=1S/C21H25NO2/c1-2-22-15-9-14-19(16-22)24-21(23)20(17-10-5-3-6-11-17)18-12-7-4-8-13-18/h3-8,10-13,19-20H,2,9,14-16H2,1H3
FORMULA=C21H25NO2
PUBMED=N/A
SUBMITUSER=BIOADREM
LIBRARYQUALITY=0
SPECTRUMID=CCMSLIB00000086034
SCANS=3962
ID=CCMSLIB00000086034
110.0964253583 	 1.14
115.0542261926 	 0.27
128.0620512247 	 0.78
128.1069900446 	 0.3
141.0698762568 	 1.08
151.0542261926 	 1.28
152.0620512247 	 28.72
165.0698762568 	 30.7
166.0777012889 	 15
169.0647908789 	 0.44
324.1958050519 	 2.47
END IONS

BEGIN IONS
PEPMASS=383.9908
CHARGE=1
MSLEVEL=2
RT=0
SOURCE_INSTRUMENT=qTOF
FILENAME=CCMSLIB00000086035.ms
IONMODE=Positive
ORGANISM=Natural
NAME=MLS002153973-01!Althiazide5588-16-9
PI=GNPS
DATACOLLECTOR=GNPS
SMILES=C=CCSCC1Nc2cc(c(cc2S(=O)(=O)N1)S(=O)(=O)N)Cl
INCHI=InChI=1S/C11H14ClN3O4S3/c1-2-3-20-6-11-14-8-4-7(12)9(21(13,16)17)5-10(8)22(18,19)15-11/h2,4-5,11,14-15H,1,3,6H2,(H2,13,16,17)
FORMULA=C11H14ClN3O4S3
PUBMED=N/A
SUBMITUSER=BIOADREM
LIBRARYQUALITY=0
SPECTRUMID=CCMSLIB00000086035
SCANS=3963
ID=CCMSLIB00000086035
99.0262968826 	 13.72
114.0105028436 	 16.58
123.9948527794 	 25.14
129.0242855099 	 15.22
130.0054174657 	 11.68
131.0161261268 	 13.72
134.0058957915 	 13.18
149.0152538705 	 12.09
155.9846820236 	 55.84
157.019200132 	 31.25
157.9951495926 	 17.93
159.0110407489 	 22.42
159.9977364084 	 21.88
161.0167948288 	 20.24
163.0309039347 	 19.57
166.029226913 	 29.08
168.9747485015 	 23.91
169.9825735336 	 13.18
171.9618380915 	 12.64
173.0112311251 	 13.72
179.9572310394 	 12.23
181.9825735336 	 54.21
183.9824802747 	 14.4
189.9779664815 	 13.04
193.006624073 	 32.07
196.9934725709 	 37.91
198.9727371288 	 11.96
198.990495683 	 22.69
199.9708697309 	 16.03
200.9609362088 	 14.54
203.9543474104 	 17.8
204.9833018151 	 98.1
206.9778225067 	 33.97
212.9674613747 	 16.03
220.9782164372 	 62.5
222.9756207578 	 22.55
228.9833018151 	 22.42
234.9700570541 	 18.75
240.9736093851 	 13.32
248.9553725051 	 85.33
250.9532640151 	 18.61
252.9502871272 	 27.99
253.9547413409 	 14.4
254.9448078188 	 29.62
257.9808589741 	 13.18
260.9553725051 	 57.34
261.9631975372 	 100
262.959789181 	 21.74
263.9610890472 	 50.41
275.9662715424 	 17.12
276.9502871272 	 27.17
280.9452017493 	 18.34
288.9502871272 	 16.58
306.9794787656 	 13.04
383.9907717334 	 0
END IONS

BEGIN IONS
PEPMASS=416.1876
CHARGE=1
MSLEVEL=2
RT=0
SOURCE_INSTRUMENT=qTOF
FILENAME=CCMSLIB00000086038.ms
IONMODE=Positive
ORGANISM=Natural
NAME=MLS002153410-01!Naltriben methanesulfonate hydrate
PI=GNPS
DATACOLLECTOR=GNPS
SMILES=c1ccc2c(c1)c1C[C@]3([C@H]4Cc5ccc(c6c5[C@@]3(CCN4CC3CC3)[C@H](c1o2)O6)O)O
INCHI=InChI=1S/C26H25NO4/c28-18-8-7-15-11-20-26(29)12-17-16-3-1-2-4-19(16)30-22(17)24-25(26,21(15)23(18)31-24)9-10-27(20)13-14-5-6-14/h1-4,7-8,14,20,24,28-29H,5-6,9-13H2/t20-,24+,25+,26-/m1/s1
FORMULA=C26H25NO4
PUBMED=N/A
SUBMITUSER=BIOADREM
LIBRARYQUALITY=0
SPECTRUMID=CCMSLIB00000086038
SCANS=3965
ID=CCMSLIB00000086038
208.0756899162 	 0.98
220.0756899162 	 1.83
226.0862546025 	 1.5
241.1011763852 	 0.9
245.0960910073 	 2.78
252.1019046667 	 1.06
255.0804409431 	 4.16
256.0882659752 	 2.28
258.0675305331 	 2.01
267.125379763 	 1.16
269.0960910073 	 3.05
271.1117410715 	 0.98
272.0831805973 	 1.32
273.0910056294 	 4.74
274.0988306615 	 0.95
281.0960910073 	 5.68
283.0753555652 	 4.15
284.0831805973 	 1.05
297.0910056294 	 2.98
299.1066556936 	 1.89
300.0780952194 	 1.42
301.0859202515 	 100
302.0937452836 	 21.92
309.0910056294 	 5.11
310.0988306615 	 1.59
315.1015703157 	 2.49
327.1015703157 	 3.55
342.112469353 	 2.98
344.1281194172 	 8.92
357.1359444493 	 1.05
370.1437694814 	 1.69
398.1750696098 	 34.49
416.1856342961 	 6.29
END IONS

BEGIN IONS
PEPMASS=207.1492
CHARGE=1
MSLEVEL=2
RT=0
SOURCE_INSTRUMENT=qTOF
FILENAME=CCMSLIB00000086040.ms
IONMODE=Positive
ORGANISM=Natural
NAME=MLS000766260-01!Oxotremorine
PI=GNPS
DATACOLLECTOR=GNPS
SMILES=C1CCN(C1)CC#CCN1CCCC1=O
INCHI=InChI=1S/C12H18N2O/c15-12-6-5-11-14(12)10-4-3-9-13-7-1-2-8-13/h1-2,5-11H2
FORMULA=C12H18N2O
PUBMED=N/A
SUBMITUSER=BIOADREM
LIBRARYQUALITY=0
SPECTRUMID=CCMSLIB00000086040
SCANS=3967
ID=CCMSLIB00000086040
91.0542261926 	 21.19
96.0807752941 	 25.17
108.0807752941 	 63.58
117.0573001978 	 21.19
120.0807752941 	 29.14
136.0756899162 	 100
207.1491892103 	 0
END IONS

BEGIN IONS
PEPMASS=361.201
CHARGE=1
MSLEVEL=2
RT=0
SOURCE_INSTRUMENT=qTOF
FILENAME=CCMSLIB00000086041.ms
IONMODE=Positive
ORGANISM=Natural
NAME=MLS002638110-01!PREDNISOLONE50-24-8
PI=GNPS
DATACOLLECTOR=GNPS
SMILES=CC12C=CC(=O)C=C1CCC1C3CCC(C(=O)CO)(C3(C)CC(C21)O)O
INCHI=InChI=1S/C21H28O5/c1-19-7-5-13(23)9-12(19)3-4-14-15-6-8-21(26,17(25)11-22)20(15,2)10-16(24)18(14)19/h5,7,9,14-16,18,22,24,26H,3-4,6,8,10-11H2,1-2H3
FORMULA=C21H28O5
PUBMED=N/A
SUBMITUSER=BIOADREM
LIBRARYQUALITY=0
SPECTRUMID=CCMSLIB00000086041
SCANS=3968
ID=CCMSLIB00000086041
103.0542261926 	 13.36
105.0698762568 	 23.79
107.085526321 	 12.2
115.0542261926 	 10.93
117.0698762568 	 10.19
119.085526321 	 15.79
121.0647908789 	 100
128.0620512247 	 14.11
129.0698762568 	 12.48
131.085526321 	 10.37
132.0569658468 	 17.38
135.0804409431 	 19.95
143.085526321 	 19.49
145.0647908789 	 19.91
145.1011763852 	 15.19
147.0804409431 	 97.8
153.0698762568 	 7.99
157.0647908789 	 7.62
158.072615911 	 24.86
159.0804409431 	 19.86
161.0960910073 	 17.06
171.0804409431 	 83.22
173.0960910073 	 66.07
179.085526321 	 10.56
181.0647908789 	 10.7
183.0804409431 	 8.08
191.085526321 	 8.18
193.1011763852 	 7.48
195.0804409431 	 11.59
196.0882659752 	 11.78
197.0960910073 	 17.24
208.0882659752 	 16.21
209.0960910073 	 22.76
210.1039160394 	 9.67
211.1117410715 	 20.65
221.0960910073 	 8.55
223.1117410715 	 29.81
224.1195661036 	 19.49
225.1273911357 	 12.43
235.1117410715 	 12.94
237.1273911357 	 17.38
239.1430411999 	 13.27
251.1430411999 	 41.82
265.1586912641 	 10.7
266.1665162962 	 20.75
361.2009500093 	 0
END IONS

BEGIN IONS
PEPMASS=190.098
CHARGE=1
MSLEVEL=2
RT=0
SOURCE_INSTRUMENT=qTOF
FILENAME=CCMSLIB00000086043.ms
IONMODE=Positive
ORGANISM=Natural
NAME=MLS001240277-01!Isonicotinic acid but-2-enylidene-hydrazide
PI=GNPS
DATACOLLECTOR=GNPS
SMILES=C/C=C/C=NNC(=O)c1ccncc1
INCHI=InChI=1S/C10H11N3O/c1-2-3-6-12-13-10(14)9-4-7-11-8-5-9/h2-8H,1H3,(H,13,14)/b3-2+,12-6?
FORMULA=C10H11N3O
PUBMED=N/A
SUBMITUSER=BIOADREM
LIBRARYQUALITY=0
SPECTRUMID=CCMSLIB00000086043
SCANS=3969
ID=CCMSLIB00000086043
93.0447241388 	 3.55
105.0447241388 	 100
120.0556231761 	 4.87
121.0396387609 	 67.66
123.0552888251 	 17.94
146.0712732403 	 3.89
190.0974879908 	 5.56
END IONS

BEGIN IONS
PEPMASS=249.1362
CHARGE=1
MSLEVEL=2
RT=0
SOURCE_INSTRUMENT=qTOF
FILENAME=CCMSLIB00000086044.ms
IONMODE=Positive
ORGANISM=Natural
NAME=MLS000859932-01!8-Cyclopentyl-1,3-dimethylxanthine
PI=GNPS
DATACOLLECTOR=GNPS
SMILES=Cn1c2c(c(=O)n(C)c1=O)nc(C1CCCC1)[nH]2
INCHI=InChI=1S/C12H16N4O2/c1-15-10-8(11(17)16(2)12(15)18)13-9(14-10)7-5-3-4-6-7/h7H,3-6H2,1-2H3,(H,13,14)
FORMULA=C12H16N4O2
PUBMED=N/A
SUBMITUSER=BIOADREM
LIBRARYQUALITY=0
SPECTRUMID=CCMSLIB00000086044
SCANS=3970
ID=CCMSLIB00000086044
95.0239886967 	 3.3
106.0651252299 	 0.85
107.060374203 	 0.72
108.0807752941 	 0.64
110.0964253583 	 0.66
121.0396387609 	 0.97
135.0427127661 	 1.44
135.0916743314 	 1.51
136.0756899162 	 1.08
137.1073243956 	 2.73
147.0916743314 	 0.36
150.0661878624 	 0.4
163.0865889535 	 39.23
164.1182234329 	 15.46
165.1022390177 	 1.38
176.0818379266 	 0.68
177.0896629587 	 13.39
192.113138055 	 100
249.1346017786 	 37.55
END IONS

BEGIN IONS
PEPMASS=862.5159
CHARGE=1
MSLEVEL=2
RT=0
SOURCE_INSTRUMENT=qTOF
FILENAME=CCMSLIB00000086045.ms
IONMODE=Positive
ORGANISM=Natural
NAME=MLS001074901-01!erythromycin ethylsuccinate
PI=GNPS
DATACOLLECTOR=GNPS
SMILES=CC[C@@H]1[C@](C)([C@@H]([C@@H](C)C(=O)[C@H](C)C[C@](C)([C@@H]([C@@H](C)[C@@H]([C@@H](C)C(=O)O1)O[C@H]1C[C@](C)([C@H]([C@H](C)O1)O)OC)O[C@H]1[C@@H]([C@H](C[C@@H](C)O1)N(C)C)OC(=O)CCC(=O)OCC)O)O)O
INCHI=InChI=1S/C43H75NO16/c1-15-29-43(11,52)36(48)24(5)33(47)22(3)20-41(9,51)38(25(6)34(26(7)39(50)57-29)59-32-21-42(10,53-14)37(49)27(8)56-32)60-40-35(28(44(12)13)19-23(4)55-40)58-31(46)18-17-30(45)54-16-2/h22-29,32,34-38,40,48-49,51-52H,15-21H2,1-14H3/t22-,23-,24+,25+,26-,27+,28+,29-,32+,34+,35-,36-,37+,38-,40+,41-,42-,43-/m1/s1
FORMULA=C43H75NO16
PUBMED=N/A
SUBMITUSER=BIOADREM
LIBRARYQUALITY=0
SPECTRUMID=CCMSLIB00000086045
SCANS=3971
ID=CCMSLIB00000086045
95.0491408147 	 0.39
97.0284053726 	 1.25
97.0647908789 	 0.39
98.0964253583 	 14.23
100.0756899162 	 0.21
101.0233199947 	 28.87
112.1120754225 	 0.91
113.059705501 	 0.44
116.1069900446 	 17.28
123.0804409431 	 0.34
129.0546201231 	 46.45
140.1069900446 	 11.89
158.1175547309 	 21.62
171.0651848094 	 2.64
198.0760838467 	 0.32
228.1230340393 	 0.58
286.164898854 	 100
304.1754635403 	 0.26
844.50529668 	 0.22
862.5158613663 	 2.07
END IONS

BEGIN IONS
PEPMASS=406.1938
CHARGE=1
MSLEVEL=2
RT=0
SOURCE_INSTRUMENT=qTOF
FILENAME=CCMSLIB00000086046.ms
IONMODE=Positive
ORGANISM=Natural
NAME=MLS001332630-01!Clomiphene citrate salt43054-45-1
PI=GNPS
DATACOLLECTOR=GNPS
SMILES=CCN(CC)CCOc1ccc(cc1)/C(=C(/c1ccccc1)\Cl)/c1ccccc1
INCHI=InChI=1S/C26H28ClNO/c1-3-28(4-2)19-20-29-24-17-15-22(16-18-24)25(21-11-7-5-8-12-21)26(27)23-13-9-6-10-14-23/h5-18H,3-4,19-20H2,1-2H3/b26-25-
FORMULA=C26H28ClNO
PUBMED=N/A
SUBMITUSER=BIOADREM
LIBRARYQUALITY=0
SPECTRUMID=CCMSLIB00000086046
SCANS=3972
ID=CCMSLIB00000086046
100.1120754225 	 100
165.0698762568 	 6.39
178.0777012889 	 39.54
191.085526321 	 4.4
199.0309039347 	 8.49
219.0804409431 	 6.55
220.0887531646 	 6.16
225.0465539989 	 1.09
226.0777012889 	 1.68
228.0933513531 	 2.08
239.085526321 	 6.73
240.0933513531 	 3.97
241.1011763852 	 25.17
242.1090014173 	 15.11
249.0465539989 	 2.55
250.0777012889 	 1.05
251.085526321 	 1.24
252.0933513531 	 13.91
253.1011763852 	 29.81
254.1090014173 	 27.87
255.0804409431 	 1.36
255.1168264494 	 4.94
264.0933513531 	 1.95
265.1011763852 	 1.34
268.0882659752 	 1.82
269.0960910073 	 5.25
269.1324765136 	 4.47
270.1039160394 	 9.12
278.1090014173 	 3.49
279.1168264494 	 3.72
281.0960910073 	 4.02
282.1039160394 	 4.28
283.1117410715 	 2.16
296.1195661036 	 2.44
297.1273911357 	 24.01
298.1352161678 	 6.19
305.0727687494 	 2.9
306.0805937815 	 1.21
333.1040688778 	 1.9
406.1932182361 	 39.18
END IONS

BEGIN IONS
PEPMASS=609.1814
CHARGE=1
MSLEVEL=2
RT=0
SOURCE_INSTRUMENT=qTOF
FILENAME=CCMSLIB00000086049.ms
IONMODE=Positive
ORGANISM=Natural
NAME=MLS001304032-01!520-27-4
PI=GNPS
DATACOLLECTOR=GNPS
SMILES=C[C@H]1[C@@H]([C@H]([C@H]([C@H](OC[C@@H]2[C@H]([C@@H]([C@H]([C@H](Oc3cc(c4c(=O)cc(c5ccc(c(c5)O)OC)oc4c3)O)O2)O)O)O)O1)O)O)O
INCHI=InChI=1S/C28H32O15/c1-10-21(32)23(34)25(36)27(40-10)39-9-19-22(33)24(35)26(37)28(43-19)41-12-6-14(30)20-15(31)8-17(42-18(20)7-12)11-3-4-16(38-2)13(29)5-11/h3-8,10,19,21-30,32-37H,9H2,1-2H3/t10-,19+,21-,22+,23+,24-,25+,26+,27+,28+/m0/s1
FORMULA=C28H32O15
PUBMED=N/A
SUBMITUSER=BIOADREM
LIBRARYQUALITY=0
SPECTRUMID=CCMSLIB00000086049
SCANS=3974
ID=CCMSLIB00000086049
112.0518804689 	 0.32
219.0440554368 	 0.37
250.0471890215 	 0.34
256.0366243352 	 0.32
258.0522743994 	 1.48
286.0471890215 	 12.7
287.0491408147 	 2.3
301.0706641178 	 100
302.072615911 	 17.28
609.1813963587 	 0
END IONS

BEGIN IONS
PEPMASS=487.21
CHARGE=1
MSLEVEL=2
RT=0
SOURCE_INSTRUMENT=qTOF
FILENAME=CCMSLIB00000086052.ms
IONMODE=Positive
ORGANISM=Natural
NAME=MLS002153324-01!MRS 1754
PI=GNPS
DATACOLLECTOR=GNPS
SMILES=CCCn1c2c(c(=O)n(CCC)c1=O)[nH]c(c1ccc(cc1)OCC(=O)Nc1ccc(cc1)C#N)n2
INCHI=InChI=1S/C26H26N6O4/c1-3-13-31-24-22(25(34)32(14-4-2)26(31)35)29-23(30-24)18-7-11-20(12-8-18)36-16-21(33)28-19-9-5-17(15-27)6-10-19/h5-12H,3-4,13-14,16H2,1-2H3,(H,28,33)(H,29,30)
FORMULA=C26H26N6O4
PUBMED=N/A
SUBMITUSER=BIOADREM
LIBRARYQUALITY=0
SPECTRUMID=CCMSLIB00000086052
SCANS=3976
ID=CCMSLIB00000086052
120.0443897878 	 10.15
131.060374203 	 10.08
159.0552888251 	 4.52
173.059705501 	 5.6
175.0502034472 	 8.96
186.0675305331 	 9.3
200.046795091 	 16.12
201.0546201231 	 34.43
202.0611024845 	 43.27
212.0454524203 	 4.83
214.0624451552 	 12.77
215.1053130229 	 6.14
216.0655191604 	 12.19
225.0896629587 	 6.18
227.0325420103 	 8.72
228.0417097131 	 9.95
240.0403670424 	 16.06
243.0526087504 	 9.36
243.100227645 	 7.59
244.0604337825 	 45.51
245.0669161439 	 28.03
257.0669161439 	 3.9
258.1111266823 	 2.85
278.0924026129 	 37.1
285.099558943 	 3.03
286.1060413044 	 24.26
287.1138663365 	 10.93
296.1029672992 	 3.63
328.152991497 	 7.77
333.0982162723 	 5.95
360.1091153096 	 100
374.1611508801 	 11.67
378.1196799959 	 4.88
384.1455008159 	 7.66
386.0883798675 	 55.62
402.1560655022 	 51.23
403.114928969 	 66.63
445.1618791616 	 61.9
487.2088293542 	 66.79
END IONS

BEGIN IONS
PEPMASS=342.1699
CHARGE=1
MSLEVEL=2
RT=0
SOURCE_INSTRUMENT=qTOF
FILENAME=CCMSLIB00000086055.ms
IONMODE=Positive
ORGANISM=Natural
NAME=MLS001334009-01!Naloxone methiodide
PI=GNPS
DATACOLLECTOR=GNPS
SMILES=C=CC[N+]1(C)CC[C@]23c4c5ccc(c4O[C@H]2C(=O)CC[C@]3([C@H]1C5)O)[O-]
INCHI=InChI=1S/C20H23NO4/c1-3-9-21(2)10-8-19-16-12-4-5-13(22)17(16)25-18(19)14(23)6-7-20(19,24)15(21)11-12/h3-5,15,18,24H,1,6-11H2,2H3/t15-,18+,19+,20-,21?/m1/s1
FORMULA=C20H23NO4
PUBMED=N/A
SUBMITUSER=BIOADREM
LIBRARYQUALITY=0
SPECTRUMID=CCMSLIB00000086055
SCANS=3978
ID=CCMSLIB00000086055
131.0491408147 	 3.24
145.0647908789 	 5.22
157.0647908789 	 4.67
165.0784295704 	 4.59
169.0647908789 	 6.17
171.0440554368 	 12.41
172.0518804689 	 4.54
173.059705501 	 22.33
183.0804409431 	 6.72
185.059705501 	 11.55
197.059705501 	 3.81
198.0675305331 	 4.21
199.0753555652 	 7.57
202.0862546025 	 4.27
203.0940796346 	 22.65
211.0753555652 	 5.2
212.0706045383 	 7.1
214.0862546025 	 3.31
216.1019046667 	 36.24
226.0862546025 	 9.46
227.0940796346 	 7.13
228.1019046667 	 7.31
240.1019046667 	 5.26
254.1175547309 	 8.97
255.125379763 	 4.68
270.112469353 	 5.36
272.1281194172 	 14.63
273.1359444493 	 5.91
282.112469353 	 17.81
286.1073839751 	 4.77
300.1230340393 	 100
301.1308590714 	 45.8
342.1699842319 	 33.79
END IONS

BEGIN IONS
PEPMASS=367.1095
CHARGE=1
MSLEVEL=2
RT=0
SOURCE_INSTRUMENT=qTOF
FILENAME=CCMSLIB00000086056.ms
IONMODE=Positive
ORGANISM=Natural
NAME=MLS002153863-01!Atovaquone95233-18-4
PI=GNPS
DATACOLLECTOR=GNPS
SMILES=c1ccc2c(c1)C(=C(C1CCC(CC1)c1ccc(cc1)Cl)C(=O)C2=O)O
INCHI=InChI=1S/C22H19ClO3/c23-16-11-9-14(10-12-16)13-5-7-15(8-6-13)19-20(24)17-3-1-2-4-18(17)21(25)22(19)26/h1-4,9-13,15,24H,5-8H2
FORMULA=C22H19ClO3
PUBMED=N/A
SUBMITUSER=BIOADREM
LIBRARYQUALITY=0
SPECTRUMID=CCMSLIB00000086056
SCANS=3979
ID=CCMSLIB00000086056
103.0542261926 	 14.52
105.0334907505 	 12.81
115.0542261926 	 44.32
116.0620512247 	 8.37
117.0698762568 	 7.51
125.0152538705 	 100
128.0620512247 	 10.76
129.0698762568 	 11.36
130.0777012889 	 8.37
131.0491408147 	 16.99
143.0491408147 	 38.34
145.0647908789 	 9.74
151.0309039347 	 18.96
152.0620512247 	 9.48
157.0647908789 	 9.56
158.072615911 	 8.2
159.0440554368 	 86.93
165.0698762568 	 14.69
166.0777012889 	 10.33
167.085526321 	 7.86
171.0440554368 	 38.51
173.059705501 	 21.26
181.0647908789 	 11.27
183.0440554368 	 17.93
187.0389700589 	 46.63
189.0546201231 	 59.86
191.085526321 	 11.61
194.072615911 	 11.19
195.0804409431 	 7.94
197.059705501 	 26.81
214.0624451552 	 8.71
219.0804409431 	 13.07
227.0702701873 	 10.67
255.1015703157 	 15.88
307.0520333073 	 7.34
367.1095481862 	 0
END IONS

BEGIN IONS
PEPMASS=425.1757
CHARGE=1
MSLEVEL=2
RT=0
SOURCE_INSTRUMENT=qTOF
FILENAME=CCMSLIB00000086057.ms
IONMODE=Positive
ORGANISM=Natural
NAME=MLS000859966-01!U-62066
PI=GNPS
DATACOLLECTOR=GNPS
SMILES=CN([C@H]1CC[C@@]2(CCCO2)C[C@@H]1N1CCCC1)C(=O)Cc1ccc(c(c1)Cl)Cl
INCHI=InChI=1S/C22H30Cl2N2O2/c1-25(21(27)14-16-5-6-17(23)18(24)13-16)19-7-9-22(8-4-12-28-22)15-20(19)26-10-2-3-11-26/h5-6,13,19-20H,2-4,7-12,14-15H2,1H3/t19-,20-,22-/m0/s1
FORMULA=C22H30Cl2N2O2
PUBMED=N/A
SUBMITUSER=BIOADREM
LIBRARYQUALITY=0
SPECTRUMID=CCMSLIB00000086057
SCANS=3980
ID=CCMSLIB00000086057
91.0542261926 	 3.94
93.0698762568 	 1.47
94.0651252299 	 0.65
95.0491408147 	 2.73
95.085526321 	 2.33
96.0807752941 	 0.64
97.0647908789 	 1.14
107.085526321 	 0.81
108.0807752941 	 1.9
109.0647908789 	 1
109.1011763852 	 4.57
110.0964253583 	 0.57
117.0698762568 	 1.02
119.085526321 	 5.26
122.0964253583 	 1.93
122.9996038063 	 0.34
124.0074288384 	 0.35
135.1042503904 	 0.86
137.0960910073 	 57.22
140.1069900446 	 1.61
148.1120754225 	 0.44
150.1277254867 	 3.38
158.9762815484 	 20.42
162.9711961705 	 0.72
168.138290173 	 100
200.0028306499 	 1.81
208.1695903014 	 0.75
218.0133953362 	 8.93
270.0572715236 	 0.85
323.0600111778 	 1.59
325.0545318694 	 0.64
354.1022103435 	 69.2
356.0967310351 	 39.53
425.1757096376 	 0.35
END IONS

BEGIN IONS
PEPMASS=305.1985
CHARGE=1
MSLEVEL=2
RT=0
SOURCE_INSTRUMENT=qTOF
FILENAME=CCMSLIB00000086058.ms
IONMODE=Positive
ORGANISM=Natural
NAME=MLS000860035-01!Tracazolate
PI=GNPS
DATACOLLECTOR=GNPS
SMILES=CCCCNc1c2cnn(CC)c2nc(C)c1C(=O)OCC
INCHI=InChI=1S/C16H24N4O2/c1-5-8-9-17-14-12-10-18-20(6-2)15(12)19-11(4)13(14)16(21)22-7-3/h10H,5-9H2,1-4H3,(H,17,19)
FORMULA=C16H24N4O2
PUBMED=N/A
SUBMITUSER=BIOADREM
LIBRARYQUALITY=0
SPECTRUMID=CCMSLIB00000086058
SCANS=3981
ID=CCMSLIB00000086058
132.0569658468 	 1.55
134.0712732403 	 1.98
148.0756899162 	 4.17
149.0821722776 	 12.95
160.0869233045 	 3.13
161.0835149483 	 6.83
162.0675305331 	 8.38
162.0899973097 	 4.37
173.0821722776 	 15.28
175.0614368355 	 7.04
176.1069900446 	 3.43
177.0770868997 	 6.26
185.0821722776 	 2.25
186.1025733687 	 2.24
187.0614368355 	 2.47
187.0991650125 	 10.44
188.0692618676 	 3.58
188.1056473739 	 2.26
189.0784295704 	 5.78
189.113472406 	 2.6
190.0974879908 	 2.86
190.1212974381 	 2.1
198.0899973097 	 2.03
201.0770868997 	 5.48
201.113472406 	 14.77
202.0849119318 	 3.24
203.0927369639 	 8.94
203.1291224702 	 16.69
205.1447725344 	 24.16
213.113472406 	 29
215.0940796346 	 2.11
215.1291224702 	 9.97
216.100561996 	 2.05
217.1083870281 	 2.98
229.1083870281 	 3.04
230.1175547309 	 1.66
231.1240370923 	 69.29
241.1447725344 	 11.14
249.1346017786 	 3.96
259.1553372207 	 100
261.1597538966 	 1.73
277.165901907 	 55.39
305.1972020354 	 16.33
END IONS

BEGIN IONS
PEPMASS=292.1907
CHARGE=1
MSLEVEL=2
RT=0
SOURCE_INSTRUMENT=qTOF
FILENAME=CCMSLIB00000086059.ms
IONMODE=Positive
ORGANISM=Natural
NAME=MLS002154036-01!(+) -Levobunolol hydrochloride47141-41-3
PI=GNPS
DATACOLLECTOR=GNPS
SMILES=CC(C)(C)NC[C@H](COc1cccc2c1CCCC2=O)O
INCHI=InChI=1S/C17H25NO3/c1-17(2,3)18-10-12(19)11-21-16-9-5-6-13-14(16)7-4-8-15(13)20/h5-6,9,12,18-19H,4,7-8,10-11H2,1-3H3/t12-/m1/s1
FORMULA=C17H25NO3
PUBMED=N/A
SUBMITUSER=BIOADREM
LIBRARYQUALITY=0
SPECTRUMID=CCMSLIB00000086059
SCANS=3982
ID=CCMSLIB00000086059
91.0542261926 	 15.17
105.0698762568 	 13.24
115.0542261926 	 14.99
117.0698762568 	 34.57
119.0491408147 	 12.83
119.085526321 	 4.94
121.0647908789 	 3.81
127.0542261926 	 2.92
128.0620512247 	 8.24
129.0698762568 	 8.32
131.0491408147 	 7.31
131.085526321 	 5.99
132.0569658468 	 16.84
133.0647908789 	 20.84
143.085526321 	 9.45
144.0569658468 	 7.19
144.0933513531 	 2.66
145.0647908789 	 100
146.072615911 	 14.19
147.0804409431 	 63.1
153.0698762568 	 3.77
155.085526321 	 8.91
159.0804409431 	 16.41
160.0518804689 	 13.77
161.0583628303 	 7.84
161.0960910073 	 12.54
163.0753555652 	 8.96
165.0698762568 	 6.16
171.0804409431 	 4.57
173.0960910073 	 15.81
174.1025733687 	 3.81
175.0753555652 	 40.48
176.0818379266 	 6.77
183.0804409431 	 14.68
184.0869233045 	 2.24
189.0910056294 	 67.9
201.0910056294 	 91.76
202.0974879908 	 9.43
292.1893770033 	 0.72
END IONS

BEGIN IONS
PEPMASS=399.1512
CHARGE=1
MSLEVEL=2
RT=0
SOURCE_INSTRUMENT=qTOF
FILENAME=CCMSLIB00000086060.ms
IONMODE=Positive
ORGANISM=Natural
NAME=MLS002154097-01!Fursultiamine Hydrochloride2105-43-3
PI=GNPS
DATACOLLECTOR=GNPS
SMILES=C/C(=C(/CCO)\SSCC1CCCO1)/N(Cc1cnc(C)[nH]c1=N)C=O
INCHI=InChI=1S/C17H26N4O3S2/c1-12(16(5-6-22)26-25-10-15-4-3-7-24-15)21(11-23)9-14-8-19-13(2)20-17(14)18/h8,11,15,22H,3-7,9-10H2,1-2H3,(H2,18,19,20)/b16-12+
FORMULA=C17H26N4O3S2
PUBMED=N/A
SUBMITUSER=BIOADREM
LIBRARYQUALITY=0
SPECTRUMID=CCMSLIB00000086060
SCANS=3983
ID=CCMSLIB00000086060
96.0569658468 	 1.71
110.0712732403 	 45.69
114.0371959199 	 2.18
115.0212115047 	 10.49
119.060374203 	 2.22
122.072615911 	 100
123.0804409431 	 86.27
128.0706045383 	 1.36
136.0869233045 	 1.83
137.0821722776 	 10.93
139.0991650125 	 9.36
142.032110542 	 2.24
144.0477606062 	 13.31
148.0882659752 	 4.81
149.0835149483 	 7.96
160.0882659752 	 4.73
161.0947483366 	 1.62
163.0978223418 	 4.79
167.0940796346 	 9.78
174.1039160394 	 5.22
177.1148150767 	 4.08
178.1212974381 	 1.53
191.1304651409 	 11.21
204.1144807257 	 4.75
205.1097296988 	 1.63
219.125379763 	 6.5
221.1410298272 	 6.17
223.1011931602 	 4.39
249.1359444493 	 2.07
251.0961077823 	 2.34
253.1131005172 	 14.38
263.097450453 	 1.73
281.1080151393 	 9.94
399.1519081017 	 8.83
END IONS

BEGIN IONS
PEPMASS=295.1077
CHARGE=1
MSLEVEL=2
RT=0
SOURCE_INSTRUMENT=qTOF
FILENAME=CCMSLIB00000086061.ms
IONMODE=Positive
ORGANISM=Natural
NAME=MLS002153172-01!Tyrphostin AG 490133550-30-8
PI=GNPS
DATACOLLECTOR=GNPS
SMILES=c1ccc(cc1)CN=C(/C(=C/c1ccc(c(c1)O)O)/C#N)O
INCHI=InChI=1S/C17H14N2O3/c18-10-14(8-13-6-7-15(20)16(21)9-13)17(22)19-11-12-4-2-1-3-5-12/h1-9,20-21H,11H2,(H,19,22)/b14-8+
FORMULA=C17H14N2O3
PUBMED=N/A
SUBMITUSER=BIOADREM
LIBRARYQUALITY=0
SPECTRUMID=CCMSLIB00000086061
SCANS=3984
ID=CCMSLIB00000086061
91.0542261926 	 100
92.0580284793 	 14.67
104.0494751657 	 6.83
114.0338251015 	 28.17
115.0416501336 	 7.67
132.0443897878 	 25.33
133.0284053726 	 8.67
142.0287397236 	 23
145.0284053726 	 6.33
155.0815035756 	 7.5
160.0393044099 	 26
161.0260000694 	 6.17
170.0236543457 	 15.17
188.0368991067 	 40
190.0413157826 	 5.5
203.0576941283 	 6.33
295.1077183261 	 0
END IONS

BEGIN IONS
PEPMASS=246.1601
CHARGE=1
MSLEVEL=2
RT=0
SOURCE_INSTRUMENT=qTOF
FILENAME=CCMSLIB00000086062.ms
IONMODE=Positive
ORGANISM=Natural
NAME=MLS002153974-01!Isopyrin hydrochloride18342-39-7
PI=GNPS
DATACOLLECTOR=GNPS
SMILES=CC(C)Nc1c(C)n(C)n(c2ccccc2)c1=O
INCHI=InChI=1S/C14H19N3O/c1-10(2)15-13-11(3)16(4)17(14(13)18)12-8-6-5-7-9-12/h5-10,15H,1-4H3
FORMULA=C14H19N3O
PUBMED=N/A
SUBMITUSER=BIOADREM
LIBRARYQUALITY=0
SPECTRUMID=CCMSLIB00000086062
SCANS=3985
ID=CCMSLIB00000086062
93.0573001978 	 53.01
104.0494751657 	 60.54
108.0807752941 	 41.57
125.1073243956 	 61.75
128.0494751657 	 43.37
130.0651252299 	 39.76
132.0443897878 	 94.28
144.0681992351 	 18.07
145.0760242672 	 55.12
146.060039852 	 57.23
158.060039852 	 26.81
202.0974879908 	 31.33
246.1600882476 	 0
END IONS

BEGIN IONS
PEPMASS=307.1811
CHARGE=1
MSLEVEL=2
RT=0
SOURCE_INSTRUMENT=qTOF
FILENAME=CCMSLIB00000086063.ms
IONMODE=Positive
ORGANISM=Natural
NAME=MLS002153950-01!Fluorocurarine chloride22273-09-2
PI=GNPS
DATACOLLECTOR=GNPS
SMILES=C/C=C\1/C[N+]2(C)CCC34c5ccccc5N=C4C(=C[O-])[C@H]1C[C@H]23
INCHI=InChI=1S/C20H22N2O/c1-3-13-11-22(2)9-8-20-16-6-4-5-7-17(16)21-19(20)15(12-23)14(13)10-18(20)22/h3-7,12,14,18H,8-11H2,1-2H3/b13-3-/t14-,18-,20?,22?/m0/s1
FORMULA=C20H22N2O
PUBMED=N/A
SUBMITUSER=BIOADREM
LIBRARYQUALITY=0
SPECTRUMID=CCMSLIB00000086063
SCANS=3986
ID=CCMSLIB00000086063
130.0651252299 	 22.84
143.072950262 	 8.15
144.0807752941 	 22.58
154.0651252299 	 12.62
156.0807752941 	 14.67
158.0964253583 	 6.78
167.072950262 	 72.87
168.0807752941 	 100
170.060039852 	 8.36
180.0807752941 	 97.49
181.0886003262 	 34.86
183.0916743314 	 40.47
191.072950262 	 9.95
192.0807752941 	 10.76
193.0886003262 	 18.62
194.0964253583 	 46.39
197.1073243956 	 10.97
204.0807752941 	 16.34
205.0886003262 	 27.97
206.0964253583 	 29.99
207.1042503904 	 30.3
208.0756899162 	 10.84
217.0886003262 	 20.74
218.0964253583 	 22.71
219.1042503904 	 18.07
220.1120754225 	 47.09
222.1277254867 	 49.61
223.1229744598 	 11.24
231.1042503904 	 9.35
232.1120754225 	 17.76
234.0913399804 	 6.13
236.1433755509 	 25.75
246.1277254867 	 8.64
248.1069900446 	 7.07
248.1433755509 	 15.74
249.138624524 	 14.41
250.1226401088 	 12.23
259.1229744598 	 6.63
261.138624524 	 6.86
264.138290173 	 7.81
279.1855747166 	 6.99
289.1699246524 	 12.05
307.1804893387 	 97.04
END IONS

BEGIN IONS
PEPMASS=300.0893
CHARGE=1
MSLEVEL=2
RT=0
SOURCE_INSTRUMENT=qTOF
FILENAME=CCMSLIB00000086064.ms
IONMODE=Positive
ORGANISM=Natural
NAME=MLS001244126-01!4-(2-(6-chloroquinazolin-4-ylamino)ethyl)phenol
PI=GNPS
DATACOLLECTOR=GNPS
SMILES=c1cc(ccc1CCN=c1c2cc(ccc2nc[nH]1)Cl)O
INCHI=InChI=1S/C16H14ClN3O/c17-12-3-6-15-14(9-12)16(20-10-19-15)18-8-7-11-1-4-13(21)5-2-11/h1-6,9-10,21H,7-8H2,(H,18,19,20)
FORMULA=C16H14ClN3O
PUBMED=N/A
SUBMITUSER=BIOADREM
LIBRARYQUALITY=0
SPECTRUMID=CCMSLIB00000086064
SCANS=3987
ID=CCMSLIB00000086064
91.0542261926 	 6.49
93.0698762568 	 3.71
100.0181750373 	 0.8
102.0464011605 	 1.03
103.0542261926 	 28.96
119.0491408147 	 0.49
121.0647908789 	 47.09
135.9948527794 	 0.65
163.0057518167 	 21.34
180.0336435889 	 100
192.0323009182 	 6.35
300.0898157971 	 4.01
END IONS

BEGIN IONS
PEPMASS=321.1849
CHARGE=1
MSLEVEL=2
RT=0
SOURCE_INSTRUMENT=qTOF
FILENAME=CCMSLIB00000086066.ms
IONMODE=Positive
ORGANISM=Natural
NAME=MLS002153151-01!(R,R)-cis-Diethyltetrahydro-2,8-chrysenediol138090-06-9
PI=GNPS
DATACOLLECTOR=GNPS
SMILES=CC[C@@H]1Cc2cc(ccc2C2=C1c1ccc(cc1C[C@H]2CC)O)O
INCHI=InChI=1S/C22H24O2/c1-3-13-9-15-11-17(23)6-8-20(15)22-14(4-2)10-16-12-18(24)5-7-19(16)21(13)22/h5-8,11-14,23-24H,3-4,9-10H2,1-2H3/t13-,14-/m1/s1
FORMULA=C22H24O2
PUBMED=N/A
SUBMITUSER=BIOADREM
LIBRARYQUALITY=0
SPECTRUMID=CCMSLIB00000086066
SCANS=3989
ID=CCMSLIB00000086066
85.007276 	 4.34
103.0542261926 	 4.83
104.0620512247 	 4.68
105.0698762568 	 16.02
107.0491408147 	 35.93
115.0542261926 	 5.17
117.0698762568 	 7.64
119.0491408147 	 5.37
131.0491408147 	 16.95
132.0569658468 	 26.47
133.0647908789 	 40.51
143.085526321 	 4.24
145.0647908789 	 23.46
146.072615911 	 28.14
159.0804409431 	 9.61
161.0960910073 	 100
185.0960910073 	 5.67
203.085526321 	 5.82
205.1011763852 	 7.93
218.072615911 	 6.6
219.0804409431 	 16.66
220.0882659752 	 14.98
231.0804409431 	 18.83
233.0960910073 	 11.43
236.0831805973 	 16.51
247.0753555652 	 17.25
248.0831805973 	 28.78
249.0910056294 	 44.75
250.0988306615 	 14.74
261.0910056294 	 9.27
277.1223057578 	 8.82
291.137955822 	 10.69
292.1457808541 	 7.1
321.1849060146 	 0
END IONS

BEGIN IONS
PEPMASS=391.2843
CHARGE=1
MSLEVEL=2
RT=0
SOURCE_INSTRUMENT=qTOF
FILENAME=CCMSLIB00000086068.ms
IONMODE=Positive
ORGANISM=Natural
NAME=MLS001333174-01!BIS-(2-ETHYLHEXYL) PHTHALATE117-81-7
PI=GNPS
DATACOLLECTOR=GNPS
SMILES=CCCCC(CC)COC(=O)c1ccccc1C(=O)OCC(CC)CCCC
INCHI=InChI=1S/C24H38O4/c1-5-9-13-19(7-3)17-27-23(25)21-15-11-12-16-22(21)24(26)28-18-20(8-4)14-10-6-2/h11-12,15-16,19-20H,5-10,13-14,17-18H2,1-4H3
FORMULA=C24H38O4
PUBMED=N/A
SUBMITUSER=BIOADREM
LIBRARYQUALITY=0
SPECTRUMID=CCMSLIB00000086068
SCANS=3990
ID=CCMSLIB00000086068
63.0076699305 	 3.91
105.0698762568 	 4.26
121.0284053726 	 14.21
141.0910056294 	 3.74
149.0233199947 	 100
174.0886599057 	 3.49
219.2107268346 	 3.83
391.2842857082 	 12.77
END IONS

BEGIN IONS
PEPMASS=318.2057
CHARGE=1
MSLEVEL=2
RT=0
SOURCE_INSTRUMENT=qTOF
FILENAME=CCMSLIB00000086069.ms
IONMODE=Positive
ORGANISM=Natural
NAME=MLS000860067-01!PRE-084
PI=GNPS
DATACOLLECTOR=GNPS
SMILES=c1ccc(cc1)C1(CCCCC1)C(=O)OCCN1CCOCC1
INCHI=InChI=1S/C19H27NO3/c21-18(23-16-13-20-11-14-22-15-12-20)19(9-5-2-6-10-19)17-7-3-1-4-8-17/h1,3-4,7-8H,2,5-6,9-16H2
FORMULA=C19H27NO3
PUBMED=N/A
SUBMITUSER=BIOADREM
LIBRARYQUALITY=0
SPECTRUMID=CCMSLIB00000086069
SCANS=3991
ID=CCMSLIB00000086069
91.0542261926 	 53.27
96.0807752941 	 0.43
105.0334907505 	 19.15
109.0647908789 	 0.37
114.0913399804 	 59.45
115.0542261926 	 2.9
117.0698762568 	 21.8
131.085526321 	 1.2
132.1019046667 	 2.52
141.0698762568 	 1.05
149.059705501 	 47.1
159.1168264494 	 100
163.0753555652 	 3.73
169.1011763852 	 1.1
187.1117410715 	 0.44
231.137955822 	 20.24
318.2063697382 	 3.44
END IONS

BEGIN IONS
PEPMASS=301.1313
CHARGE=1
MSLEVEL=2
RT=0
SOURCE_INSTRUMENT=qTOF
FILENAME=CCMSLIB00000086071.ms
IONMODE=Positive
ORGANISM=Natural
NAME=MLS002153305-01!SDZ-205,557 hydrochloride137196-67-9
PI=GNPS
DATACOLLECTOR=GNPS
SMILES=CCN(CC)CCOC(=O)c1cc(c(cc1OC)N)Cl
INCHI=InChI=1S/C14H21ClN2O3/c1-4-17(5-2)6-7-20-14(18)10-8-11(15)12(16)9-13(10)19-3/h8-9H,4-7,16H2,1-3H3
FORMULA=C14H21ClN2O3
PUBMED=N/A
SUBMITUSER=BIOADREM
LIBRARYQUALITY=0
SPECTRUMID=CCMSLIB00000086071
SCANS=3993
ID=CCMSLIB00000086071
90.0338251015 	 1.04
92.0494751657 	 0.28
93.0573001978 	 1.07
98.9996038063 	 0.9
111.9921727047 	 0.36
113.0026778115 	 1.25
115.9897674015 	 0.28
120.0443897878 	 0.82
121.0522148199 	 0.37
126.0105028436 	 4.84
128.0108967741 	 1.86
128.0261529078 	 3.17
140.9975924336 	 23.01
143.9972580826 	 0.32
144.0210675299 	 0.77
154.0054174657 	 3.03
156.0210675299 	 2.21
157.028892562 	 0.26
168.9925070557 	 11.57
184.015982152 	 100
213.0187218062 	 0.3
228.0421969025 	 10.6
301.1313462608 	 0
END IONS

BEGIN IONS
PEPMASS=214.1339
CHARGE=1
MSLEVEL=2
RT=0
SOURCE_INSTRUMENT=qTOF
FILENAME=CCMSLIB00000086072.ms
IONMODE=Positive
ORGANISM=Natural
NAME=MLS002153476-01!Quipazine maleate salt5786-68-5
PI=GNPS
DATACOLLECTOR=GNPS
SMILES=c1ccc2c(c1)ccc(n2)N1CCNCC1
INCHI=InChI=1S/C13H15N3/c1-2-4-12-11(3-1)5-6-13(15-12)16-9-7-14-8-10-16/h1-6,14H,7-10H2
FORMULA=C13H15N3
PUBMED=N/A
SUBMITUSER=BIOADREM
LIBRARYQUALITY=0
SPECTRUMID=CCMSLIB00000086072
SCANS=3994
ID=CCMSLIB00000086072
101.0385761284 	 2.145
115.0542261926 	 1.09
128.0494751657 	 100
144.0807752941 	 13.07
154.0651252299 	 2.74
169.0760242672 	 1.845
171.0916743314 	 84.64
197.1073243956 	 7.73
214.1338734971 	 0
END IONS

BEGIN IONS
PEPMASS=219.1128
CHARGE=1
MSLEVEL=2
RT=0
SOURCE_INSTRUMENT=qTOF
FILENAME=CCMSLIB00000086074.ms
IONMODE=Positive
ORGANISM=Natural
NAME=MLS002154157-01!Mephenytoin50-12-4
PI=GNPS
DATACOLLECTOR=GNPS
SMILES=CCC1(c2ccccc2)C(=O)N(C)C(=N1)O
INCHI=InChI=1S/C12H14N2O2/c1-3-12(9-7-5-4-6-8-9)10(15)14(2)11(16)13-12/h4-8H,3H2,1-2H3,(H,13,16)
FORMULA=C12H14N2O2
PUBMED=N/A
SUBMITUSER=BIOADREM
LIBRARYQUALITY=0
SPECTRUMID=CCMSLIB00000086074
SCANS=3995
ID=CCMSLIB00000086074
104.0494751657 	 4.47
105.0698762568 	 3.33
115.0542261926 	 52.67
117.0698762568 	 51.2
134.0964253583 	 100
162.0913399804 	 3.07
219.112803704 	 0
END IONS

BEGIN IONS
PEPMASS=391.2944
CHARGE=1
MSLEVEL=2
RT=0
SOURCE_INSTRUMENT=qTOF
FILENAME=CCMSLIB00000086075.ms
IONMODE=Positive
ORGANISM=Natural
NAME=MLS000859987-01!(+/-)-threo-1-Phenyl-2-decanoylamino-3-morpholino-1-propanol hydrochloride
PI=GNPS
DATACOLLECTOR=GNPS
SMILES=CCCCCCCCCC(=N[C@H](CN1CCOCC1)[C@@H](c1ccccc1)O)O
INCHI=InChI=1S/C23H38N2O3/c1-2-3-4-5-6-7-11-14-22(26)24-21(19-25-15-17-28-18-16-25)23(27)20-12-9-8-10-13-20/h8-10,12-13,21,23,27H,2-7,11,14-19H2,1H3,(H,24,26)/t21-,23-/m1/s1
FORMULA=C23H38N2O3
PUBMED=N/A
SUBMITUSER=BIOADREM
LIBRARYQUALITY=0
SPECTRUMID=CCMSLIB00000086075
SCANS=3996
ID=CCMSLIB00000086075
91.0542261926 	 10.19
92.0580284793 	 1.85
98.060039852 	 0.48
100.0756899162 	 100
103.0542261926 	 9.22
104.0580284793 	 1.07
105.0698762568 	 54.37
106.0736785435 	 7.62
115.0542261926 	 19.8
116.0580284793 	 1.96
117.0698762568 	 2.7
120.0807752941 	 0.38
132.0807752941 	 13.28
133.0647908789 	 78.68
134.0685931656 	 7.74
150.0913399804 	 0.74
154.1590256151 	 0.28
180.1746756793 	 0.46
202.1226401088 	 2.24
208.1695903014 	 1.18
258.2216258719 	 0.45
286.216540494 	 26.65
304.2271051803 	 12.76
391.2955190965 	 5.32
END IONS

BEGIN IONS
PEPMASS=304.1543
CHARGE=1
MSLEVEL=2
RT=0
SOURCE_INSTRUMENT=qTOF
FILENAME=CCMSLIB00000086077.ms
IONMODE=Positive
ORGANISM=Natural
NAME=MLS001074339-01!9-methyl-3-oxa-9-azatricyclo[3.3.1.0~2,4~]non-7-yl 3-hydroxy-2-phenylpropanoate hydrochloride55-16-3
PI=GNPS
DATACOLLECTOR=GNPS
SMILES=CN1C2CC(CC1C1C2O1)OC(=O)C(CO)c1ccccc1
INCHI=InChI=1S/C17H21NO4/c1-18-13-7-11(8-14(18)16-15(13)22-16)21-17(20)12(9-19)10-5-3-2-4-6-10/h2-6,11-16,19H,7-9H2,1H3
FORMULA=C17H21NO4
PUBMED=N/A
SUBMITUSER=BIOADREM
LIBRARYQUALITY=0
SPECTRUMID=CCMSLIB00000086077
SCANS=3998
ID=CCMSLIB00000086077
62.060039852 	 1.64
91.0542261926 	 6.97
94.0651252299 	 2.73
96.0443897878 	 4.94
97.0522148199 	 8.12
98.060039852 	 7.46
103.0542261926 	 100
108.0807752941 	 5.4
109.0886003262 	 2.96
110.060039852 	 11.8
110.0964253583 	 15.15
121.0647908789 	 34.21
123.0678648841 	 3.53
138.0913399804 	 86.11
156.1019046667 	 35.39
304.1543341677 	 7.63
END IONS

BEGIN IONS
PEPMASS=255.1016
CHARGE=1
MSLEVEL=2
RT=0
SOURCE_INSTRUMENT=qTOF
FILENAME=CCMSLIB00000086078.ms
IONMODE=Positive
ORGANISM=Natural
NAME=MLS001333190-01!(S)-(+)-Ketoprofen22071-15-4
PI=GNPS
DATACOLLECTOR=GNPS
SMILES=C[C@@H](c1cccc(c1)C(=O)c1ccccc1)C(=O)O
INCHI=InChI=1S/C16H14O3/c1-11(16(18)19)13-8-5-9-14(10-13)15(17)12-6-3-2-4-7-12/h2-11H,1H3,(H,18,19)/t11-/m0/s1
FORMULA=C16H14O3
PUBMED=N/A
SUBMITUSER=BIOADREM
LIBRARYQUALITY=0
SPECTRUMID=CCMSLIB00000086078
SCANS=3999
ID=CCMSLIB00000086078
93.0698762568 	 3.23
103.0542261926 	 29.77
105.0334907505 	 100
121.0647908789 	 6.76
131.0491408147 	 15.06
165.0698762568 	 20.08
166.0777012889 	 9.32
177.0546201231 	 30.92
191.085526321 	 4.04
194.072615911 	 33.43
209.0960910073 	 15.44
255.1015703157 	 0
END IONS

BEGIN IONS
PEPMASS=217.1339
CHARGE=1
MSLEVEL=2
RT=0
SOURCE_INSTRUMENT=qTOF
FILENAME=CCMSLIB00000086081.ms
IONMODE=Positive
ORGANISM=Natural
NAME=MLS002153473-01!Efaroxan hydrochloride89197-00-2
PI=GNPS
DATACOLLECTOR=GNPS
SMILES=CCC1(Cc2ccccc2O1)C1=NCCN1
INCHI=InChI=1S/C13H16N2O/c1-2-13(12-14-7-8-15-12)9-10-5-3-4-6-11(10)16-13/h3-6H,2,7-9H2,1H3,(H,14,15)
FORMULA=C13H16N2O
PUBMED=N/A
SUBMITUSER=BIOADREM
LIBRARYQUALITY=0
SPECTRUMID=CCMSLIB00000086081
SCANS=4002
ID=CCMSLIB00000086081
91.0542261926 	 100
95.060374203 	 2.46
105.0334907505 	 1.75
105.0698762568 	 2.08
107.0491408147 	 7.68
108.0681992351 	 2.57
119.085526321 	 17.91
123.0916743314 	 7.38
132.0569658468 	 4.62
132.0807752941 	 4.35
134.060039852 	 2.38
147.0804409431 	 69.9
159.0678648841 	 2.54
159.0916743314 	 2.19
174.0913399804 	 4.02
187.0865889535 	 30.81
201.1022390177 	 8.94
217.1335391461 	 35.1
END IONS

BEGIN IONS
PEPMASS=433.0529
CHARGE=1
MSLEVEL=2
RT=0
SOURCE_INSTRUMENT=qTOF
FILENAME=CCMSLIB00000086082.ms
IONMODE=Positive
ORGANISM=Natural
NAME=MLS000860080-01!NBI 27914
PI=GNPS
DATACOLLECTOR=GNPS
SMILES=CCCN(CC1CC1)c1c(c(nc(C)n1)Nc1c(cc(cc1Cl)Cl)Cl)Cl
INCHI=InChI=1S/C18H20Cl4N4/c1-3-6-26(9-11-4-5-11)18-15(22)17(23-10(2)24-18)25-16-13(20)7-12(19)8-14(16)21/h7-8,11H,3-6,9H2,1-2H3,(H,23,24,25)
FORMULA=C18H20Cl4N4
PUBMED=N/A
SUBMITUSER=BIOADREM
LIBRARYQUALITY=0
SPECTRUMID=CCMSLIB00000086082
SCANS=4003
ID=CCMSLIB00000086082
243.9356322046 	 3.94
260.9621813061 	 2.99
267.0198776976 	 2.92
278.9044849146 	 48.3
279.0198776976 	 4.38
285.9700063382 	 2.73
295.9310340161 	 3.2
314.9965554397 	 3.7
318.935785043 	 3.66
322.9419330534 	 14.85
335.9623341445 	 4.21
336.9575831176 	 11.21
348.9575831176 	 21.24
349.9654081497 	 5.95
362.9732331818 	 3.78
379.0045333102 	 72.21
391.0045333102 	 2.79
433.0514835028 	 35.44
END IONS

BEGIN IONS
PEPMASS=310.1638
CHARGE=1
MSLEVEL=2
RT=0
SOURCE_INSTRUMENT=qTOF
FILENAME=CCMSLIB00000086085.ms
IONMODE=Positive
ORGANISM=Natural
NAME=MLS002153842-01!Metixene hydrochloride1553-34-0
PI=GNPS
DATACOLLECTOR=GNPS
SMILES=CN1CCCC(CC2c3ccccc3Sc3ccccc23)C1
INCHI=InChI=1S/C20H23NS/c1-21-12-6-7-15(14-21)13-18-16-8-2-4-10-19(16)22-20-11-5-3-9-17(18)20/h2-5,8-11,15,18H,6-7,12-14H2,1H3
FORMULA=C20H23NS
PUBMED=N/A
SUBMITUSER=BIOADREM
LIBRARYQUALITY=0
SPECTRUMID=CCMSLIB00000086085
SCANS=4005
ID=CCMSLIB00000086085
98.0964253583 	 6.41
110.0964253583 	 0.78
112.1120754225 	 24.66
123.0262968826 	 0.27
135.0262968826 	 0.29
141.0698762568 	 0.64
142.0777012889 	 0.33
152.0620512247 	 0.57
153.0698762568 	 0.69
155.085526321 	 0.26
159.0262968826 	 0.39
165.0698762568 	 4.09
169.1011763852 	 0.26
170.1090014173 	 0.43
178.0777012889 	 1.8
179.085526321 	 0.74
185.0419469468 	 0.3
196.0307510963 	 0.49
197.0419469468 	 100
198.0464011605 	 17
199.0416501336 	 3.99
201.0698762568 	 0.25
202.0777012889 	 0.33
203.085526321 	 0.68
204.0933513531 	 1.49
208.0341219147 	 0.52
209.0385761284 	 0.34
210.0497719789 	 4.35
211.057597011 	 2.09
213.0732470752 	 0.39
217.1011763852 	 0.36
221.0419469468 	 8.3
222.0497719789 	 6.94
223.057597011 	 7.98
225.0573001978 	 0.27
234.0497719789 	 1.68
235.057597011 	 4.38
236.0654220431 	 2.34
237.0732470752 	 4.6
247.057597011 	 0.34
249.0732470752 	 0.55
251.0888971394 	 0.31
277.1045472036 	 1.11
279.1201972678 	 6.82
280.1280222999 	 1.23
308.1467463693 	 0.39
310.1623964335 	 38.81
END IONS

BEGIN IONS
PEPMASS=323.1765
CHARGE=1
MSLEVEL=2
RT=0
SOURCE_INSTRUMENT=qTOF
FILENAME=CCMSLIB00000086087.ms
IONMODE=Positive
ORGANISM=Natural
NAME=MLS002153940-01!Gelsemine509-15-9
PI=GNPS
DATACOLLECTOR=GNPS
SMILES=C=C[C@]12CN(C)[C@@H]3[C@H]4COC(CC14)[C@@]1(c4ccccc4N=C1O)[C@@H]23
INCHI=InChI=1S/C20H22N2O2/c1-3-19-10-22(2)16-11-9-24-15(8-13(11)19)20(17(16)19)12-6-4-5-7-14(12)21-18(20)23/h3-7,11,13,15-17H,1,8-10H2,2H3,(H,21,23)/t11-,13?,15?,16+,17+,19-,20-/m0/s1
FORMULA=C20H22N2O2
PUBMED=N/A
SUBMITUSER=BIOADREM
LIBRARYQUALITY=0
SPECTRUMID=CCMSLIB00000086087
SCANS=4007
ID=CCMSLIB00000086087
105.0698762568 	 4.43
115.0542261926 	 10.64
116.0620512247 	 5.67
117.0698762568 	 21.78
120.0807752941 	 3.29
128.0494751657 	 2.71
129.0698762568 	 4.67
130.0651252299 	 9.75
131.085526321 	 14.48
132.0443897878 	 16.82
134.0964253583 	 5.94
146.060039852 	 24.57
148.1120754225 	 4.76
150.0913399804 	 2.55
158.060039852 	 11.47
160.1120754225 	 3.01
166.0651252299 	 4.83
167.072950262 	 2.74
177.0573001978 	 6.95
178.0651252299 	 8.65
180.0807752941 	 6.27
182.060039852 	 2.73
184.0756899162 	 4.77
190.0651252299 	 3.13
191.1304651409 	 4.35
192.0807752941 	 3.92
193.0886003262 	 3.16
195.0678648841 	 55.08
196.0756899162 	 27.8
203.072950262 	 7.49
208.0756899162 	 16.93
210.0913399804 	 26.21
218.0964253583 	 18.84
220.0756899162 	 4.68
220.1120754225 	 4.99
221.0835149483 	 3.66
234.0913399804 	 4.72
236.1069900446 	 100
238.1226401088 	 17.48
264.138290173 	 2.62
323.1754039608 	 137.38
END IONS

BEGIN IONS
PEPMASS=571.8075
CHARGE=1
MSLEVEL=2
RT=0
SOURCE_INSTRUMENT=qTOF
FILENAME=CCMSLIB00000086088.ms
IONMODE=Positive
ORGANISM=Natural
NAME=MLS002154127-01!Iopanoic acid96-83-3
PI=GNPS
DATACOLLECTOR=GNPS
SMILES=CCC(Cc1c(cc(c(c1I)N)I)I)C(=O)O
INCHI=InChI=1S/C11H12I3NO2/c1-2-5(11(16)17)3-6-7(12)4-8(13)10(15)9(6)14/h4-5H,2-3,15H2,1H3,(H,16,17)
FORMULA=C11H12I3NO2
PUBMED=N/A
SUBMITUSER=BIOADREM
LIBRARYQUALITY=0
SPECTRUMID=CCMSLIB00000086088
SCANS=4008
ID=CCMSLIB00000086088
93.0573001978 	 1.28
93.0573001978 	 4.85
104.0494751657 	 4.38
104.0494751657 	 2.17
105.0573001978 	 1.67
105.0573001978 	 4.49
105.0573001978 	 2.27
106.0651252299 	 0.99
120.0443897878 	 1.54
121.0522148199 	 2.95
121.0522148199 	 2.57
130.0651252299 	 1.03
131.0491408147 	 1.86
131.072950262 	 5.76
132.0807752941 	 0.81
133.0522148199 	 3.61
133.0522148199 	 4.38
134.060039852 	 7.1
144.0807752941 	 1.58
145.0522148199 	 3.98
145.0522148199 	 1.82
145.0886003262 	 10.88
145.0886003262 	 9.19
146.0362304047 	 2.04
146.0964253583 	 10.35
146.0964253583 	 9.98
147.1042503904 	 10.05
148.0756899162 	 5.18
149.047129442 	 68.96
149.047129442 	 100
162.0549544741 	 4.45
162.0549544741 	 7.18
162.0913399804 	 2.96
163.0627795062 	 1.31
163.0991650125 	 2.13
163.0991650125 	 3.72
173.0835149483 	 8.62
173.0835149483 	 1.16
176.0706045383 	 31.93
191.0940796346 	 11.19
191.0940796346 	 5.54
191.0940796346 	 4.31
191.0940796346 	 0
END IONS

BEGIN IONS
PEPMASS=297.2087
CHARGE=1
MSLEVEL=2
RT=0
SOURCE_INSTRUMENT=qTOF
FILENAME=CCMSLIB00000086089.ms
IONMODE=Positive
ORGANISM=Natural
NAME=MLS002172483-01!N,N,N-Trimethyl-1-(4-trans-stilbenoxy)-2-propylammonium iodide
PI=GNPS
DATACOLLECTOR=GNPS
SMILES=CC(COc1ccc(/C=C/c2ccccc2)cc1)[N+](C)(C)C
INCHI=InChI=1S/C20H26NO/c1-17(21(2,3)4)16-22-20-14-12-19(13-15-20)11-10-18-8-6-5-7-9-18/h5-15,17H,16H2,1-4H3/q+1/b11-10+
FORMULA=C20H26NO
PUBMED=N/A
SUBMITUSER=BIOADREM
LIBRARYQUALITY=0
SPECTRUMID=CCMSLIB00000086089
SCANS=4009
ID=CCMSLIB00000086089
91.0542261926 	 2.34
103.0542261926 	 3.18
105.0698762568 	 2.62
107.0491408147 	 1.41
115.0542261926 	 3.14
116.0620512247 	 0.98
117.0334907505 	 0.66
117.0698762568 	 0.96
127.0542261926 	 0.66
128.0620512247 	 2.16
129.0698762568 	 1.15
131.0491408147 	 3.1
131.085526321 	 1.62
133.0647908789 	 0.85
141.0698762568 	 5.89
144.0569658468 	 1.5
145.0647908789 	 2.16
146.072615911 	 0.72
151.0542261926 	 2.18
152.0620512247 	 52.46
159.0804409431 	 4.67
165.0698762568 	 47.35
166.0777012889 	 28.72
167.085526321 	 100
169.0647908789 	 1.06
176.0620512247 	 2.9
177.0698762568 	 8.08
178.0777012889 	 42.95
179.085526321 	 17.97
181.0647908789 	 2.13
181.1011763852 	 3.8
191.085526321 	 2.67
194.072615911 	 1.61
194.1090014173 	 1.26
195.0804409431 	 63.95
196.0882659752 	 15.1
204.0933513531 	 2.11
207.0804409431 	 1.69
209.0960910073 	 2.95
209.1324765136 	 1.16
222.1039160394 	 0.73
237.1273911357 	 5.73
297.2087154619 	 0
END IONS

BEGIN IONS
PEPMASS=288.1343
CHARGE=1
MSLEVEL=2
RT=0
SOURCE_INSTRUMENT=qTOF
FILENAME=CCMSLIB00000086091.ms
IONMODE=Positive
ORGANISM=Natural
NAME=MLS000862180-01!
PI=GNPS
DATACOLLECTOR=GNPS
SMILES=COc1ccc(cc1)c1ccc(=N)n(CCCC(=O)O)n1
INCHI=InChI=1S/C15H17N3O3/c1-21-12-6-4-11(5-7-12)13-8-9-14(16)18(17-13)10-2-3-15(19)20/h4-9,16H,2-3,10H2,1H3,(H,19,20)
FORMULA=C15H17N3O3
PUBMED=N/A
SUBMITUSER=BIOADREM
LIBRARYQUALITY=0
SPECTRUMID=CCMSLIB00000086091
SCANS=4010
ID=CCMSLIB00000086091
91.0542261926 	 4.86
107.0491408147 	 3.33
108.0807752941 	 5.12
124.1120754225 	 7.88
130.0651252299 	 5.89
134.060039852 	 3.07
152.1433755509 	 23.34
159.0790982724 	 40.58
160.0869233045 	 4.81
175.0865889535 	 5.12
185.0709388893 	 41.66
187.0740128945 	 41.3
188.0818379266 	 4.55
202.0974879908 	 100
288.1342674276 	 0
END IONS

BEGIN IONS
PEPMASS=258.186
CHARGE=1
MSLEVEL=2
RT=0
SOURCE_INSTRUMENT=qTOF
FILENAME=CCMSLIB00000086092.ms
IONMODE=Positive
ORGANISM=Natural
NAME=MLS000860058-01!(+/-)-N-Allylnormetazocine hydrochloride
PI=GNPS
DATACOLLECTOR=GNPS
SMILES=C=CCN1CCC2(C)C(C)C1Cc1ccc(cc21)O
INCHI=InChI=1S/C17H23NO/c1-4-8-18-9-7-17(3)12(2)16(18)10-13-5-6-14(19)11-15(13)17/h4-6,11-12,16,19H,1,7-10H2,2-3H3
FORMULA=C17H23NO
PUBMED=N/A
SUBMITUSER=BIOADREM
LIBRARYQUALITY=0
SPECTRUMID=CCMSLIB00000086092
SCANS=4011
ID=CCMSLIB00000086092
91.0542261926 	 2.44
103.0542261926 	 3.98
105.0698762568 	 6.58
107.0491408147 	 8.82
110.0964253583 	 5.93
115.0542261926 	 21.74
117.0698762568 	 9.75
119.085526321 	 1.56
121.0647908789 	 2.62
127.0542261926 	 6.72
128.0620512247 	 3.12
129.0698762568 	 8.54
130.0777012889 	 8.18
131.0491408147 	 6.62
131.085526321 	 23.7
133.0647908789 	 45.74
141.0698762568 	 11.75
144.0569658468 	 30.75
145.0647908789 	 41
145.1011763852 	 37.32
147.0804409431 	 8.65
153.0698762568 	 3.8
155.085526321 	 25.7
157.0647908789 	 15.82
158.072615911 	 99.52
159.0804409431 	 80.2
162.0913399804 	 1.36
171.0804409431 	 3.14
172.0882659752 	 5.44
173.0960910073 	 100
175.1117410715 	 49.36
185.0960910073 	 2.16
188.1069900446 	 2.82
199.1117410715 	 1.17
202.1226401088 	 12.84
216.138290173 	 17.63
258.1852403656 	 60.92
END IONS

BEGIN IONS
PEPMASS=435.2177
CHARGE=1
MSLEVEL=2
RT=0
SOURCE_INSTRUMENT=qTOF
FILENAME=CCMSLIB00000086094.ms
IONMODE=Positive
ORGANISM=Natural
NAME=MLS001332652-01!Flunisolide3385-03-3
PI=GNPS
DATACOLLECTOR=GNPS
SMILES=CC1(C)O[C@@H]2CC3C4C[C@@H](C5=CC(=O)C=CC5(C)C4C(CC3(C)[C@]2(C(=O)CO)O1)O)F
INCHI=InChI=1S/C24H31FO6/c1-21(2)30-19-9-14-13-8-16(25)15-7-12(27)5-6-22(15,3)20(13)17(28)10-23(14,4)24(19,31-21)18(29)11-26/h5-7,13-14,16-17,19-20,26,28H,8-11H2,1-4H3/t13?,14?,16-,17?,19+,20?,22?,23?,24+/m0/s1
FORMULA=C24H31FO6
PUBMED=N/A
SUBMITUSER=BIOADREM
LIBRARYQUALITY=0
SPECTRUMID=CCMSLIB00000086094
SCANS=4013
ID=CCMSLIB00000086094
105.0698762568 	 10.96
121.0647908789 	 97.28
131.085526321 	 14.14
135.0804409431 	 14.06
143.085526321 	 13.72
145.0647908789 	 26.5
147.0804409431 	 52.95
153.0698762568 	 13.5
159.0804409431 	 27.9
165.0698762568 	 19.7
171.0804409431 	 100
173.0960910073 	 17.2
179.085526321 	 24.88
181.1011763852 	 17.11
182.072615911 	 11.21
183.0804409431 	 17.15
185.0960910073 	 22.12
189.071019111 	 10.87
191.085526321 	 20.04
195.0804409431 	 18.85
195.1179693036 	 12.14
197.0960910073 	 31.93
198.1039160394 	 20.76
205.1023192394 	 10.66
207.1168264494 	 18.43
208.0894088294 	 43.01
209.0960910073 	 79.7
210.1039160394 	 25.82
211.1117410715 	 16.05
213.1273911357 	 16.82
221.0960910073 	 29
222.1039160394 	 35.58
223.1128839257 	 54.1
225.1273911357 	 33.25
233.0960910073 	 34.06
234.1050588936 	 27.94
235.1128839257 	 41.4
237.0910056294 	 12.4
237.1273911357 	 30.96
243.1179693036 	 13.72
245.0972338615 	 31.46
246.1050588936 	 26.45
247.1117410715 	 23.31
248.1195661036 	 30.7
249.1285339899 	 24.12
260.1207089578 	 35.41
261.1285339899 	 27.77
262.1352161678 	 16.35
263.1430411999 	 34.61
275.1441840541 	 22.42
280.1457808541 	 10.96
435.2177429277 	 0
END IONS

BEGIN IONS
PEPMASS=205.0801
CHARGE=1
MSLEVEL=2
RT=0
SOURCE_INSTRUMENT=qTOF
FILENAME=CCMSLIB00000086096.ms
IONMODE=Positive
ORGANISM=Natural
NAME=MLS000028416-01!TETRAMISOLE HYDROCHLORIDE
PI=GNPS
DATACOLLECTOR=GNPS
SMILES=c1ccc(cc1)C1CN2CCSC2=N1
INCHI=InChI=1S/C11H12N2S/c1-2-4-9(5-3-1)10-8-13-6-7-14-11(13)12-10/h1-5,10H,6-8H2
FORMULA=C11H12N2S
PUBMED=N/A
SUBMITUSER=BIOADREM
LIBRARYQUALITY=0
SPECTRUMID=CCMSLIB00000086096
SCANS=4014
ID=CCMSLIB00000086096
91.0542261926 	 18.56
102.0464011605 	 2.16
103.0542261926 	 17.69
105.0698762568 	 19.12
115.0542261926 	 14.63
118.0651252299 	 19.02
119.085526321 	 2.28
120.0807752941 	 2.4
123.0262968826 	 46.35
127.0542261926 	 2.48
128.0620512247 	 25.33
129.0698762568 	 16.19
130.0651252299 	 29.77
131.072950262 	 12.81
132.0807752941 	 7.35
135.0262968826 	 8.3
144.0807752941 	 12.42
146.0964253583 	 10.97
150.0371959199 	 10.05
178.0684960483 	 100
188.0528459841 	 6.07
205.0793950856 	 51.42
END IONS

BEGIN IONS
PEPMASS=248.1506
CHARGE=1
MSLEVEL=2
RT=0
SOURCE_INSTRUMENT=qTOF
FILENAME=CCMSLIB00000086098.ms
IONMODE=Positive
ORGANISM=Natural
NAME=MLS001074898-01!NU2058
PI=GNPS
DATACOLLECTOR=GNPS
SMILES=C1CCC(CC1)COc1c2c([nH]cn2)[nH]c(=N)n1
INCHI=InChI=1S/C12H17N5O/c13-12-16-10-9(14-7-15-10)11(17-12)18-6-8-4-2-1-3-5-8/h7-8H,1-6H2,(H3,13,14,15,16,17)
FORMULA=C12H17N5O
PUBMED=N/A
SUBMITUSER=BIOADREM
LIBRARYQUALITY=0
SPECTRUMID=CCMSLIB00000086098
SCANS=4016
ID=CCMSLIB00000086098
107.035222085 	 4.03
109.0508721492 	 0.84
110.034887734 	 14.33
134.0461211223 	 1.83
135.0301367071 	 100
152.0566858086 	 87.35
248.1505861938 	 0
END IONS

BEGIN IONS
PEPMASS=268.1332
CHARGE=1
MSLEVEL=2
RT=0
SOURCE_INSTRUMENT=qTOF
FILENAME=CCMSLIB00000086099.ms
IONMODE=Positive
ORGANISM=Natural
NAME=MLS001183781-01!
PI=GNPS
DATACOLLECTOR=GNPS
SMILES=CN1CCc2cccc3c2C1Cc1ccc(c(c31)O)O
INCHI=InChI=1S/C17H17NO2/c1-18-8-7-10-3-2-4-12-15(10)13(18)9-11-5-6-14(19)17(20)16(11)12/h2-6,13,19-20H,7-9H2,1H3
FORMULA=C17H17NO2
PUBMED=N/A
SUBMITUSER=BIOADREM
LIBRARYQUALITY=0
SPECTRUMID=CCMSLIB00000086099
SCANS=4017
ID=CCMSLIB00000086099
151.0542261926 	 0.26
152.0620512247 	 0.73
165.0698762568 	 4.64
176.0620512247 	 0.71
177.0698762568 	 0.93
178.0777012889 	 1.79
189.0698762568 	 22.7
190.0777012889 	 42.75
191.085526321 	 100
201.0698762568 	 4.68
205.0647908789 	 2.02
207.0804409431 	 0.75
209.0960910073 	 0.26
219.0804409431 	 30.07
222.0675305331 	 0.28
237.0910056294 	 12.24
268.1332047951 	 0.17
END IONS

BEGIN IONS
PEPMASS=440.2195
CHARGE=1
MSLEVEL=2
RT=0
SOURCE_INSTRUMENT=qTOF
FILENAME=CCMSLIB00000086101.ms
IONMODE=Positive
ORGANISM=Natural
NAME=MLS002154128-01!Pivmecillinam hydrochloride32887-03-9
PI=GNPS
DATACOLLECTOR=GNPS
SMILES=CC(C)(C)C(=O)OCOC(=O)[C@H]1C(C)(C)S[C@@H]2[C@@H](C(=O)N12)N=CN1CCCCCC1
INCHI=InChI=1S/C21H33N3O5S/c1-20(2,3)19(27)29-13-28-18(26)15-21(4,5)30-17-14(16(25)24(15)17)22-12-23-10-8-6-7-9-11-23/h12,14-15,17H,6-11,13H2,1-5H3/t14-,15+,17-/m1/s1
FORMULA=C21H33N3O5S
PUBMED=N/A
SUBMITUSER=BIOADREM
LIBRARYQUALITY=0
SPECTRUMID=CCMSLIB00000086101
SCANS=4018
ID=CCMSLIB00000086101
95.085526321 	 0.42
96.0807752941 	 0.86
98.0964253583 	 1.87
100.1120754225 	 2.58
110.0964253583 	 3.2
111.0916743314 	 1.39
112.1120754225 	 1.62
122.0964253583 	 3.54
128.1069900446 	 0.59
135.0916743314 	 0.32
137.1073243956 	 1.28
139.1229744598 	 31.13
149.1073243956 	 0.47
161.1073243956 	 1.27
167.1178890819 	 100
178.1338734971 	 23.6
206.1287881192 	 7.16
252.1528943797 	 1.95
280.1478090018 	 1.69
298.1583736881 	 0.88
308.1427236239 	 0.54
326.1532883102 	 0.56
338.2074323707 	 2.65
382.215888567 	 2
410.2108031891 	 3.13
412.2264532533 	 2.04
440.2213678754 	 7.14
END IONS

BEGIN IONS
PEPMASS=421.2021
CHARGE=1
MSLEVEL=2
RT=0
SOURCE_INSTRUMENT=qTOF
FILENAME=CCMSLIB00000086103.ms
IONMODE=Positive
ORGANISM=Natural
NAME=MLS002154168-01!Isoflupredone acetate338-98-7
PI=GNPS
DATACOLLECTOR=GNPS
SMILES=CC(=O)OCC(=O)[C@]1(CC[C@H]2[C@@H]3CCC4=CC(=O)C=C[C@]4(C)[C@]3([C@H](C[C@]12C)O)F)O
INCHI=InChI=1S/C23H29FO6/c1-13(25)30-12-19(28)22(29)9-7-16-17-5-4-14-10-15(26)6-8-20(14,2)23(17,24)18(27)11-21(16,22)3/h6,8,10,16-18,27,29H,4-5,7,9,11-12H2,1-3H3/t16-,17-,18-,20-,21-,22-,23-/m0/s1
FORMULA=C23H29FO6
PUBMED=N/A
SUBMITUSER=BIOADREM
LIBRARYQUALITY=0
SPECTRUMID=CCMSLIB00000086103
SCANS=4020
ID=CCMSLIB00000086103
105.0698762568 	 24.11
119.085526321 	 21.65
121.0647908789 	 50.6
131.085526321 	 14.73
135.0804409431 	 34.63
141.0698762568 	 12.64
143.085526321 	 21.69
145.0647908789 	 14.6
147.0804409431 	 100
158.072615911 	 13.56
159.0804409431 	 49.81
161.0960910073 	 27.16
165.0698762568 	 12.22
167.085526321 	 12.02
171.0804409431 	 49.31
173.0960910073 	 40.22
178.0777012889 	 12.1
179.085526321 	 17.48
183.0804409431 	 12.56
185.0960910073 	 28.91
194.1090014173 	 12.93
196.0882659752 	 13.27
197.0960910073 	 33.21
199.1117410715 	 16.4
208.0882659752 	 16.98
209.0960910073 	 29.12
211.1117410715 	 23.03
213.1273911357 	 13.6
220.0882659752 	 11.89
221.0960910073 	 42.55
222.1039160394 	 44.76
223.1117410715 	 29.24
225.1273911357 	 22.7
229.1011763852 	 14.73
234.1039160394 	 12.6
235.1117410715 	 46.18
237.1273911357 	 69.21
239.1430411999 	 27.58
247.1117410715 	 22.99
248.1195661036 	 24.95
249.1273911357 	 28.49
251.1430411999 	 13.6
261.1273911357 	 19.19
262.1352161678 	 16.9
263.1430411999 	 32.96
272.1195661036 	 22.57
277.1586912641 	 38.21
287.1430411999 	 21.07
305.1536058862 	 12.02
421.2020928635 	 0
END IONS

BEGIN IONS
PEPMASS=329.1856
CHARGE=1
MSLEVEL=2
RT=0
SOURCE_INSTRUMENT=qTOF
FILENAME=CCMSLIB00000086107.ms
IONMODE=Positive
ORGANISM=Natural
NAME=MLS001148626-01!32780-64-6
PI=GNPS
DATACOLLECTOR=GNPS
SMILES=CC(CCc1ccccc1)NCC(c1ccc(c(c1)C(=N)O)O)O
INCHI=InChI=1S/C19H24N2O3/c1-13(7-8-14-5-3-2-4-6-14)21-12-18(23)15-9-10-17(22)16(11-15)19(20)24/h2-6,9-11,13,18,21-23H,7-8,12H2,1H3,(H2,20,24)
FORMULA=C19H24N2O3
PUBMED=N/A
SUBMITUSER=BIOADREM
LIBRARYQUALITY=0
SPECTRUMID=CCMSLIB00000086107
SCANS=4022
ID=CCMSLIB00000086107
91.0542261926 	 13.08
106.0651252299 	 9.84
107.0491408147 	 5.43
116.0494751657 	 2.36
117.0334907505 	 0.65
118.0651252299 	 0.75
119.0491408147 	 1.56
120.0443897878 	 1.38
133.0522148199 	 2.5
134.060039852 	 17.94
135.0440554368 	 4.17
136.0756899162 	 0.54
144.0443897878 	 5.56
145.0284053726 	 1.08
147.0440554368 	 8.06
162.0549544741 	 100
164.0706045383 	 2.64
179.0815035756 	 2.76
190.0862546025 	 5.54
207.112803704 	 1.71
294.1488548593 	 9.64
311.1754039608 	 0.69
329.1859686471 	 0.15
END IONS

BEGIN IONS
PEPMASS=363.2074
CHARGE=1
MSLEVEL=2
RT=0
SOURCE_INSTRUMENT=qTOF
FILENAME=CCMSLIB00000086108.ms
IONMODE=Positive
ORGANISM=Natural
NAME=MLS001201802-01!
PI=GNPS
DATACOLLECTOR=GNPS
SMILES=c1ccc(cc1)CN1CCC(CC1)C1(CCC(=NC1=O)O)c1ccccc1
INCHI=InChI=1S/C23H26N2O2/c26-21-11-14-23(22(27)24-21,19-9-5-2-6-10-19)20-12-15-25(16-13-20)17-18-7-3-1-4-8-18/h1-10,20H,11-17H2,(H,24,26,27)
FORMULA=C23H26N2O2
PUBMED=N/A
SUBMITUSER=BIOADREM
LIBRARYQUALITY=0
SPECTRUMID=CCMSLIB00000086108
SCANS=4023
ID=CCMSLIB00000086108
91.0542261926 	 100
98.0964253583 	 5.19
105.0698762568 	 1.95
117.0698762568 	 2.11
118.0651252299 	 2.89
120.0807752941 	 3.25
131.085526321 	 0.88
132.0807752941 	 18.31
143.085526321 	 1.28
146.0964253583 	 3.73
147.1042503904 	 1.18
157.1011763852 	 0.89
160.1120754225 	 5.26
174.1277254867 	 38.57
175.1355505188 	 10.06
271.1441038324 	 4.88
363.2067040892 	 193.63
END IONS

BEGIN IONS
PEPMASS=318.1268
CHARGE=1
MSLEVEL=2
RT=0
SOURCE_INSTRUMENT=qTOF
FILENAME=CCMSLIB00000086111.ms
IONMODE=Positive
ORGANISM=Natural
NAME=MLS002153381-01!SKF-83959 hydrobromide80751-85-5
PI=GNPS
DATACOLLECTOR=GNPS
SMILES=Cc1cccc(c1)C1CN(C)CCc2c1cc(c(c2Cl)O)O
INCHI=InChI=1S/C18H20ClNO2/c1-11-4-3-5-12(8-11)15-10-20(2)7-6-13-14(15)9-16(21)18(22)17(13)19/h3-5,8-9,15,21-22H,6-7,10H2,1-2H3
FORMULA=C18H20ClNO2
PUBMED=N/A
SUBMITUSER=BIOADREM
LIBRARYQUALITY=0
SPECTRUMID=CCMSLIB00000086111
SCANS=4025
ID=CCMSLIB00000086111
91.0542261926 	 7.13
103.0542261926 	 14.04
105.0698762568 	 64.72
107.0491408147 	 6.94
115.0542261926 	 5.22
117.0698762568 	 9.13
119.085526321 	 19.65
125.0152538705 	 99.65
128.0620512247 	 8.83
131.0491408147 	 13.79
132.0807752941 	 5.45
133.0886003262 	 20.06
135.0440554368 	 6.46
136.0518804689 	 21.58
143.085526321 	 5.45
147.0440554368 	 5.93
149.0152538705 	 18.18
153.0101684926 	 31.24
157.0050831147 	 20.85
158.9996038063 	 6.09
159.0440554368 	 9.08
160.0518804689 	 19.95
160.0756899162 	 4.96
165.0101684926 	 11.93
169.0050831147 	 5.06
171.0207331789 	 93.08
176.0706045383 	 11.81
177.0101684926 	 36.91
177.0784295704 	 6.62
178.0777012889 	 6.14
179.085526321 	 9.29
183.0207331789 	 6.59
191.085526321 	 12.41
193.1011763852 	 5.22
194.1090014173 	 4.96
195.0207331789 	 21.63
205.1011763852 	 11.19
206.1090014173 	 14.2
212.0472822804 	 31.53
219.0804409431 	 7.74
233.0960910073 	 5.22
237.0910056294 	 19.61
251.1066556936 	 5.74
252.1144807257 	 20.62
318.1255326014 	 55.92
END IONS

BEGIN IONS
PEPMASS=521.1492
CHARGE=1
MSLEVEL=2
RT=0
SOURCE_INSTRUMENT=qTOF
FILENAME=CCMSLIB00000086112.ms
IONMODE=Positive
ORGANISM=Natural
NAME=MLS002153879-01!Mometasone furoate83919-23-7
PI=GNPS
DATACOLLECTOR=GNPS
SMILES=C[C@@H]1C[C@H]2[C@@H]3CCC4=CC(=O)C=C[C@]4(C)[C@]3([C@H](C[C@]2(C)[C@]1(C(=O)CCl)OC(=O)c1ccco1)O)Cl
INCHI=InChI=1S/C27H30Cl2O6/c1-15-11-19-18-7-6-16-12-17(30)8-9-24(16,2)26(18,29)21(31)13-25(19,3)27(15,22(32)14-28)35-23(33)20-5-4-10-34-20/h4-5,8-10,12,15,18-19,21,31H,6-7,11,13-14H2,1-3H3/t15-,18+,19+,21+,24+,25+,26+,27+/m1/s1
FORMULA=C27H30Cl2O6
PUBMED=N/A
SUBMITUSER=BIOADREM
LIBRARYQUALITY=0
SPECTRUMID=CCMSLIB00000086112
SCANS=4026
ID=CCMSLIB00000086112
105.0698762568 	 7.79
107.085526321 	 7.57
119.085526321 	 10.19
121.0647908789 	 38.52
128.0620512247 	 7.5
131.085526321 	 8.05
135.0804409431 	 32.84
143.085526321 	 8.96
145.0647908789 	 8.37
147.0804409431 	 39.3
155.085526321 	 7.57
157.1011763852 	 6.97
158.072615911 	 7.92
159.0804409431 	 19.52
161.0960910073 	 9.42
171.0804409431 	 27.6
173.0960910073 	 18.2
183.0782480578 	 6.19
185.0960910073 	 18.83
197.0960910073 	 9.64
205.1011763852 	 6.2
208.0882659752 	 10.85
209.093898122 	 15.93
211.1117410715 	 5.99
221.0960910073 	 21.73
222.1039160394 	 14.27
223.1117410715 	 19.72
224.1173732183 	 14.99
225.1273911357 	 6.12
233.0960910073 	 8.84
234.1017231541 	 10
235.1117410715 	 18.16
236.1195661036 	 9.91
237.1273911357 	 11.89
245.1324765136 	 7.82
247.1117410715 	 6.63
248.1195661036 	 26.79
249.1273911357 	 14.1
259.1117410715 	 8.9
260.1173732183 	 10.95
261.1273911357 	 12.5
262.1352161678 	 10.6
263.1430411999 	 100
273.1273911357 	 16.63
275.1430411999 	 6.72
277.1586912641 	 25.01
278.1665162962 	 39.64
286.1330232825 	 9.58
288.150866232 	 12.81
291.137955822 	 7.95
301.1564983788 	 16.48
306.1614309183 	 9.88
355.1459336925 	 12.36
521.1492201156 	 0
END IONS

BEGIN IONS
PEPMASS=340.2263
CHARGE=1
MSLEVEL=2
RT=0
SOURCE_INSTRUMENT=qTOF
FILENAME=CCMSLIB00000086113.ms
IONMODE=Positive
ORGANISM=Natural
NAME=MLS002153889-01!Lobelanidine hydrochloride6112-86-3
PI=GNPS
DATACOLLECTOR=GNPS
SMILES=CN1C(CCCC1CC(c1ccccc1)O)CC(c1ccccc1)O
INCHI=InChI=1S/C22H29NO2/c1-23-19(15-21(24)17-9-4-2-5-10-17)13-8-14-20(23)16-22(25)18-11-6-3-7-12-18/h2-7,9-12,19-22,24-25H,8,13-16H2,1H3
FORMULA=C22H29NO2
PUBMED=N/A
SUBMITUSER=BIOADREM
LIBRARYQUALITY=0
SPECTRUMID=CCMSLIB00000086113
SCANS=4027
ID=CCMSLIB00000086113
91.0542261926 	 16.39
94.0651252299 	 3.99
96.0807752941 	 23.87
98.0964253583 	 85.18
103.0542261926 	 1.62
105.0334907505 	 3.71
105.0698762568 	 4.51
108.0807752941 	 5.13
110.0964253583 	 5.24
112.1120754225 	 5.54
114.0913399804 	 12.68
115.0542261926 	 7.16
117.0698762568 	 18.6
120.0807752941 	 0.83
122.0964253583 	 1.35
127.0542261926 	 1.61
128.0620512247 	 33.18
129.0698762568 	 13.47
131.085526321 	 1.91
141.0698762568 	 13.51
143.085526321 	 42.18
145.1011763852 	 3.25
146.0964253583 	 2.55
148.1120754225 	 0.99
154.0777012889 	 2.03
169.1011763852 	 6.91
171.1168264494 	 2.09
174.1277254867 	 1.82
185.1199004546 	 2.07
187.1117410715 	 3.72
188.1433755509 	 3.42
190.1226401088 	 1.69
190.1590256151 	 0.94
200.1433755509 	 32.05
202.1590256151 	 100
218.1539402372 	 73.95
304.2059758077 	 3.15
322.216540494 	 21.67
340.2271051803 	 19.43
END IONS

BEGIN IONS
PEPMASS=378.2645
CHARGE=1
MSLEVEL=2
RT=0
SOURCE_INSTRUMENT=qTOF
FILENAME=CCMSLIB00000086114.ms
IONMODE=Positive
ORGANISM=Natural
NAME=MLS002153956-01!Karakoline39089-30-0
PI=GNPS
DATACOLLECTOR=GNPS
SMILES=CCN1C[C@]2(C)CC[C@@H]([C@@]34[C@@H]5C[C@@H]6[C@H](C[C@]([C@@H](C[C@H]23)C14)([C@H]5C6O)O)OC)O
INCHI=InChI=1S/C22H35NO4/c1-4-23-10-20(2)6-5-16(24)22-12-7-11-14(27-3)9-21(26,17(12)18(11)25)13(19(22)23)8-15(20)22/h11-19,24-26H,4-10H2,1-3H3/t11-,12-,13+,14+,15-,16+,17-,18?,19?,20+,21+,22-/m1/s1
FORMULA=C22H35NO4
PUBMED=N/A
SUBMITUSER=BIOADREM
LIBRARYQUALITY=0
SPECTRUMID=CCMSLIB00000086114
SCANS=4028
ID=CCMSLIB00000086114
91.0542261926 	 2.02
98.0964253583 	 3.19
105.0698762568 	 3.11
107.085526321 	 1.66
119.085526321 	 1.41
122.0964253583 	 2.3
124.1120754225 	 9.85
129.0698762568 	 2.83
131.085526321 	 4.62
133.1011763852 	 2
141.0698762568 	 1.68
143.085526321 	 4.43
145.1011763852 	 4.26
155.085526321 	 1.71
157.1011763852 	 3.28
159.1168264494 	 2.48
167.085526321 	 1.61
171.1168264494 	 2.94
176.1433755509 	 1.43
181.1011763852 	 1.88
183.1168264494 	 2.78
185.1324765136 	 2.89
193.1011763852 	 1.34
197.1324765136 	 1.74
209.1324765136 	 3.77
211.1481265778 	 1.47
227.1430411999 	 3.64
237.163776642 	 3.02
253.1586912641 	 1.83
265.1586912641 	 1.34
310.216540494 	 3.47
314.2114551161 	 1.43
328.2271051803 	 14.19
332.2220198024 	 4.32
342.2427552445 	 8.59
360.2533199308 	 100
378.2638846171 	 147.75
END IONS

BEGIN IONS
PEPMASS=614.8133
CHARGE=1
MSLEVEL=2
RT=0
SOURCE_INSTRUMENT=qTOF
FILENAME=CCMSLIB00000086115.ms
IONMODE=Positive
ORGANISM=Natural
NAME=MLS002154025-01!Iocetamic acid16034-77-8
PI=GNPS
DATACOLLECTOR=GNPS
SMILES=CC(CN(C(=O)C)c1c(cc(c(c1I)N)I)I)C(=O)O
INCHI=InChI=1S/C12H13I3N2O3/c1-5(12(19)20)4-17(6(2)18)11-8(14)3-7(13)10(16)9(11)15/h3,5H,4,16H2,1-2H3,(H,19,20)
FORMULA=C12H13I3N2O3
PUBMED=N/A
SUBMITUSER=BIOADREM
LIBRARYQUALITY=0
SPECTRUMID=CCMSLIB00000086115
SCANS=4029
ID=CCMSLIB00000086115
118.0525491709 	 0.74
118.0525491709 	 1
118.0525491709 	 8.91
119.060374203 	 0.8
119.060374203 	 1.2
120.0681992351 	 2.87
145.0760242672 	 1.79
146.0838492993 	 3.03
146.0838492993 	 4.78
148.0631138572 	 2.55
148.0631138572 	 1.56
172.0631138572 	 3.33
173.0709388893 	 0.75
173.0709388893 	 0.99
174.0423784151 	 24.38
174.0787639214 	 100
174.0787639214 	 3.04
174.0787639214 	 0.83
174.0787639214 	 1.23
187.0865889535 	 0.78
188.0944139856 	 58.46
188.0944139856 	 10.67
189.0658535114 	 9.15
198.0787639214 	 2.71
200.0580284793 	 4.03
214.0736785435 	 10.18
215.0815035756 	 0.83
215.0815035756 	 0.96
216.0893286077 	 8.08
216.0893286077 	 1.02
216.0893286077 	 1.77
216.0893286077 	 2.33
234.099893294 	 0
END IONS

BEGIN IONS
PEPMASS=248.2009
CHARGE=1
MSLEVEL=2
RT=0
SOURCE_INSTRUMENT=qTOF
FILENAME=CCMSLIB00000086118.ms
IONMODE=Positive
ORGANISM=Natural
NAME=MLS002153292-01!R(+)-7-Hydroxy-DPAT hydrobromide159795-63-8
PI=GNPS
DATACOLLECTOR=GNPS
SMILES=CCCN(CCC)C1CCc2ccc(cc2C1)O
INCHI=InChI=1S/C16H25NO/c1-3-9-17(10-4-2)15-7-5-13-6-8-16(18)12-14(13)11-15/h6,8,12,15,18H,3-5,7,9-11H2,1-2H3
FORMULA=C16H25NO
PUBMED=N/A
SUBMITUSER=BIOADREM
LIBRARYQUALITY=0
SPECTRUMID=CCMSLIB00000086118
SCANS=4031
ID=CCMSLIB00000086118
91.0542261926 	 9.05
103.0542261926 	 2.73
104.0620512247 	 1.04
107.0491408147 	 49.39
115.0542261926 	 2.62
117.0698762568 	 4.26
119.085526321 	 23.09
127.0542261926 	 1.14
128.0620512247 	 8.43
129.0698762568 	 6.18
131.0491408147 	 9.51
132.0569658468 	 40.71
145.0647908789 	 2.96
146.072615911 	 0.87
147.0804409431 	 100
248.2008904298 	 0
END IONS

BEGIN IONS
PEPMASS=341.1855
CHARGE=1
MSLEVEL=2
RT=0
SOURCE_INSTRUMENT=qTOF
FILENAME=CCMSLIB00000086119.ms
IONMODE=Positive
ORGANISM=Natural
NAME=MLS002153893-01!Yohimbinic acid monohydrate522-87-2
PI=GNPS
DATACOLLECTOR=GNPS
SMILES=c1ccc2c(c1)c1CCN3C[C@@H]4CC[C@@H]([C@@H]([C@H]4C[C@H]3c1[nH]2)C(=O)O)O
INCHI=InChI=1S/C20H24N2O3/c23-17-6-5-11-10-22-8-7-13-12-3-1-2-4-15(12)21-19(13)16(22)9-14(11)18(17)20(24)25/h1-4,11,14,16-18,21,23H,5-10H2,(H,24,25)/t11-,14-,16-,17-,18+/m0/s1
FORMULA=C20H24N2O3
PUBMED=N/A
SUBMITUSER=BIOADREM
LIBRARYQUALITY=0
SPECTRUMID=CCMSLIB00000086119
SCANS=4032
ID=CCMSLIB00000086119
103.0542261926 	 1.14
106.0651252299 	 0.54
109.0647908789 	 0.61
115.0542261926 	 3.38
117.0698762568 	 11.05
127.0542261926 	 1.69
130.0651252299 	 1.53
131.0491408147 	 0.69
132.0807752941 	 1.17
134.0964253583 	 3.04
143.072950262 	 9.02
144.0807752941 	 100
145.0859202515 	 14.19
158.0964253583 	 1.49
162.0913399804 	 1.22
180.1019046667 	 3.84
198.112469353 	 13.57
294.1488548593 	 0.54
312.1594195456 	 0.65
341.1859686471 	 7.76
END IONS

BEGIN IONS
PEPMASS=363.0551
CHARGE=1
MSLEVEL=2
RT=0
SOURCE_INSTRUMENT=qTOF
FILENAME=CCMSLIB00000086120.ms
IONMODE=Positive
ORGANISM=Natural
NAME=MLS002172485-01!NS 1619153587-01-0
PI=GNPS
DATACOLLECTOR=GNPS
SMILES=c1cc2c(cc1C(F)(F)F)nc(n2c1cc(ccc1O)C(F)(F)F)O
INCHI=InChI=1S/C15H8F6N2O2/c16-14(17,18)7-1-3-10-9(5-7)22-13(25)23(10)11-6-8(15(19,20)21)2-4-12(11)24/h1-6,24H,(H,22,25)
FORMULA=C15H8F6N2O2
PUBMED=N/A
SUBMITUSER=BIOADREM
LIBRARYQUALITY=0
SPECTRUMID=CCMSLIB00000086120
SCANS=4033
ID=CCMSLIB00000086120
111.0240689184 	 2.33
113.0197324642 	 1.43
114.0275574963 	 1.53
129.0146470863 	 2.33
131.0302971505 	 25.67
141.0146470863 	 2.89
158.0212096694 	 15.21
174.0149814373 	 5.07
174.0361108099 	 1.77
185.0321087067 	 11.18
198.058777403 	 2.71
201.0258804746 	 5.46
202.0337055067 	 20.27
213.0270233288 	 78.09
226.0536920251 	 2.9
230.0650056351 	 6.44
237.0634088351 	 4.06
247.0477587709 	 4.93
265.0583234572 	 5.83
267.053987003 	 13.02
268.0555444299 	 2.46
274.0548348793 	 2.52
275.042673393 	 1.44
287.0602152351 	 6.86
294.0610631114 	 1.93
295.0489016251 	 24.36
296.050459052 	 3.96
297.0445651709 	 2.61
298.052390203 	 3.25
299.0602152351 	 16.67
303.0375880151 	 1.63
315.0551298572 	 13.02
319.0664434672 	 1.78
323.0438162472 	 17.82
324.0453736741 	 2.52
343.0500444793 	 100
363.0562727114 	 12.75
END IONS

BEGIN IONS
PEPMASS=302.3054
CHARGE=1
MSLEVEL=2
RT=0
SOURCE_INSTRUMENT=qTOF
FILENAME=CCMSLIB00000086124.ms
IONMODE=Positive
ORGANISM=Natural
NAME=MLS001066334-01!D-erythro-Dihydrosphingosine764-22-7
PI=GNPS
DATACOLLECTOR=GNPS
SMILES=CCCCCCCCCCCCCCC[C@H]([C@H](CO)N)O
INCHI=InChI=1S/C18H39NO2/c1-2-3-4-5-6-7-8-9-10-11-12-13-14-15-18(21)17(19)16-20/h17-18,20-21H,2-16,19H2,1H3/t17-,18+/m0/s1
FORMULA=C18H39NO2
PUBMED=N/A
SUBMITUSER=BIOADREM
LIBRARYQUALITY=0
SPECTRUMID=CCMSLIB00000086124
SCANS=4035
ID=CCMSLIB00000086124
93.0698762568 	 1.67
109.1011763852 	 12.91
238.2529260003 	 2.37
240.2685760645 	 10.47
254.2842261287 	 100
266.2842261287 	 19.67
284.294790815 	 36.52
302.3053555013 	 0
END IONS

BEGIN IONS
PEPMASS=276.1707
CHARGE=1
MSLEVEL=2
RT=0
SOURCE_INSTRUMENT=qTOF
FILENAME=CCMSLIB00000086126.ms
IONMODE=Positive
ORGANISM=Natural
NAME=MLS001304022-01!
PI=GNPS
DATACOLLECTOR=GNPS
SMILES=C[C@]12CCN(C)[C@@H]2N(C)c2ccc(cc12)OC(=NC)O
INCHI=InChI=1S/C15H21N3O2/c1-15-7-8-17(3)13(15)18(4)12-6-5-10(9-11(12)15)20-14(19)16-2/h5-6,9,13H,7-8H2,1-4H3,(H,16,19)/t13-,15+/m1/s1
FORMULA=C15H21N3O2
PUBMED=N/A
SUBMITUSER=BIOADREM
LIBRARYQUALITY=0
SPECTRUMID=CCMSLIB00000086126
SCANS=4037
ID=CCMSLIB00000086126
103.0542261926 	 1.53
117.0573001978 	 0.7
130.0651252299 	 0.83
132.0807752941 	 0.85
134.0964253583 	 5.92
144.0807752941 	 2.28
146.060039852 	 22.86
147.0678648841 	 100
158.060039852 	 0.69
158.0964253583 	 0.88
160.0756899162 	 15.99
161.0835149483 	 36.72
162.0913399804 	 91.35
172.0756899162 	 4.69
173.0835149483 	 10.98
176.1069900446 	 25.66
188.1069900446 	 13.41
276.1706529339 	 0
END IONS

BEGIN IONS
PEPMASS=352.1759
CHARGE=1
MSLEVEL=2
RT=0
SOURCE_INSTRUMENT=qTOF
FILENAME=CCMSLIB00000086128.ms
IONMODE=Positive
ORGANISM=Natural
NAME=MLS002153926-01!Retrorsine480-54-6
PI=GNPS
DATACOLLECTOR=GNPS
SMILES=C/C=C\1/C[C@@H](C)[C@](CO)(C(=O)OCC2=CCN3CC[C@H]([C@@H]23)OC1=O)O
INCHI=InChI=1S/C18H25NO6/c1-3-12-8-11(2)18(23,10-20)17(22)24-9-13-4-6-19-7-5-14(15(13)19)25-16(12)21/h3-4,11,14-15,20,23H,5-10H2,1-2H3/b12-3-/t11-,14-,15-,18-/m1/s1
FORMULA=C18H25NO6
PUBMED=N/A
SUBMITUSER=BIOADREM
LIBRARYQUALITY=0
SPECTRUMID=CCMSLIB00000086128
SCANS=4038
ID=CCMSLIB00000086128
91.0542261926 	 11.4
92.0494751657 	 3.66
93.0573001978 	 9.19
93.0698762568 	 6.95
94.0651252299 	 38.34
95.085526321 	 7.39
96.0807752941 	 14.25
103.0542261926 	 16.43
105.0698762568 	 8.81
106.0651252299 	 8.58
108.0807752941 	 17.25
109.0647908789 	 5.79
110.0964253583 	 17.07
111.0804409431 	 3.61
118.0651252299 	 14.46
120.0807752941 	 100
121.0647908789 	 6.69
122.0964253583 	 23.53
123.0804409431 	 25.04
127.0753555652 	 2.68
136.0756899162 	 8.06
137.0835149483 	 3.17
138.0913399804 	 88.34
140.1069900446 	 3.55
141.0910056294 	 4.04
151.0753555652 	 21.09
154.0862546025 	 3.46
156.1019046667 	 5.7
169.0859202515 	 7.59
232.1332047951 	 3.32
276.1594195456 	 7.39
306.1699842319 	 4.74
322.164898854 	 20.94
324.1805489182 	 60.82
352.1754635403 	 327.89
END IONS

BEGIN IONS
PEPMASS=686.4699
CHARGE=1
MSLEVEL=2
RT=0
SOURCE_INSTRUMENT=qTOF
FILENAME=CCMSLIB00000086129.ms
IONMODE=Positive
ORGANISM=Natural
NAME=MLS002222329-01!26305-03-3
PI=GNPS
DATACOLLECTOR=GNPS
SMILES=CC(C)C[C@@H]([C@H](CC(=N[C@@H](C)C(=N[C@@H](CC(C)C)[C@H](CC(=O)O)O)O)O)O)N=C([C@H](C(C)C)N=C([C@H](C(C)C)N=C(CC(C)C)O)O)O
INCHI=InChI=1S/C34H63N5O9/c1-17(2)12-23(37-33(47)31(21(9)10)39-34(48)30(20(7)8)38-27(42)14-19(5)6)25(40)15-28(43)35-22(11)32(46)36-24(13-18(3)4)26(41)16-29(44)45/h17-26,30-31,40-41H,12-16H2,1-11H3,(H,35,43)(H,36,46)(H,37,47)(H,38,42)(H,39,48)(H,44,45)/t22-,23-,24-,25-,26-,30-,31-/m0/s1
FORMULA=C34H63N5O9
PUBMED=N/A
SUBMITUSER=BIOADREM
LIBRARYQUALITY=0
SPECTRUMID=CCMSLIB00000086129
SCANS=4039
ID=CCMSLIB00000086129
123.0804409431 	 3.93540003712642
140.1069900446 	 54.6438957985273
154.1464495561 	 0.365076418538457
156.138290173 	 33.7169729595941
158.1175547309 	 18.6807747045356
166.1226401088 	 17.5669822411979
176.1281194172 	 52.3915599282223
183.1491892103 	 8.03168120784605
184.1332047951 	 45.8078089227152
186.112469353 	 33.7045974877792
194.1175547309 	 10.4572736835592
194.1539402372 	 3.40325474908731
201.1597538966 	 8.05024441556835
207.1729986576 	 0.538333023946538
211.1441038324 	 39.3044984840047
212.1281194172 	 8.52670008044057
222.1488548593 	 6.81269723408205
229.1546685187 	 61.8773590743147
239.1754039608 	 22.5790483262174
240.1594195456 	 5.80409628117072
247.165233205 	 26.0441804343791
255.2067040892 	 1.16948208650455
257.1859686471 	 25.4996596745251
282.2176031265 	 8.57001423179259
283.2016187113 	 15.0671369345956
300.2281678128 	 12.9942454056061
301.2121833976 	 0.575459439391127
310.2125177486 	 8.26062743642101
324.2645533191 	 0.513582080316812
326.243817877 	 0.433141513520203
328.2230824349 	 2.3389641730091
342.2751180054 	 0.606398118928284
344.2543825633 	 0.525957552131675
350.243817877 	 3.27950003093868
351.2278334618 	 12.103211434936
368.2543825633 	 21.2363096343048
380.2907680696 	 1.83775756450715
382.3064181338 	 0.358888682631025
386.2649472496 	 6.23723779469092
387.2489628344 	 4.98731514138977
396.2492971854 	 10.1788255677248
396.2560000055 	 0.538333023946538
396.322068198 	 1.46649341006126
398.3013327559 	 61.8773590743147
399.3046272198 	 14.355547305241
404.2755119359 	 1.54074624095044
414.2598618717 	 8.58857743951488
414.2665646918 	 3.90446135758926
415.2676869038 	 0.624961326650579
432.2771293781 	 2.43178021162057
433.2782515901 	 0.365076418538457
439.3278818574 	 2.85873398923334
440.3118974422 	 5.33382835220593
441.3264252944 	 0.426953777612771
458.3224621285 	 1.63356227956191
459.3244139217 	 0.736340572984345
463.34901123 	 0.433141513520203
465.3435319216 	 4.11484437844193
467.3227964795 	 6.30530288967267
483.3540966079 	 2.53078398613947
484.3560484011 	 0.606398118928284
485.3333611658 	 25.0046408019306
493.3384465437 	 2.49365757069488
503.3439258521 	 3.07530474599344
511.34901123 	 0.674463213910031
513.3282757879 	 0.383639626260751
529.3595759163 	 3.32900191819813
530.3615277095 	 0.723965101169482
606.4588960304 	 1.82538209269228
607.4667210625 	 0.792030196151228
608.4381605883 	 1.05191510426335
609.4459856204 	 0.563083967576264
624.4694607167 	 8.44007177773653
625.4772857488 	 2.32658870119423
626.4487252746 	 4.67174061011076
627.4565503067 	 1.62737454365448
650.4487252746 	 4.60986325103645
668.4592899609 	 30.2332776437102
670.4511305778 	 0.476455664872223
686.4698546472 	 100
END IONS

BEGIN IONS
PEPMASS=346.1001
CHARGE=1
MSLEVEL=2
RT=0
SOURCE_INSTRUMENT=qTOF
FILENAME=CCMSLIB00000086131.ms
IONMODE=Positive
ORGANISM=Natural
NAME=MLS000028574-01!CLOPAMIDE
PI=GNPS
DATACOLLECTOR=GNPS
SMILES=C[C@H]1CCC[C@@H](C)N1N=C(c1ccc(c(c1)S(=O)(=O)N)Cl)O
INCHI=InChI=1S/C14H20ClN3O3S/c1-9-4-3-5-10(2)18(9)17-14(19)11-6-7-12(15)13(8-11)22(16,20)21/h6-10H,3-5H2,1-2H3,(H,17,19)(H2,16,20,21)/t9-,10+
FORMULA=C14H20ClN3O3S
PUBMED=N/A
SUBMITUSER=BIOADREM
LIBRARYQUALITY=0
SPECTRUMID=CCMSLIB00000086131
SCANS=4041
ID=CCMSLIB00000086131
99.0011447646 	 12.08
105.0447241388 	 2.43
109.9917787742 	 3.69
110.9996038063 	 1.81
111.9977364084 	 1.92
114.0105028436 	 4.56
117.0573001978 	 1.47
118.0525491709 	 1.62
123.9948527794 	 9.81
126.0105028436 	 10.73
133.0396387609 	 1.53
134.047463793 	 1.67
137.9866933963 	 13.59
138.9945184284 	 5.61
141.0214018809 	 10.55
142.9894330505 	 3.24
151.0057518167 	 1.88
151.9897674015 	 16.43
152.9975924336 	 2.67
153.9871717221 	 4.29
154.0054174657 	 1.43
154.9909740088 	 1.79
169.016316503 	 66.34
169.9765226405 	 16.88
170.0184718505 	 3.1
171.0137208236 	 17.48
171.9744141505 	 3.42
174.9615037405 	 16.18
181.9906396578 	 3.63
191.988052842 	 5.2
195.0319665672 	 2.03
216.9833018151 	 8.26
217.9673173999 	 38.17
219.9618380915 	 8.71
232.9782164372 	 11.41
233.9860414693 	 1.64
234.9812904424 	 3.1
250.0047655387 	 100
251.0040372572 	 6.22
251.9992862303 	 27.9
276.0204156029 	 7.44
278.0149362945 	 2.97
346.0986659239 	 21.74
END IONS

BEGIN IONS
PEPMASS=341.1077
CHARGE=1
MSLEVEL=2
RT=0
SOURCE_INSTRUMENT=qTOF
FILENAME=CCMSLIB00000086132.ms
IONMODE=Positive
ORGANISM=Natural
NAME=MLS000859986-01!N-(6-Aminohexyl)-5-chloro-1-naphthalenesulfonamide hydrochloride
PI=GNPS
DATACOLLECTOR=GNPS
SMILES=C(CCCNS(=O)(=O)c1cccc2c1cccc2Cl)CCN
INCHI=InChI=1S/C16H21ClN2O2S/c17-15-9-5-8-14-13(15)7-6-10-16(14)22(20,21)19-12-4-2-1-3-11-18/h5-10,19H,1-4,11-12,18H2
FORMULA=C16H21ClN2O2S
PUBMED=N/A
SUBMITUSER=BIOADREM
LIBRARYQUALITY=0
SPECTRUMID=CCMSLIB00000086132
SCANS=4042
ID=CCMSLIB00000086132
101.0385761284 	 4.17
102.0464011605 	 24.56
125.0385761284 	 1.5
126.0464011605 	 29.63
129.0334907505 	 5.35
130.0413157826 	 1
137.0152538705 	 28.65
143.0491408147 	 2.76
144.0569658468 	 3.3
149.0152538705 	 13.66
158.0184718505 	 0.67
161.0152538705 	 53.1
165.0101684926 	 5.01
174.0133864726 	 4.68
177.0101684926 	 28.74
179.0258185568 	 29.11
189.0242855099 	 100
192.0210675299 	 2.96
192.9873245605 	 3.29
206.9665891184 	 0.47
208.9822391826 	 2.68
224.9771538047 	 26.28
254.0037029062 	 8.07
341.1085023287 	 5.79
END IONS

BEGIN IONS
PEPMASS=284.1285
CHARGE=1
MSLEVEL=2
RT=0
SOURCE_INSTRUMENT=qTOF
FILENAME=CCMSLIB00000086133.ms
IONMODE=Positive
ORGANISM=Natural
NAME=MLS000860019-01!R()-2,10,11-Trihydroxyaporphine hydrobromide
PI=GNPS
DATACOLLECTOR=GNPS
SMILES=CN1CCc2cc(cc3c2[C@H]1Cc1ccc(c(c31)O)O)O
INCHI=InChI=1S/C17H17NO3/c1-18-5-4-10-6-11(19)8-12-15(10)13(18)7-9-2-3-14(20)17(21)16(9)12/h2-3,6,8,13,19-21H,4-5,7H2,1H3/t13-/m1/s1
FORMULA=C17H17NO3
PUBMED=N/A
SUBMITUSER=BIOADREM
LIBRARYQUALITY=0
SPECTRUMID=CCMSLIB00000086133
SCANS=4043
ID=CCMSLIB00000086133
141.0698762568 	 0.83
151.0542261926 	 0.9
152.0620512247 	 1.97
153.0698762568 	 1.22
165.0698762568 	 3.66
167.085526321 	 0.64
176.0620512247 	 1.72
177.0698762568 	 1.91
178.0777012889 	 29.21
179.085526321 	 50.7
181.0647908789 	 1.38
189.0698762568 	 46.88
192.0569658468 	 1.01
195.0804409431 	 5.06
205.0647908789 	 3.23
206.072615911 	 10.57
207.0804409431 	 100
217.0647908789 	 8.01
223.0753555652 	 1.93
235.0753555652 	 36.97
253.0859202515 	 15.06
284.1281194172 	 0.27
END IONS

BEGIN IONS
PEPMASS=192.1379
CHARGE=1
MSLEVEL=2
RT=0
SOURCE_INSTRUMENT=qTOF
FILENAME=CCMSLIB00000086136.ms
IONMODE=Positive
ORGANISM=Natural
NAME=MLS001333179-01!N,N-Diethyl-3-methylbenzamide134-62-3
PI=GNPS
DATACOLLECTOR=GNPS
SMILES=CCN(CC)C(=O)c1cccc(C)c1
INCHI=InChI=1S/C12H17NO/c1-4-13(5-2)12(14)11-8-6-7-10(3)9-11/h6-9H,4-5H2,1-3H3
FORMULA=C12H17NO
PUBMED=N/A
SUBMITUSER=BIOADREM
LIBRARYQUALITY=0
SPECTRUMID=CCMSLIB00000086136
SCANS=4046
ID=CCMSLIB00000086136
91.0542261926 	 84.93
100.0756899162 	 1.46
118.0651252299 	 16.4
119.0491408147 	 100
149.0835149483 	 0.96
192.138290173 	 2.59
END IONS

BEGIN IONS
PEPMASS=384.1425
CHARGE=1
MSLEVEL=2
RT=0
SOURCE_INSTRUMENT=qTOF
FILENAME=CCMSLIB00000086140.ms
IONMODE=Positive
ORGANISM=Natural
NAME=MLS002153888-01!Hydrastine hydrochloride5936-28-7
PI=GNPS
DATACOLLECTOR=GNPS
SMILES=CN1CCc2cc3c(cc2[C@@H]1[C@@H]1c2ccc(c(c2C(=O)O1)OC)OC)OCO3
INCHI=InChI=1S/C21H21NO6/c1-22-7-6-11-8-15-16(27-10-26-15)9-13(11)18(22)19-12-4-5-14(24-2)20(25-3)17(12)21(23)28-19/h4-5,8-9,18-19H,6-7,10H2,1-3H3/t18-,19+/m1/s1
FORMULA=C21H21NO6
PUBMED=N/A
SUBMITUSER=BIOADREM
LIBRARYQUALITY=0
SPECTRUMID=CCMSLIB00000086140
SCANS=4049
ID=CCMSLIB00000086140
149.059705501 	 5.44
176.0706045383 	 15.42
178.0777012889 	 4.38
190.0862546025 	 90.83
193.0495347452 	 8.49
194.072615911 	 8.08
204.0569658468 	 5.95
205.0647908789 	 4.97
206.072615911 	 4.46
221.059705501 	 7.79
222.0675305331 	 16.82
232.0518804689 	 10.32
233.059705501 	 5.62
234.0675305331 	 9.13
235.0753555652 	 10.69
236.0831805973 	 5.78
237.0910056294 	 6.73
247.0753555652 	 5.11
249.0546201231 	 18.78
250.0624451552 	 31.26
251.0702701873 	 23.4
252.0780952194 	 6.19
260.046795091 	 7.36
262.0624451552 	 8.29
263.0702701873 	 10.52
264.0780952194 	 4.66
265.0495347452 	 14.64
265.0859202515 	 53.29
267.0651848094 	 4.24
274.0624451552 	 7.11
275.0702701873 	 6.15
277.0495347452 	 15.32
277.0859202515 	 4.04
278.0573597773 	 18.73
279.0651848094 	 21.51
280.0730098415 	 19.65
281.0808348736 	 5.58
282.0886599057 	 6.96
291.0651848094 	 10.18
292.0730098415 	 21.28
293.0808348736 	 87.27
294.0886599057 	 19.32
295.0964849378 	 26.24
302.0573597773 	 6.87
304.0730098415 	 6.69
305.0808348736 	 8.11
307.0600994315 	 7.5
308.0679244636 	 14.6
320.0679244636 	 10.43
322.0835745278 	 5.17
323.0913995599 	 100
335.0913995599 	 9.64
384.1441634119 	 3.42
END IONS

BEGIN IONS
PEPMASS=344.095
CHARGE=1
MSLEVEL=2
RT=0
SOURCE_INSTRUMENT=qTOF
FILENAME=CCMSLIB00000086141.ms
IONMODE=Positive
ORGANISM=Natural
NAME=MLS002153965-01!Bromopride4093-35-0
PI=GNPS
DATACOLLECTOR=GNPS
SMILES=CCN(CC)CCN=C(c1cc(c(cc1OC)N)Br)O
INCHI=InChI=1S/C14H22BrN3O2/c1-4-18(5-2)7-6-17-14(19)10-8-11(15)12(16)9-13(10)20-3/h8-9H,4-7,16H2,1-3H3,(H,17,19)
FORMULA=C14H22BrN3O2
PUBMED=N/A
SUBMITUSER=BIOADREM
LIBRARYQUALITY=0
SPECTRUMID=CCMSLIB00000086141
SCANS=4050
ID=CCMSLIB00000086141
93.0573001978 	 1.52
119.060374203 	 0.82
120.0443897878 	 0.74
121.0522148199 	 4.11
147.0552888251 	 0.47
148.0631138572 	 9.87
156.9521627015 	 1.24
169.9599877336 	 6.24
183.9630617388 	 0.62
184.9470773236 	 12.74
197.9549023557 	 2.06
199.9705524199 	 5.96
211.9579763609 	 16.54
212.9419919457 	 8.36
226.9814514572 	 24.99
227.965467042 	 100
255.9841911114 	 28.61
271.0076662077 	 74.81
344.096815566 	 0.43
END IONS

BEGIN IONS
PEPMASS=401.2078
CHARGE=1
MSLEVEL=2
RT=0
SOURCE_INSTRUMENT=qTOF
FILENAME=CCMSLIB00000086142.ms
IONMODE=Positive
ORGANISM=Natural
NAME=MLS002154083-01!Reserpinic acid hydrochloride83-60-3
PI=GNPS
DATACOLLECTOR=GNPS
SMILES=COc1ccc2c3CCN4C[C@H]5C[C@H]([C@@H]([C@H]([C@H]5C[C@@H]4c3[nH]c2c1)C(=O)O)OC)O
INCHI=InChI=1S/C22H28N2O5/c1-28-12-3-4-13-14-5-6-24-10-11-7-18(25)21(29-2)19(22(26)27)15(11)9-17(24)20(14)23-16(13)8-12/h3-4,8,11,15,17-19,21,23,25H,5-7,9-10H2,1-2H3,(H,26,27)/t11-,15+,17-,18-,19+,21+/m1/s1
FORMULA=C22H28N2O5
PUBMED=N/A
SUBMITUSER=BIOADREM
LIBRARYQUALITY=0
SPECTRUMID=CCMSLIB00000086142
SCANS=4051
ID=CCMSLIB00000086142
115.0542261926 	 1.78
130.0651252299 	 2.8
131.072950262 	 5.53
132.0780952194 	 1.26
143.072950262 	 4.32
144.0807752941 	 1.26
147.0804409431 	 1.8
148.0756899162 	 1.73
159.0678648841 	 12.02
160.0730098415 	 3.01
161.0835149483 	 1.79
162.0913399804 	 3.31
164.1069900446 	 1.5
173.0835149483 	 3.24
174.0913399804 	 100
175.0964849378 	 11.07
176.1069900446 	 1.21
178.0862546025 	 3.22
182.0811692246 	 1.23
194.0811692246 	 2.27
196.0968192888 	 3.42
199.0991650125 	 1.16
208.0968192888 	 2.75
222.112469353 	 1.96
224.1069900446 	 1.39
225.1148150767 	 1.29
236.1069900446 	 1.69
240.1230340393 	 27.54
250.1226401088 	 1.75
251.1304651409 	 2.05
276.138290173 	 1.41
322.1437694814 	 2.17
340.1543341677 	 1.79
351.1703185829 	 1.22
352.1543341677 	 1.96
354.1699842319 	 1.97
369.1808832692 	 2
370.164898854 	 1.31
372.1805489182 	 3.04
383.1965333334 	 1.92
384.1805489182 	 2.71
401.2070980197 	 23.07
END IONS

BEGIN IONS
PEPMASS=325.24
CHARGE=1
MSLEVEL=2
RT=0
SOURCE_INSTRUMENT=qTOF
FILENAME=CCMSLIB00000086144.ms
IONMODE=Positive
ORGANISM=Natural
NAME=MLS002172460-01!MG 62477257-42-2
PI=GNPS
DATACOLLECTOR=GNPS
SMILES=CC[N+](CC)(CC)CCOc1ccc(/C=C/c2ccccc2)cc1
INCHI=InChI=1S/C22H30NO/c1-4-23(5-2,6-3)18-19-24-22-16-14-21(15-17-22)13-12-20-10-8-7-9-11-20/h7-17H,4-6,18-19H2,1-3H3/q+1/b13-12+
FORMULA=C22H30NO
PUBMED=N/A
SUBMITUSER=BIOADREM
LIBRARYQUALITY=0
SPECTRUMID=CCMSLIB00000086144
SCANS=4052
ID=CCMSLIB00000086144
86.0964253583 	 4.2
91.0542261926 	 3.16
100.1120754225 	 36.47
102.1277254867 	 10.84
103.0542261926 	 2.89
115.0542261926 	 7.25
117.0698762568 	 6.69
127.0542261926 	 1.69
128.0620512247 	 2.93
128.1433755509 	 1.14
129.0698762568 	 2.6
131.0491408147 	 2.24
141.0698762568 	 3.01
145.0647908789 	 8.81
151.0542261926 	 2.98
152.0620512247 	 34.92
155.085526321 	 1.26
165.0698762568 	 44.68
166.0777012889 	 18.53
167.085526321 	 82.42
176.0620512247 	 2.29
177.0698762568 	 5.38
178.0777012889 	 82.57
179.085526321 	 39.18
180.0933513531 	 10.64
189.0698762568 	 1.07
190.0777012889 	 2.7
194.072615911 	 3.22
195.0804409431 	 52.02
205.1011763852 	 1.75
208.0882659752 	 2.73
223.1117410715 	 19.02
294.1852403656 	 2.13
296.2008904298 	 1.8
324.2321905582 	 100
325.2400155903 	 0
END IONS

BEGIN IONS
PEPMASS=263.0577
CHARGE=1
MSLEVEL=2
RT=0
SOURCE_INSTRUMENT=qTOF
FILENAME=CCMSLIB00000086146.ms
IONMODE=Positive
ORGANISM=Natural
NAME=MLS002177899-01!Clonixin Lysinate55837-30-4
PI=GNPS
DATACOLLECTOR=GNPS
SMILES=Cc1c(cccc1Nc1c(cccn1)C(=O)[O-])Cl
INCHI=InChI=1S/C13H11ClN2O2/c1-8-10(14)5-2-6-11(8)16-12-9(13(17)18)4-3-7-15-12/h2-7H,1H3,(H,15,16)(H,17,18)/p-1
FORMULA=C13H11ClN2O2
PUBMED=N/A
SUBMITUSER=BIOADREM
LIBRARYQUALITY=0
SPECTRUMID=CCMSLIB00000086146
SCANS=4054
ID=CCMSLIB00000086146
89.0385761284 	 0.72
98.9996038063 	 2.45
106.0651252299 	 1.01
125.0152538705 	 13.93
141.0339779399 	 0.92
153.0573001978 	 0.49
154.0651252299 	 4.41
156.0681992351 	 0.4
167.060374203 	 1.76
179.060374203 	 1.24
180.0681992351 	 3.04
181.0760242672 	 48.68
182.0838492993 	 20.16
183.0552888251 	 0.77
184.0631138572 	 1.25
192.0681992351 	 2.31
195.0552888251 	 0.98
197.0709388893 	 0.75
202.029226913 	 9.1
209.0709388893 	 42.9
210.0787639214 	 100
212.0580284793 	 0.43
227.0815035756 	 0.78
230.0241415351 	 36.07
245.0476166314 	 66.81
263.0581813177 	 2.73
END IONS

BEGIN IONS
PEPMASS=577.2518
CHARGE=1
MSLEVEL=2
RT=0
SOURCE_INSTRUMENT=qTOF
FILENAME=CCMSLIB00000086147.ms
IONMODE=Positive
ORGANISM=Natural
NAME=MLS001056802-01!Adenosine amine congener
PI=GNPS
DATACOLLECTOR=GNPS
SMILES=c1cc(cc(c1)N=C(Cc1ccc(cc1)Nc1c2c(ncn1)n(cn2)[C@H]1[C@@H]([C@@H]([C@@H](CO)O1)O)O)O)CC(=NCCN)O
INCHI=InChI=1S/C28H32N8O6/c29-8-9-30-21(38)12-17-2-1-3-19(10-17)34-22(39)11-16-4-6-18(7-5-16)35-26-23-27(32-14-31-26)36(15-33-23)28-25(41)24(40)20(13-37)42-28/h1-7,10,14-15,20,24-25,28,37,40-41H,8-9,11-13,29H2,(H,30,38)(H,34,39)(H,31,32,35)/t20-,24-,25-,28-/m1/s1
FORMULA=C28H32N8O6
PUBMED=N/A
SUBMITUSER=BIOADREM
LIBRARYQUALITY=0
SPECTRUMID=CCMSLIB00000086147
SCANS=4055
ID=CCMSLIB00000086147
106.0651252299 	 58.46
137.0709388893 	 11.38
176.1182234329 	 14.15
177.1022390177 	 100
194.1287881192 	 11.69
224.0944139856 	 89.85
252.0893286077 	 58.46
384.1553968002 	 11.38
428.1816115507 	 79.38
577.2517568014 	 0
END IONS

BEGIN IONS
PEPMASS=301.1666
CHARGE=1
MSLEVEL=2
RT=0
SOURCE_INSTRUMENT=qTOF
FILENAME=CCMSLIB00000086152.ms
IONMODE=Positive
ORGANISM=Natural
NAME=MLS002154093-01!Azapropazone13539-59-8
PI=GNPS
DATACOLLECTOR=GNPS
SMILES=CCCC1C(=O)n2c3cc(C)ccc3nc(N(C)C)n2C1=O
INCHI=InChI=1S/C16H20N4O2/c1-5-6-11-14(21)19-13-9-10(2)7-8-12(13)17-16(18(3)4)20(19)15(11)22/h7-9,11H,5-6H2,1-4H3
FORMULA=C16H20N4O2
PUBMED=N/A
SUBMITUSER=BIOADREM
LIBRARYQUALITY=0
SPECTRUMID=CCMSLIB00000086152
SCANS=4058
ID=CCMSLIB00000086152
89.0385761284 	 0.52
94.0651252299 	 0.49
104.0494751657 	 0.49
106.0651252299 	 1.07
116.0494751657 	 1.59
117.0573001978 	 0.85
118.0651252299 	 1.5
120.0443897878 	 1.49
121.0760242672 	 1.39
131.060374203 	 1.32
132.0681992351 	 2.28
133.0760242672 	 6.89
134.047463793 	 0.76
144.0556231761 	 1.53
145.0760242672 	 23.16
146.0838492993 	 24.02
147.0552888251 	 5.18
148.0869233045 	 0.97
149.0709388893 	 3
158.0712732403 	 0.61
160.0869233045 	 8.42
161.0709388893 	 1.18
161.0960910073 	 2.44
175.0978223418 	 17.54
187.0978223418 	 1.57
189.113472406 	 100
190.1212974381 	 25.96
203.1178890819 	 1.33
217.1083870281 	 0.64
231.112803704 	 0.61
301.165901907 	 0.92
END IONS

BEGIN IONS
PEPMASS=421.2296
CHARGE=1
MSLEVEL=2
RT=0
SOURCE_INSTRUMENT=qTOF
FILENAME=CCMSLIB00000086153.ms
IONMODE=Positive
ORGANISM=Natural
NAME=MLS002154116-01!Levocabastine hydrochloride79547-78-7
PI=GNPS
DATACOLLECTOR=GNPS
SMILES=C[C@@H]1CN(CC[C@@]1(c1ccccc1)C(=O)O)[C@@H]1CC[C@@](CC1)(C#N)c1ccc(cc1)F
INCHI=InChI=1S/C26H29FN2O2/c1-19-17-29(16-15-26(19,24(30)31)21-5-3-2-4-6-21)23-11-13-25(18-28,14-12-23)20-7-9-22(27)10-8-20/h2-10,19,23H,11-17H2,1H3,(H,30,31)/t19-,23-,25-,26-/m1/s1
FORMULA=C26H29FN2O2
PUBMED=N/A
SUBMITUSER=BIOADREM
LIBRARYQUALITY=0
SPECTRUMID=CCMSLIB00000086153
SCANS=4059
ID=CCMSLIB00000086153
91.0542261926 	 1.5
105.0698762568 	 3.7
106.0651252299 	 1.17
107.0291542963 	 0.89
109.0448043605 	 39.68
115.0542261926 	 1.51
117.0698762568 	 7.7
121.0448043605 	 1.32
128.0620512247 	 1.09
129.0698762568 	 1.5
131.085526321 	 2.19
132.0807752941 	 3.16
133.0448043605 	 12.17
134.0400533336 	 22.17
135.0604544247 	 4.51
140.0494751657 	 1.22
143.085526321 	 1.85
144.0807752941 	 1.31
145.1011763852 	 11.23
146.0526293926 	 0.97
147.0604544247 	 10.37
155.085526321 	 1.08
159.0604544247 	 3.02
160.0557033978 	 14.66
161.0761044889 	 3.8
170.0526293926 	 0.87
174.1277254867 	 100
175.0917545531 	 9.15
187.0791784941 	 1.65
202.1026535904 	 3.13
220.1332047951 	 29.04
271.1605028203 	 3.54
375.2231030771 	 5.05
376.2271051803 	 1.47
421.2285823855 	 166.89
END IONS

BEGIN IONS
PEPMASS=319.287
CHARGE=1
MSLEVEL=2
RT=0
SOURCE_INSTRUMENT=qTOF
FILENAME=CCMSLIB00000086154.ms
IONMODE=Positive
ORGANISM=Natural
NAME=MLS002154119-01!Tridihexethyl chloride4310-35-4
PI=GNPS
DATACOLLECTOR=GNPS
SMILES=CC[N+](CC)(CC)CCC(c1ccccc1)(C1CCCCC1)O
INCHI=InChI=1S/C21H36NO/c1-4-22(5-2,6-3)18-17-21(23,19-13-9-7-10-14-19)20-15-11-8-12-16-20/h7,9-10,13-14,20,23H,4-6,8,11-12,15-18H2,1-3H3/q+1
FORMULA=C21H36NO
PUBMED=N/A
SUBMITUSER=BIOADREM
LIBRARYQUALITY=0
SPECTRUMID=CCMSLIB00000086154
SCANS=4060
ID=CCMSLIB00000086154
91.0542261926 	 15.89
93.0698762568 	 0.77
95.085526321 	 0.96
97.0647908789 	 0.28
100.1120754225 	 0.79
103.0542261926 	 4.29
105.0698762568 	 18.89
107.0491408147 	 54.39
111.0804409431 	 0.6
115.0542261926 	 5.13
117.0698762568 	 19.92
119.085526321 	 0.33
121.0647908789 	 3.3
127.0542261926 	 0.52
128.0620512247 	 6.87
129.0698762568 	 30.41
131.085526321 	 7.96
133.0647908789 	 0.39
135.0804409431 	 2.73
142.0777012889 	 1.21
143.085526321 	 9.34
145.1011763852 	 0.74
149.0960910073 	 0.29
157.1011763852 	 2.49
171.1168264494 	 21.29
189.1273911357 	 47.95
206.1539402372 	 0.29
318.2791407508 	 100
319.2869657829 	 0
END IONS

BEGIN IONS
PEPMASS=279.1982
CHARGE=1
MSLEVEL=2
RT=0
SOURCE_INSTRUMENT=qTOF
FILENAME=CCMSLIB00000086155.ms
IONMODE=Positive
ORGANISM=Natural
NAME=MLS002154192-01!Diphemanil methylsulfate62-97-5
PI=GNPS
DATACOLLECTOR=GNPS
SMILES=C[N+]1(C)CCC(=C(c2ccccc2)c2ccccc2)CC1
INCHI=InChI=1S/C20H24N/c1-21(2)15-13-19(14-16-21)20(17-9-5-3-6-10-17)18-11-7-4-8-12-18/h3-12H,13-16H2,1-2H3/q+1
FORMULA=C20H24N
PUBMED=N/A
SUBMITUSER=BIOADREM
LIBRARYQUALITY=0
SPECTRUMID=CCMSLIB00000086155
SCANS=4061
ID=CCMSLIB00000086155
91.0542261926 	 2.92
94.0651252299 	 0.58
103.0542261926 	 1.25
105.0698762568 	 1.16
115.0542261926 	 5.48
117.0698762568 	 2.28
127.0542261926 	 0.53
128.0620512247 	 4.41
129.0698762568 	 8.61
131.085526321 	 0.8
141.0698762568 	 1.87
152.0620512247 	 1.09
153.0698762568 	 2.62
154.0777012889 	 1.38
155.085526321 	 3.95
158.0964253583 	 1.99
165.0698762568 	 1.98
167.085526321 	 2.97
172.1120754225 	 1.2
178.0777012889 	 2.42
179.085526321 	 1.64
180.0933513531 	 1.32
184.1120754225 	 0.88
189.0698762568 	 0.38
190.0777012889 	 1.48
191.085526321 	 6.3
193.1011763852 	 1.5
203.085526321 	 5.47
204.0933513531 	 4.01
205.1011763852 	 6.41
206.1090014173 	 1.6
217.1011763852 	 1.6
219.1168264494 	 1.6
234.1277254867 	 1.41
248.1433755509 	 1
249.151200583 	 1.32
262.1590256151 	 5.38
278.1903257435 	 100
279.1981507756 	 0
END IONS

BEGIN IONS
PEPMASS=307.2371
CHARGE=1
MSLEVEL=2
RT=0
SOURCE_INSTRUMENT=qTOF
FILENAME=CCMSLIB00000086158.ms
IONMODE=Positive
ORGANISM=Natural
NAME=MLS000028619-01!BUTACAINE149-16-6
PI=GNPS
DATACOLLECTOR=GNPS
SMILES=CCCCN(CCCC)CCCOC(=O)c1ccc(cc1)N
INCHI=InChI=1S/C18H30N2O2/c1-3-5-12-20(13-6-4-2)14-7-15-22-18(21)16-8-10-17(19)11-9-16/h8-11H,3-7,12-15,19H2,1-2H3
FORMULA=C18H30N2O2
PUBMED=N/A
SUBMITUSER=BIOADREM
LIBRARYQUALITY=0
SPECTRUMID=CCMSLIB00000086158
SCANS=4064
ID=CCMSLIB00000086158
92.0494751657 	 4.18
100.1120754225 	 12.31
114.1277254867 	 1.1
120.0443897878 	 100
128.1433755509 	 2.39
129.151200583 	 0.25
137.047129442 	 1.4
138.0549544741 	 0.41
142.1590256151 	 14.8
160.0756899162 	 0.32
170.1903257435 	 7.26
178.0862546025 	 18.79
188.2008904298 	 6.49
307.2380042176 	 0.75
END IONS

BEGIN IONS
PEPMASS=338.2099
CHARGE=1
MSLEVEL=2
RT=0
SOURCE_INSTRUMENT=qTOF
FILENAME=CCMSLIB00000086159.ms
IONMODE=Positive
ORGANISM=Natural
NAME=MLS000859898-01!
PI=GNPS
DATACOLLECTOR=GNPS
SMILES=C#C[C@@]1(CCC2C3CCC4=Cc5c(CC4(C)C3CCC12C)cno5)O
INCHI=InChI=1S/C22H27NO2/c1-4-22(24)10-8-18-16-6-5-15-11-19-14(13-23-25-19)12-20(15,2)17(16)7-9-21(18,22)3/h1,11,13,16-18,24H,5-10,12H2,2-3H3/t16?,17?,18?,20?,21?,22-/m0/s1
FORMULA=C22H27NO2
PUBMED=N/A
SUBMITUSER=BIOADREM
LIBRARYQUALITY=0
SPECTRUMID=CCMSLIB00000086159
SCANS=4065
ID=CCMSLIB00000086159
91.0542261926 	 22.41
93.0698762568 	 13.77
103.0542261926 	 13.96
105.0698762568 	 39.79
107.085526321 	 23.34
115.0542261926 	 35.99
117.0698762568 	 43.85
119.085526321 	 36.38
120.0443897878 	 21.34
120.0807752941 	 100
121.0647908789 	 65.72
122.060039852 	 14.6
128.0620512247 	 36.43
129.0698762568 	 46.24
131.085526321 	 44.63
141.0698762568 	 36.87
142.0777012889 	 31.15
147.0804409431 	 20.36
148.0756899162 	 96.53
153.0698762568 	 16.36
154.0777012889 	 21.04
155.085526321 	 50.24
157.1011763852 	 37.21
165.0698762568 	 25.59
166.0777012889 	 19.48
167.085526321 	 21.44
169.1011763852 	 41.6
179.085526321 	 27.1
181.1011763852 	 32.42
183.1168264494 	 22.8
204.0933513531 	 14.79
205.1011763852 	 22.41
207.1168264494 	 13.23
219.1168264494 	 14.75
235.1481265778 	 15.58
295.1930653977 	 14.4
310.216540494 	 45.36
338.2114551161 	 54.79
END IONS

BEGIN IONS
PEPMASS=243.0764
CHARGE=1
MSLEVEL=2
RT=0
SOURCE_INSTRUMENT=qTOF
FILENAME=CCMSLIB00000086160.ms
IONMODE=Positive
ORGANISM=Natural
NAME=MLS001174930-01!2-(4-Hydroxyphenylazo)benzoic acid
PI=GNPS
DATACOLLECTOR=GNPS
SMILES=c1ccc(c(c1)C(=O)O)N=Nc1ccc(cc1)O
INCHI=InChI=1S/C13H10N2O3/c16-10-7-5-9(6-8-10)14-15-12-4-2-1-3-11(12)13(17)18/h1-8,16H,(H,17,18)
FORMULA=C13H10N2O3
PUBMED=N/A
SUBMITUSER=BIOADREM
LIBRARYQUALITY=0
SPECTRUMID=CCMSLIB00000086160
SCANS=4066
ID=CCMSLIB00000086160
93.0334907505 	 3.02
115.0542261926 	 100
121.0284053726 	 31.72
126.0464011605 	 1.12
140.0620512247 	 6.17
141.0698762568 	 72.87
150.0464011605 	 1.44
151.0542261926 	 7.93
168.0569658468 	 24.18
169.0647908789 	 9.36
179.0576941283 	 2.3
243.0764181977 	 0
END IONS

BEGIN IONS
PEPMASS=343.2022
CHARGE=1
MSLEVEL=2
RT=0
SOURCE_INSTRUMENT=qTOF
FILENAME=CCMSLIB00000086161.ms
IONMODE=Positive
ORGANISM=Natural
NAME=MLS002153308-01!Tetraisopropyl pyrophosphoramide513-00-8
PI=GNPS
DATACOLLECTOR=GNPS
SMILES=CC(C)NP(=O)(NC(C)C)OP(=O)(NC(C)C)NC(C)C
INCHI=InChI=1S/C12H32N4O3P2/c1-9(2)13-20(17,14-10(3)4)19-21(18,15-11(5)6)16-12(7)8/h9-12H,1-8H3,(H2,13,14,17)(H2,15,16,18)
FORMULA=C12H32N4O3P2
PUBMED=N/A
SUBMITUSER=BIOADREM
LIBRARYQUALITY=0
SPECTRUMID=CCMSLIB00000086161
SCANS=4067
ID=CCMSLIB00000086161
97.0158293136 	 7.87
104.0256657184 	 2.65
119.0365647557 	 0.88
121.0522148199 	 92.94
137.047129442 	 6.13
139.0627795062 	 20.15
139.9770147646 	 1.1
157.9875794509 	 74.1
161.0835149483 	 1.68
163.0991650125 	 100
179.0940796346 	 11.01
181.1097296988 	 8.35
183.007980542 	 1.44
200.0345296435 	 30.66
225.0549307346 	 3.5
242.0814798361 	 13.06
343.2022399343 	 0
END IONS

BEGIN IONS
PEPMASS=395.1864
CHARGE=1
MSLEVEL=2
RT=0
SOURCE_INSTRUMENT=qTOF
FILENAME=CCMSLIB00000086163.ms
IONMODE=Positive
ORGANISM=Natural
NAME=MLS001066543-01!124-94-7
PI=GNPS
DATACOLLECTOR=GNPS
SMILES=C[C@]12C=CC(=O)C=C1CC[C@H]1[C@@H]3C[C@H]([C@](C(=O)CO)([C@@]3(C)C[C@@H]([C@]21F)O)O)O
INCHI=InChI=1S/C21H27FO6/c1-18-6-5-12(24)7-11(18)3-4-13-14-8-15(25)21(28,17(27)10-23)19(14,2)9-16(26)20(13,18)22/h5-7,13-16,23,25-26,28H,3-4,8-10H2,1-2H3/t13-,14-,15+,16-,18-,19-,20-,21-/m0/s1
FORMULA=C21H27FO6
PUBMED=N/A
SUBMITUSER=BIOADREM
LIBRARYQUALITY=0
SPECTRUMID=CCMSLIB00000086163
SCANS=4068
ID=CCMSLIB00000086163
109.0647908789 	 20.73
115.0553690468 	 23.32
121.0647908789 	 42.53
128.0620512247 	 15.4
131.085526321 	 20.58
133.0647908789 	 17.53
135.0804409431 	 25.61
141.071019111 	 14.79
143.085526321 	 33.54
145.0647908789 	 37.65
147.0804409431 	 100
158.072615911 	 13.72
159.0804409431 	 51.98
167.085526321 	 17.53
169.0659337331 	 21.8
171.0804409431 	 34.3
173.0960910073 	 25.76
179.085526321 	 20.73
182.072615911 	 15.85
195.1168264494 	 23.93
197.0960910073 	 38.72
197.1324765136 	 27.9
207.0804409431 	 19.36
207.1179693036 	 28.81
208.0882659752 	 25.3
210.1039160394 	 24.39
216.0933513531 	 15.4
221.0960910073 	 29.57
223.1117410715 	 32.47
225.1273911357 	 59.76
237.1273911357 	 59.6
246.1050588936 	 14.02
247.1117410715 	 14.02
249.1273911357 	 18.45
261.1285339899 	 31.86
263.1430411999 	 25.46
281.1536058862 	 13.72
395.1864427993 	 0
END IONS

BEGIN IONS
PEPMASS=194.083
CHARGE=1
MSLEVEL=2
RT=0
SOURCE_INSTRUMENT=qTOF
FILENAME=CCMSLIB00000086164.ms
IONMODE=Positive
ORGANISM=Natural
NAME=MLS000069643-01!BENZOYL-BETA-ALANINE
PI=GNPS
DATACOLLECTOR=GNPS
SMILES=c1ccc(cc1)C(=NCCC(=O)O)O
INCHI=InChI=1S/C10H11NO3/c12-9(13)6-7-11-10(14)8-4-2-1-3-5-8/h1-5H,6-7H2,(H,11,14)(H,12,13)
FORMULA=C10H11NO3
PUBMED=N/A
SUBMITUSER=BIOADREM
LIBRARYQUALITY=0
SPECTRUMID=CCMSLIB00000086164
SCANS=4069
ID=CCMSLIB00000086164
105.0334907505 	 100
128.0620512247 	 5.67
135.0678648841 	 8.75
149.0835149483 	 8.27
194.0811692246 	 0
END IONS

BEGIN IONS
PEPMASS=321.1697
CHARGE=1
MSLEVEL=2
RT=0
SOURCE_INSTRUMENT=qTOF
FILENAME=CCMSLIB00000086165.ms
IONMODE=Positive
ORGANISM=Natural
NAME=MLS001174880-01!2,4-DIHYDROXY-6-[10-HYDROXY-6-OXO-UNDECYL]BENZOIC ACID MICRO-LACTONE
PI=GNPS
DATACOLLECTOR=GNPS
SMILES=C[C@H]1CCCC(=O)CCCCCc2cc(cc(c2C(=O)O1)O)O
INCHI=InChI=1S/C18H24O5/c1-12-6-5-9-14(19)8-4-2-3-7-13-10-15(20)11-16(21)17(13)18(22)23-12/h10-12,20-21H,2-9H2,1H3/t12-/m0/s1
FORMULA=C18H24O5
PUBMED=N/A
SUBMITUSER=BIOADREM
LIBRARYQUALITY=0
SPECTRUMID=CCMSLIB00000086165
SCANS=4070
ID=CCMSLIB00000086165
107.0491408147 	 25.82
115.0542261926 	 17.75
116.0620512247 	 17.85
123.0440554368 	 92.67
128.0620512247 	 9.99
131.085526321 	 9.46
135.0440554368 	 18.38
135.0804409431 	 18.17
136.0518804689 	 9.03
141.0698762568 	 30.92
144.0569658468 	 9.67
145.0647908789 	 13.5
146.072615911 	 13.92
147.0440554368 	 28.59
148.0518804689 	 56
149.0233199947 	 8.71
149.059705501 	 33.05
151.0389700589 	 22.1
159.0804409431 	 11.16
161.059705501 	 48.67
163.0389700589 	 33.05
163.0753555652 	 100
164.046795091 	 20.3
169.0647908789 	 25.4
173.059705501 	 41.13
174.0675305331 	 31.14
177.0910056294 	 25.4
187.0753555652 	 74.39
189.0546201231 	 9.78
189.0910056294 	 26.25
197.059705501 	 15.62
207.1015703157 	 13.82
215.0702701873 	 12.22
303.1590851946 	 11.8
321.1696498809 	 0
END IONS

BEGIN IONS
PEPMASS=325.2268
CHARGE=1
MSLEVEL=2
RT=0
SOURCE_INSTRUMENT=qTOF
FILENAME=CCMSLIB00000086166.ms
IONMODE=Positive
ORGANISM=Natural
NAME=MLS002154073-01!Denatonium benzoate3734-33-6
PI=GNPS
DATACOLLECTOR=GNPS
SMILES=CC[N+](CC)(Cc1ccccc1)CC(=Nc1c(C)cccc1C)[O-]
INCHI=InChI=1S/C21H28N2O/c1-5-23(6-2,15-19-13-8-7-9-14-19)16-20(24)22-21-17(3)11-10-12-18(21)4/h7-14H,5-6,15-16H2,1-4H3
FORMULA=C21H28N2O
PUBMED=N/A
SUBMITUSER=BIOADREM
LIBRARYQUALITY=0
SPECTRUMID=CCMSLIB00000086166
SCANS=4071
ID=CCMSLIB00000086166
91.0542261926 	 82.04
105.0698762568 	 3.45
106.0777012889 	 1.02
107.085526321 	 0.99
117.0573001978 	 2.13
119.072950262 	 1.02
120.0807752941 	 2.98
122.0964253583 	 4.87
132.0807752941 	 5.29
133.0886003262 	 1.13
134.0964253583 	 8.11
144.0807752941 	 1.85
147.0678648841 	 6.83
148.0756899162 	 4.34
148.1120754225 	 15.74
162.0913399804 	 2.92
205.1335391461 	 3.53
233.1648392745 	 100
325.2274395313 	 1.64
END IONS

BEGIN IONS
PEPMASS=275.9983
CHARGE=1
MSLEVEL=2
RT=0
SOURCE_INSTRUMENT=qTOF
FILENAME=CCMSLIB00000086167.ms
IONMODE=Positive
ORGANISM=Natural
NAME=MLS002153841-01!Iobenguane sulfate
PI=GNPS
DATACOLLECTOR=GNPS
SMILES=c1cc(cc(c1)I)CNC(=N)N
INCHI=InChI=1S/C8H10IN3/c9-7-3-1-2-6(4-7)5-12-8(10)11/h1-4H,5H2,(H4,10,11,12)
FORMULA=C8H10IN3
PUBMED=N/A
SUBMITUSER=BIOADREM
LIBRARYQUALITY=0
SPECTRUMID=CCMSLIB00000086167
SCANS=4072
ID=CCMSLIB00000086167
89.0385761284 	 5.99
90.0464011605 	 3.45
90.0464011605 	 0.27
131.060374203 	 100
149.0947483366 	 5.62
END IONS

BEGIN IONS
PEPMASS=313.2147
CHARGE=1
MSLEVEL=2
RT=0
SOURCE_INSTRUMENT=qTOF
FILENAME=CCMSLIB00000086170.ms
IONMODE=Positive
ORGANISM=Natural
NAME=MLS002153947-01!Dydrogesterone152-62-5
PI=GNPS
DATACOLLECTOR=GNPS
SMILES=CC(=O)[C@H]1CC[C@H]2[C@@H]3C=CC4=CC(=O)CC[C@@]4(C)[C@@H]3CC[C@]12C
INCHI=InChI=1S/C21H28O2/c1-13(22)17-6-7-18-16-5-4-14-12-15(23)8-10-20(14,2)19(16)9-11-21(17,18)3/h4-5,12,16-19H,6-11H2,1-3H3/t16-,17+,18-,19+,20+,21+/m0/s1
FORMULA=C21H28O2
PUBMED=N/A
SUBMITUSER=BIOADREM
LIBRARYQUALITY=0
SPECTRUMID=CCMSLIB00000086170
SCANS=4073
ID=CCMSLIB00000086170
95.085526321 	 21.43
97.0647908789 	 23.81
105.0698762568 	 81.84
107.0491408147 	 18.33
117.0698762568 	 27.8
119.085526321 	 61.46
121.0647908789 	 32.45
123.0804409431 	 26.02
128.0620512247 	 52.93
129.0698762568 	 63.46
131.085526321 	 100
133.0647908789 	 35.83
133.1011763852 	 43.36
135.1168264494 	 19.05
141.0698762568 	 33.22
142.0777012889 	 47.84
143.085526321 	 74.14
144.0933513531 	 19.55
145.1011763852 	 69.38
147.0804409431 	 34.72
147.1168264494 	 21.98
149.0960910073 	 26.19
155.085526321 	 78.18
156.0933513531 	 37.71
157.1011763852 	 82.5
159.0804409431 	 24.58
159.1168264494 	 62.68
161.0960910073 	 45.35
163.1117410715 	 56.15
167.085526321 	 22.43
169.1011763852 	 61.07
170.1090014173 	 20.6
171.0804409431 	 20.43
171.1168264494 	 64.67
173.0960910073 	 64.45
173.1324765136 	 24.14
175.1117410715 	 59.97
181.1011763852 	 27.3
183.1168264494 	 44.96
185.1324765136 	 23.15
187.1481265778 	 29.68
193.1011763852 	 20.43
195.1168264494 	 58.91
197.1324765136 	 34.88
199.1117410715 	 21.04
199.1481265778 	 20.49
207.1168264494 	 19.1
209.1324765136 	 18.83
211.1481265778 	 44.02
213.1273911357 	 27.69
225.1273911357 	 18.05
225.163776642 	 18.16
237.163776642 	 30.07
253.1950767704 	 31.62
255.1743413283 	 26.85
295.2056414567 	 21.98
313.216206143 	 35.88
END IONS

BEGIN IONS
PEPMASS=237.1615
CHARGE=1
MSLEVEL=2
RT=0
SOURCE_INSTRUMENT=qTOF
FILENAME=CCMSLIB00000086171.ms
IONMODE=Positive
ORGANISM=Natural
NAME=MLS001146968-01!(+/-)-DROPROPIZINE
PI=GNPS
DATACOLLECTOR=GNPS
SMILES=c1ccc(cc1)N1CCN(CC1)CC(CO)O
INCHI=InChI=1S/C13H20N2O2/c16-11-13(17)10-14-6-8-15(9-7-14)12-4-2-1-3-5-12/h1-5,13,16-17H,6-11H2
FORMULA=C13H20N2O2
PUBMED=N/A
SUBMITUSER=BIOADREM
LIBRARYQUALITY=0
SPECTRUMID=CCMSLIB00000086171
SCANS=4074
ID=CCMSLIB00000086171
103.0542261926 	 14.93
104.0494751657 	 18.53
105.0573001978 	 14.56
106.0651252299 	 10.21
117.0573001978 	 8.51
118.0651252299 	 43.1
120.0807752941 	 100
131.072950262 	 23.06
132.0807752941 	 62.76
134.0964253583 	 8.32
146.0964253583 	 13.61
160.0994993635 	 75.24
173.1073243956 	 11.91
189.138624524 	 29.87
237.1597538966 	 60.11
END IONS

BEGIN IONS
PEPMASS=236.1189
CHARGE=1
MSLEVEL=2
RT=0
SOURCE_INSTRUMENT=qTOF
FILENAME=CCMSLIB00000086172.ms
IONMODE=Positive
ORGANISM=Natural
NAME=MLS000701321-01!N-benzyl-N-(4-quinazolinyl)amine
PI=GNPS
DATACOLLECTOR=GNPS
SMILES=c1ccc(cc1)CN=c1c2ccccc2nc[nH]1
INCHI=InChI=1S/C15H13N3/c1-2-6-12(7-3-1)10-16-15-13-8-4-5-9-14(13)17-11-18-15/h1-9,11H,10H2,(H,16,17,18)
FORMULA=C15H13N3
PUBMED=N/A
SUBMITUSER=BIOADREM
LIBRARYQUALITY=0
SPECTRUMID=CCMSLIB00000086172
SCANS=4075
ID=CCMSLIB00000086172
89.0385761284 	 1.45
91.0542261926 	 100
131.060374203 	 2.53
158.0712732403 	 4.67
197.0134240104 	 1.56
236.1182234329 	 36.31
END IONS

BEGIN IONS
PEPMASS=327.2057
CHARGE=1
MSLEVEL=2
RT=0
SOURCE_INSTRUMENT=qTOF
FILENAME=CCMSLIB00000086174.ms
IONMODE=Positive
ORGANISM=Natural
NAME=MLS002153924-01!Hydroquinine hydrobromide hydrate304695-81-6
PI=GNPS
DATACOLLECTOR=GNPS
SMILES=CC[C@H]1CN2CCC1C[C@H]2[C@@H](c1ccnc2ccc(cc12)OC)O
INCHI=InChI=1S/C20H26N2O2/c1-3-13-12-22-9-7-14(13)10-19(22)20(23)16-6-8-21-18-5-4-15(24-2)11-17(16)18/h4-6,8,11,13-14,19-20,23H,3,7,9-10,12H2,1-2H3/t13-,14?,19-,20+/m0/s1
FORMULA=C20H26N2O2
PUBMED=N/A
SUBMITUSER=BIOADREM
LIBRARYQUALITY=0
SPECTRUMID=CCMSLIB00000086174
SCANS=4077
ID=CCMSLIB00000086174
110.0964253583 	 21.03
136.1120754225 	 12.47
143.072950262 	 8.85
144.0807752941 	 5.78
154.0651252299 	 6.29
155.072950262 	 12.36
158.060039852 	 10.73
159.0678648841 	 5.49
160.0756899162 	 100
169.0522148199 	 5.96
170.060039852 	 6.58
172.0756899162 	 53.23
173.0835149483 	 25.23
183.0678648841 	 9.11
184.0756899162 	 29.89
186.0913399804 	 42.39
197.0835149483 	 8.06
198.0913399804 	 28.15
200.1069900446 	 7.84
210.0913399804 	 15.76
212.1069900446 	 6.29
222.0913399804 	 6.69
224.1069900446 	 8.35
227.1178890819 	 24.18
250.1226401088 	 5.82
251.1178890819 	 19.84
253.1335391461 	 26.74
266.1539402372 	 9.83
281.1648392745 	 8.02
309.1961394029 	 69.43
327.2067040892 	 143.91
END IONS

BEGIN IONS
PEPMASS=388.2336
CHARGE=1
MSLEVEL=2
RT=0
SOURCE_INSTRUMENT=qTOF
FILENAME=CCMSLIB00000086175.ms
IONMODE=Positive
ORGANISM=Natural
NAME=MLS002222333-01!64887-14-5
PI=GNPS
DATACOLLECTOR=GNPS
SMILES=CN1/C(=N/CCCN2CCN(CC2)c2ccccc2OC)/CC(=O)N(C)C1=O
INCHI=InChI=1S/C20H29N5O3/c1-22-18(15-19(26)23(2)20(22)27)21-9-6-10-24-11-13-25(14-12-24)16-7-4-5-8-17(16)28-3/h4-5,7-8H,6,9-15H2,1-3H3/b21-18+
FORMULA=C20H29N5O3
PUBMED=N/A
SUBMITUSER=BIOADREM
LIBRARYQUALITY=0
SPECTRUMID=CCMSLIB00000086175
SCANS=4078
ID=CCMSLIB00000086175
97.0760242672 	 2.39
106.0651252299 	 1.28
108.0443897878 	 1
111.0552888251 	 1.37
120.0443897878 	 4.91
121.0522148199 	 3.26
131.060374203 	 1.55
132.0443897878 	 1.69
133.0522148199 	 1.9
134.060039852 	 12.12
135.0678648841 	 1.85
136.0756899162 	 2.48
139.0865889535 	 11.71
141.0658535114 	 8.01
144.0807752941 	 1.18
145.0760242672 	 1.44
146.060039852 	 1.5
146.0838492993 	 2.24
148.0756899162 	 3.74
150.0913399804 	 10.29
159.0916743314 	 1.18
162.0913399804 	 25.5
168.0767525487 	 12.78
174.0913399804 	 1.74
174.1151494277 	 1.61
175.0865889535 	 6.45
177.1022390177 	 6.64
189.1022390177 	 5.58
190.1100640498 	 100
193.1335391461 	 1.53
196.1080526771 	 48.42
203.1178890819 	 5.61
205.1335391461 	 54.61
217.1335391461 	 1.71
219.1491892103 	 11.53
233.1648392745 	 27.1
239.1502518428 	 1.72
388.2343158232 	 9.05
END IONS

BEGIN IONS
PEPMASS=319.2632
CHARGE=1
MSLEVEL=2
RT=0
SOURCE_INSTRUMENT=qTOF
FILENAME=CCMSLIB00000086178.ms
IONMODE=Positive
ORGANISM=Natural
NAME=MLS001335972-01!5beta-Pregnan-3alpha-ol-20-one128-20-1
PI=GNPS
DATACOLLECTOR=GNPS
SMILES=CC(=O)C1CCC2C3CCC4CC(CCC4(C)C3CCC12C)O
INCHI=InChI=1S/C21H34O2/c1-13(22)17-6-7-18-16-5-4-14-12-15(23)8-10-20(14,2)19(16)9-11-21(17,18)3/h14-19,23H,4-12H2,1-3H3
FORMULA=C21H34O2
PUBMED=N/A
SUBMITUSER=BIOADREM
LIBRARYQUALITY=0
SPECTRUMID=CCMSLIB00000086178
SCANS=4080
ID=CCMSLIB00000086178
91.0542261926 	 20.19
95.085526321 	 43.59
105.0698762568 	 100
107.085526321 	 64.1
117.0698762568 	 18.59
119.085526321 	 65.71
121.1011763852 	 47.44
129.0698762568 	 17.31
131.085526321 	 34.94
133.1011763852 	 89.74
135.1168264494 	 91.67
142.0777012889 	 16.99
143.085526321 	 26.28
145.1011763852 	 35.58
147.1168264494 	 99.04
149.1324765136 	 54.17
157.1011763852 	 24.04
159.1168264494 	 82.05
161.1324765136 	 74.68
173.1324765136 	 38.46
175.1481265778 	 50.32
185.1324765136 	 40.71
187.1481265778 	 54.17
199.1481265778 	 28.21
201.163776642 	 60.58
227.1794267062 	 48.72
319.2631563356 	 0
END IONS

BEGIN IONS
PEPMASS=249.1598
CHARGE=1
MSLEVEL=2
RT=0
SOURCE_INSTRUMENT=qTOF
FILENAME=CCMSLIB00000086181.ms
IONMODE=Positive
ORGANISM=Natural
NAME=MLS001056774-01!S(?)-Pindolol
PI=GNPS
DATACOLLECTOR=GNPS
SMILES=CC(C)NC[C@@H](COc1cccc2c1cc[nH]2)O
INCHI=InChI=1S/C14H20N2O2/c1-10(2)16-8-11(17)9-18-14-5-3-4-13-12(14)6-7-15-13/h3-7,10-11,15-17H,8-9H2,1-2H3/t11-/m0/s1
FORMULA=C14H20N2O2
PUBMED=N/A
SUBMITUSER=BIOADREM
LIBRARYQUALITY=0
SPECTRUMID=CCMSLIB00000086181
SCANS=4082
ID=CCMSLIB00000086181
91.0542261926 	 2.56
92.0494751657 	 4.92
98.0964253583 	 3.79
103.0542261926 	 4.14
104.0494751657 	 7.11
106.0651252299 	 15.47
107.0491408147 	 11.62
115.0542261926 	 19.08
116.0494751657 	 20.73
116.1069900446 	 42.32
118.0651252299 	 33.4
120.0443897878 	 3.47
126.0464011605 	 1.66
127.0542261926 	 4.3
129.0573001978 	 2.67
130.0651252299 	 6.09
132.0443897878 	 10.23
134.060039852 	 70.42
143.072950262 	 18.03
144.0807752941 	 100
146.060039852 	 26.4
154.0651252299 	 4.6
160.0756899162 	 5.34
172.0756899162 	 23.46
249.1597538966 	 0
END IONS

BEGIN IONS
PEPMASS=409.1776
CHARGE=1
MSLEVEL=2
RT=0
SOURCE_INSTRUMENT=qTOF
FILENAME=CCMSLIB00000086182.ms
IONMODE=Positive
ORGANISM=Natural
NAME=MLS001076089-01!
PI=GNPS
DATACOLLECTOR=GNPS
SMILES=C[C@H]1C[C@H]2[C@@H]3CCC4=CC(=O)C=C[C@]4(C)[C@]3([C@H](C[C@]2(C)[C@]1(C(=O)CO)O)O)Cl
INCHI=InChI=1S/C22H29ClO5/c1-12-8-16-15-5-4-13-9-14(25)6-7-19(13,2)21(15,23)17(26)10-20(16,3)22(12,28)18(27)11-24/h6-7,9,12,15-17,24,26,28H,4-5,8,10-11H2,1-3H3/t12-,15-,16-,17-,19-,20-,21-,22-/m0/s1
FORMULA=C22H29ClO5
PUBMED=N/A
SUBMITUSER=BIOADREM
LIBRARYQUALITY=0
SPECTRUMID=CCMSLIB00000086182
SCANS=4083
ID=CCMSLIB00000086182
105.0698762568 	 21.16
107.085526321 	 12.65
117.0698762568 	 19.66
121.0647908789 	 92.72
128.0620512247 	 16.73
135.0804409431 	 37.69
143.085526321 	 21.02
145.0647908789 	 22.18
147.0804409431 	 100
155.085526321 	 14.76
158.072615911 	 20
161.0960910073 	 40.61
171.0804409431 	 61.9
172.0882659752 	 14.97
173.0960910073 	 48.23
178.0777012889 	 12.59
179.085526321 	 12.45
195.0804409431 	 15.92
196.0882659752 	 13.47
197.0960910073 	 32.45
205.1011763852 	 13.47
208.0882659752 	 13.27
209.0960910073 	 41.97
209.1324765136 	 15.37
210.1039160394 	 21.63
211.1095481862 	 39.18
221.0960910073 	 29.05
221.1302836283 	 12.24
222.1039160394 	 22.11
223.1117410715 	 32.72
224.1173732183 	 32.72
233.093898122 	 15.17
234.1039160394 	 23.33
235.1095481862 	 21.09
237.1273911357 	 37.07
239.1408483146 	 31.56
248.1173732183 	 26.46
249.1273911357 	 34.29
251.1430411999 	 13.88
261.1251982504 	 17.01
262.1352161678 	 28.84
263.1430411999 	 59.52
264.150866232 	 21.9
277.1586912641 	 23.27
278.1665162962 	 22.72
291.172148443 	 17.35
295.1692559504 	 11.97
409.1776277514 	 0
END IONS

BEGIN IONS
PEPMASS=357.1057
CHARGE=1
MSLEVEL=2
RT=0
SOURCE_INSTRUMENT=qTOF
FILENAME=CCMSLIB00000086185.ms
IONMODE=Positive
ORGANISM=Natural
NAME=MLS002153190-01!(+/-)-Bay K864471145-03-4
PI=GNPS
DATACOLLECTOR=GNPS
SMILES=CC1=NC(=C(C(c2ccccc2C(F)(F)F)/C/1=C(/O)\OC)N(=O)=O)C
INCHI=InChI=1S/C16H15F3N2O4/c1-8-12(15(22)25-3)13(14(21(23)24)9(2)20-8)10-6-4-5-7-11(10)16(17,18)19/h4-7,13,22H,1-3H3/b15-12-
FORMULA=C16H15F3N2O4
PUBMED=N/A
SUBMITUSER=BIOADREM
LIBRARYQUALITY=0
SPECTRUMID=CCMSLIB00000086185
SCANS=4086
ID=CCMSLIB00000086185
115.0542261926 	 5.44
134.060039852 	 5.88
136.0307510963 	 4.53
144.0369793284 	 5.21
150.0549544741 	 6.83
157.0284053726 	 10.67
161.0397189826 	 4.9
165.0784295704 	 14.49
179.0302971505 	 7.65
180.0745076889 	 9.59
181.0886003262 	 7.71
186.071353462 	 4.28
188.0432075605 	 5.47
191.0502836689 	 5.1
194.0811692246 	 10.6
195.0889942567 	 8.1
198.0924828346 	 4.49
208.0768327704 	 9.46
209.0835149483 	 12.81
210.0913399804 	 21.28
211.0753555652 	 10.71
212.0870035262 	 22.33
213.0921484836 	 9.07
216.058108701 	 5.66
217.0495347452 	 8.49
217.069756662 	 8.66
226.0873974567 	 26.07
227.0878120294 	 4.82
228.0830610025 	 9.63
230.0775816941 	 23.87
231.0815837973 	 4.82
232.0932317583 	 100
233.0972338615 	 6.72
236.0717473925 	 4.08
239.0790588993 	 4.56
240.1030475209 	 8.44
241.0897431804 	 4.62
241.0947089635 	 5.34
255.1103590277 	 10.76
256.0779756246 	 18.08
258.0724963162 	 23.72
259.0803213483 	 15.64
260.0843234515 	 6.15
264.0630744841 	 9.27
270.0936256888 	 8.64
276.0830610025 	 71.99
277.0870631057 	 10.37
278.0787245483 	 36.37
279.0865495804 	 8.29
290.0998539209 	 64.15
291.1065360988 	 10.99
357.1056675803 	 0
END IONS

BEGIN IONS
PEPMASS=267.138
CHARGE=1
MSLEVEL=2
RT=0
SOURCE_INSTRUMENT=qTOF
FILENAME=CCMSLIB00000086186.ms
IONMODE=Positive
ORGANISM=Natural
NAME=MLS001077274-01!
PI=GNPS
DATACOLLECTOR=GNPS
SMILES=C/C=C(\c1ccc(cc1)O)/C(=C/C)/c1ccc(cc1)O
INCHI=InChI=1S/C18H18O2/c1-3-17(13-5-9-15(19)10-6-13)18(4-2)14-7-11-16(20)12-8-14/h3-12,19-20H,1-2H3/b17-3+,18-4+
FORMULA=C18H18O2
PUBMED=N/A
SUBMITUSER=BIOADREM
LIBRARYQUALITY=0
SPECTRUMID=CCMSLIB00000086186
SCANS=4087
ID=CCMSLIB00000086186
66.0100156542 	 3.8
91.0542261926 	 4.3
103.0542261926 	 11.06
105.0334907505 	 3.8
107.0491408147 	 81.97
115.0542261926 	 8.24
117.0698762568 	 6.27
121.0647908789 	 56.9
127.0542261926 	 5.07
129.0698762568 	 14.65
131.0491408147 	 7.89
143.085526321 	 7.82
155.085526321 	 4.65
157.0647908789 	 23.24
158.072615911 	 59.65
173.0960910073 	 7.32
176.0620512247 	 3.94
177.0698762568 	 7.54
178.0777012889 	 5.42
194.072615911 	 8.45
195.0804409431 	 6.13
223.0753555652 	 100
236.0831805973 	 7.54
237.0910056294 	 14.79
238.0988306615 	 23.24
252.1144807257 	 3.87
267.137955822 	 0
END IONS

BEGIN IONS
PEPMASS=267.1703
CHARGE=1
MSLEVEL=2
RT=0
SOURCE_INSTRUMENT=qTOF
FILENAME=CCMSLIB00000086187.ms
IONMODE=Positive
ORGANISM=Natural
NAME=MLS002153864-01!(S)-()-Atenolol
PI=GNPS
DATACOLLECTOR=GNPS
SMILES=CC(C)NC[C@@H](COc1ccc(cc1)CC(=N)O)O
INCHI=InChI=1S/C14H22N2O3/c1-10(2)16-8-12(17)9-19-13-5-3-11(4-6-13)7-14(15)18/h3-6,10,12,16-17H,7-9H2,1-2H3,(H2,15,18)/t12-/m0/s1
FORMULA=C14H22N2O3
PUBMED=N/A
SUBMITUSER=BIOADREM
LIBRARYQUALITY=0
SPECTRUMID=CCMSLIB00000086187
SCANS=4088
ID=CCMSLIB00000086187
91.0542261926 	 6.55
98.0964253583 	 6.18
103.0542261926 	 3.09
104.0494751657 	 3.21
105.0334907505 	 3.28
105.0698762568 	 9.83
107.0491408147 	 18.15
116.1069900446 	 4.6
117.0334907505 	 5.23
117.0698762568 	 18.71
119.0491408147 	 9.45
121.0647908789 	 11.15
133.0647908789 	 49.91
145.0647908789 	 100
152.0706045383 	 3.02
178.0862546025 	 9.89
267.1703185829 	 2.33
END IONS

BEGIN IONS
PEPMASS=358.0077
CHARGE=1
MSLEVEL=2
RT=0
SOURCE_INSTRUMENT=qTOF
FILENAME=CCMSLIB00000086188.ms
IONMODE=Positive
ORGANISM=Natural
NAME=MLS002154071-01!Florfenicol73231-34-2
PI=GNPS
DATACOLLECTOR=GNPS
SMILES=CS(=O)(=O)c1ccc(cc1)[C@H]([C@@H](CF)N=C(C(Cl)Cl)O)O
INCHI=InChI=1S/C12H14Cl2FNO4S/c1-21(19,20)8-4-2-7(3-5-8)10(17)9(6-15)16-12(18)11(13)14/h2-5,9-11,17H,6H2,1H3,(H,16,18)/t9-,10-/m1/s1
FORMULA=C12H14Cl2FNO4S
PUBMED=N/A
SUBMITUSER=BIOADREM
LIBRARYQUALITY=0
SPECTRUMID=CCMSLIB00000086188
SCANS=4089
ID=CCMSLIB00000086188
103.0542261926 	 15.95
125.052782231 	 13.19
127.057597011 	 13.19
130.0624451552 	 61.04
131.0491408147 	 39.57
131.072950262 	 35.28
132.0569658468 	 58.59
133.0495347452 	 13.8
137.0635284299 	 15.64
142.0624451552 	 25.46
145.0448043605 	 15.34
148.0682794568 	 14.42
150.0675305331 	 13.19
152.0506180199 	 13.8
155.0633469173 	 40.49
163.0320467889 	 45.4
164.0234728331 	 13.5
170.0573597773 	 94.79
178.0424586368 	 14.42
206.0340375194 	 100
208.0319290294 	 25.46
210.0560973283 	 12.88
211.0531761615 	 15.64
230.0704230257 	 12.88
241.0028902294 	 83.74
243.0007817394 	 57.98
284.0035213936 	 15.95
295.9471493689 	 14.42
297.0358115378 	 13.5
358.007738253 	 0
END IONS

BEGIN IONS
PEPMASS=355.9224
CHARGE=1
MSLEVEL=2
RT=0
SOURCE_INSTRUMENT=qTOF
FILENAME=CCMSLIB00000086189.ms
IONMODE=Positive
ORGANISM=Natural
NAME=MLS000859954-01!p-Iodoclonidine hydrochloride
PI=GNPS
DATACOLLECTOR=GNPS
SMILES=C1CNC(=N1)Nc1c(cc(cc1Cl)I)Cl
INCHI=InChI=1S/C9H8Cl2IN3/c10-6-3-5(12)4-7(11)8(6)15-9-13-1-2-14-9/h3-4H,1-2H2,(H2,13,14,15)
FORMULA=C9H8Cl2IN3
PUBMED=N/A
SUBMITUSER=BIOADREM
LIBRARYQUALITY=0
SPECTRUMID=CCMSLIB00000086189
SCANS=4090
ID=CCMSLIB00000086189
126.0105028436 	 2.96
131.060374203 	 1.8
132.0681992351 	 1.51
139.0057518167 	 0.78
153.0214018809 	 3.68
157.0634482082 	 1.39
158.0712732403 	 7.22
159.0790982724 	 20.05
166.016650854 	 5.68
177.0214018809 	 0.73
192.0323009182 	 0.89
194.0479509824 	 53.73
211.9902545909 	 0.56
228.0089786603 	 4.18
229.0168036924 	 62.73
229.0168036924 	 55.86
END IONS

BEGIN IONS
PEPMASS=445.1605
CHARGE=1
MSLEVEL=2
RT=0
SOURCE_INSTRUMENT=qTOF
FILENAME=CCMSLIB00000086191.ms
IONMODE=Positive
ORGANISM=Natural
NAME=MLS001333147-01!Tetracycline hydrochloride64-75-5
PI=GNPS
DATACOLLECTOR=GNPS
SMILES=C[C@]1(c2cccc(c2C(=O)C2=C([C@]3([C@@H](CC12)[C@@H](C(=O)C(=C3O)C(=N)O)N(C)C)O)O)O)O
INCHI=InChI=1S/C22H24N2O8/c1-21(31)8-5-4-6-11(25)12(8)16(26)13-9(21)7-10-15(24(2)3)17(27)14(20(23)30)19(29)22(10,32)18(13)28/h4-6,9-10,15,25,28-29,31-32H,7H2,1-3H3,(H2,23,30)/t9?,10-,15-,21+,22-/m0/s1
FORMULA=C22H24N2O8
PUBMED=N/A
SUBMITUSER=BIOADREM
LIBRARYQUALITY=0
SPECTRUMID=CCMSLIB00000086191
SCANS=4092
ID=CCMSLIB00000086191
98.060039852 	 47.64
126.0549544741 	 19.85
139.0263939999 	 9.27
154.0498690962 	 100
211.0753555652 	 6.37
213.0910056294 	 7.57
223.0753555652 	 17.31
225.0910056294 	 4.54
226.0624451552 	 28.93
235.0753555652 	 5.32
239.0702701873 	 11.65
241.0859202515 	 83.34
243.0651848094 	 10.42
251.0702701873 	 22.35
252.0417097131 	 33.23
254.0573597773 	 18.11
263.0702701873 	 12.58
265.0859202515 	 4.17
267.0651848094 	 73.38
268.0689870961 	 11.96
269.0808348736 	 93.11
278.0573597773 	 18.24
279.0651848094 	 9.55
291.0651848094 	 21.61
292.0689870961 	 4.17
293.0808348736 	 19.85
294.0846371603 	 5.94
297.0757494957 	 12.24
306.0522743994 	 9.92
319.0600994315 	 17.87
320.0639017182 	 4.17
321.0757494957 	 27.17
322.0431662761 	 3.93
334.0471890215 	 25.78
337.0706641178 	 55.73
338.0744664045 	 17.87
349.0706641178 	 19.51
365.0655787399 	 16.2
392.1128632835 	 10.94
410.1234279698 	 66.55
445.1605417576 	 0
END IONS

BEGIN IONS
PEPMASS=208.1332
CHARGE=1
MSLEVEL=2
RT=0
SOURCE_INSTRUMENT=qTOF
FILENAME=CCMSLIB00000086192.ms
IONMODE=Positive
ORGANISM=Natural
NAME=MLS002153861-01!Isoquinoline, 6,7-dimethoxy-1-methyl-1,2,3,4-tetrahydro, hydrochloride2984-97-0
PI=GNPS
DATACOLLECTOR=GNPS
SMILES=CC1c2cc(c(cc2CCN1)OC)OC
INCHI=InChI=1S/C12H17NO2/c1-8-10-7-12(15-3)11(14-2)6-9(10)4-5-13-8/h6-8,13H,4-5H2,1-3H3
FORMULA=C12H17NO2
PUBMED=N/A
SUBMITUSER=BIOADREM
LIBRARYQUALITY=0
SPECTRUMID=CCMSLIB00000086192
SCANS=4093
ID=CCMSLIB00000086192
91.0542261926 	 6.26
102.0464011605 	 2.41
103.0542261926 	 13.79
105.0698762568 	 25.95
107.0491408147 	 9.33
108.0569658468 	 5.22
115.0542261926 	 36.82
116.0620512247 	 12.92
117.0698762568 	 47.8
118.0413157826 	 2.41
119.0491408147 	 6.03
119.085526321 	 3.9
121.0647908789 	 18.85
127.0542261926 	 5.02
128.0620512247 	 14.27
129.0698762568 	 24.91
130.0413157826 	 3.6
131.0491408147 	 14.47
132.0569658468 	 7.96
133.0647908789 	 34.77
134.0362304047 	 3.12
134.072615911 	 12.62
135.0440554368 	 6.94
137.059705501 	 2.99
143.0491408147 	 3.73
144.0569658468 	 14.34
145.0647908789 	 100
147.0804409431 	 17.84
148.0882659752 	 3.7
149.059705501 	 6.61
150.0675305331 	 13.81
151.0753555652 	 12.47
158.072615911 	 2.38
159.0804409431 	 26.41
161.059705501 	 43.01
163.0753555652 	 2.51
176.0831805973 	 36.97
179.1066556936 	 7.86
208.1332047951 	 0
END IONS

BEGIN IONS
PEPMASS=290.1754
CHARGE=1
MSLEVEL=2
RT=0
SOURCE_INSTRUMENT=qTOF
FILENAME=CCMSLIB00000086193.ms
IONMODE=Positive
ORGANISM=Natural
NAME=MLS002153877-01!5908-99-6
PI=GNPS
DATACOLLECTOR=GNPS
SMILES=CN1C2CCC1CC(C2)OC(=O)C(CO)c1ccccc1
INCHI=InChI=1S/C17H23NO3/c1-18-13-7-8-14(18)10-15(9-13)21-17(20)16(11-19)12-5-3-2-4-6-12/h2-6,13-16,19H,7-11H2,1H3
FORMULA=C17H23NO3
PUBMED=N/A
SUBMITUSER=BIOADREM
LIBRARYQUALITY=0
SPECTRUMID=CCMSLIB00000086193
SCANS=4094
ID=CCMSLIB00000086193
91.0542261926 	 14.99
93.0698762568 	 14.61
96.0807752941 	 2.93
98.0964253583 	 2.24
103.0542261926 	 24.48
108.0807752941 	 1.9
109.0886003262 	 1.85
121.0647908789 	 11.34
122.0964253583 	 1.02
124.1120754225 	 100
140.1069900446 	 5.28
142.1226401088 	 14.48
260.1645049235 	 2.63
290.1750696098 	 63.07
END IONS

BEGIN IONS
PEPMASS=263.1285
CHARGE=1
MSLEVEL=2
RT=0
SOURCE_INSTRUMENT=qTOF
FILENAME=CCMSLIB00000086194.ms
IONMODE=Positive
ORGANISM=Natural
NAME=MLS002153951-01!10180-88-8
PI=GNPS
DATACOLLECTOR=GNPS
SMILES=CC1=C2C(=O)C=C(C)[C@@H]2[C@@H]2[C@H]([C@H](C)C(=O)O2)[C@H](C1)O
INCHI=InChI=1S/C15H18O4/c1-6-4-10(17)13-8(3)15(18)19-14(13)12-7(2)5-9(16)11(6)12/h5,8,10,12-14,17H,4H2,1-3H3/t8-,10-,12-,13+,14+/m0/s1
FORMULA=C15H18O4
PUBMED=N/A
SUBMITUSER=BIOADREM
LIBRARYQUALITY=0
SPECTRUMID=CCMSLIB00000086194
SCANS=4095
ID=CCMSLIB00000086194
91.0542261926 	 33.58
105.0698762568 	 24.34
107.0491408147 	 11.74
109.1011763852 	 15.23
115.0542261926 	 24.34
117.0698762568 	 33.96
119.085526321 	 57.43
121.0647908789 	 26.34
127.0542261926 	 22.22
128.0620512247 	 100
129.0698762568 	 44.94
131.085526321 	 29.09
133.0647908789 	 37.08
133.1011763852 	 11.36
137.0960910073 	 19.6
141.0698762568 	 37.45
142.0777012889 	 49.69
143.085526321 	 54.81
145.1011763852 	 17.23
146.072615911 	 17.6
147.0804409431 	 30.96
149.059705501 	 9.61
153.0698762568 	 11.61
154.0777012889 	 10.36
156.0933513531 	 48.44
157.0647908789 	 21.97
159.0804409431 	 21.97
161.0960910073 	 19.35
165.0698762568 	 15.86
166.0777012889 	 13.36
171.0804409431 	 93.01
171.1168264494 	 23.47
172.0882659752 	 53.56
175.0753555652 	 13.48
183.0804409431 	 13.61
184.0882659752 	 26.97
217.1223057578 	 18.6
263.1277850662 	 10.61
END IONS

BEGIN IONS
PEPMASS=291.2319
CHARGE=1
MSLEVEL=2
RT=0
SOURCE_INSTRUMENT=qTOF
FILENAME=CCMSLIB00000086195.ms
IONMODE=Positive
ORGANISM=Natural
NAME=MLS002153962-01!3-alpha-Hydroxy-5-beta-androstan-17-one53-42-9
PI=GNPS
DATACOLLECTOR=GNPS
SMILES=C[C@]12CC[C@H](C[C@H]1CC[C@H]1[C@@H]3CCC(=O)[C@@]3(C)CCC21)O
INCHI=InChI=1S/C19H30O2/c1-18-9-7-13(20)11-12(18)3-4-14-15-5-6-17(21)19(15,2)10-8-16(14)18/h12-16,20H,3-11H2,1-2H3/t12-,13-,14+,15+,16?,18+,19+/m1/s1
FORMULA=C19H30O2
PUBMED=N/A
SUBMITUSER=BIOADREM
LIBRARYQUALITY=0
SPECTRUMID=CCMSLIB00000086195
SCANS=4096
ID=CCMSLIB00000086195
91.0542261926 	 13.17
93.0698762568 	 9.6
95.085526321 	 11.11
105.0698762568 	 36.21
107.085526321 	 43.62
117.0698762568 	 37.31
119.085526321 	 24.69
121.1011763852 	 13.58
129.0698762568 	 15.36
131.085526321 	 56.65
133.1011763852 	 70.51
135.1168264494 	 37.45
144.0933513531 	 18.38
145.1011763852 	 32.37
147.1168264494 	 54.05
157.1011763852 	 19.75
159.1168264494 	 56.38
161.1324765136 	 45.27
171.1168264494 	 16.32
173.1324765136 	 43.21
187.1481265778 	 9.74
199.1481265778 	 49.93
215.1794267062 	 100
291.2318562072 	 0
END IONS
